 BOULEV44_0001.out
************************************************************************
**                                                                    **
**                                                                    **
**                         OpenRadioss Engine                         **
**                                                                    **
**            Non-linear Finite Element Analysis Software             **
**                                                                    **
**                                                                    **
**                                                                    **
**                Linux 64 bits, GNU compiler, OpenMPI                **
**                                                                    **
**                                                                    **
**                                                                    **
** CommitID: 440deeba848d606665f88afb8302e85b1ecf72bf                 **
************************************************************************
** OpenRadioss Software                                               **
** COPYRIGHT (C) 1986-2022 Altair Engineering, Inc.                   **
** Licensed under GNU Affero General Public License.                  **
** See License file.                                                  **
************************************************************************
 
 NUMBER OF SPMD DOMAINS           4
 NUMBER OF THREADS PER DOMAIN     2
 NUMBER OF HMPP PROCESSES         8
  
 COMPUTATION HARDWARE DESCRIPTION
  
 CPU#  HOSTNAME     CPU TYPE, FREQUENCY AND MEMORY
   1   fr-shady.europe.altair.com   Intel(R) Xeon(R) CPU           X5680  @ 3.33GHz (x86_64), 1596 MHz,  20012 MB RAM,  49126 MB swap
   2   fr-shady.europe.altair.com   Intel(R) Xeon(R) CPU           X5680  @ 3.33GHz (x86_64), 1596 MHz,  20012 MB RAM,  49126 MB swap
   3   fr-shady.europe.altair.com   Intel(R) Xeon(R) CPU           X5680  @ 3.33GHz (x86_64), 1596 MHz,  20012 MB RAM,  49126 MB swap
   4   fr-shady.europe.altair.com   Intel(R) Xeon(R) CPU           X5680  @ 3.33GHz (x86_64), 1596 MHz,  20012 MB RAM,  49126 MB swap
  
************************************************************************


 BOULEV44D01                                                                     


 FINAL TIME . . . . . . . . . . . . . . . . . . .  0.1300000    

 TIME INTERVAL FOR TIME HISTORY PLOTS . . . . . .  0.1000000E-02

 TIME STEP SCALE FACTOR . . . . . . . . . . . . .  0.9000000    

 MINIMUM TIME STEP  . . . . . . . . . . . . . . .   0.000000    


 BRICK TIME STEP SCALE FACTOR . . . . . . . . . .  0.9000000    
 BRICK MINIMUM TIME STEP. . . . . . . . . . . . .   0.000000    
 MIN. TIME STEP FLAG (1:STOP RUN, 2:DELETE BRICK)     1

 QUAD TIME STEP SCALE FACTOR. . . . . . . . . . .  0.9000000    
 QUAD MINIMUM TIME STEP . . . . . . . . . . . . .   0.000000    
 MIN. TIME STEP FLAG (1:STOP RUN, 2:DELETE QUAD).     1

 SHELL TIME STEP SCALE FACTOR . . . . . . . . . .  0.9000000    
 SHELL MINIMUM TIME STEP. . . . . . . . . . . . .   0.000000    
 MIN. TIME FLAG (1:STOP, 2:DELETE, 3:SMALL STRAIN)    2

 TRUSS TIME STEP SCALE FACTOR . . . . . . . . . .  0.9000000    
 TRUSS MINIMUM TIME STEP. . . . . . . . . . . . .   0.000000    
 MIN. TIME FLAG (1:STOP, 2:DELETE). . . . . . . .     0

 BEAM TIME STEP SCALE FACTOR. . . . . . . . . . .  0.9000000    
 BEAM MINIMUM TIME STEP . . . . . . . . . . . . .   0.000000    
 MIN. TIME FLAG (1:STOP, 2:DELETE). . . . . . . .     0

 SPRING TIME STEP SCALE FACTOR. . . . . . . . . .  0.9000000    
 SPRING MINIMUM TIME STEP . . . . . . . . . . . .   0.000000    
 MIN. TIME FLAG (1:STOP, 2:DELETE). . . . . . . .     0

 AIRBAG TIME STEP SCALE FACTOR. . . . . . . . . .  0.9000000    
 AIRBAG MINIMUM TIME STEP . . . . . . . . . . . .   0.000000    
 MIN. TIME FLAG (1:STOP). . . . . . . . . . . . .     0

 CONTACT TIME STEP SCALE FACTOR . . . . . . . . .  0.9000000    
 CONTACT MINIMUM TIME STEP. . . . . . . . . . . .   0.000000    
 MIN. TIME FLAG(1:STOP, 2:REMOVE NODE FROM INTERF)    0

 PRINTOUT CYCLE FREQUENCY . . . . . . . . . . . .    -1

 RESTART CYCLE FREQUENCY. . . . . . . . . . . . .   10000000

 MAXIMUM RESTART WRITE BEFORE OVERWRITE . . . . .     0

 INVERS: INPUT DECK VERSION . . . . . . . . . . .  2019
 ITTYP : FLAG FOR TYPE OF T-FILE. . . . . . . . .     4


 TIME FOR FIRST ANIMATION-FILE PLOT . . . . . . .   0.000000    
 TIME INTERVAL FOR ANIMATION-FILE PLOTS . . . . .  0.1000000E-01
 SENSOR FOR ANIMATION-FILE PLOTS. . . . . . . . .          0
 TIME INTERVAL FOR SENSOR ANIMATION-FILE PLOTS. .   0.000000    

 VARIABLE SAVED ON ANIMATION FILES (1: YES) :
      PLASTIC STRAIN. . . . . .     1
      DENSITY     (SOLID ONLY).     0
      SPECIFIC ENERGY . . . . .     0
      HOURGLASS ENERGY. . . . .     0
      TEMPERATURE (SOLID ONLY).     0
      THICKNESS   (SHELL ONLY).     0
      PRESSURE    (SOLID ONLY).     0
      VON MISES . . . . . . . .     1
      TURBULENT ENERGY (FLUID).     0
      TURBULENT VISCOSITY(FLUID)    0
      VORTICITY (FLUID) . . . .     0
 NODAL VALUES SAVED ON ANIMATION FILES (1: YES) :
      PRESSURE. . . . . . . . .     0
      DENSITY . . . . . . . . .     0
      TEMPERATURE . . . . . . .     0
 VECTOR SAVED ON ANIMATION FILES (1: YES) :
      VELOCITY VECTOR . . . . .     1
      DISPLACEMENT VECTOR . . .     0
      ACCELERATION VECTOR . . .     0
      CONTACT FORCES. . . . . .     1
      INTERNAL FORCES . . . . .     0
      EXTERNAL FORCES . . . . .     0
      SECTION RBY RWALL FORCES.     0
      ROTATIONAL VELOCITY VECTOR    0
      CONTACT PRESSURE (VECTORS)    0
 SHELL TENSOR SAVED ON ANIMATION FILES (1: YES) :
      MEMBRANE STRESS . . . . .     0
      BENDING STRESS(MOMENT/T^2)    0
      UPPER LAYER STRESS. . . .     0
      LOWER LAYER STRESS. . . .     0
      MEMBRANE STRAIN . . . . .     0
      CURVATURE . . . . . . . .     0
      UPPER LAYER STRAIN. . . .     0
      LOWER LAYER STRAIN. . . .     0
 NODAL MASS SAVED ON ANIMATION FILES (1: YES) :    0
 KEEP DELETED ELEMENT (1: YES) :    0


 INITIAL TIME STEP. . . . . . . . . . . . . . . .   0.000000    
 MAXIMUM TIME STEP. . . . . . . . . . . . . . . .  0.1000000E+31

 PARALLEL ARITHMETIC ON
 NUMBER OF INTERFACES TO BE ELIMINATED. . . . . .        0

 NUMBER OF SOLID  ELEMENT BLOCKS TO BE ELIMINATED        0

 NUMBER OF QUAD   ELEMENT BLOCKS TO BE ELIMINATED        0

 NUMBER OF SHELL  ELEMENT BLOCKS TO BE ELIMINATED        0

 NUMBER OF TRUSS  ELEMENT BLOCKS TO BE ELIMINATED        0

 NUMBER OF BEAM   ELEMENT BLOCKS TO BE ELIMINATED        0

 NUMBER OF SPRING ELEMENT BLOCKS TO BE ELIMINATED        0

 NUMBER OF SH_3N  ELEMENT BLOCKS TO BE ELIMINATED        0

 NUMBER OF  SPH PARTICLES BLOCKS TO BE ELIMINATED        0

 NUMBER OF RIGID LINKS. . . . . . . . . . . . . .        0

 NUMBER OF NEW BOUNDARY CONDITIONS. . . . . . . .        0

 23/11/2022
   CYCLE    TIME      TIME-STEP  ELEMENT          ERROR  I-ENERGY    K-ENERGY T  K-ENERGY R  EXT-WORK     MAS.ERR     TOTAL MASS  MASS ADDED
       0   0.000      0.6330E-04 SHELL      10002   0.0%   0.000       0.000       0.000       0.000       0.000      0.7316       0.000    
     ANIMATION FILE: BOULEV44A001 WRITTEN
       1  0.6330E-04  0.6330E-04 SHELL      10002   0.0%   0.000       0.000       0.000       0.000       0.000      0.7316       0.000    
       2  0.1266E-03  0.6330E-04 SHELL      10002   0.0%   0.000       0.000       0.000       0.000       0.000      0.7316       0.000    
       3  0.1899E-03  0.6330E-04 SHELL      10002   0.0%   0.000       0.000       0.000       0.000       0.000      0.7316       0.000    
       4  0.2532E-03  0.6330E-04 SHELL      10002   0.0%   0.000       0.000       0.000       0.000       0.000      0.7316       0.000    
       5  0.3165E-03  0.6330E-04 SHELL      10002   0.0%   0.000       0.000       0.000       0.000       0.000      0.7316       0.000    
       6  0.3798E-03  0.6330E-04 SHELL      10002   0.0%   0.000       0.000       0.000       0.000       0.000      0.7316       0.000    
       7  0.4431E-03  0.6330E-04 SHELL      10002   0.0%   0.000       0.000       0.000       0.000       0.000      0.7316       0.000    
       8  0.5064E-03  0.6330E-04 SHELL      10002   0.0%   0.000       0.000       0.000       0.000       0.000      0.7316       0.000    
       9  0.5697E-03  0.6330E-04 SHELL      10002   0.0%   0.000       0.000       0.000       0.000       0.000      0.7316       0.000    
      10  0.6330E-03  0.6330E-04 SHELL      10002   0.0%   0.000       0.000       0.000       0.000       0.000      0.7316       0.000    
      11  0.6963E-03  0.6330E-04 SHELL      10002   0.0%   0.000       0.000       0.000       0.000       0.000      0.7316       0.000    
      12  0.7596E-03  0.6330E-04 SHELL      10002   0.0%   0.000       0.000       0.000       0.000       0.000      0.7316       0.000    
      13  0.8229E-03  0.6330E-04 SHELL      10002   0.0%   0.000       0.000       0.000       0.000       0.000      0.7316       0.000    
      14  0.8862E-03  0.6330E-04 SHELL      10002   0.0%   0.000       0.000       0.000       0.000       0.000      0.7316       0.000    
      15  0.9495E-03  0.6330E-04 SHELL      10002   0.0%   0.000       0.000       0.000       0.000       0.000      0.7316       0.000    
      16  0.1013E-02  0.6330E-04 SHELL      10002   0.0%   0.000       0.000       0.000       0.000       0.000      0.7316       0.000    
      17  0.1076E-02  0.6330E-04 SHELL      10002   0.0%   0.000       0.000       0.000       0.000       0.000      0.7316       0.000    
      18  0.1139E-02  0.6330E-04 SHELL      10002   0.0%   0.000       0.000       0.000       0.000       0.000      0.7316       0.000    
      19  0.1203E-02  0.6330E-04 SHELL      10002   0.0%   0.000       0.000       0.000       0.000       0.000      0.7316       0.000    
      20  0.1266E-02  0.6330E-04 SHELL      10002   0.0%   0.000       0.000       0.000       0.000       0.000      0.7316       0.000    
      21  0.1329E-02  0.6330E-04 SHELL      10002   0.0%   0.000       0.000       0.000       0.000       0.000      0.7316       0.000    
      22  0.1393E-02  0.6330E-04 SHELL      10002   0.0%   0.000       0.000       0.000       0.000       0.000      0.7316       0.000    
      23  0.1456E-02  0.6330E-04 SHELL      10002   0.0%   0.000       0.000       0.000       0.000       0.000      0.7316       0.000    
      24  0.1519E-02  0.6330E-04 SHELL      10002   0.0%   0.000       0.000       0.000       0.000       0.000      0.7316       0.000    
      25  0.1583E-02  0.6330E-04 SHELL      10002   0.0%   0.000       0.000       0.000       0.000       0.000      0.7316       0.000    
      26  0.1646E-02  0.6330E-04 SHELL      10002   0.0%   0.000       0.000       0.000       0.000       0.000      0.7316       0.000    
      27  0.1709E-02  0.6330E-04 SHELL      10002   0.0%   0.000       0.000       0.000       0.000       0.000      0.7316       0.000    
      28  0.1772E-02  0.6330E-04 SHELL      10002   0.0%   0.000       0.000       0.000       0.000       0.000      0.7316       0.000    
      29  0.1836E-02  0.6330E-04 SHELL      10002   0.0%   0.000       0.000       0.000       0.000       0.000      0.7316       0.000    
      30  0.1899E-02  0.6330E-04 SHELL      10002   0.0%   0.000       0.000       0.000       0.000       0.000      0.7316       0.000    
      31  0.1962E-02  0.6330E-04 SHELL      10002   0.0%   0.000       0.000       0.000       0.000       0.000      0.7316       0.000    
      32  0.2026E-02  0.6330E-04 SHELL      10002   0.0%   0.000       0.000       0.000       0.000       0.000      0.7316       0.000    
      33  0.2089E-02  0.6330E-04 SHELL      10002   0.0%   0.000       0.000       0.000       0.000       0.000      0.7316       0.000    
      34  0.2152E-02  0.6330E-04 SHELL      10002   0.0%   0.000       0.000       0.000       0.000       0.000      0.7316       0.000    
      35  0.2216E-02  0.6330E-04 SHELL      10002   0.0%   0.000       0.000       0.000       0.000       0.000      0.7316       0.000    
      36  0.2279E-02  0.6330E-04 SHELL      10002 -99.9%   0.000      0.3154       0.000     -0.3154       0.000      0.7316       0.000    
      37  0.2342E-02  0.6330E-04 SHELL      10002 -99.9%  0.7678E-01  0.3177      0.6071E-03 -0.3154       0.000      0.7316       0.000    
      38  0.2405E-02  0.6330E-04 SHELL      10002 -99.9%  0.2669      0.3434      0.7077E-02 -0.3154       0.000      0.7316       0.000    
      39  0.2469E-02  0.6330E-04 SHELL      10002 -99.9%  0.5061      0.4068      0.2253E-01 -0.3154       0.000      0.7316       0.000    
      40  0.2532E-02  0.6330E-04 SHELL      10002 -99.9%  0.7788      0.4914      0.3864E-01 -0.3154       0.000      0.7316       0.000    
      41  0.2595E-02  0.6330E-04 SHELL      10002 -99.9%   1.076      0.5933      0.4753E-01 -0.3154       0.000      0.7316       0.000    
      42  0.2659E-02  0.6330E-04 SHELL      10002 -99.9%   1.381      0.7191      0.5161E-01 -0.3154       0.000      0.7316       0.000    
      43  0.2722E-02  0.6330E-04 SHELL      10002 -99.9%   1.665      0.8801      0.5689E-01 -0.3154       0.000      0.7316       0.000    
      44  0.2785E-02  0.6330E-04 SHELL      10002 -99.9%   1.923       1.071      0.6747E-01 -0.3154       0.000      0.7316       0.000    
      45  0.2849E-02  0.6330E-04 SHELL      10002 -99.9%   2.166       1.274      0.8211E-01 -0.3154       0.000      0.7316       0.000    
      46  0.2912E-02  0.6330E-04 SHELL      10002 -99.9%   2.395       1.484      0.9612E-01 -0.3154       0.000      0.7316       0.000    
      47  0.2975E-02  0.6330E-04 SHELL      10002 -99.9%   2.603       1.702      0.1062     -0.3154       0.000      0.7316       0.000    
      48  0.3039E-02  0.6330E-04 SHELL      10002 -99.9%   2.785       1.925      0.1104     -0.3154       0.000      0.7316       0.000    
      49  0.3102E-02  0.6330E-04 SHELL      10002 -99.9%   2.948       2.145      0.1071     -0.3154       0.000      0.7316       0.000    
      50  0.3165E-02  0.6330E-04 SHELL      10002 -99.9%   3.087       2.364      0.9734E-01 -0.3154       0.000      0.7316       0.000    
      51  0.3228E-02  0.6330E-04 SHELL      10002 -99.9%   3.197       2.580      0.8591E-01 -0.3154       0.000      0.7316       0.000    
      52  0.3292E-02  0.6330E-04 SHELL      10002 -99.9%   3.282       2.791      0.7726E-01 -0.3154       0.000      0.7316       0.000    
      53  0.3355E-02  0.6330E-04 SHELL      10002 -99.9%   3.344       3.002      0.7179E-01 -0.3154       0.000      0.7316       0.000    
      54  0.3418E-02  0.6330E-04 SHELL      10002 -99.9%   3.389       3.213      0.6831E-01 -0.3154       0.000      0.7316       0.000    
   CYCLE    TIME      TIME-STEP  ELEMENT          ERROR  I-ENERGY    K-ENERGY T  K-ENERGY R  EXT-WORK     MAS.ERR     TOTAL MASS  MASS ADDED
      55  0.3482E-02  0.6330E-04 SHELL      10002 -99.9%   3.423       3.425      0.6769E-01 -0.3154       0.000      0.7316       0.000    
      56  0.3545E-02  0.6330E-04 SHELL      10002 -99.9%   3.439       3.644      0.7103E-01 -0.3154       0.000      0.7316       0.000    
      57  0.3608E-02  0.6330E-04 SHELL      10002 -99.9%   3.440       3.869      0.7591E-01 -0.3154       0.000      0.7316       0.000    
      58  0.3672E-02  0.6330E-04 SHELL      10002 -99.9%   3.437       4.095      0.7848E-01 -0.3154       0.000      0.7316       0.000    
      59  0.3735E-02  0.6330E-04 SHELL      10002 -99.9%   3.428       4.320      0.7844E-01 -0.3154       0.000      0.7316       0.000    
      60  0.3798E-02  0.6330E-04 SHELL      10002 -99.9%   3.411       4.543      0.7995E-01 -0.3154       0.000      0.7316       0.000    
      61  0.3861E-02  0.6330E-04 SHELL      10002 -99.9%   3.382       4.763      0.8512E-01 -0.3154       0.000      0.7316       0.000    
      62  0.3925E-02  0.6330E-04 SHELL      10002 -99.9%   3.349       4.973      0.8900E-01 -0.3154       0.000      0.7316       0.000    
      63  0.3988E-02  0.6330E-04 SHELL      10002 -99.9%   3.314       5.170      0.8801E-01 -0.3154       0.000      0.7316       0.000    
      64  0.4051E-02  0.6330E-04 SHELL      10002 -99.9%   3.272       5.347      0.8563E-01 -0.3154       0.000      0.7316       0.000    
      65  0.4115E-02  0.6330E-04 SHELL      10002 -99.9%   3.226       5.501      0.8538E-01 -0.3154       0.000      0.7316       0.000    
      66  0.4178E-02  0.6330E-04 SHELL      10002 -99.9%   3.176       5.638      0.8745E-01 -0.3154       0.000      0.7316       0.000    
      67  0.4241E-02  0.6330E-04 SHELL      10002 -99.9%   3.126       5.766      0.9064E-01 -0.3154       0.000      0.7316       0.000    
      68  0.4305E-02  0.6330E-04 SHELL      10002 -99.9%   3.082       5.893      0.9366E-01 -0.3154       0.000      0.7316       0.000    
      69  0.4368E-02  0.6330E-04 SHELL      10002 -99.9%   3.051       6.020      0.9548E-01 -0.3154       0.000      0.7316       0.000    
      70  0.4431E-02  0.6330E-04 SHELL      10002 -99.9%   3.039       6.148      0.9480E-01 -0.3154       0.000      0.7316       0.000    
      71  0.4494E-02  0.6330E-04 SHELL      10002 -99.9%   3.040       6.290      0.9300E-01 -0.3154       0.000      0.7316       0.000    
      72  0.4558E-02  0.6330E-04 SHELL      10002 -99.9%   3.041       6.459      0.9531E-01 -0.3154       0.000      0.7316       0.000    
      73  0.4621E-02  0.6330E-04 SHELL      10002 -99.9%   3.041       6.659      0.1038     -0.3154       0.000      0.7316       0.000    
      74  0.4684E-02  0.6330E-04 SHELL      10002 -99.9%   3.044       6.891      0.1147     -0.3154       0.000      0.7316       0.000    
      75  0.4748E-02  0.6330E-04 SHELL      10002 -99.9%   3.053       7.154      0.1235     -0.3154       0.000      0.7316       0.000    
      76  0.4811E-02  0.6330E-04 SHELL      10002 -99.9%   3.064       7.451      0.1282     -0.3154       0.000      0.7316       0.000    
      77  0.4874E-02  0.6330E-04 SHELL      10002 -99.9%   3.083       7.779      0.1297     -0.3154       0.000      0.7316       0.000    
      78  0.4938E-02  0.6330E-04 SHELL      10002 -99.9%   3.109       8.135      0.1324     -0.3154       0.000      0.7316       0.000    
      79  0.5001E-02  0.6330E-04 SHELL      10002 -99.9%   3.137       8.520      0.1390     -0.3154       0.000      0.7316       0.000    
      80  0.5064E-02  0.6330E-04 SHELL      10002 -99.9%   3.174       8.931      0.1460     -0.3154       0.000      0.7316       0.000    
      81  0.5127E-02  0.6330E-04 SHELL      10002 -99.9%   3.225       9.364      0.1490     -0.3154       0.000      0.7316       0.000    
      82  0.5191E-02  0.6330E-04 SHELL      10002 -99.9%   3.286       9.824      0.1482     -0.3154       0.000      0.7316       0.000    
      83  0.5254E-02  0.6330E-04 SHELL      10002 -99.9%   3.341       10.32      0.1473     -0.3154       0.000      0.7316       0.000    
      84  0.5317E-02  0.6330E-04 SHELL      10002 -99.9%   3.381       10.86      0.1497     -0.3154       0.000      0.7316       0.000    
      85  0.5381E-02  0.6330E-04 SHELL      10002 -99.9%   3.421       11.42      0.1548     -0.3154       0.000      0.7316       0.000    
      86  0.5444E-02  0.6330E-04 SHELL      10002 -99.9%   3.475       11.99      0.1610     -0.3154       0.000      0.7316       0.000    
      87  0.5507E-02  0.6330E-04 SHELL      10002 -99.9%   3.538       12.56      0.1684     -0.3154       0.000      0.7316       0.000    
      88  0.5571E-02  0.6330E-04 SHELL      10002 -99.9%   3.604       13.12      0.1760     -0.3154       0.000      0.7316       0.000    
      89  0.5634E-02  0.6330E-04 SHELL      10002 -99.9%   3.663       13.70      0.1819     -0.3154       0.000      0.7316       0.000    
      90  0.5697E-02  0.6330E-04 SHELL      10002 -99.9%   3.710       14.28      0.1870     -0.3154       0.000      0.7316       0.000    
      91  0.5760E-02  0.6330E-04 SHELL      10002 -99.9%   3.740       14.87      0.1929     -0.3154       0.000      0.7316       0.000    
      92  0.5824E-02  0.6330E-04 SHELL      10002 -99.9%   3.755       15.48      0.1988     -0.3154       0.000      0.7316       0.000    
      93  0.5887E-02  0.6330E-04 SHELL      10002 -99.9%   3.762       16.08      0.2051     -0.3154       0.000      0.7316       0.000    
      94  0.5950E-02  0.6330E-04 SHELL      10002 -99.9%   3.754       16.69      0.2162     -0.3154       0.000      0.7316       0.000    
      95  0.6014E-02  0.6330E-04 SHELL      10002 -99.9%   3.724       17.29      0.2332     -0.3154       0.000      0.7316       0.000    
      96  0.6077E-02  0.6330E-04 SHELL      10002 -99.9%   3.682       17.89      0.2497     -0.3154       0.000      0.7316       0.000    
      97  0.6140E-02  0.6330E-04 SHELL      10002 -99.9%   3.643       18.47      0.2592     -0.3154       0.000      0.7316       0.000    
      98  0.6204E-02  0.6330E-04 SHELL      10002 -99.9%   3.610       19.02      0.2623     -0.3154       0.000      0.7316       0.000    
      99  0.6267E-02  0.6330E-04 SHELL      10002 -99.9%   3.569       19.56      0.2653     -0.3154       0.000      0.7316       0.000    
     100  0.6330E-02  0.6330E-04 SHELL      10002 -99.9%   3.512       20.08      0.2716     -0.3154       0.000      0.7316       0.000    
     101  0.6394E-02  0.6330E-04 SHELL      10002 -99.9%   3.448       20.59      0.2793     -0.3154       0.000      0.7316       0.000    
     102  0.6457E-02  0.6330E-04 SHELL      10002 -99.9%   3.380       21.08      0.2864     -0.3154       0.000      0.7316       0.000    
     103  0.6520E-02  0.6330E-04 SHELL      10002 -99.9%   3.305       21.54      0.2932     -0.3154       0.000      0.7316       0.000    
     104  0.6583E-02  0.6330E-04 SHELL      10002 -99.9%   3.222       21.99      0.2989     -0.3154       0.000      0.7316       0.000    
     105  0.6647E-02  0.6330E-04 SHELL      10002 -99.9%   3.141       22.39      0.3024     -0.3154       0.000      0.7316       0.000    
     106  0.6710E-02  0.6330E-04 SHELL      10002 -99.9%   3.069       22.74      0.3039     -0.3154       0.000      0.7316       0.000    
     107  0.6773E-02  0.6330E-04 SHELL      10002 -99.9%   3.008       23.03      0.3056     -0.3154       0.000      0.7316       0.000    
     108  0.6837E-02  0.6330E-04 SHELL      10002 -99.9%   2.965       23.18      0.3061     -0.3154       0.000      0.7316       0.000    
     109  0.6900E-02  0.6330E-04 SHELL      10002 -99.9%   2.947       23.10      0.3028     -0.3154       0.000      0.7316       0.000    
   CYCLE    TIME      TIME-STEP  ELEMENT          ERROR  I-ENERGY    K-ENERGY T  K-ENERGY R  EXT-WORK     MAS.ERR     TOTAL MASS  MASS ADDED
     110  0.6963E-02  0.6330E-04 SHELL      10002 -99.9%   2.966       22.95      0.2976     -0.3215       0.000      0.7316       0.000    
     111  0.7027E-02  0.6330E-04 SHELL      10002 -99.9%   3.070       22.66      0.2954     -0.3215       0.000      0.7316       0.000    
     112  0.7090E-02  0.6330E-04 SHELL      10002 -99.9%   3.267       22.29      0.3005     -0.3215       0.000      0.7316       0.000    
     113  0.7153E-02  0.6330E-04 SHELL      10002 -99.9%   3.543       21.85      0.3143     -0.3215       0.000      0.7316       0.000    
     114  0.7216E-02  0.6330E-04 SHELL      10002 -99.9%   3.857       21.33      0.3353     -0.3215       0.000      0.7316       0.000    
     115  0.7280E-02  0.6330E-04 SHELL      10002 -99.9%   4.168       20.65      0.3588     -0.3215       0.000      0.7316       0.000    
     116  0.7343E-02  0.6330E-04 SHELL      10002 -99.9%   4.460       19.83      0.3828     -0.3215       0.000      0.7316       0.000    
     117  0.7406E-02  0.6330E-04 SHELL      10002 -99.9%   4.771       18.97      0.4114     -0.3215       0.000      0.7316       0.000    
     118  0.7470E-02  0.6330E-04 SHELL      10002 -99.9%   5.187       18.06      0.4502     -0.3215       0.000      0.7316       0.000    
     119  0.7533E-02  0.6330E-04 SHELL      10002 -99.9%   5.775       17.08      0.5046     -0.3215       0.000      0.7316       0.000    
     120  0.7596E-02  0.6330E-04 SHELL      10002 -99.9%   6.535       16.01      0.5854     -0.3215       0.000      0.7316       0.000    
     121  0.7660E-02  0.6330E-04 SHELL      10002 -99.9%   7.386       14.86      0.7062     -0.3215       0.000      0.7316       0.000    
     122  0.7723E-02  0.6330E-04 SHELL      10002 -99.9%   8.234       13.70      0.8667     -0.3215       0.000      0.7316       0.000    
     123  0.7786E-02  0.6330E-04 SHELL      10002 -99.9%   9.020       12.60       1.044     -0.3215       0.000      0.7316       0.000    
     124  0.7849E-02  0.6330E-04 SHELL      10002 -99.9%   9.748       11.60       1.203     -0.3215       0.000      0.7316       0.000    
     125  0.7913E-02  0.6330E-04 SHELL      10002 -99.9%   10.46       10.71       1.319     -0.3215       0.000      0.7316       0.000    
     126  0.7976E-02  0.6330E-04 SHELL      10002 -99.9%   11.21       9.922       1.386     -0.3215       0.000      0.7316       0.000    
     127  0.8039E-02  0.6330E-04 SHELL      10002 -99.9%   12.00       9.225       1.416     -0.3215       0.000      0.7316       0.000    
     128  0.8103E-02  0.6330E-04 SHELL      10002 -99.9%   12.85       8.584       1.425     -0.3215       0.000      0.7316       0.000    
     129  0.8166E-02  0.6330E-04 SHELL      10002 -99.9%   13.74       7.968       1.424     -0.3215       0.000      0.7316       0.000    
     130  0.8229E-02  0.6330E-04 SHELL      10002 -99.9%   14.62       7.367       1.414     -0.3215       0.000      0.7316       0.000    
     131  0.8293E-02  0.6330E-04 SHELL      10002 -99.9%   15.46       6.788       1.393     -0.3215       0.000      0.7316       0.000    
     132  0.8356E-02  0.6330E-04 SHELL      10002 -99.9%   16.22       6.251       1.354     -0.3215       0.000      0.7316       0.000    
     133  0.8419E-02  0.6330E-04 SHELL      10002 -99.9%   16.90       5.776       1.286     -0.3215       0.000      0.7316       0.000    
     134  0.8482E-02  0.6330E-04 SHELL      10002 -99.9%   17.50       5.376       1.187     -0.3215       0.000      0.7316       0.000    
     135  0.8546E-02  0.6330E-04 SHELL      10002 -99.9%   18.03       5.048       1.067     -0.3215       0.000      0.7316       0.000    
     136  0.8609E-02  0.6330E-04 SHELL      10002 -99.9%   18.49       4.930      0.9465     -0.3463       0.000      0.7316       0.000    
     137  0.8672E-02  0.6330E-04 SHELL      10002 -99.9%   18.91       4.707      0.8480     -0.3463       0.000      0.7316       0.000    
     138  0.8736E-02  0.6330E-04 SHELL      10002 -99.9%   19.26       4.587      0.7754     -0.3502       0.000      0.7316       0.000    
     139  0.8799E-02  0.6330E-04 SHELL      10002 -99.9%   19.57       4.456      0.7225     -0.3502       0.000      0.7316       0.000    
     140  0.8862E-02  0.6330E-04 SHELL      10002 -99.9%   19.80       4.446      0.6884     -0.3606       0.000      0.7316       0.000    
     141  0.8926E-02  0.6330E-04 SHELL      10002 -99.9%   19.98       4.432      0.6736     -0.3606       0.000      0.7316       0.000    
     142  0.8989E-02  0.6330E-04 SHELL      10002 -99.9%   20.10       4.457      0.6739     -0.3606       0.000      0.7316       0.000    
     143  0.9052E-02  0.6330E-04 SHELL      10002 -99.9%   20.18       4.518      0.6819     -0.3606       0.000      0.7316       0.000    
     144  0.9116E-02  0.6330E-04 SHELL      10002 -99.9%   20.24       4.607      0.6924     -0.3606       0.000      0.7316       0.000    
     145  0.9179E-02  0.6330E-04 SHELL      10002 -99.9%   20.29       4.714      0.7042     -0.3606       0.000      0.7316       0.000    
     146  0.9242E-02  0.6330E-04 SHELL      10002 -99.9%   20.35       4.832      0.7175     -0.3606       0.000      0.7316       0.000    
     147  0.9305E-02  0.6330E-04 SHELL      10002 -99.9%   20.44       4.959      0.7305     -0.3606       0.000      0.7316       0.000    
     148  0.9369E-02  0.6330E-04 SHELL      10002 -99.9%   20.54       5.102      0.7387     -0.3606       0.000      0.7316       0.000    
     149  0.9432E-02  0.6330E-04 SHELL      10002 -99.9%   20.67       5.256      0.7387     -0.3606       0.000      0.7316       0.000    
     150  0.9495E-02  0.6330E-04 SHELL      10002 -99.9%   20.81       5.414      0.7338     -0.3606       0.000      0.7316       0.000    
     151  0.9559E-02  0.6330E-04 SHELL      10002 -99.9%   20.94       5.578      0.7296     -0.3606       0.000      0.7316       0.000    
     152  0.9622E-02  0.6330E-04 SHELL      10002 -99.9%   21.08       5.741      0.7265     -0.3606       0.000      0.7316       0.000    
     153  0.9685E-02  0.6330E-04 SHELL      10002 -99.9%   21.22       5.899      0.7227     -0.3606       0.000      0.7316       0.000    
     154  0.9749E-02  0.6330E-04 SHELL      10002 -99.9%   21.37       6.051      0.7190     -0.3606       0.000      0.7316       0.000    
     155  0.9812E-02  0.6330E-04 SHELL      10002 -99.9%   21.51       6.197      0.7181     -0.3606       0.000      0.7316       0.000    
     156  0.9875E-02  0.6330E-04 SHELL      10002 -99.9%   21.66       6.334      0.7198     -0.3606       0.000      0.7316       0.000    
     157  0.9938E-02  0.6330E-04 SHELL      10002 -99.9%   21.82       6.463      0.7212     -0.3606       0.000      0.7316       0.000    
     158  0.1000E-01  0.6330E-04 SHELL      10002 -99.9%   21.98       6.585      0.7201     -0.3606       0.000      0.7316       0.000    
     ANIMATION FILE: BOULEV44A002 WRITTEN
     159  0.1007E-01  0.6330E-04 SHELL      10002 -99.9%   22.14       6.703      0.7172     -0.3606       0.000      0.7316       0.000    
     160  0.1013E-01  0.6330E-04 SHELL      10002 -99.9%   22.31       6.820      0.7148     -0.3606       0.000      0.7316       0.000    
     161  0.1019E-01  0.6330E-04 SHELL      10002 -99.9%   22.47       6.941      0.7149     -0.3606       0.000      0.7316       0.000    
     162  0.1025E-01  0.6330E-04 SHELL      10002 -99.9%   22.62       7.064      0.7192     -0.3606       0.000      0.7316       0.000    
     163  0.1032E-01  0.6330E-04 SHELL      10002 -99.9%   22.76       7.187      0.7278     -0.3606       0.000      0.7316       0.000    
     164  0.1038E-01  0.6330E-04 SHELL      10002 -99.9%   22.91       7.302      0.7401     -0.3606       0.000      0.7316       0.000    
   CYCLE    TIME      TIME-STEP  ELEMENT          ERROR  I-ENERGY    K-ENERGY T  K-ENERGY R  EXT-WORK     MAS.ERR     TOTAL MASS  MASS ADDED
     165  0.1044E-01  0.6330E-04 SHELL      10002 -99.9%   23.05       7.403      0.7558     -0.3606       0.000      0.7316       0.000    
     166  0.1051E-01  0.6330E-04 SHELL      10002 -99.9%   23.19       7.491      0.7732     -0.3606       0.000      0.7316       0.000    
     167  0.1057E-01  0.6330E-04 SHELL      10002 -99.9%   23.34       7.568      0.7865     -0.3606       0.000      0.7316       0.000    
     168  0.1063E-01  0.6330E-04 SHELL      10002 -99.9%   23.48       7.641      0.7913     -0.3606       0.000      0.7316       0.000    
     169  0.1070E-01  0.6330E-04 SHELL      10002 -99.9%   23.63       7.710      0.7903     -0.3606       0.000      0.7316       0.000    
     170  0.1076E-01  0.6330E-04 SHELL      10002 -99.9%   23.78       7.774      0.7906     -0.3606       0.000      0.7316       0.000    
     171  0.1082E-01  0.6330E-04 SHELL      10002 -99.9%   23.93       7.829      0.7977     -0.3606       0.000      0.7316       0.000    
     172  0.1089E-01  0.6330E-04 SHELL      10002 -99.9%   24.09       7.874      0.8121     -0.3606       0.000      0.7316       0.000    
     173  0.1095E-01  0.6330E-04 SHELL      10002 -99.9%   24.26       7.917      0.8318     -0.3606       0.000      0.7316       0.000    
     174  0.1101E-01  0.6330E-04 SHELL      10002 -99.9%   24.44       7.965      0.8547     -0.3606       0.000      0.7316       0.000    
     175  0.1108E-01  0.6330E-04 SHELL      10002 -99.9%   24.62       8.026      0.8793     -0.3606       0.000      0.7316       0.000    
     176  0.1114E-01  0.6330E-04 SHELL      10002 -99.9%   24.81       8.107      0.9044     -0.3606       0.000      0.7316       0.000    
     177  0.1120E-01  0.6330E-04 SHELL      10002 -99.9%   25.01       8.207      0.9281     -0.3606       0.000      0.7316       0.000    
     178  0.1127E-01  0.6330E-04 SHELL      10002 -99.9%   25.21       8.327      0.9485     -0.3606       0.000      0.7316       0.000    
     179  0.1133E-01  0.6330E-04 SHELL      10002 -99.9%   25.42       8.463      0.9663     -0.3606       0.000      0.7316       0.000    
     180  0.1139E-01  0.6330E-04 SHELL      10002 -99.9%   25.63       8.617      0.9852     -0.3606       0.000      0.7316       0.000    
     181  0.1146E-01  0.6330E-04 SHELL      10002 -99.9%   25.85       8.791       1.008     -0.3606       0.000      0.7316       0.000    
     182  0.1152E-01  0.6330E-04 SHELL      10002 -99.9%   26.07       8.983       1.036     -0.3606       0.000      0.7316       0.000    
     183  0.1158E-01  0.6330E-04 SHELL      10002 -99.9%   26.29       9.190       1.067     -0.3606       0.000      0.7316       0.000    
     184  0.1165E-01  0.6330E-04 SHELL      10002 -99.9%   26.52       9.411       1.102     -0.3606       0.000      0.7316       0.000    
     185  0.1171E-01  0.6330E-04 SHELL      10002 -99.9%   26.75       9.645       1.140     -0.3606       0.000      0.7316       0.000    
     186  0.1177E-01  0.6330E-04 SHELL      10002 -99.9%   26.98       9.897       1.177     -0.3606       0.000      0.7316       0.000    
     187  0.1184E-01  0.6330E-04 SHELL      10002 -99.9%   27.21       10.17       1.214     -0.3606       0.000      0.7316       0.000    
     188  0.1190E-01  0.6330E-04 SHELL      10002 -99.9%   27.44       10.45       1.248     -0.3606       0.000      0.7316       0.000    
     189  0.1196E-01  0.6330E-04 SHELL      10002 -99.9%   27.67       10.76       1.277     -0.3606       0.000      0.7316       0.000    
     190  0.1203E-01  0.6330E-04 SHELL      10002 -99.9%   27.91       11.07       1.302     -0.3606       0.000      0.7316       0.000    
     191  0.1209E-01  0.6330E-04 SHELL      10002 -99.9%   28.14       11.41       1.328     -0.3606       0.000      0.7316       0.000    
     192  0.1215E-01  0.6330E-04 SHELL      10002 -99.9%   28.38       11.75       1.353     -0.3606       0.000      0.7316       0.000    
     193  0.1222E-01  0.6330E-04 SHELL      10002 -99.9%   28.62       12.10       1.376     -0.3606       0.000      0.7316       0.000    
     194  0.1228E-01  0.6330E-04 SHELL      10002 -99.9%   28.88       12.47       1.398     -0.3606       0.000      0.7316       0.000    
     195  0.1234E-01  0.6330E-04 SHELL      10002 -99.9%   29.15       12.85       1.421     -0.3606       0.000      0.7316       0.000    
     196  0.1241E-01  0.6330E-04 SHELL      10002 -99.9%   29.44       13.22       1.447     -0.3606       0.000      0.7316       0.000    
     197  0.1247E-01  0.6330E-04 SHELL      10002 -99.9%   29.73       13.60       1.478     -0.3606       0.000      0.7316       0.000    
     198  0.1253E-01  0.6330E-04 SHELL      10002 -99.9%   30.02       13.98       1.512     -0.3606       0.000      0.7316       0.000    
     199  0.1260E-01  0.6330E-04 SHELL      10002 -99.9%   30.32       14.35       1.549     -0.3606       0.000      0.7316       0.000    
     200  0.1266E-01  0.6330E-04 SHELL      10002 -99.9%   30.62       14.71       1.586     -0.3606       0.000      0.7316       0.000    
     201  0.1272E-01  0.6330E-04 SHELL      10002 -99.9%   30.93       15.06       1.623     -0.3606       0.000      0.7316       0.000    
     202  0.1279E-01  0.6330E-04 SHELL      10002 -99.9%   31.25       15.40       1.657     -0.3606       0.000      0.7316       0.000    
     203  0.1285E-01  0.6330E-04 SHELL      10002 -99.9%   31.59       15.74       1.684     -0.3606       0.000      0.7316       0.000    
     204  0.1291E-01  0.6330E-04 SHELL      10002 -99.9%   31.93       16.06       1.705     -0.3606       0.000      0.7316       0.000    
     205  0.1298E-01  0.6330E-04 SHELL      10002 -99.9%   32.29       16.37       1.721     -0.3606       0.000      0.7316       0.000    
     206  0.1304E-01  0.6330E-04 SHELL      10002 -99.9%   32.64       16.66       1.738     -0.3606       0.000      0.7316       0.000    
     207  0.1310E-01  0.6330E-04 SHELL      10002 -99.9%   33.01       16.94       1.760     -0.3606       0.000      0.7316       0.000    
     208  0.1317E-01  0.6330E-04 SHELL      10002 -99.9%   33.37       17.19       1.786     -0.3606       0.000      0.7316       0.000    
     209  0.1323E-01  0.6330E-04 SHELL      10002 -99.9%   33.74       17.42       1.816     -0.3606       0.000      0.7316       0.000    
     210  0.1329E-01  0.6330E-04 SHELL      10002 -99.9%   34.12       17.64       1.851     -0.3606       0.000      0.7316       0.000    
     211  0.1336E-01  0.6330E-04 SHELL      10002 -99.9%   34.51       17.83       1.889     -0.3606       0.000      0.7316       0.000    
     212  0.1342E-01  0.6330E-04 SHELL      10002 -99.9%   34.92       18.01       1.929     -0.3606       0.000      0.7316       0.000    
     213  0.1348E-01  0.6330E-04 SHELL      10002 -99.9%   35.36       18.18       1.970     -0.3606       0.000      0.7316       0.000    
     214  0.1355E-01  0.6330E-04 SHELL      10002 -99.9%   35.80       18.34       2.010     -0.3606       0.000      0.7316       0.000    
     215  0.1361E-01  0.6330E-04 SHELL      10002 -99.9%   36.25       18.49       2.047     -0.3606       0.000      0.7316       0.000    
     216  0.1367E-01  0.6330E-04 SHELL      10002 -99.9%   36.69       18.63       2.081     -0.3606       0.000      0.7316       0.000    
     217  0.1374E-01  0.6330E-04 SHELL      10002 -99.9%   37.10       18.78       2.111     -0.3606       0.000      0.7316       0.000    
     218  0.1380E-01  0.6330E-04 SHELL      10002 -99.9%   37.51       18.92       2.137     -0.3606       0.000      0.7316       0.000    
     219  0.1386E-01  0.6330E-04 SHELL      10002 -99.9%   37.91       19.06       2.159     -0.3606       0.000      0.7316       0.000    
   CYCLE    TIME      TIME-STEP  ELEMENT          ERROR  I-ENERGY    K-ENERGY T  K-ENERGY R  EXT-WORK     MAS.ERR     TOTAL MASS  MASS ADDED
     220  0.1393E-01  0.6330E-04 SHELL      10002 -99.9%   38.31       19.19       2.180     -0.3606       0.000      0.7316       0.000    
     221  0.1399E-01  0.6330E-04 SHELL      10002 -99.9%   38.73       19.32       2.202     -0.3606       0.000      0.7316       0.000    
     222  0.1405E-01  0.6330E-04 SHELL      10002 -99.9%   39.14       19.44       2.227     -0.3606       0.000      0.7316       0.000    
     223  0.1412E-01  0.6330E-04 SHELL      10002 -99.9%   39.55       19.55       2.255     -0.3606       0.000      0.7316       0.000    
     224  0.1418E-01  0.6330E-04 SHELL      10002 -99.9%   39.95       19.67       2.285     -0.3606       0.000      0.7316       0.000    
     225  0.1424E-01  0.6330E-04 SHELL      10002 -99.9%   40.33       19.78       2.314     -0.3606       0.000      0.7316       0.000    
     226  0.1431E-01  0.6330E-04 SHELL      10002 -99.9%   40.70       19.91       2.340     -0.3606       0.000      0.7316       0.000    
     227  0.1437E-01  0.6330E-04 SHELL      10002 -99.9%   41.05       20.03       2.362     -0.3606       0.000      0.7316       0.000    
     228  0.1443E-01  0.6330E-04 SHELL      10002 -99.9%   41.39       20.17       2.379     -0.3606       0.000      0.7316       0.000    
     229  0.1450E-01  0.6330E-04 SHELL      10002 -99.9%   41.72       20.31       2.394     -0.3606       0.000      0.7316       0.000    
     230  0.1456E-01  0.6330E-04 SHELL      10002 -99.9%   42.03       20.46       2.409     -0.3606       0.000      0.7316       0.000    
     231  0.1462E-01  0.6330E-04 SHELL      10002 -99.9%   42.33       20.61       2.426     -0.3606       0.000      0.7316       0.000    
     232  0.1469E-01  0.6330E-04 SHELL      10002 -99.9%   42.62       20.76       2.446     -0.3606       0.000      0.7316       0.000    
     233  0.1475E-01  0.6330E-04 SHELL      10002 -99.9%   42.89       20.92       2.469     -0.3606       0.000      0.7316       0.000    
     234  0.1481E-01  0.6330E-04 SHELL      10002 -99.9%   43.15       21.08       2.496     -0.3606       0.000      0.7316       0.000    
     235  0.1488E-01  0.6330E-04 SHELL      10002 -99.9%   43.39       21.25       2.525     -0.3606       0.000      0.7316       0.000    
     236  0.1494E-01  0.6330E-04 SHELL      10002 -99.9%   43.62       21.43       2.555     -0.3606       0.000      0.7316       0.000    
     237  0.1500E-01  0.6330E-04 SHELL      10002 -99.9%   43.85       21.62       2.585     -0.3606       0.000      0.7316       0.000    
     238  0.1507E-01  0.6330E-04 SHELL      10002 -99.9%   44.07       21.82       2.612     -0.3606       0.000      0.7316       0.000    
     239  0.1513E-01  0.6330E-04 SHELL      10002 -99.9%   44.29       22.03       2.638     -0.3606       0.000      0.7316       0.000    
     240  0.1519E-01  0.6330E-04 SHELL      10002 -99.9%   44.49       22.25       2.663     -0.3606       0.000      0.7316       0.000    
     241  0.1526E-01  0.6330E-04 SHELL      10002 -99.9%   44.68       22.48       2.687     -0.3606       0.000      0.7316       0.000    
     242  0.1532E-01  0.6330E-04 SHELL      10002 -99.9%   44.85       22.72       2.712     -0.3606       0.000      0.7316       0.000    
     243  0.1538E-01  0.6330E-04 SHELL      10002 -99.9%   45.00       22.96       2.739     -0.3606       0.000      0.7316       0.000    
     244  0.1545E-01  0.6330E-04 SHELL      10002 -99.9%   45.14       23.20       2.768     -0.3606       0.000      0.7316       0.000    
     245  0.1551E-01  0.6330E-04 SHELL      10002 -99.9%   45.27       23.45       2.801     -0.3606       0.000      0.7316       0.000    
     246  0.1557E-01  0.6330E-04 SHELL      10002 -99.9%   45.40       23.70       2.837     -0.3606       0.000      0.7316       0.000    
     247  0.1564E-01  0.6330E-04 SHELL      10002 -99.9%   45.54       23.95       2.874     -0.3606       0.000      0.7316       0.000    
     248  0.1570E-01  0.6330E-04 SHELL      10002 -99.9%   45.67       24.20       2.911     -0.3606       0.000      0.7316       0.000    
     249  0.1576E-01  0.6330E-04 SHELL      10002 -99.9%   45.80       24.45       2.947     -0.3606       0.000      0.7316       0.000    
     250  0.1583E-01  0.6330E-04 SHELL      10002 -99.9%   45.92       24.70       2.981     -0.3606       0.000      0.7316       0.000    
     251  0.1589E-01  0.6330E-04 SHELL      10002 -99.9%   46.02       24.96       3.012     -0.3606       0.000      0.7316       0.000    
     252  0.1595E-01  0.6330E-04 SHELL      10002 -99.9%   46.12       25.22       3.041     -0.3606       0.000      0.7316       0.000    
     253  0.1602E-01  0.6330E-04 SHELL      10002 -99.9%   46.21       25.47       3.071     -0.3606       0.000      0.7316       0.000    
     254  0.1608E-01  0.6330E-04 SHELL      10002 -99.9%   46.30       25.72       3.101     -0.3606       0.000      0.7316       0.000    
     255  0.1614E-01  0.6330E-04 SHELL      10002 -99.9%   46.39       25.97       3.134     -0.3606       0.000      0.7316       0.000    
     256  0.1621E-01  0.6330E-04 SHELL      10002 -99.9%   46.48       26.21       3.168     -0.3606       0.000      0.7316       0.000    
     257  0.1627E-01  0.6330E-04 SHELL      10002 -99.9%   46.57       26.45       3.205     -0.3606       0.000      0.7316       0.000    
     258  0.1633E-01  0.6330E-04 SHELL      10002 -99.9%   46.66       26.69       3.244     -0.3606       0.000      0.7316       0.000    
     259  0.1640E-01  0.6330E-04 SHELL      10002 -99.9%   46.75       26.92       3.283     -0.3606       0.000      0.7316       0.000    
     260  0.1646E-01  0.6330E-04 SHELL      10002 -99.9%   46.84       27.15       3.322     -0.3606       0.000      0.7316       0.000    
     261  0.1652E-01  0.6330E-04 SHELL      10002 -99.9%   46.93       27.39       3.360     -0.3606       0.000      0.7316       0.000    
     262  0.1659E-01  0.6330E-04 SHELL      10002 -99.9%   47.03       27.63       3.399     -0.3606       0.000      0.7316       0.000    
     263  0.1665E-01  0.6330E-04 SHELL      10002 -99.9%   47.13       27.87       3.436     -0.3606       0.000      0.7316       0.000    
     264  0.1671E-01  0.6330E-04 SHELL      10002 -99.9%   47.24       28.12       3.474     -0.3606       0.000      0.7316       0.000    
     265  0.1678E-01  0.6330E-04 SHELL      10002 -99.9%   47.37       28.38       3.511     -0.3606       0.000      0.7316       0.000    
     266  0.1684E-01  0.6330E-04 SHELL      10002 -99.9%   47.50       28.63       3.549     -0.3606       0.000      0.7316       0.000    
     267  0.1690E-01  0.6330E-04 SHELL      10002 -99.9%   47.65       28.90       3.588     -0.3606       0.000      0.7316       0.000    
     268  0.1696E-01  0.6330E-04 SHELL      10002 -99.9%   47.80       29.17       3.630     -0.3606       0.000      0.7316       0.000    
     269  0.1703E-01  0.6330E-04 SHELL      10002 -99.9%   47.96       29.44       3.673     -0.3606       0.000      0.7316       0.000    
     270  0.1709E-01  0.6330E-04 SHELL      10002 -99.9%   48.14       29.72       3.718     -0.3606       0.000      0.7316       0.000    
     271  0.1715E-01  0.6330E-04 SHELL      10002 -99.9%   48.32       30.00       3.765     -0.3606       0.000      0.7316       0.000    
     272  0.1722E-01  0.6330E-04 SHELL      10002 -99.9%   48.51       30.30       3.813     -0.3606       0.000      0.7316       0.000    
     273  0.1728E-01  0.6330E-04 SHELL      10002 -99.9%   48.71       30.59       3.861     -0.3606       0.000      0.7316       0.000    
     274  0.1734E-01  0.6330E-04 SHELL      10002 -99.9%   48.92       30.90       3.910     -0.3606       0.000      0.7316       0.000    
   CYCLE    TIME      TIME-STEP  ELEMENT          ERROR  I-ENERGY    K-ENERGY T  K-ENERGY R  EXT-WORK     MAS.ERR     TOTAL MASS  MASS ADDED
     275  0.1741E-01  0.6330E-04 SHELL      10002 -99.9%   49.14       31.22       3.958     -0.3606       0.000      0.7316       0.000    
     276  0.1747E-01  0.6330E-04 SHELL      10002 -99.9%   49.36       31.54       4.007     -0.3606       0.000      0.7316       0.000    
     277  0.1753E-01  0.6330E-04 SHELL      10002 -99.9%   49.60       31.88       4.055     -0.3606       0.000      0.7316       0.000    
     278  0.1760E-01  0.6330E-04 SHELL      10002 -99.9%   49.84       32.22       4.103     -0.3606       0.000      0.7316       0.000    
     279  0.1766E-01  0.6330E-04 SHELL      10002 -99.9%   50.10       32.58       4.152     -0.3606       0.000      0.7316       0.000    
     280  0.1772E-01  0.6330E-04 SHELL      10002 -99.9%   50.36       32.94       4.204     -0.3606       0.000      0.7316       0.000    
     281  0.1779E-01  0.6330E-04 SHELL      10002 -99.9%   50.62       33.30       4.257     -0.3606       0.000      0.7316       0.000    
     282  0.1785E-01  0.6330E-04 SHELL      10002 -99.9%   50.89       33.66       4.312     -0.3606       0.000      0.7316       0.000    
     283  0.1791E-01  0.6330E-04 SHELL      10002 -99.9%   51.16       34.04       4.367     -0.3606       0.000      0.7316       0.000    
     284  0.1798E-01  0.6330E-04 SHELL      10002 -99.9%   51.44       34.41       4.422     -0.3606       0.000      0.7316       0.000    
     285  0.1804E-01  0.6330E-04 SHELL      10002 -99.9%   51.71       34.80       4.476     -0.3606       0.000      0.7316       0.000    
     286  0.1810E-01  0.6330E-04 SHELL      10002 -99.9%   51.99       35.19       4.529     -0.3606       0.000      0.7316       0.000    
     287  0.1817E-01  0.6330E-04 SHELL      10002 -99.9%   52.28       35.59       4.583     -0.3606       0.000      0.7316       0.000    
     288  0.1823E-01  0.6330E-04 SHELL      10002 -99.9%   52.56       36.00       4.636     -0.3606       0.000      0.7316       0.000    
     289  0.1829E-01  0.6330E-04 SHELL      10002 -99.9%   52.86       36.42       4.689     -0.3606       0.000      0.7316       0.000    
     290  0.1836E-01  0.6330E-04 SHELL      10002 -99.9%   53.16       36.83       4.743     -0.3606       0.000      0.7316       0.000    
     291  0.1842E-01  0.6330E-04 SHELL      10002 -99.9%   53.46       37.25       4.795     -0.3606       0.000      0.7316       0.000    
     292  0.1848E-01  0.6330E-04 SHELL      10002 -99.9%   53.77       37.67       4.848     -0.3606       0.000      0.7316       0.000    
     293  0.1855E-01  0.6330E-04 SHELL      10002 -99.9%   54.07       38.10       4.902     -0.3606       0.000      0.7316       0.000    
     294  0.1861E-01  0.6330E-04 SHELL      10002 -99.9%   54.37       38.51       4.956     -0.3606       0.000      0.7316       0.000    
     295  0.1867E-01  0.6330E-04 SHELL      10002 -99.9%   54.67       38.93       5.012     -0.3606       0.000      0.7316       0.000    
     296  0.1874E-01  0.6330E-04 SHELL      10002 -99.9%   54.96       39.34       5.069     -0.3606       0.000      0.7316       0.000    
     297  0.1880E-01  0.6330E-04 SHELL      10002 -99.9%   55.25       39.74       5.126     -0.3606       0.000      0.7316       0.000    
     298  0.1886E-01  0.6330E-04 SHELL      10002 -99.9%   55.54       40.14       5.180     -0.3606       0.000      0.7316       0.000    
     299  0.1893E-01  0.6330E-04 SHELL      10002 -99.9%   55.83       40.54       5.232     -0.3606       0.000      0.7316       0.000    
     300  0.1899E-01  0.6330E-04 SHELL      10002 -99.9%   56.12       40.93       5.280     -0.3606       0.000      0.7316       0.000    
     301  0.1905E-01  0.6330E-04 SHELL      10002 -99.9%   56.42       41.31       5.325     -0.3606       0.000      0.7316       0.000    
     302  0.1912E-01  0.6330E-04 SHELL      10002 -99.9%   56.71       41.68       5.369     -0.3606       0.000      0.7316       0.000    
     303  0.1918E-01  0.6330E-04 SHELL      10002 -99.9%   57.01       42.05       5.414     -0.3606       0.000      0.7316       0.000    
     304  0.1924E-01  0.6330E-04 SHELL      10002 -99.9%   57.30       42.40       5.459     -0.3606       0.000      0.7316       0.000    
     305  0.1931E-01  0.6330E-04 SHELL      10002 -99.9%   57.59       42.75       5.507     -0.3606       0.000      0.7316       0.000    
     306  0.1937E-01  0.6330E-04 SHELL      10002 -99.9%   57.88       43.08       5.556     -0.3606       0.000      0.7316       0.000    
     307  0.1943E-01  0.6330E-04 SHELL      10002 -99.9%   58.15       43.40       5.607     -0.3606       0.000      0.7316       0.000    
     308  0.1950E-01  0.6330E-04 SHELL      10002 -99.9%   58.42       43.52       5.658     -0.3606       0.000      0.7316       0.000    
     309  0.1956E-01  0.6330E-04 SHELL      10002 -99.9%   58.70       43.35       5.709     -0.3606       0.000      0.7316       0.000    
     310  0.1962E-01  0.6330E-04 SHELL      10002 -99.9%   59.03       43.07       5.759     -0.3606       0.000      0.7316       0.000    
     311  0.1969E-01  0.6330E-04 SHELL      10002 -99.9%   59.53       42.71       5.818     -0.3606       0.000      0.7316       0.000    
     312  0.1975E-01  0.6330E-04 SHELL      10002 -99.9%   60.25       42.24       5.900     -0.3606       0.000      0.7316       0.000    
     313  0.1981E-01  0.6330E-04 SHELL      10002 -99.9%   61.15       41.65       6.021     -0.3606       0.000      0.7316       0.000    
     314  0.1988E-01  0.6330E-04 SHELL      10002 -99.9%   62.13       40.97       6.176     -0.3606       0.000      0.7316       0.000    
     315  0.1994E-01  0.6330E-04 SHELL      10002 -99.9%   63.09       40.26       6.354     -0.3606       0.000      0.7316       0.000    
     316  0.2000E-01  0.6330E-04 SHELL      10002 -99.9%   63.97       39.58       6.539     -0.3606       0.000      0.7316       0.000    
     ANIMATION FILE: BOULEV44A003 WRITTEN
     317  0.2007E-01  0.6330E-04 SHELL      10002 -99.9%   64.77       38.93       6.719     -0.3606       0.000      0.7316       0.000    
     318  0.2013E-01  0.6330E-04 SHELL      10002 -99.9%   65.57       38.31       6.877     -0.3606       0.000      0.7316       0.000    
     319  0.2019E-01  0.6330E-04 SHELL      10002 -99.9%   66.44       37.70       7.005     -0.3606       0.000      0.7316       0.000    
     320  0.2026E-01  0.6330E-04 SHELL      10002 -99.9%   67.42       37.10       7.103     -0.3606       0.000      0.7316       0.000    
     321  0.2032E-01  0.6330E-04 SHELL      10002 -99.9%   68.52       36.51       7.180     -0.3606       0.000      0.7316       0.000    
     322  0.2038E-01  0.6330E-04 SHELL      10002 -99.9%   69.70       35.89       7.244     -0.3606       0.000      0.7316       0.000    
     323  0.2045E-01  0.6330E-04 SHELL      10002 -99.9%   70.92       35.23       7.299     -0.3606       0.000      0.7316       0.000    
     324  0.2051E-01  0.6330E-04 SHELL      10002 -99.9%   72.13       34.52       7.347     -0.3606       0.000      0.7316       0.000    
     325  0.2057E-01  0.6330E-04 SHELL      10002 -99.9%   73.29       33.77       7.383     -0.3606       0.000      0.7316       0.000    
     326  0.2064E-01  0.6330E-04 SHELL      10002 -99.9%   74.36       33.00       7.398     -0.3606       0.000      0.7316       0.000    
     327  0.2070E-01  0.6330E-04 SHELL      10002 -99.9%   75.36       32.23       7.387     -0.3606       0.000      0.7316       0.000    
     328  0.2076E-01  0.6330E-04 SHELL      10002 -99.9%   76.30       31.45       7.348     -0.3606       0.000      0.7316       0.000    
     329  0.2083E-01  0.6330E-04 SHELL      10002 -99.9%   77.19       30.67       7.285     -0.3606       0.000      0.7316       0.000    
   CYCLE    TIME      TIME-STEP  ELEMENT          ERROR  I-ENERGY    K-ENERGY T  K-ENERGY R  EXT-WORK     MAS.ERR     TOTAL MASS  MASS ADDED
     330  0.2089E-01  0.6330E-04 SHELL      10002 -99.9%   78.04       29.90       7.207     -0.3606       0.000      0.7316       0.000    
     331  0.2095E-01  0.6330E-04 SHELL      10002 -99.9%   78.86       29.11       7.126     -0.3606       0.000      0.7316       0.000    
     332  0.2102E-01  0.6330E-04 SHELL      10002 -99.9%   79.64       28.31       7.054     -0.3606       0.000      0.7316       0.000    
     333  0.2108E-01  0.6330E-04 SHELL      10002 -99.9%   80.38       27.49       7.002     -0.3606       0.000      0.7316       0.000    
     334  0.2114E-01  0.6330E-04 SHELL      10002 -99.9%   81.06       26.66       6.971     -0.3606       0.000      0.7316       0.000    
     335  0.2121E-01  0.6330E-04 SHELL      10002 -99.9%   81.68       25.83       6.960     -0.3606       0.000      0.7316       0.000    
     336  0.2127E-01  0.6330E-04 SHELL      10002 -99.9%   82.25       24.99       6.964     -0.3606       0.000      0.7316       0.000    
     337  0.2133E-01  0.6330E-04 SHELL      10002 -99.9%   82.79       24.17       6.976     -0.3606       0.000      0.7316       0.000    
     338  0.2140E-01  0.6330E-04 SHELL      10002 -99.9%   83.30       23.37       6.992     -0.3606       0.000      0.7316       0.000    
     339  0.2146E-01  0.6330E-04 SHELL      10002 -99.9%   83.82       22.60       7.012     -0.3606       0.000      0.7316       0.000    
     340  0.2152E-01  0.6330E-04 SHELL      10002 -99.9%   84.35       21.84       7.041     -0.3606       0.000      0.7316       0.000    
     341  0.2159E-01  0.6330E-04 SHELL      10002 -99.9%   84.93       21.09       7.080     -0.3606       0.000      0.7316       0.000    
     342  0.2165E-01  0.6330E-04 SHELL      10002 -99.9%   85.54       20.34       7.130     -0.3606       0.000      0.7316       0.000    
     343  0.2171E-01  0.6330E-04 SHELL      10002 -99.9%   86.19       19.61       7.190     -0.3606       0.000      0.7316       0.000    
     344  0.2178E-01  0.6330E-04 SHELL      10002 -99.9%   86.85       18.89       7.261     -0.3606       0.000      0.7316       0.000    
     345  0.2184E-01  0.6330E-04 SHELL      10002 -99.9%   87.52       18.19       7.337     -0.3606       0.000      0.7316       0.000    
     346  0.2190E-01  0.6330E-04 SHELL      10002 -99.9%   88.20       17.51       7.412     -0.3606       0.000      0.7316       0.000    
     347  0.2197E-01  0.6330E-04 SHELL      10002 -99.9%   88.88       16.86       7.479     -0.3606       0.000      0.7316       0.000    
     348  0.2203E-01  0.6330E-04 SHELL      10002 -99.9%   89.57       16.24       7.538     -0.3606       0.000      0.7316       0.000    
     349  0.2209E-01  0.6330E-04 SHELL      10002 -99.9%   90.27       15.66       7.592     -0.3606       0.000      0.7316       0.000    
     350  0.2216E-01  0.6330E-04 SHELL      10002 -99.9%   90.99       15.10       7.647     -0.3606       0.000      0.7316       0.000    
     351  0.2222E-01  0.6330E-04 SHELL      10002 -99.9%   91.73       14.56       7.708     -0.3606       0.000      0.7316       0.000    
     352  0.2228E-01  0.6330E-04 SHELL      10002 -99.9%   92.48       14.02       7.780     -0.3606       0.000      0.7316       0.000    
     353  0.2235E-01  0.6330E-04 SHELL      10002 -99.9%   93.26       13.50       7.864     -0.3606       0.000      0.7316       0.000    
     354  0.2241E-01  0.6330E-04 SHELL      10002 -99.9%   94.03       12.99       7.961     -0.3606       0.000      0.7316       0.000    
     355  0.2247E-01  0.6330E-04 SHELL      10002 -99.9%   94.81       12.49       8.064     -0.3606       0.000      0.7316       0.000    
     356  0.2254E-01  0.6330E-04 SHELL      10002 -99.9%   95.58       12.02       8.168     -0.3606       0.000      0.7316       0.000    
     357  0.2260E-01  0.6330E-04 SHELL      10002 -99.9%   96.35       11.58       8.266     -0.3606       0.000      0.7316       0.000    
     358  0.2266E-01  0.6330E-04 SHELL      10002 -99.9%   97.14       11.16       8.352     -0.3606       0.000      0.7316       0.000    
     359  0.2273E-01  0.6330E-04 SHELL      10002 -99.9%   97.95       10.78       8.427     -0.3606       0.000      0.7316       0.000    
     360  0.2279E-01  0.6330E-04 SHELL      10002 -99.9%   98.79       10.41       8.491     -0.3606       0.000      0.7316       0.000    
     361  0.2285E-01  0.6330E-04 SHELL      10002 -99.9%   99.63       10.06       8.547     -0.3606       0.000      0.7316       0.000    
     362  0.2292E-01  0.6330E-04 SHELL      10002 -99.9%   100.5       9.726       8.601     -0.3606       0.000      0.7316       0.000    
     363  0.2298E-01  0.6330E-04 SHELL      10002 -99.9%   101.4       9.388       8.656     -0.3606       0.000      0.7316       0.000    
     364  0.2304E-01  0.6330E-04 SHELL      10002 -99.9%   102.2       9.045       8.714     -0.3606       0.000      0.7316       0.000    
     365  0.2311E-01  0.6330E-04 SHELL      10002 -99.9%   103.1       8.699       8.775     -0.3606       0.000      0.7316       0.000    
     366  0.2317E-01  0.6330E-04 SHELL      10002 -99.9%   103.9       8.357       8.836     -0.3606       0.000      0.7316       0.000    
     367  0.2323E-01  0.6330E-04 SHELL      10002 -99.9%   104.8       8.024       8.896     -0.3606       0.000      0.7316       0.000    
     368  0.2330E-01  0.6330E-04 SHELL      10002 -99.9%   105.6       7.705       8.954     -0.3606       0.000      0.7316       0.000    
     369  0.2336E-01  0.6330E-04 SHELL      10002 -99.9%   106.5       7.406       9.008     -0.3606       0.000      0.7316       0.000    
     370  0.2342E-01  0.6330E-04 SHELL      10002 -99.9%   107.3       7.130       9.054     -0.3606       0.000      0.7316       0.000    
     371  0.2349E-01  0.6330E-04 SHELL      10002 -99.9%   108.1       6.878       9.094     -0.3606       0.000      0.7316       0.000    
     372  0.2355E-01  0.6330E-04 SHELL      10002 -99.9%   109.0       6.650       9.129     -0.3606       0.000      0.7316       0.000    
     373  0.2361E-01  0.6330E-04 SHELL      10002 -99.9%   109.8       6.443       9.161     -0.3606       0.000      0.7316       0.000    
     374  0.2367E-01  0.6330E-04 SHELL      10002 -99.9%   110.6       6.251       9.194     -0.3606       0.000      0.7316       0.000    
     375  0.2374E-01  0.6330E-04 SHELL      10002 -99.9%   111.4       6.072       9.232     -0.3606       0.000      0.7316       0.000    
     376  0.2380E-01  0.6330E-04 SHELL      10002 -99.9%   112.2       5.902       9.276     -0.3606       0.000      0.7316       0.000    
     377  0.2386E-01  0.6330E-04 SHELL      10002 -99.9%   113.0       5.743       9.327     -0.3606       0.000      0.7316       0.000    
     378  0.2393E-01  0.6330E-04 SHELL      10002 -99.9%   113.7       5.593       9.385     -0.3606       0.000      0.7316       0.000    
     379  0.2399E-01  0.6330E-04 SHELL      10002 -99.9%   114.5       5.445       9.446     -0.3606       0.000      0.7316       0.000    
     380  0.2405E-01  0.6330E-04 SHELL      10002 -99.9%   115.3       5.299       9.508     -0.3606       0.000      0.7316       0.000    
     381  0.2412E-01  0.6330E-04 SHELL      10002 -99.9%   116.0       5.161       9.568     -0.3606       0.000      0.7316       0.000    
     382  0.2418E-01  0.6330E-04 SHELL      10002 -99.9%   116.8       5.033       9.623     -0.3606       0.000      0.7316       0.000    
     383  0.2424E-01  0.6330E-04 SHELL      10002 -99.9%   117.5       4.914       9.672     -0.3606       0.000      0.7316       0.000    
     384  0.2431E-01  0.6330E-04 SHELL      10002 -99.9%   118.2       4.802       9.717     -0.3606       0.000      0.7316       0.000    
   CYCLE    TIME      TIME-STEP  ELEMENT          ERROR  I-ENERGY    K-ENERGY T  K-ENERGY R  EXT-WORK     MAS.ERR     TOTAL MASS  MASS ADDED
     385  0.2437E-01  0.6330E-04 SHELL      10002 -99.9%   118.9       4.699       9.760     -0.3606       0.000      0.7316       0.000    
     386  0.2443E-01  0.6330E-04 SHELL      10002 -99.9%   119.6       4.602       9.803     -0.3606       0.000      0.7316       0.000    
     387  0.2450E-01  0.6330E-04 SHELL      10002 -99.9%   120.3       4.511       9.849     -0.3606       0.000      0.7316       0.000    
     388  0.2456E-01  0.6330E-04 SHELL      10002 -99.9%   120.9       4.424       9.901     -0.3606       0.000      0.7316       0.000    
     389  0.2462E-01  0.6330E-04 SHELL      10002 -99.9%   121.6       4.340       9.958     -0.3606       0.000      0.7316       0.000    
     390  0.2469E-01  0.6330E-04 SHELL      10002 -99.9%   122.2       4.263       10.02     -0.3606       0.000      0.7316       0.000    
     391  0.2475E-01  0.6330E-04 SHELL      10002 -99.9%   122.9       4.194       10.09     -0.3606       0.000      0.7316       0.000    
     392  0.2481E-01  0.6330E-04 SHELL      10002 -99.9%   123.5       4.140       10.15     -0.3606       0.000      0.7316       0.000    
     393  0.2488E-01  0.6330E-04 SHELL      10002 -99.9%   124.1       4.105       10.22     -0.3606       0.000      0.7316       0.000    
     394  0.2494E-01  0.6330E-04 SHELL      10002 -99.9%   124.7       4.090       10.27     -0.3606       0.000      0.7316       0.000    
     395  0.2500E-01  0.6330E-04 SHELL      10002 -99.9%   125.3       4.096       10.32     -0.3606       0.000      0.7316       0.000    
     396  0.2507E-01  0.6330E-04 SHELL      10002 -99.9%   125.9       4.118       10.36     -0.3606       0.000      0.7316       0.000    
     397  0.2513E-01  0.6330E-04 SHELL      10002 -99.9%   126.5       4.152       10.40     -0.3606       0.000      0.7316       0.000    
     398  0.2519E-01  0.6330E-04 SHELL      10002 -99.9%   127.1       4.191       10.43     -0.3606       0.000      0.7316       0.000    
     399  0.2526E-01  0.6330E-04 SHELL      10002 -99.9%   127.6       4.231       10.46     -0.3606       0.000      0.7316       0.000    
     400  0.2532E-01  0.6330E-04 SHELL      10002 -99.9%   128.1       4.268       10.50     -0.3606       0.000      0.7316       0.000    
     401  0.2538E-01  0.6330E-04 SHELL      10002 -99.9%   128.6       4.298       10.54     -0.3606       0.000      0.7316       0.000    
     402  0.2545E-01  0.6330E-04 SHELL      10002 -99.9%   129.1       4.321       10.58     -0.3606       0.000      0.7316       0.000    
     403  0.2551E-01  0.6330E-04 SHELL      10002 -99.9%   129.5       4.338       10.62     -0.3606       0.000      0.7316       0.000    
     404  0.2557E-01  0.6330E-04 SHELL      10002 -99.9%   130.0       4.348       10.66     -0.3606       0.000      0.7316       0.000    
     405  0.2564E-01  0.6330E-04 SHELL      10002 -99.9%   130.5       4.354       10.70     -0.3606       0.000      0.7316       0.000    
     406  0.2570E-01  0.6330E-04 SHELL      10002 -99.9%   130.9       4.351       10.74     -0.3606       0.000      0.7316       0.000    
     407  0.2576E-01  0.6330E-04 SHELL      10002 -99.9%   131.3       4.337       10.78     -0.3606       0.000      0.7316       0.000    
     408  0.2583E-01  0.6330E-04 SHELL      10002 -99.9%   131.7       4.316       10.81     -0.3606       0.000      0.7316       0.000    
     409  0.2589E-01  0.6330E-04 SHELL      10002 -99.9%   132.1       4.289       10.84     -0.3606       0.000      0.7316       0.000    
     410  0.2595E-01  0.6330E-04 SHELL      10002 -99.9%   132.5       4.251       10.87     -0.3606       0.000      0.7316       0.000    
     411  0.2602E-01  0.6330E-04 SHELL      10002 -99.9%   133.0       4.202       10.90     -0.3606       0.000      0.7316       0.000    
     412  0.2608E-01  0.6330E-04 SHELL      10002 -99.9%   133.4       4.142       10.93     -0.3606       0.000      0.7316       0.000    
     413  0.2614E-01  0.6330E-04 SHELL      10002 -99.9%   133.9       4.072       10.97     -0.3606       0.000      0.7316       0.000    
     414  0.2621E-01  0.6330E-04 SHELL      10002 -99.9%   134.3       3.994       11.02     -0.3606       0.000      0.7316       0.000    
     415  0.2627E-01  0.6330E-04 SHELL      10002 -99.9%   134.8       3.912       11.07     -0.3606       0.000      0.7316       0.000    
     416  0.2633E-01  0.6330E-04 SHELL      10002 -99.9%   135.4       3.829       11.12     -0.3606       0.000      0.7316       0.000    
     417  0.2640E-01  0.6330E-04 SHELL      10002 -99.9%   135.9       3.750       11.18     -0.3606       0.000      0.7316       0.000    
     418  0.2646E-01  0.6330E-04 SHELL      10002 -99.9%   136.5       3.679       11.23     -0.3606       0.000      0.7316       0.000    
     419  0.2652E-01  0.6330E-04 SHELL      10002 -99.9%   137.0       3.618       11.29     -0.3606       0.000      0.7316       0.000    
     420  0.2659E-01  0.6330E-04 SHELL      10002 -99.9%   137.6       3.568       11.34     -0.3606       0.000      0.7316       0.000    
     421  0.2665E-01  0.6330E-04 SHELL      10002 -99.9%   138.2       3.529       11.39     -0.3606       0.000      0.7316       0.000    
     422  0.2671E-01  0.6330E-04 SHELL      10002 -99.9%   138.8       3.498       11.44     -0.3606       0.000      0.7316       0.000    
     423  0.2678E-01  0.6330E-04 SHELL      10002 -99.9%   139.4       3.472       11.50     -0.3606       0.000      0.7316       0.000    
     424  0.2684E-01  0.6330E-04 SHELL      10002 -99.9%   140.0       3.449       11.56     -0.3606       0.000      0.7316       0.000    
     425  0.2690E-01  0.6330E-04 SHELL      10002 -99.9%   140.7       3.427       11.64     -0.3606       0.000      0.7316       0.000    
     426  0.2697E-01  0.6330E-04 SHELL      10002 -99.9%   141.4       3.407       11.72     -0.3606       0.000      0.7316       0.000    
     427  0.2703E-01  0.6330E-04 SHELL      10002 -99.9%   142.0       3.388       11.80     -0.3606       0.000      0.7316       0.000    
     428  0.2709E-01  0.6330E-04 SHELL      10002 -99.9%   142.7       3.375       11.88     -0.3606       0.000      0.7316       0.000    
     429  0.2716E-01  0.6330E-04 SHELL      10002 -99.9%   143.4       3.366       11.95     -0.3606       0.000      0.7316       0.000    
     430  0.2722E-01  0.6330E-04 SHELL      10002 -99.9%   144.1       3.363       12.02     -0.3606       0.000      0.7316       0.000    
     431  0.2728E-01  0.6330E-04 SHELL      10002 -99.9%   144.8       3.362       12.09     -0.3606       0.000      0.7316       0.000    
     432  0.2735E-01  0.6330E-04 SHELL      10002 -99.9%   145.5       3.361       12.14     -0.3606       0.000      0.7316       0.000    
     433  0.2741E-01  0.6330E-04 SHELL      10002 -99.9%   146.2       3.355       12.19     -0.3606       0.000      0.7316       0.000    
     434  0.2747E-01  0.6330E-04 SHELL      10002 -99.9%   146.9       3.342       12.24     -0.3606       0.000      0.7316       0.000    
     435  0.2754E-01  0.6330E-04 SHELL      10002 -99.9%   147.7       3.319       12.30     -0.3606       0.000      0.7316       0.000    
     436  0.2760E-01  0.6330E-04 SHELL      10002 -99.9%   148.4       3.283       12.36     -0.3606       0.000      0.7316       0.000    
     437  0.2766E-01  0.6330E-04 SHELL      10002 -99.9%   149.2       3.236       12.42     -0.3606       0.000      0.7316       0.000    
     438  0.2773E-01  0.6330E-04 SHELL      10002 -99.9%   149.9       3.178       12.49     -0.3606       0.000      0.7316       0.000    
     439  0.2779E-01  0.6330E-04 SHELL      10002 -99.9%   150.6       3.110       12.56     -0.3606       0.000      0.7316       0.000    
   CYCLE    TIME      TIME-STEP  ELEMENT          ERROR  I-ENERGY    K-ENERGY T  K-ENERGY R  EXT-WORK     MAS.ERR     TOTAL MASS  MASS ADDED
     440  0.2785E-01  0.6330E-04 SHELL      10002 -99.9%   151.3       3.036       12.63     -0.3606       0.000      0.7316       0.000    
     441  0.2792E-01  0.6330E-04 SHELL      10002 -99.9%   152.1       2.958       12.70     -0.3606       0.000      0.7316       0.000    
     442  0.2798E-01  0.6330E-04 SHELL      10002 -99.9%   152.7       2.880       12.76     -0.3606       0.000      0.7316       0.000    
     443  0.2804E-01  0.6330E-04 SHELL      10002 -99.9%   153.4       2.803       12.81     -0.3606       0.000      0.7316       0.000    
     444  0.2811E-01  0.6330E-04 SHELL      10002 -99.9%   154.1       2.728       12.87     -0.3606       0.000      0.7316       0.000    
     445  0.2817E-01  0.6330E-04 SHELL      10002 -99.9%   154.8       2.655       12.92     -0.3606       0.000      0.7316       0.000    
     446  0.2823E-01  0.6330E-04 SHELL      10002 -99.9%   155.4       2.584       12.96     -0.3606       0.000      0.7316       0.000    
     447  0.2830E-01  0.6330E-04 SHELL      10002 -99.9%   156.0       2.513       13.01     -0.3606       0.000      0.7316       0.000    
     448  0.2836E-01  0.6330E-04 SHELL      10002 -99.9%   156.6       2.441       13.06     -0.3606       0.000      0.7316       0.000    
     449  0.2842E-01  0.6330E-04 SHELL      10002 -99.9%   157.2       2.370       13.11     -0.3606       0.000      0.7316       0.000    
     450  0.2849E-01  0.6330E-04 SHELL      10002 -99.9%   157.8       2.299       13.17     -0.3606       0.000      0.7316       0.000    
     451  0.2855E-01  0.6330E-04 SHELL      10002 -99.9%   158.4       2.228       13.23     -0.3606       0.000      0.7316       0.000    
     452  0.2861E-01  0.6330E-04 SHELL      10002 -99.9%   159.0       2.160       13.28     -0.3606       0.000      0.7316       0.000    
     453  0.2868E-01  0.6330E-04 SHELL      10002 -99.9%   159.6       2.095       13.34     -0.3606       0.000      0.7316       0.000    
     454  0.2874E-01  0.6330E-04 SHELL      10002 -99.9%   160.2       2.035       13.40     -0.3606       0.000      0.7316       0.000    
     455  0.2880E-01  0.6330E-04 SHELL      10002 -99.9%   160.7       1.978       13.45     -0.3606       0.000      0.7316       0.000    
     456  0.2887E-01  0.6330E-04 SHELL      10002 -99.9%   161.3       1.925       13.50     -0.3606       0.000      0.7316       0.000    
     457  0.2893E-01  0.6330E-04 SHELL      10002 -99.9%   161.8       1.876       13.55     -0.3606       0.000      0.7316       0.000    
     458  0.2899E-01  0.6330E-04 SHELL      10002 -99.9%   162.3       1.831       13.61     -0.3606       0.000      0.7316       0.000    
     459  0.2906E-01  0.6330E-04 SHELL      10002 -99.9%   162.8       1.791       13.66     -0.3606       0.000      0.7316       0.000    
     460  0.2912E-01  0.6330E-04 SHELL      10002 -99.9%   163.3       1.754       13.71     -0.3606       0.000      0.7316       0.000    
     461  0.2918E-01  0.6330E-04 SHELL      10002 -99.9%   163.8       1.722       13.77     -0.3606       0.000      0.7316       0.000    
     462  0.2925E-01  0.6330E-04 SHELL      10002 -99.9%   164.2       1.695       13.82     -0.3606       0.000      0.7316       0.000    
     463  0.2931E-01  0.6330E-04 SHELL      10002 -99.9%   164.7       1.674       13.88     -0.3606       0.000      0.7316       0.000    
     464  0.2937E-01  0.6330E-04 SHELL      10002 -99.9%   165.2       1.659       13.94     -0.3606       0.000      0.7316       0.000    
     465  0.2944E-01  0.6330E-04 SHELL      10002 -99.9%   165.7       1.651       14.00     -0.3606       0.000      0.7316       0.000    
     466  0.2950E-01  0.6330E-04 SHELL      10002 -99.9%   166.2       1.648       14.06     -0.3606       0.000      0.7316       0.000    
     467  0.2956E-01  0.6330E-04 SHELL      10002 -99.9%   166.6       1.648       14.11     -0.3606       0.000      0.7316       0.000    
     468  0.2963E-01  0.6330E-04 SHELL      10002 -99.9%   167.1       1.652       14.16     -0.3606       0.000      0.7316       0.000    
     469  0.2969E-01  0.6330E-04 SHELL      10002 -99.9%   167.5       1.661       14.21     -0.3606       0.000      0.7316       0.000    
     470  0.2975E-01  0.6330E-04 SHELL      10002 -99.9%   168.0       1.672       14.26     -0.3606       0.000      0.7316       0.000    
     471  0.2982E-01  0.6330E-04 SHELL      10002 -99.9%   168.5       1.683       14.30     -0.3606       0.000      0.7316       0.000    
     472  0.2988E-01  0.6330E-04 SHELL      10002 -99.9%   169.0       1.692       14.35     -0.3606       0.000      0.7316       0.000    
     473  0.2994E-01  0.6330E-04 SHELL      10002 -99.9%   169.5       1.697       14.40     -0.3606       0.000      0.7316       0.000    
     474  0.3001E-01  0.6330E-04 SHELL      10002 -99.9%   170.0       1.698       14.45     -0.3606       0.000      0.7316       0.000    
     ANIMATION FILE: BOULEV44A004 WRITTEN
     475  0.3007E-01  0.6330E-04 SHELL      10002 -99.9%   170.5       1.696       14.50     -0.3606       0.000      0.7316       0.000    
     476  0.3013E-01  0.6330E-04 SHELL      10002 -99.9%   171.0       1.694       14.55     -0.3606       0.000      0.7316       0.000    
     477  0.3020E-01  0.6330E-04 SHELL      10002 -99.9%   171.6       1.694       14.60     -0.3606       0.000      0.7316       0.000    
     478  0.3026E-01  0.6330E-04 SHELL      10002 -99.9%   172.2       1.697       14.65     -0.3606       0.000      0.7316       0.000    
     479  0.3032E-01  0.6330E-04 SHELL      10002 -99.9%   172.8       1.705       14.70     -0.3606       0.000      0.7316       0.000    
     480  0.3039E-01  0.6330E-04 SHELL      10002 -99.9%   173.4       1.717       14.74     -0.3606       0.000      0.7316       0.000    
     481  0.3045E-01  0.6330E-04 SHELL      10002 -99.9%   174.0       1.735       14.78     -0.3606       0.000      0.7316       0.000    
     482  0.3051E-01  0.6330E-04 SHELL      10002 -99.9%   174.6       1.758       14.83     -0.3606       0.000      0.7316       0.000    
     483  0.3057E-01  0.6330E-04 SHELL      10002 -99.9%   175.2       1.787       14.87     -0.3606       0.000      0.7316       0.000    
     484  0.3064E-01  0.6330E-04 SHELL      10002 -99.9%   175.9       1.820       14.92     -0.3606       0.000      0.7316       0.000    
     485  0.3070E-01  0.6330E-04 SHELL      10002 -99.9%   176.6       1.854       14.97     -0.3606       0.000      0.7316       0.000    
     486  0.3076E-01  0.6330E-04 SHELL      10002 -99.9%   177.2       1.890       15.02     -0.3606       0.000      0.7316       0.000    
     487  0.3083E-01  0.6330E-04 SHELL      10002 -99.9%   177.9       1.924       15.08     -0.3606       0.000      0.7316       0.000    
     488  0.3089E-01  0.6330E-04 SHELL      10002 -99.9%   178.7       1.959       15.14     -0.3606       0.000      0.7316       0.000    
     489  0.3095E-01  0.6330E-04 SHELL      10002 -99.9%   179.4       1.994       15.20     -0.3606       0.000      0.7316       0.000    
     490  0.3102E-01  0.6330E-04 SHELL      10002 -99.9%   180.1       2.030       15.27     -0.3606       0.000      0.7316       0.000    
     491  0.3108E-01  0.6330E-04 SHELL      10002 -99.9%   180.8       2.067       15.32     -0.3606       0.000      0.7316       0.000    
     492  0.3114E-01  0.6330E-04 SHELL      10002 -99.9%   181.6       2.104       15.38     -0.3606       0.000      0.7316       0.000    
     493  0.3121E-01  0.6330E-04 SHELL      10002 -99.9%   182.3       2.139       15.44     -0.3606       0.000      0.7316       0.000    
     494  0.3127E-01  0.6330E-04 SHELL      10002 -99.9%   183.1       2.169       15.49     -0.3606       0.000      0.7316       0.000    
   CYCLE    TIME      TIME-STEP  ELEMENT          ERROR  I-ENERGY    K-ENERGY T  K-ENERGY R  EXT-WORK     MAS.ERR     TOTAL MASS  MASS ADDED
     495  0.3133E-01  0.6330E-04 SHELL      10002 -99.9%   183.8       2.193       15.54     -0.3606       0.000      0.7316       0.000    
     496  0.3140E-01  0.6330E-04 SHELL      10002 -99.9%   184.6       2.207       15.60     -0.3606       0.000      0.7316       0.000    
     497  0.3146E-01  0.6330E-04 SHELL      10002 -99.9%   185.3       2.213       15.66     -0.3606       0.000      0.7316       0.000    
     498  0.3152E-01  0.6330E-04 SHELL      10002 -99.9%   186.1       2.208       15.71     -0.3606       0.000      0.7316       0.000    
     499  0.3159E-01  0.6330E-04 SHELL      10002 -99.9%   186.8       2.196       15.77     -0.3606       0.000      0.7316       0.000    
     500  0.3165E-01  0.6330E-04 SHELL      10002 -99.9%   187.6       2.175       15.83     -0.3606       0.000      0.7316       0.000    
     501  0.3171E-01  0.6330E-04 SHELL      10002 -99.9%   188.4       2.149       15.88     -0.3606       0.000      0.7316       0.000    
     502  0.3178E-01  0.6330E-04 SHELL      10002 -99.9%   189.1       2.116       15.93     -0.3606       0.000      0.7316       0.000    
     503  0.3184E-01  0.6330E-04 SHELL      10002 -99.9%   189.9       2.078       15.98     -0.3606       0.000      0.7316       0.000    
     504  0.3190E-01  0.6330E-04 SHELL      10002 -99.9%   190.6       2.036       16.03     -0.3606       0.000      0.7316       0.000    
     505  0.3197E-01  0.6330E-04 SHELL      10002 -99.9%   191.3       1.989       16.08     -0.3606       0.000      0.7316       0.000    
     506  0.3203E-01  0.6330E-04 SHELL      10002 -99.9%   192.1       1.938       16.12     -0.3606       0.000      0.7316       0.000    
     507  0.3209E-01  0.6330E-04 SHELL      10002 -99.9%   192.8       1.885       16.17     -0.3606       0.000      0.7316       0.000    
     508  0.3216E-01  0.6330E-04 SHELL      10002 -99.9%   193.5       1.829       16.21     -0.3606       0.000      0.7316       0.000    
     509  0.3222E-01  0.6330E-04 SHELL      10002 -99.9%   194.2       1.773       16.26     -0.3606       0.000      0.7316       0.000    
     510  0.3228E-01  0.6330E-04 SHELL      10002 -99.9%   194.9       1.717       16.30     -0.3606       0.000      0.7316       0.000    
     511  0.3235E-01  0.6330E-04 SHELL      10002 -99.9%   195.6       1.661       16.35     -0.3606       0.000      0.7316       0.000    
     512  0.3241E-01  0.6330E-04 SHELL      10002 -99.9%   196.2       1.608       16.39     -0.3606       0.000      0.7316       0.000    
     513  0.3247E-01  0.6330E-04 SHELL      10002 -99.9%   196.9       1.557       16.44     -0.3606       0.000      0.7316       0.000    
     514  0.3254E-01  0.6330E-04 SHELL      10002 -99.9%   197.5       1.509       16.49     -0.3606       0.000      0.7316       0.000    
     515  0.3260E-01  0.6330E-04 SHELL      10002 -99.9%   198.2       1.465       16.53     -0.3606       0.000      0.7316       0.000    
     516  0.3266E-01  0.6330E-04 SHELL      10002 -99.9%   198.8       1.426       16.58     -0.3606       0.000      0.7316       0.000    
     517  0.3273E-01  0.6330E-04 SHELL      10002 -99.9%   199.4       1.392       16.62     -0.3606       0.000      0.7316       0.000    
     518  0.3279E-01  0.6330E-04 SHELL      10002 -99.9%   200.0       1.363       16.66     -0.3606       0.000      0.7316       0.000    
     519  0.3285E-01  0.6330E-04 SHELL      10002 -99.9%   200.6       1.339       16.70     -0.3606       0.000      0.7316       0.000    
     520  0.3292E-01  0.6330E-04 SHELL      10002 -99.9%   201.1       1.318       16.73     -0.3606       0.000      0.7316       0.000    
     521  0.3298E-01  0.6330E-04 SHELL      10002 -99.9%   201.7       1.299       16.77     -0.3606       0.000      0.7316       0.000    
     522  0.3304E-01  0.6330E-04 SHELL      10002 -99.9%   202.2       1.282       16.81     -0.3606       0.000      0.7316       0.000    
     523  0.3311E-01  0.6330E-04 SHELL      10002 -99.9%   202.7       1.266       16.85     -0.3606       0.000      0.7316       0.000    
     524  0.3317E-01  0.6330E-04 SHELL      10002 -99.9%   203.3       1.251       16.88     -0.3606       0.000      0.7316       0.000    
     525  0.3323E-01  0.6330E-04 SHELL      10002 -99.9%   203.8       1.235       16.92     -0.3606       0.000      0.7316       0.000    
     526  0.3330E-01  0.6330E-04 SHELL      10002 -99.9%   204.3       1.219       16.96     -0.3606       0.000      0.7316       0.000    
     527  0.3336E-01  0.6330E-04 SHELL      10002 -99.9%   204.8       1.203       16.99     -0.3606       0.000      0.7316       0.000    
     528  0.3342E-01  0.6330E-04 SHELL      10002 -99.9%   205.2       1.187       17.03     -0.3606       0.000      0.7316       0.000    
     529  0.3349E-01  0.6330E-04 SHELL      10002 -99.9%   205.7       1.172       17.06     -0.3606       0.000      0.7316       0.000    
     530  0.3355E-01  0.6330E-04 SHELL      10002 -99.9%   206.2       1.159       17.10     -0.3606       0.000      0.7316       0.000    
     531  0.3361E-01  0.6330E-04 SHELL      10002 -99.9%   206.7       1.147       17.13     -0.3606       0.000      0.7316       0.000    
     532  0.3368E-01  0.6330E-04 SHELL      10002 -99.9%   207.2       1.138       17.16     -0.3606       0.000      0.7316       0.000    
     533  0.3374E-01  0.6330E-04 SHELL      10002 -99.9%   207.7       1.131       17.19     -0.3606       0.000      0.7316       0.000    
     534  0.3380E-01  0.6330E-04 SHELL      10002 -99.9%   208.2       1.126       17.23     -0.3606       0.000      0.7316       0.000    
     535  0.3387E-01  0.6330E-04 SHELL      10002 -99.9%   208.7       1.123       17.26     -0.3606       0.000      0.7316       0.000    
     536  0.3393E-01  0.6330E-04 SHELL      10002 -99.9%   209.2       1.121       17.29     -0.3606       0.000      0.7316       0.000    
     537  0.3399E-01  0.6330E-04 SHELL      10002 -99.9%   209.7       1.121       17.32     -0.3606       0.000      0.7316       0.000    
     538  0.3406E-01  0.6330E-04 SHELL      10002 -99.9%   210.2       1.122       17.35     -0.3606       0.000      0.7316       0.000    
     539  0.3412E-01  0.6330E-04 SHELL      10002 -99.9%   210.7       1.125       17.39     -0.3606       0.000      0.7316       0.000    
     540  0.3418E-01  0.6330E-04 SHELL      10002 -99.9%   211.2       1.130       17.42     -0.3606       0.000      0.7316       0.000    
     541  0.3425E-01  0.6330E-04 SHELL      10002 -99.9%   211.8       1.136       17.46     -0.3606       0.000      0.7316       0.000    
     542  0.3431E-01  0.6330E-04 SHELL      10002 -99.9%   212.3       1.144       17.49     -0.3606       0.000      0.7316       0.000    
     543  0.3437E-01  0.6330E-04 SHELL      10002 -99.9%   212.9       1.153       17.53     -0.3606       0.000      0.7316       0.000    
     544  0.3444E-01  0.6330E-04 SHELL      10002 -99.9%   213.4       1.162       17.56     -0.3606       0.000      0.7316       0.000    
     545  0.3450E-01  0.6330E-04 SHELL      10002 -99.9%   214.0       1.172       17.59     -0.3606       0.000      0.7316       0.000    
     546  0.3456E-01  0.6330E-04 SHELL      10002 -99.9%   214.5       1.180       17.63     -0.3606       0.000      0.7316       0.000    
     547  0.3463E-01  0.6330E-04 SHELL      10002 -99.9%   215.1       1.188       17.66     -0.3606       0.000      0.7316       0.000    
     548  0.3469E-01  0.6330E-04 SHELL      10002 -99.9%   215.7       1.194       17.70     -0.3606       0.000      0.7316       0.000    
     549  0.3475E-01  0.6330E-04 SHELL      10002 -99.9%   216.3       1.200       17.73     -0.3606       0.000      0.7316       0.000    
   CYCLE    TIME      TIME-STEP  ELEMENT          ERROR  I-ENERGY    K-ENERGY T  K-ENERGY R  EXT-WORK     MAS.ERR     TOTAL MASS  MASS ADDED
     550  0.3482E-01  0.6330E-04 SHELL      10002 -99.9%   216.8       1.204       17.77     -0.3606       0.000      0.7316       0.000    
     551  0.3488E-01  0.6330E-04 SHELL      10002 -99.9%   217.4       1.206       17.81     -0.3606       0.000      0.7316       0.000    
     552  0.3494E-01  0.6330E-04 SHELL      10002 -99.9%   218.0       1.207       17.85     -0.3606       0.000      0.7316       0.000    
     553  0.3501E-01  0.6330E-04 SHELL      10002 -99.9%   218.6       1.207       17.89     -0.3606       0.000      0.7316       0.000    
     554  0.3507E-01  0.6330E-04 SHELL      10002 -99.9%   219.2       1.205       17.93     -0.3606       0.000      0.7316       0.000    
     555  0.3513E-01  0.6330E-04 SHELL      10002 -99.9%   219.8       1.202       17.97     -0.3606       0.000      0.7316       0.000    
     556  0.3520E-01  0.6330E-04 SHELL      10002 -99.9%   220.4       1.198       18.01     -0.3606       0.000      0.7316       0.000    
     557  0.3526E-01  0.6330E-04 SHELL      10002 -99.9%   221.0       1.194       18.05     -0.3606       0.000      0.7316       0.000    
     558  0.3532E-01  0.6330E-04 SHELL      10002 -99.9%   221.6       1.190       18.09     -0.3606       0.000      0.7316       0.000    
     559  0.3539E-01  0.6330E-04 SHELL      10002 -99.9%   222.2       1.186       18.14     -0.3606       0.000      0.7316       0.000    
     560  0.3545E-01  0.6330E-04 SHELL      10002 -99.9%   222.8       1.181       18.18     -0.3606       0.000      0.7316       0.000    
     561  0.3551E-01  0.6330E-04 SHELL      10002 -99.9%   223.4       1.177       18.22     -0.3606       0.000      0.7316       0.000    
     562  0.3558E-01  0.6330E-04 SHELL      10002 -99.9%   224.0       1.174       18.26     -0.3606       0.000      0.7316       0.000    
     563  0.3564E-01  0.6330E-04 SHELL      10002 -99.9%   224.6       1.171       18.30     -0.3606       0.000      0.7316       0.000    
     564  0.3570E-01  0.6330E-04 SHELL      10002 -99.9%   225.3       1.169       18.35     -0.3606       0.000      0.7316       0.000    
     565  0.3577E-01  0.6330E-04 SHELL      10002 -99.9%   225.9       1.170       18.39     -0.3606       0.000      0.7316       0.000    
     566  0.3583E-01  0.6330E-04 SHELL      10002 -99.9%   226.5       1.173       18.44     -0.3606       0.000      0.7316       0.000    
     567  0.3589E-01  0.6330E-04 SHELL      10002 -99.9%   227.1       1.179       18.48     -0.3606       0.000      0.7316       0.000    
     568  0.3596E-01  0.6330E-04 SHELL      10002 -99.9%   227.8       1.189       18.53     -0.3606       0.000      0.7316       0.000    
     569  0.3602E-01  0.6330E-04 SHELL      10002 -99.9%   228.4       1.203       18.57     -0.3606       0.000      0.7316       0.000    
     570  0.3608E-01  0.6330E-04 SHELL      10002 -99.9%   229.0       1.219       18.61     -0.3606       0.000      0.7316       0.000    
     571  0.3615E-01  0.6330E-04 SHELL      10002 -99.9%   229.7       1.238       18.65     -0.3606       0.000      0.7316       0.000    
     572  0.3621E-01  0.6330E-04 SHELL      10002 -99.9%   230.3       1.257       18.70     -0.3606       0.000      0.7316       0.000    
     573  0.3627E-01  0.6330E-04 SHELL      10002 -99.9%   230.9       1.278       18.74     -0.3606       0.000      0.7316       0.000    
     574  0.3634E-01  0.6330E-04 SHELL      10002 -99.9%   231.6       1.299       18.78     -0.3606       0.000      0.7316       0.000    
     575  0.3640E-01  0.6330E-04 SHELL      10002 -99.9%   232.2       1.321       18.83     -0.3606       0.000      0.7316       0.000    
     576  0.3646E-01  0.6330E-04 SHELL      10002 -99.9%   232.8       1.344       18.87     -0.3606       0.000      0.7316       0.000    
     577  0.3653E-01  0.6330E-04 SHELL      10002 -99.9%   233.5       1.367       18.91     -0.3606       0.000      0.7316       0.000    
     578  0.3659E-01  0.6330E-04 SHELL      10002 -99.9%   234.1       1.391       18.95     -0.3606       0.000      0.7316       0.000    
     579  0.3665E-01  0.6330E-04 SHELL      10002 -99.9%   234.7       1.414       18.99     -0.3606       0.000      0.7316       0.000    
     580  0.3672E-01  0.6330E-04 SHELL      10002 -99.9%   235.3       1.437       19.03     -0.3606       0.000      0.7316       0.000    
     581  0.3678E-01  0.6330E-04 SHELL      10002 -99.9%   236.0       1.458       19.07     -0.3606       0.000      0.7316       0.000    
     582  0.3684E-01  0.6330E-04 SHELL      10002 -99.9%   236.6       1.478       19.10     -0.3606       0.000      0.7316       0.000    
     583  0.3691E-01  0.6330E-04 SHELL      10002 -99.9%   237.2       1.496       19.14     -0.3606       0.000      0.7316       0.000    
     584  0.3697E-01  0.6330E-04 SHELL      10002 -99.9%   237.9       1.513       19.17     -0.3606       0.000      0.7316       0.000    
     585  0.3703E-01  0.6330E-04 SHELL      10002 -99.9%   238.5       1.527       19.20     -0.3606       0.000      0.7316       0.000    
     586  0.3710E-01  0.6330E-04 SHELL      10002 -99.9%   239.1       1.539       19.24     -0.3606       0.000      0.7316       0.000    
     587  0.3716E-01  0.6330E-04 SHELL      10002 -99.9%   239.8       1.549       19.27     -0.3606       0.000      0.7316       0.000    
     588  0.3722E-01  0.6330E-04 SHELL      10002 -99.9%   240.4       1.558       19.31     -0.3606       0.000      0.7316       0.000    
     589  0.3728E-01  0.6330E-04 SHELL      10002 -99.9%   241.0       1.565       19.34     -0.3606       0.000      0.7316       0.000    
     590  0.3735E-01  0.6330E-04 SHELL      10002 -99.9%   241.7       1.573       19.38     -0.3606       0.000      0.7316       0.000    
     591  0.3741E-01  0.6330E-04 SHELL      10002 -99.9%   242.3       1.580       19.41     -0.3606       0.000      0.7316       0.000    
     592  0.3747E-01  0.6330E-04 SHELL      10002 -99.9%   243.0       1.587       19.44     -0.3606       0.000      0.7316       0.000    
     593  0.3754E-01  0.6330E-04 SHELL      10002 -99.9%   243.6       1.595       19.47     -0.3606       0.000      0.7316       0.000    
     594  0.3760E-01  0.6330E-04 SHELL      10002 -99.9%   244.3       1.602       19.50     -0.3606       0.000      0.7316       0.000    
     595  0.3766E-01  0.6330E-04 SHELL      10002 -99.9%   244.9       1.608       19.53     -0.3606       0.000      0.7316       0.000    
     596  0.3773E-01  0.6330E-04 SHELL      10002 -99.9%   245.6       1.614       19.56     -0.3606       0.000      0.7316       0.000    
     597  0.3779E-01  0.6330E-04 SHELL      10002 -99.9%   246.3       1.617       19.59     -0.3606       0.000      0.7316       0.000    
     598  0.3785E-01  0.6330E-04 SHELL      10002 -99.9%   246.9       1.620       19.62     -0.3606       0.000      0.7316       0.000    
     599  0.3792E-01  0.6330E-04 SHELL      10002 -99.9%   247.6       1.622       19.65     -0.3606       0.000      0.7316       0.000    
     600  0.3798E-01  0.6330E-04 SHELL      10002 -99.9%   248.2       1.623       19.68     -0.3606       0.000      0.7316       0.000    
     601  0.3804E-01  0.6330E-04 SHELL      10002 -99.9%   248.9       1.623       19.71     -0.3606       0.000      0.7316       0.000    
     602  0.3811E-01  0.6330E-04 SHELL      10002 -99.9%   249.5       1.622       19.74     -0.3606       0.000      0.7316       0.000    
     603  0.3817E-01  0.6330E-04 SHELL      10002 -99.9%   250.1       1.620       19.77     -0.3606       0.000      0.7316       0.000    
     604  0.3823E-01  0.6330E-04 SHELL      10002 -99.9%   250.8       1.615       19.79     -0.3606       0.000      0.7316       0.000    
   CYCLE    TIME      TIME-STEP  ELEMENT          ERROR  I-ENERGY    K-ENERGY T  K-ENERGY R  EXT-WORK     MAS.ERR     TOTAL MASS  MASS ADDED
     605  0.3830E-01  0.6330E-04 SHELL      10002 -99.9%   251.4       1.608       19.82     -0.3606       0.000      0.7316       0.000    
     606  0.3836E-01  0.6330E-04 SHELL      10002 -99.9%   252.1       1.597       19.84     -0.3606       0.000      0.7316       0.000    
     607  0.3842E-01  0.6330E-04 SHELL      10002 -99.9%   252.7       1.584       19.87     -0.3606       0.000      0.7316       0.000    
     608  0.3849E-01  0.6330E-04 SHELL      10002 -99.9%   253.3       1.568       19.89     -0.3606       0.000      0.7316       0.000    
     609  0.3855E-01  0.6330E-04 SHELL      10002 -99.9%   254.0       1.549       19.92     -0.3606       0.000      0.7316       0.000    
     610  0.3861E-01  0.6330E-04 SHELL      10002 -99.9%   254.6       1.528       19.94     -0.3606       0.000      0.7316       0.000    
     611  0.3868E-01  0.6330E-04 SHELL      10002 -99.9%   255.2       1.506       19.97     -0.3606       0.000      0.7316       0.000    
     612  0.3874E-01  0.6330E-04 SHELL      10002 -99.9%   255.8       1.482       19.99     -0.3606       0.000      0.7316       0.000    
     613  0.3880E-01  0.6330E-04 SHELL      10002 -99.9%   256.4       1.458       20.01     -0.3606       0.000      0.7316       0.000    
     614  0.3887E-01  0.6330E-04 SHELL      10002 -99.9%   257.1       1.434       20.04     -0.3606       0.000      0.7316       0.000    
     615  0.3893E-01  0.6330E-04 SHELL      10002 -99.9%   257.7       1.409       20.06     -0.3606       0.000      0.7316       0.000    
     616  0.3899E-01  0.6330E-04 SHELL      10002 -99.9%   258.3       1.385       20.08     -0.3606       0.000      0.7316       0.000    
     617  0.3906E-01  0.6330E-04 SHELL      10002 -99.9%   258.9       1.361       20.11     -0.3606       0.000      0.7316       0.000    
     618  0.3912E-01  0.6330E-04 SHELL      10002 -99.9%   259.4       1.336       20.13     -0.3606       0.000      0.7316       0.000    
     619  0.3918E-01  0.6330E-04 SHELL      10002 -99.9%   260.0       1.312       20.15     -0.3606       0.000      0.7316       0.000    
     620  0.3925E-01  0.6330E-04 SHELL      10002 -99.9%   260.6       1.288       20.18     -0.3606       0.000      0.7316       0.000    
     621  0.3931E-01  0.6330E-04 SHELL      10002 -99.9%   261.2       1.265       20.20     -0.3606       0.000      0.7316       0.000    
     622  0.3937E-01  0.6330E-04 SHELL      10002 -99.9%   261.8       1.242       20.23     -0.3606       0.000      0.7316       0.000    
     623  0.3944E-01  0.6330E-04 SHELL      10002 -99.9%   262.3       1.221       20.25     -0.3606       0.000      0.7316       0.000    
     624  0.3950E-01  0.6330E-04 SHELL      10002 -99.9%   262.9       1.201       20.27     -0.3606       0.000      0.7316       0.000    
     625  0.3956E-01  0.6330E-04 SHELL      10002 -99.9%   263.4       1.182       20.29     -0.3606       0.000      0.7316       0.000    
     626  0.3963E-01  0.6330E-04 SHELL      10002 -99.9%   264.0       1.165       20.32     -0.3606       0.000      0.7316       0.000    
     627  0.3969E-01  0.6330E-04 SHELL      10002 -99.9%   264.6       1.148       20.34     -0.3606       0.000      0.7316       0.000    
     628  0.3975E-01  0.6330E-04 SHELL      10002 -99.9%   265.1       1.134       20.36     -0.3606       0.000      0.7316       0.000    
     629  0.3982E-01  0.6330E-04 SHELL      10002 -99.9%   265.7       1.120       20.38     -0.3606       0.000      0.7316       0.000    
     630  0.3988E-01  0.6330E-04 SHELL      10002 -99.9%   266.2       1.107       20.40     -0.3606       0.000      0.7316       0.000    
     631  0.3994E-01  0.6330E-04 SHELL      10002 -99.9%   266.7       1.095       20.43     -0.3606       0.000      0.7316       0.000    
     632  0.4001E-01  0.6330E-04 SHELL      10002 -99.9%   267.3       1.083       20.45     -0.3606       0.000      0.7316       0.000    
     ANIMATION FILE: BOULEV44A005 WRITTEN
     633  0.4007E-01  0.6330E-04 SHELL      10002 -99.9%   267.8       1.073       20.47     -0.3606       0.000      0.7316       0.000    
     634  0.4013E-01  0.6330E-04 SHELL      10002 -99.9%   268.4       1.063       20.50     -0.3606       0.000      0.7316       0.000    
     635  0.4020E-01  0.6330E-04 SHELL      10002 -99.9%   268.9       1.055       20.52     -0.3606       0.000      0.7316       0.000    
     636  0.4026E-01  0.6330E-04 SHELL      10002 -99.9%   269.5       1.048       20.54     -0.3606       0.000      0.7316       0.000    
     637  0.4032E-01  0.6330E-04 SHELL      10002 -99.9%   270.0       1.043       20.57     -0.3606       0.000      0.7316       0.000    
     638  0.4039E-01  0.6330E-04 SHELL      10002 -99.9%   270.5       1.040       20.59     -0.3606       0.000      0.7316       0.000    
     639  0.4045E-01  0.6330E-04 SHELL      10002 -99.9%   271.1       1.039       20.61     -0.3606       0.000      0.7316       0.000    
     640  0.4051E-01  0.6330E-04 SHELL      10002 -99.9%   271.6       1.038       20.64     -0.3606       0.000      0.7316       0.000    
     641  0.4058E-01  0.6330E-04 SHELL      10002 -99.9%   272.2       1.039       20.66     -0.3606       0.000      0.7316       0.000    
     642  0.4064E-01  0.6330E-04 SHELL      10002 -99.9%   272.7       1.040       20.69     -0.3606       0.000      0.7316       0.000    
     643  0.4070E-01  0.6330E-04 SHELL      10002 -99.9%   273.3       1.042       20.72     -0.3606       0.000      0.7316       0.000    
     644  0.4077E-01  0.6330E-04 SHELL      10002 -99.9%   273.8       1.044       20.74     -0.3606       0.000      0.7316       0.000    
     645  0.4083E-01  0.6330E-04 SHELL      10002 -99.9%   274.4       1.047       20.77     -0.3606       0.000      0.7316       0.000    
     646  0.4089E-01  0.6330E-04 SHELL      10002 -99.9%   275.0       1.051       20.80     -0.3606       0.000      0.7316       0.000    
     647  0.4096E-01  0.6330E-04 SHELL      10002 -99.9%   275.5       1.056       20.82     -0.3606       0.000      0.7316       0.000    
     648  0.4102E-01  0.6330E-04 SHELL      10002 -99.9%   276.1       1.063       20.85     -0.3606       0.000      0.7316       0.000    
     649  0.4108E-01  0.6330E-04 SHELL      10002 -99.9%   276.7       1.071       20.88     -0.3606       0.000      0.7316       0.000    
     650  0.4115E-01  0.6330E-04 SHELL      10002 -99.9%   277.3       1.079       20.90     -0.3606       0.000      0.7316       0.000    
     651  0.4121E-01  0.6330E-04 SHELL      10002 -99.9%   277.8       1.089       20.93     -0.3606       0.000      0.7316       0.000    
     652  0.4127E-01  0.6330E-04 SHELL      10002 -99.9%   278.4       1.100       20.95     -0.3606       0.000      0.7316       0.000    
     653  0.4134E-01  0.6330E-04 SHELL      10002 -99.9%   279.0       1.110       20.98     -0.3606       0.000      0.7316       0.000    
     654  0.4140E-01  0.6330E-04 SHELL      10002 -99.9%   279.6       1.121       21.01     -0.3606       0.000      0.7316       0.000    
     655  0.4146E-01  0.6330E-04 SHELL      10002 -99.9%   280.2       1.132       21.03     -0.3606       0.000      0.7316       0.000    
     656  0.4153E-01  0.6330E-04 SHELL      10002 -99.9%   280.8       1.143       21.06     -0.3606       0.000      0.7316       0.000    
     657  0.4159E-01  0.6330E-04 SHELL      10002 -99.9%   281.4       1.398       21.09     -0.4476       0.000      0.7316       0.000    
     658  0.4165E-01  0.6330E-04 SHELL      10002 -99.9%   282.1       1.395       21.12     -0.4476       0.000      0.7316       0.000    
     659  0.4172E-01  0.6330E-04 SHELL      10002 -99.9%   282.8       1.472       21.15     -0.4536       0.000      0.7316       0.000    
   CYCLE    TIME      TIME-STEP  ELEMENT          ERROR  I-ENERGY    K-ENERGY T  K-ENERGY R  EXT-WORK     MAS.ERR     TOTAL MASS  MASS ADDED
     660  0.4178E-01  0.6330E-04 SHELL      10002 -99.9%   283.5       1.547       21.19     -0.4536       0.000      0.7316       0.000    
     661  0.4184E-01  0.6330E-04 SHELL      10002 -99.9%   284.3       1.642       21.23     -0.4536       0.000      0.7316       0.000    
     662  0.4191E-01  0.6330E-04 SHELL      10002 -99.9%   285.0       1.749       21.28     -0.4536       0.000      0.7316       0.000    
     663  0.4197E-01  0.6330E-04 SHELL      10002 -99.9%   285.7       1.857       21.32     -0.4536       0.000      0.7316       0.000    
     664  0.4203E-01  0.6330E-04 SHELL      10002 -99.9%   286.5       1.959       21.37     -0.4536       0.000      0.7316       0.000    
     665  0.4210E-01  0.6330E-04 SHELL      10002 -99.9%   287.2       2.051       21.40     -0.4536       0.000      0.7316       0.000    
     666  0.4216E-01  0.6330E-04 SHELL      10002 -99.9%   288.0       2.129       21.43     -0.4536       0.000      0.7316       0.000    
     667  0.4222E-01  0.6330E-04 SHELL      10002 -99.9%   288.8       2.191       21.44     -0.4536       0.000      0.7316       0.000    
     668  0.4229E-01  0.6330E-04 SHELL      10002 -99.9%   289.5       2.239       21.45     -0.4536       0.000      0.7316       0.000    
     669  0.4235E-01  0.6330E-04 SHELL      10002 -99.9%   290.3       2.273       21.45     -0.4536       0.000      0.7316       0.000    
     670  0.4241E-01  0.6330E-04 SHELL      10002 -99.9%   291.1       2.296       21.46     -0.4536       0.000      0.7316       0.000    
     671  0.4248E-01  0.6330E-04 SHELL      10002 -99.9%   291.9       2.311       21.46     -0.4536       0.000      0.7316       0.000    
     672  0.4254E-01  0.6330E-04 SHELL      10002 -99.9%   292.7       2.319       21.47     -0.4536       0.000      0.7316       0.000    
     673  0.4260E-01  0.6330E-04 SHELL      10002 -99.9%   293.5       2.325       21.48     -0.4536       0.000      0.7316       0.000    
     674  0.4267E-01  0.6330E-04 SHELL      10002 -99.9%   294.3       2.331       21.49     -0.4536       0.000      0.7316       0.000    
     675  0.4273E-01  0.6330E-04 SHELL      10002 -99.9%   295.1       2.338       21.51     -0.4536       0.000      0.7316       0.000    
     676  0.4279E-01  0.6330E-04 SHELL      10002 -99.9%   295.9       2.349       21.53     -0.4536       0.000      0.7316       0.000    
     677  0.4286E-01  0.6330E-04 SHELL      10002 -99.9%   296.7       2.361       21.55     -0.4536       0.000      0.7316       0.000    
     678  0.4292E-01  0.6330E-04 SHELL      10002 -99.9%   297.4       2.376       21.56     -0.4536       0.000      0.7316       0.000    
     679  0.4298E-01  0.6330E-04 SHELL      10002 -99.9%   298.2       2.391       21.58     -0.4536       0.000      0.7316       0.000    
     680  0.4305E-01  0.6330E-04 SHELL      10002 -99.9%   299.0       2.367       21.60     -0.4536       0.000      0.7316       0.000    
     681  0.4311E-01  0.6330E-04 SHELL      10002 -99.9%   299.7       2.411       21.61     -0.4627       0.000      0.7316       0.000    
     682  0.4317E-01  0.6330E-04 SHELL      10002 -99.9%   300.4       2.408       21.62     -0.4627       0.000      0.7316       0.000    
     683  0.4324E-01  0.6330E-04 SHELL      10002 -99.9%   301.2       2.405       21.63     -0.4627       0.000      0.7316       0.000    
     684  0.4330E-01  0.6330E-04 SHELL      10002 -99.9%   301.9       2.402       21.65     -0.4627       0.000      0.7316       0.000    
     685  0.4336E-01  0.6330E-04 SHELL      10002 -99.9%   302.6       2.400       21.66     -0.4627       0.000      0.7316       0.000    
     686  0.4343E-01  0.6330E-04 SHELL      10002 -99.9%   303.3       2.402       21.68     -0.4627       0.000      0.7316       0.000    
     687  0.4349E-01  0.6330E-04 SHELL      10002 -99.9%   304.0       2.406       21.70     -0.4627       0.000      0.7316       0.000    
     688  0.4355E-01  0.6330E-04 SHELL      10002 -99.9%   304.7       2.412       21.71     -0.4627       0.000      0.7316       0.000    
     689  0.4362E-01  0.6330E-04 SHELL      10002 -99.9%   305.4       2.422       21.73     -0.4627       0.000      0.7316       0.000    
     690  0.4368E-01  0.6330E-04 SHELL      10002 -99.9%   306.1       2.432       21.74     -0.4627       0.000      0.7316       0.000    
     691  0.4374E-01  0.6330E-04 SHELL      10002 -99.9%   306.8       2.443       21.76     -0.4627       0.000      0.7316       0.000    
     692  0.4381E-01  0.6330E-04 SHELL      10002 -99.9%   307.4       2.452       21.77     -0.4627       0.000      0.7316       0.000    
     693  0.4387E-01  0.6330E-04 SHELL      10002 -99.9%   308.1       2.461       21.79     -0.4627       0.000      0.7316       0.000    
     694  0.4393E-01  0.6330E-04 SHELL      10002 -99.9%   308.8       2.468       21.80     -0.4627       0.000      0.7316       0.000    
     695  0.4399E-01  0.6330E-04 SHELL      10002 -99.9%   309.5       2.475       21.82     -0.4627       0.000      0.7316       0.000    
     696  0.4406E-01  0.6330E-04 SHELL      10002 -99.9%   310.2       2.483       21.83     -0.4627       0.000      0.7316       0.000    
     697  0.4412E-01  0.6330E-04 SHELL      10002 -99.9%   310.9       2.491       21.85     -0.4627       0.000      0.7316       0.000    
     698  0.4418E-01  0.6330E-04 SHELL      10002 -99.9%   311.5       2.499       21.86     -0.4627       0.000      0.7316       0.000    
     699  0.4425E-01  0.6330E-04 SHELL      10002 -99.9%   312.2       2.507       21.88     -0.4627       0.000      0.7316       0.000    
     700  0.4431E-01  0.6330E-04 SHELL      10002 -99.9%   312.9       2.517       21.89     -0.4627       0.000      0.7316       0.000    
     701  0.4437E-01  0.6330E-04 SHELL      10002 -99.9%   313.5       2.527       21.91     -0.4627       0.000      0.7316       0.000    
     702  0.4444E-01  0.6330E-04 SHELL      10002 -99.9%   314.2       2.539       21.92     -0.4627       0.000      0.7316       0.000    
     703  0.4450E-01  0.6330E-04 SHELL      10002 -99.9%   314.9       2.553       21.93     -0.4627       0.000      0.7316       0.000    
     704  0.4456E-01  0.6330E-04 SHELL      10002 -99.9%   315.6       2.570       21.94     -0.4627       0.000      0.7316       0.000    
     705  0.4463E-01  0.6330E-04 SHELL      10002 -99.9%   316.3       2.590       21.95     -0.4627       0.000      0.7316       0.000    
     706  0.4469E-01  0.6330E-04 SHELL      10002 -99.9%   316.9       2.612       21.96     -0.4627       0.000      0.7316       0.000    
     707  0.4475E-01  0.6330E-04 SHELL      10002 -99.9%   317.6       2.638       21.96     -0.4627       0.000      0.7316       0.000    
     708  0.4482E-01  0.6330E-04 SHELL      10002 -99.9%   318.3       2.666       21.97     -0.4627       0.000      0.7316       0.000    
     709  0.4488E-01  0.6330E-04 SHELL      10002 -99.9%   319.0       2.697       21.97     -0.4627       0.000      0.7316       0.000    
     710  0.4494E-01  0.6330E-04 SHELL      10002 -99.9%   319.7       2.731       21.97     -0.4627       0.000      0.7316       0.000    
     711  0.4501E-01  0.6330E-04 SHELL      10002 -99.9%   320.4       2.766       21.97     -0.4627       0.000      0.7316       0.000    
     712  0.4507E-01  0.6330E-04 SHELL      10002 -99.9%   321.1       2.801       21.97     -0.4627       0.000      0.7316       0.000    
     713  0.4513E-01  0.6330E-04 SHELL      10002 -99.9%   321.7       2.834       21.96     -0.4627       0.000      0.7316       0.000    
     714  0.4520E-01  0.6330E-04 SHELL      10002 -99.9%   322.4       2.864       21.96     -0.4627       0.000      0.7316       0.000    
   CYCLE    TIME      TIME-STEP  ELEMENT          ERROR  I-ENERGY    K-ENERGY T  K-ENERGY R  EXT-WORK     MAS.ERR     TOTAL MASS  MASS ADDED
     715  0.4526E-01  0.6330E-04 SHELL      10002 -99.9%   323.1       2.890       21.95     -0.4627       0.000      0.7316       0.000    
     716  0.4532E-01  0.6330E-04 SHELL      10002 -99.9%   323.7       2.913       21.95     -0.4627       0.000      0.7316       0.000    
     717  0.4539E-01  0.6330E-04 SHELL      10002 -99.9%   324.4       2.934       21.96     -0.4627       0.000      0.7316       0.000    
     718  0.4545E-01  0.6330E-04 SHELL      10002 -99.9%   325.0       2.955       21.96     -0.4627       0.000      0.7316       0.000    
     719  0.4551E-01  0.6330E-04 SHELL      10002 -99.9%   325.7       2.976       21.97     -0.4627       0.000      0.7316       0.000    
     720  0.4558E-01  0.6330E-04 SHELL      10002 -99.9%   326.3       3.001       21.98     -0.4627       0.000      0.7316       0.000    
     721  0.4564E-01  0.6330E-04 SHELL      10002 -99.9%   326.9       3.030       21.99     -0.4627       0.000      0.7316       0.000    
     722  0.4570E-01  0.6330E-04 SHELL      10002 -99.9%   327.6       3.063       22.00     -0.4627       0.000      0.7316       0.000    
     723  0.4577E-01  0.6330E-04 SHELL      10002 -99.9%   328.2       3.099       22.00     -0.4627       0.000      0.7316       0.000    
     724  0.4583E-01  0.6330E-04 SHELL      10002 -99.9%   328.8       3.137       22.01     -0.4627       0.000      0.7316       0.000    
     725  0.4589E-01  0.6330E-04 SHELL      10002 -99.9%   329.4       3.175       22.02     -0.4627       0.000      0.7316       0.000    
     726  0.4596E-01  0.6330E-04 SHELL      10002 -99.9%   330.1       3.210       22.03     -0.4627       0.000      0.7316       0.000    
     727  0.4602E-01  0.6330E-04 SHELL      10002 -99.9%   330.7       3.538       22.05     -0.5250       0.000      0.7316       0.000    
     728  0.4608E-01  0.6330E-04 SHELL      10002 -99.9%   331.3       3.533       22.07     -0.5250       0.000      0.7316       0.000    
     729  0.4615E-01  0.6330E-04 SHELL      10002 -99.9%   332.0       3.626       22.10     -0.5346       0.000      0.7316       0.000    
     730  0.4621E-01  0.6330E-04 SHELL      10002 -99.9%   332.6       3.593       22.15     -0.5346       0.000      0.7316       0.000    
     731  0.4627E-01  0.6330E-04 SHELL      10002 -99.9%   333.3       3.716       22.19     -0.5639       0.000      0.7316       0.000    
     732  0.4634E-01  0.6330E-04 SHELL      10002 -99.9%   334.0       3.737       22.23     -0.5639       0.000      0.7316       0.000    
     733  0.4640E-01  0.6330E-04 SHELL      10002 -99.9%   334.7       3.754       22.26     -0.5639       0.000      0.7316       0.000    
     734  0.4646E-01  0.6330E-04 SHELL      10002 -99.9%   335.4       3.769       22.28     -0.5639       0.000      0.7316       0.000    
     735  0.4653E-01  0.6330E-04 SHELL      10002 -99.9%   336.1       3.782       22.30     -0.5639       0.000      0.7316       0.000    
     736  0.4659E-01  0.6330E-04 SHELL      10002 -99.9%   336.8       3.796       22.32     -0.5639       0.000      0.7316       0.000    
     737  0.4665E-01  0.6330E-04 SHELL      10002 -99.9%   337.6       3.814       22.34     -0.5639       0.000      0.7316       0.000    
     738  0.4672E-01  0.6330E-04 SHELL      10002 -99.9%   338.3       3.837       22.35     -0.5639       0.000      0.7316       0.000    
     739  0.4678E-01  0.6330E-04 SHELL      10002 -99.9%   339.1       3.870       22.38     -0.5639       0.000      0.7316       0.000    
     740  0.4684E-01  0.6330E-04 SHELL      10002 -99.9%   339.9       3.913       22.40     -0.5639       0.000      0.7316       0.000    
     741  0.4691E-01  0.6330E-04 SHELL      10002 -99.9%   340.7       3.961       22.43     -0.5639       0.000      0.7316       0.000    
     742  0.4697E-01  0.6330E-04 SHELL      10002 -99.9%   341.5       4.007       22.45     -0.5639       0.000      0.7316       0.000    
     743  0.4703E-01  0.6330E-04 SHELL      10002 -99.9%   342.3       4.042       22.48     -0.5639       0.000      0.7316       0.000    
     744  0.4710E-01  0.6330E-04 SHELL      10002 -99.9%   343.1       4.063       22.51     -0.5639       0.000      0.7316       0.000    
     745  0.4716E-01  0.6330E-04 SHELL      10002 -99.9%   343.9       4.075       22.53     -0.5639       0.000      0.7316       0.000    
     746  0.4722E-01  0.6330E-04 SHELL      10002 -99.9%   344.7       4.084       22.54     -0.5639       0.000      0.7316       0.000    
     747  0.4729E-01  0.6330E-04 SHELL      10002 -99.9%   345.5       4.092       22.54     -0.5639       0.000      0.7316       0.000    
     748  0.4735E-01  0.6330E-04 SHELL      10002 -99.9%   346.3       4.102       22.55     -0.5639       0.000      0.7316       0.000    
     749  0.4741E-01  0.6330E-04 SHELL      10002 -99.9%   347.0       4.109       22.55     -0.5639       0.000      0.7316       0.000    
     750  0.4748E-01  0.6330E-04 SHELL      10002 -99.9%   347.8       4.112       22.55     -0.5639       0.000      0.7316       0.000    
     751  0.4754E-01  0.6330E-04 SHELL      10002 -99.9%   348.6       4.111       22.56     -0.5639       0.000      0.7316       0.000    
     752  0.4760E-01  0.6330E-04 SHELL      10002 -99.9%   349.4       4.108       22.58     -0.5639       0.000      0.7316       0.000    
     753  0.4767E-01  0.6330E-04 SHELL      10002 -99.9%   350.1       4.107       22.59     -0.5639       0.000      0.7316       0.000    
     754  0.4773E-01  0.6330E-04 SHELL      10002 -99.9%   350.9       4.109       22.61     -0.5639       0.000      0.7316       0.000    
     755  0.4779E-01  0.6330E-04 SHELL      10002 -99.9%   351.6       4.117       22.63     -0.5639       0.000      0.7316       0.000    
     756  0.4786E-01  0.6330E-04 SHELL      10002 -99.9%   352.4       4.129       22.65     -0.5639       0.000      0.7316       0.000    
     757  0.4792E-01  0.6330E-04 SHELL      10002 -99.9%   353.1       4.143       22.67     -0.5639       0.000      0.7316       0.000    
     758  0.4798E-01  0.6330E-04 SHELL      10002 -99.9%   353.9       4.157       22.68     -0.5639       0.000      0.7316       0.000    
     759  0.4805E-01  0.6330E-04 SHELL      10002 -99.9%   354.6       4.171       22.68     -0.5639       0.000      0.7316       0.000    
     760  0.4811E-01  0.6330E-04 SHELL      10002 -99.9%   355.4       4.183       22.69     -0.5639       0.000      0.7316       0.000    
     761  0.4817E-01  0.6330E-04 SHELL      10002 -99.9%   356.1       4.194       22.70     -0.5639       0.000      0.7316       0.000    
     762  0.4824E-01  0.6330E-04 SHELL      10002 -99.9%   356.8       4.202       22.71     -0.5639       0.000      0.7316       0.000    
     763  0.4830E-01  0.6330E-04 SHELL      10002 -99.9%   357.5       4.209       22.73     -0.5639       0.000      0.7316       0.000    
     764  0.4836E-01  0.6330E-04 SHELL      10002 -99.9%   358.3       4.216       22.74     -0.5639       0.000      0.7316       0.000    
     765  0.4843E-01  0.6330E-04 SHELL      10002 -99.9%   359.0       4.226       22.76     -0.5639       0.000      0.7316       0.000    
     766  0.4849E-01  0.6330E-04 SHELL      10002 -99.9%   359.7       4.242       22.77     -0.5639       0.000      0.7316       0.000    
     767  0.4855E-01  0.6330E-04 SHELL      10002 -99.9%   360.4       4.265       22.79     -0.5639       0.000      0.7316       0.000    
     768  0.4862E-01  0.6330E-04 SHELL      10002 -99.9%   361.2       4.294       22.80     -0.5639       0.000      0.7316       0.000    
     769  0.4868E-01  0.6330E-04 SHELL      10002 -99.9%   361.9       4.326       22.80     -0.5639       0.000      0.7316       0.000    
   CYCLE    TIME      TIME-STEP  ELEMENT          ERROR  I-ENERGY    K-ENERGY T  K-ENERGY R  EXT-WORK     MAS.ERR     TOTAL MASS  MASS ADDED
     770  0.4874E-01  0.6330E-04 SHELL      10002 -99.9%   362.6       4.358       22.81     -0.5639       0.000      0.7316       0.000    
     771  0.4881E-01  0.6330E-04 SHELL      10002 -99.9%   363.4       4.388       22.82     -0.5639       0.000      0.7316       0.000    
     772  0.4887E-01  0.6330E-04 SHELL      10002 -99.9%   364.1       4.413       22.83     -0.5639       0.000      0.7316       0.000    
     773  0.4893E-01  0.6330E-04 SHELL      10002 -99.9%   364.8       4.435       22.84     -0.5639       0.000      0.7316       0.000    
     774  0.4900E-01  0.6330E-04 SHELL      10002 -99.9%   365.6       4.453       22.85     -0.5639       0.000      0.7316       0.000    
     775  0.4906E-01  0.6330E-04 SHELL      10002 -99.9%   366.3       4.469       22.87     -0.5639       0.000      0.7316       0.000    
     776  0.4912E-01  0.6330E-04 SHELL      10002 -99.9%   367.1       4.481       22.88     -0.5639       0.000      0.7316       0.000    
     777  0.4919E-01  0.6330E-04 SHELL      10002 -99.9%   367.8       4.493       22.89     -0.5639       0.000      0.7316       0.000    
     778  0.4925E-01  0.6330E-04 SHELL      10002 -99.9%   368.6       4.504       22.90     -0.5639       0.000      0.7316       0.000    
     779  0.4931E-01  0.6330E-04 SHELL      10002 -99.9%   369.3       4.519       22.91     -0.5639       0.000      0.7316       0.000    
     780  0.4938E-01  0.6330E-04 SHELL      10002 -99.9%   370.1       4.536       22.91     -0.5639       0.000      0.7316       0.000    
     781  0.4944E-01  0.6330E-04 SHELL      10002 -99.9%   370.8       4.557       22.92     -0.5639       0.000      0.7316       0.000    
     782  0.4950E-01  0.6330E-04 SHELL      10002 -99.9%   371.5       4.579       22.93     -0.5639       0.000      0.7316       0.000    
     783  0.4957E-01  0.6330E-04 SHELL      10002 -99.9%   372.3       4.599       22.94     -0.5639       0.000      0.7316       0.000    
     784  0.4963E-01  0.6330E-04 SHELL      10002 -99.9%   373.0       4.616       22.95     -0.5639       0.000      0.7316       0.000    
     785  0.4969E-01  0.6330E-04 SHELL      10002 -99.9%   373.7       4.629       22.97     -0.5639       0.000      0.7316       0.000    
     786  0.4976E-01  0.6330E-04 SHELL      10002 -99.9%   374.4       4.639       22.99     -0.5639       0.000      0.7316       0.000    
     787  0.4982E-01  0.6330E-04 SHELL      10002 -99.9%   375.2       4.647       23.02     -0.5639       0.000      0.7316       0.000    
     788  0.4988E-01  0.6330E-04 SHELL      10002 -99.9%   375.9       4.657       23.05     -0.5639       0.000      0.7316       0.000    
     789  0.4995E-01  0.6330E-04 SHELL      10002 -99.9%   376.6       4.668       23.07     -0.5639       0.000      0.7316       0.000    
     790  0.5001E-01  0.6330E-04 SHELL      10002 -99.9%   377.3       4.682       23.10     -0.5639       0.000      0.7316       0.000    
     ANIMATION FILE: BOULEV44A006 WRITTEN
     791  0.5007E-01  0.6330E-04 SHELL      10002 -99.9%   378.0       4.700       23.12     -0.5639       0.000      0.7316       0.000    
     792  0.5014E-01  0.6330E-04 SHELL      10002 -99.9%   378.8       4.721       23.13     -0.5639       0.000      0.7316       0.000    
     793  0.5020E-01  0.6330E-04 SHELL      10002 -99.9%   379.5       4.743       23.15     -0.5639       0.000      0.7316       0.000    
     794  0.5026E-01  0.6330E-04 SHELL      10002 -99.9%   380.2       4.763       23.16     -0.5639       0.000      0.7316       0.000    
     795  0.5033E-01  0.6330E-04 SHELL      10002 -99.9%   380.9       4.781       23.18     -0.5639       0.000      0.7316       0.000    
     796  0.5039E-01  0.6330E-04 SHELL      10002 -99.9%   381.6       4.795       23.20     -0.5639       0.000      0.7316       0.000    
     797  0.5045E-01  0.6330E-04 SHELL      10002 -99.9%   382.4       4.805       23.22     -0.5639       0.000      0.7316       0.000    
     798  0.5052E-01  0.6330E-04 SHELL      10002 -99.9%   383.1       4.812       23.25     -0.5639       0.000      0.7316       0.000    
     799  0.5058E-01  0.6330E-04 SHELL      10002 -99.9%   383.8       4.820       23.28     -0.5639       0.000      0.7316       0.000    
     800  0.5064E-01  0.6330E-04 SHELL      10002 -99.9%   384.5       4.831       23.30     -0.5639       0.000      0.7316       0.000    
     801  0.5070E-01  0.6330E-04 SHELL      10002 -99.9%   385.2       4.847       23.33     -0.5639       0.000      0.7316       0.000    
     802  0.5077E-01  0.6330E-04 SHELL      10002 -99.9%   385.9       4.868       23.35     -0.5639       0.000      0.7316       0.000    
     803  0.5083E-01  0.6330E-04 SHELL      10002 -99.9%   386.6       4.894       23.37     -0.5639       0.000      0.7316       0.000    
     804  0.5089E-01  0.6330E-04 SHELL      10002 -99.9%   387.3       4.923       23.39     -0.5639       0.000      0.7316       0.000    
     805  0.5096E-01  0.6330E-04 SHELL      10002 -99.9%   388.0       4.953       23.41     -0.5639       0.000      0.7316       0.000    
     806  0.5102E-01  0.6330E-04 SHELL      10002 -99.9%   388.7       4.981       23.43     -0.5639       0.000      0.7316       0.000    
     807  0.5108E-01  0.6330E-04 SHELL      10002 -99.9%   389.4       5.006       23.46     -0.5639       0.000      0.7316       0.000    
     808  0.5115E-01  0.6330E-04 SHELL      10002 -99.9%   390.2       5.026       23.48     -0.5639       0.000      0.7316       0.000    
     809  0.5121E-01  0.6330E-04 SHELL      10002 -99.9%   390.9       5.043       23.52     -0.5639       0.000      0.7316       0.000    
     810  0.5127E-01  0.6330E-04 SHELL      10002 -99.9%   391.6       5.058       23.55     -0.5639       0.000      0.7316       0.000    
     811  0.5134E-01  0.6330E-04 SHELL      10002 -99.9%   392.3       5.072       23.58     -0.5639       0.000      0.7316       0.000    
     812  0.5140E-01  0.6330E-04 SHELL      10002 -99.9%   393.0       5.088       23.61     -0.5639       0.000      0.7316       0.000    
     813  0.5146E-01  0.6330E-04 SHELL      10002 -99.9%   393.7       5.107       23.63     -0.5639       0.000      0.7316       0.000    
     814  0.5153E-01  0.6330E-04 SHELL      10002 -99.9%   394.4       5.129       23.65     -0.5639       0.000      0.7316       0.000    
     815  0.5159E-01  0.6330E-04 SHELL      10002 -99.9%   395.1       5.153       23.67     -0.5639       0.000      0.7316       0.000    
     816  0.5165E-01  0.6330E-04 SHELL      10002 -99.9%   395.8       5.179       23.68     -0.5639       0.000      0.7316       0.000    
     817  0.5172E-01  0.6330E-04 SHELL      10002 -99.9%   396.5       5.204       23.70     -0.5639       0.000      0.7316       0.000    
     818  0.5178E-01  0.6330E-04 SHELL      10002 -99.9%   397.2       5.228       23.72     -0.5639       0.000      0.7316       0.000    
     819  0.5184E-01  0.6330E-04 SHELL      10002 -99.9%   398.0       5.250       23.74     -0.5639       0.000      0.7316       0.000    
     820  0.5191E-01  0.6330E-04 SHELL      10002 -99.9%   398.7       5.270       23.76     -0.5639       0.000      0.7316       0.000    
     821  0.5197E-01  0.6330E-04 SHELL      10002 -99.9%   399.4       5.288       23.79     -0.5639       0.000      0.7316       0.000    
     822  0.5203E-01  0.6330E-04 SHELL      10002 -99.9%   400.1       5.307       23.82     -0.5639       0.000      0.7316       0.000    
     823  0.5210E-01  0.6330E-04 SHELL      10002 -99.9%   400.8       5.327       23.85     -0.5639       0.000      0.7316       0.000    
     824  0.5216E-01  0.6330E-04 SHELL      10002 -99.9%   401.5       5.351       23.87     -0.5639       0.000      0.7316       0.000    
   CYCLE    TIME      TIME-STEP  ELEMENT          ERROR  I-ENERGY    K-ENERGY T  K-ENERGY R  EXT-WORK     MAS.ERR     TOTAL MASS  MASS ADDED
     825  0.5222E-01  0.6330E-04 SHELL      10002 -99.9%   402.2       5.379       23.89     -0.5639       0.000      0.7316       0.000    
     826  0.5229E-01  0.6330E-04 SHELL      10002 -99.9%   402.9       5.411       23.90     -0.5639       0.000      0.7316       0.000    
     827  0.5235E-01  0.6330E-04 SHELL      10002 -99.9%   403.6       5.446       23.92     -0.5639       0.000      0.7316       0.000    
     828  0.5241E-01  0.6330E-04 SHELL      10002 -99.9%   404.3       5.484       23.93     -0.5639       0.000      0.7316       0.000    
     829  0.5248E-01  0.6330E-04 SHELL      10002 -99.9%   405.0       5.521       23.94     -0.5639       0.000      0.7316       0.000    
     830  0.5254E-01  0.6330E-04 SHELL      10002 -99.9%   405.7       5.557       23.95     -0.5639       0.000      0.7316       0.000    
     831  0.5260E-01  0.6330E-04 SHELL      10002 -99.9%   406.4       5.589       23.97     -0.5639       0.000      0.7316       0.000    
     832  0.5267E-01  0.6330E-04 SHELL      10002 -99.9%   407.1       5.618       23.99     -0.5639       0.000      0.7316       0.000    
     833  0.5273E-01  0.6330E-04 SHELL      10002 -99.9%   407.8       5.645       24.02     -0.5639       0.000      0.7316       0.000    
     834  0.5279E-01  0.6330E-04 SHELL      10002 -99.9%   408.5       5.671       24.04     -0.5639       0.000      0.7316       0.000    
     835  0.5286E-01  0.6330E-04 SHELL      10002 -99.9%   409.2       5.697       24.07     -0.5639       0.000      0.7316       0.000    
     836  0.5292E-01  0.6330E-04 SHELL      10002 -99.9%   409.9       5.725       24.09     -0.5639       0.000      0.7316       0.000    
     837  0.5298E-01  0.6330E-04 SHELL      10002 -99.9%   410.6       5.757       24.11     -0.5639       0.000      0.7316       0.000    
     838  0.5305E-01  0.6330E-04 SHELL      10002 -99.9%   411.2       5.792       24.12     -0.5639       0.000      0.7316       0.000    
     839  0.5311E-01  0.6330E-04 SHELL      10002 -99.9%   411.9       5.829       24.13     -0.5639       0.000      0.7316       0.000    
     840  0.5317E-01  0.6330E-04 SHELL      10002 -99.9%   412.6       5.867       24.15     -0.5639       0.000      0.7316       0.000    
     841  0.5324E-01  0.6330E-04 SHELL      10002 -99.9%   413.3       5.904       24.16     -0.5639       0.000      0.7316       0.000    
     842  0.5330E-01  0.6330E-04 SHELL      10002 -99.9%   414.0       5.937       24.18     -0.5639       0.000      0.7316       0.000    
     843  0.5336E-01  0.6330E-04 SHELL      10002 -99.9%   414.7       5.966       24.20     -0.5639       0.000      0.7316       0.000    
     844  0.5343E-01  0.6330E-04 SHELL      10002 -99.9%   415.4       5.991       24.22     -0.5639       0.000      0.7316       0.000    
     845  0.5349E-01  0.6330E-04 SHELL      10002 -99.9%   416.1       6.013       24.25     -0.5639       0.000      0.7316       0.000    
     846  0.5355E-01  0.6330E-04 SHELL      10002 -99.9%   416.7       6.033       24.27     -0.5639       0.000      0.7316       0.000    
     847  0.5362E-01  0.6330E-04 SHELL      10002 -99.9%   417.4       6.056       24.29     -0.5639       0.000      0.7316       0.000    
     848  0.5368E-01  0.6330E-04 SHELL      10002 -99.9%   418.1       6.081       24.31     -0.5639       0.000      0.7316       0.000    
     849  0.5374E-01  0.6330E-04 SHELL      10002 -99.9%   418.8       6.409       24.33     -0.7544       0.000      0.7316       0.000    
     850  0.5381E-01  0.6330E-04 SHELL      10002 -99.9%   419.6       6.398       24.34     -0.7544       0.000      0.7316       0.000    
     851  0.5387E-01  0.6330E-04 SHELL      10002 -99.9%   420.4       6.470       24.34     -0.7700       0.000      0.7316       0.000    
     852  0.5393E-01  0.6330E-04 SHELL      10002 -99.9%   421.2       6.497       24.34     -0.7700       0.000      0.7316       0.000    
     853  0.5400E-01  0.6330E-04 SHELL      10002 -99.9%   422.1       6.512       24.33     -0.7700       0.000      0.7316       0.000    
     854  0.5406E-01  0.6330E-04 SHELL      10002 -99.9%   423.0       6.504       24.33     -0.7700       0.000      0.7316       0.000    
     855  0.5412E-01  0.6330E-04 SHELL      10002 -99.9%   423.9       6.465       24.31     -0.7700       0.000      0.7316       0.000    
     856  0.5419E-01  0.6330E-04 SHELL      10002 -99.9%   424.8       6.393       24.30     -0.7700       0.000      0.7316       0.000    
     857  0.5425E-01  0.6330E-04 SHELL      10002 -99.9%   425.7       6.279       24.28     -0.7700       0.000      0.7316       0.000    
     858  0.5431E-01  0.6330E-04 SHELL      10002 -99.9%   426.6       6.169       24.25     -0.7703       0.000      0.7316       0.000    
     859  0.5438E-01  0.6330E-04 SHELL      10002 -99.9%   427.6       6.047       24.21     -0.7703       0.000      0.7316       0.000    
     860  0.5444E-01  0.6330E-04 SHELL      10002 -99.9%   428.5       5.944       24.17     -0.7703       0.000      0.7316       0.000    
     861  0.5450E-01  0.6330E-04 SHELL      10002 -99.9%   429.4       5.856       24.11     -0.7703       0.000      0.7316       0.000    
     862  0.5457E-01  0.6330E-04 SHELL      10002 -99.9%   430.3       5.778       24.06     -0.7703       0.000      0.7316       0.000    
     863  0.5463E-01  0.6330E-04 SHELL      10002 -99.9%   431.2       5.707       24.00     -0.7703       0.000      0.7316       0.000    
     864  0.5469E-01  0.6330E-04 SHELL      10002 -99.9%   432.1       5.641       23.94     -0.7703       0.000      0.7316       0.000    
     865  0.5476E-01  0.6330E-04 SHELL      10002 -99.9%   433.0       5.578       23.88     -0.7703       0.000      0.7316       0.000    
     866  0.5482E-01  0.6330E-04 SHELL      10002 -99.9%   433.9       5.514       23.82     -0.7703       0.000      0.7316       0.000    
     867  0.5488E-01  0.6330E-04 SHELL      10002 -99.9%   434.8       5.449       23.77     -0.7703       0.000      0.7316       0.000    
     868  0.5495E-01  0.6330E-04 SHELL      10002 -99.9%   435.7       5.379       23.73     -0.7703       0.000      0.7316       0.000    
     869  0.5501E-01  0.6330E-04 SHELL      10002 -99.9%   436.5       5.305       23.68     -0.7703       0.000      0.7316       0.000    
     870  0.5507E-01  0.6330E-04 SHELL      10002 -99.9%   437.4       5.228       23.64     -0.7703       0.000      0.7316       0.000    
     871  0.5514E-01  0.6330E-04 SHELL      10002 -99.9%   438.3       5.150       23.59     -0.7703       0.000      0.7316       0.000    
     872  0.5520E-01  0.6330E-04 SHELL      10002 -99.9%   439.2       5.072       23.54     -0.7703       0.000      0.7316       0.000    
     873  0.5526E-01  0.6330E-04 SHELL      10002 -99.9%   440.0       4.993       23.47     -0.7703       0.000      0.7316       0.000    
     874  0.5533E-01  0.6330E-04 SHELL      10002 -99.9%   440.9       4.913       23.41     -0.7703       0.000      0.7316       0.000    
     875  0.5539E-01  0.6330E-04 SHELL      10002 -99.9%   441.8       4.829       23.34     -0.7703       0.000      0.7316       0.000    
     876  0.5545E-01  0.6330E-04 SHELL      10002 -99.9%   442.6       4.742       23.27     -0.7703       0.000      0.7316       0.000    
     877  0.5552E-01  0.6330E-04 SHELL      10002 -99.9%   443.5       4.649       23.21     -0.7703       0.000      0.7316       0.000    
     878  0.5558E-01  0.6330E-04 SHELL      10002 -99.9%   444.3       4.551       23.15     -0.7703       0.000      0.7316       0.000    
     879  0.5564E-01  0.6330E-04 SHELL      10002 -99.9%   445.1       4.449       23.10     -0.7703       0.000      0.7316       0.000    
   CYCLE    TIME      TIME-STEP  ELEMENT          ERROR  I-ENERGY    K-ENERGY T  K-ENERGY R  EXT-WORK     MAS.ERR     TOTAL MASS  MASS ADDED
     880  0.5571E-01  0.6330E-04 SHELL      10002 -99.9%   445.9       4.345       23.04     -0.7703       0.000      0.7316       0.000    
     881  0.5577E-01  0.6330E-04 SHELL      10002 -99.9%   446.7       4.242       22.98     -0.7703       0.000      0.7316       0.000    
     882  0.5583E-01  0.6330E-04 SHELL      10002 -99.9%   447.6       4.143       22.92     -0.7703       0.000      0.7316       0.000    
     883  0.5590E-01  0.6330E-04 SHELL      10002 -99.9%   448.4       4.046       22.86     -0.7703       0.000      0.7316       0.000    
     884  0.5596E-01  0.6330E-04 SHELL      10002 -99.9%   449.2       3.954       22.79     -0.7703       0.000      0.7316       0.000    
     885  0.5602E-01  0.6330E-04 SHELL      10002 -99.9%   450.0       3.865       22.73     -0.7703       0.000      0.7316       0.000    
     886  0.5609E-01  0.6330E-04 SHELL      10002 -99.9%   450.9       3.781       22.66     -0.7703       0.000      0.7316       0.000    
     887  0.5615E-01  0.6330E-04 SHELL      10002 -99.9%   451.7       3.704       22.61     -0.7703       0.000      0.7316       0.000    
     888  0.5621E-01  0.6330E-04 SHELL      10002 -99.9%   452.5       3.633       22.55     -0.7703       0.000      0.7316       0.000    
     889  0.5628E-01  0.6330E-04 SHELL      10002 -99.9%   453.3       3.569       22.50     -0.7703       0.000      0.7316       0.000    
     890  0.5634E-01  0.6330E-04 SHELL      10002 -99.9%   454.1       3.511       22.44     -0.7703       0.000      0.7316       0.000    
     891  0.5640E-01  0.6330E-04 SHELL      10002 -99.9%   454.9       3.458       22.39     -0.7703       0.000      0.7316       0.000    
     892  0.5647E-01  0.6330E-04 SHELL      10002 -99.9%   455.8       3.408       22.34     -0.7703       0.000      0.7316       0.000    
     893  0.5653E-01  0.6330E-04 SHELL      10002 -99.9%   456.6       3.359       22.28     -0.7703       0.000      0.7316       0.000    
     894  0.5659E-01  0.6330E-04 SHELL      10002 -99.9%   457.4       3.309       22.22     -0.7703       0.000      0.7316       0.000    
     895  0.5666E-01  0.6330E-04 SHELL      10002 -99.9%   458.2       3.258       22.16     -0.7703       0.000      0.7316       0.000    
     896  0.5672E-01  0.6330E-04 SHELL      10002 -99.9%   459.0       3.205       22.10     -0.7703       0.000      0.7316       0.000    
     897  0.5678E-01  0.6330E-04 SHELL      10002 -99.9%   459.8       3.148       22.04     -0.7703       0.000      0.7316       0.000    
     898  0.5685E-01  0.6330E-04 SHELL      10002 -99.9%   460.6       3.088       21.99     -0.7703       0.000      0.7316       0.000    
     899  0.5691E-01  0.6330E-04 SHELL      10002 -99.9%   461.4       3.027       21.93     -0.7703       0.000      0.7316       0.000    
     900  0.5697E-01  0.6330E-04 SHELL      10002 -99.9%   462.2       2.964       21.88     -0.7703       0.000      0.7316       0.000    
     901  0.5704E-01  0.6330E-04 SHELL      10002 -99.9%   463.0       2.900       21.82     -0.7703       0.000      0.7316       0.000    
     902  0.5710E-01  0.6330E-04 SHELL      10002 -99.9%   463.8       2.836       21.76     -0.7703       0.000      0.7316       0.000    
     903  0.5716E-01  0.6330E-04 SHELL      10002 -99.9%   464.7       2.775       21.70     -0.7703       0.000      0.7316       0.000    
     904  0.5723E-01  0.6330E-04 SHELL      10002 -99.9%   465.5       2.717       21.65     -0.7703       0.000      0.7316       0.000    
     905  0.5729E-01  0.6330E-04 SHELL      10002 -99.9%   466.3       2.664       21.59     -0.7703       0.000      0.7316       0.000    
     906  0.5735E-01  0.6330E-04 SHELL      10002 -99.9%   467.1       2.616       21.53     -0.7703       0.000      0.7316       0.000    
     907  0.5742E-01  0.6330E-04 SHELL      10002 -99.9%   467.9       2.572       21.46     -0.7703       0.000      0.7316       0.000    
     908  0.5748E-01  0.6330E-04 SHELL      10002 -99.9%   468.7       2.534       21.40     -0.7703       0.000      0.7316       0.000    
     909  0.5754E-01  0.6330E-04 SHELL      10002 -99.9%   469.5       2.499       21.33     -0.7703       0.000      0.7316       0.000    
     910  0.5760E-01  0.6330E-04 SHELL      10002 -99.9%   470.2       2.468       21.27     -0.7703       0.000      0.7316       0.000    
     911  0.5767E-01  0.6330E-04 SHELL      10002 -99.9%   471.0       2.440       21.20     -0.7703       0.000      0.7316       0.000    
     912  0.5773E-01  0.6330E-04 SHELL      10002 -99.9%   471.8       2.413       21.14     -0.7703       0.000      0.7316       0.000    
     913  0.5779E-01  0.6330E-04 SHELL      10002 -99.9%   472.6       2.388       21.07     -0.7703       0.000      0.7316       0.000    
     914  0.5786E-01  0.6330E-04 SHELL      10002 -99.9%   473.4       2.364       21.01     -0.7703       0.000      0.7316       0.000    
     915  0.5792E-01  0.6330E-04 SHELL      10002 -99.9%   474.1       2.344       20.94     -0.7703       0.000      0.7316       0.000    
     916  0.5798E-01  0.6330E-04 SHELL      10002 -99.9%   474.9       2.326       20.88     -0.7703       0.000      0.7316       0.000    
     917  0.5805E-01  0.6330E-04 SHELL      10002 -99.9%   475.6       2.311       20.82     -0.7703       0.000      0.7316       0.000    
     918  0.5811E-01  0.6330E-04 SHELL      10002 -99.9%   476.3       2.298       20.76     -0.7703       0.000      0.7316       0.000    
     919  0.5817E-01  0.6330E-04 SHELL      10002 -99.9%   477.1       2.287       20.69     -0.7703       0.000      0.7316       0.000    
     920  0.5824E-01  0.6330E-04 SHELL      10002 -99.9%   477.8       2.497       20.63     -0.8007       0.000      0.7316       0.000    
     921  0.5830E-01  0.6330E-04 SHELL      10002 -99.9%   478.6       2.500       20.58     -0.8007       0.000      0.7316       0.000    
     922  0.5836E-01  0.6330E-04 SHELL      10002 -99.9%   479.3       2.516       20.54     -0.8007       0.000      0.7316       0.000    
     923  0.5843E-01  0.6330E-04 SHELL      10002 -99.9%   480.1       2.540       20.51     -0.8007       0.000      0.7316       0.000    
     924  0.5849E-01  0.6330E-04 SHELL      10002 -99.9%   480.8       2.561       20.49     -0.8007       0.000      0.7316       0.000    
     925  0.5855E-01  0.6330E-04 SHELL      10002 -99.9%   481.6       2.579       20.46     -0.8007       0.000      0.7316       0.000    
     926  0.5862E-01  0.6330E-04 SHELL      10002 -99.9%   482.3       2.594       20.42     -0.8007       0.000      0.7316       0.000    
     927  0.5868E-01  0.6330E-04 SHELL      10002 -99.9%   483.1       2.604       20.38     -0.8007       0.000      0.7316       0.000    
     928  0.5874E-01  0.6330E-04 SHELL      10002 -99.9%   483.8       2.609       20.35     -0.8007       0.000      0.7316       0.000    
     929  0.5881E-01  0.6330E-04 SHELL      10002 -99.9%   484.6       2.606       20.31     -0.8007       0.000      0.7316       0.000    
     930  0.5887E-01  0.6330E-04 SHELL      10002 -99.9%   485.3       2.593       20.29     -0.8007       0.000      0.7316       0.000    
     931  0.5893E-01  0.6330E-04 SHELL      10002 -99.9%   486.1       2.572       20.26     -0.8007       0.000      0.7316       0.000    
     932  0.5900E-01  0.6330E-04 SHELL      10002 -99.9%   486.9       2.550       20.24     -0.8007       0.000      0.7316       0.000    
     933  0.5906E-01  0.6330E-04 SHELL      10002 -99.9%   487.7       2.533       20.21     -0.8007       0.000      0.7316       0.000    
     934  0.5912E-01  0.6330E-04 SHELL      10002 -99.9%   488.5       2.523       20.18     -0.8007       0.000      0.7316       0.000    
   CYCLE    TIME      TIME-STEP  ELEMENT          ERROR  I-ENERGY    K-ENERGY T  K-ENERGY R  EXT-WORK     MAS.ERR     TOTAL MASS  MASS ADDED
     935  0.5919E-01  0.6330E-04 SHELL      10002 -99.9%   489.2       2.518       20.15     -0.8007       0.000      0.7316       0.000    
     936  0.5925E-01  0.6330E-04 SHELL      10002 -99.9%   490.0       2.512       20.11     -0.8007       0.000      0.7316       0.000    
     937  0.5931E-01  0.6330E-04 SHELL      10002 -99.9%   490.8       2.502       20.07     -0.8007       0.000      0.7316       0.000    
     938  0.5938E-01  0.6330E-04 SHELL      10002 -99.9%   491.5       2.491       20.03     -0.8007       0.000      0.7316       0.000    
     939  0.5944E-01  0.6330E-04 SHELL      10002 -99.9%   492.3       2.482       20.00     -0.8007       0.000      0.7316       0.000    
     940  0.5950E-01  0.6330E-04 SHELL      10002 -99.9%   493.0       2.476       19.97     -0.8007       0.000      0.7316       0.000    
     941  0.5957E-01  0.6330E-04 SHELL      10002 -99.9%   493.8       2.745       19.95     -0.9249       0.000      0.7316       0.000    
     942  0.5963E-01  0.6330E-04 SHELL      10002 -99.9%   494.6       2.716       19.93     -0.9249       0.000      0.7316       0.000    
     943  0.5969E-01  0.6330E-04 SHELL      10002 -99.9%   495.4       2.649       19.91     -0.9249       0.000      0.7316       0.000    
     944  0.5976E-01  0.6330E-04 SHELL      10002 -99.9%   496.2       2.788       19.88     -0.9744       0.000      0.7316       0.000    
     945  0.5982E-01  0.6330E-04 SHELL      10002 -99.9%   497.1       2.807       19.85     -0.9744       0.000      0.7316       0.000    
     946  0.5988E-01  0.6330E-04 SHELL      10002 -99.9%   497.9       2.824       19.81     -0.9744       0.000      0.7316       0.000    
     947  0.5995E-01  0.6330E-04 SHELL      10002 -99.9%   498.8       2.836       19.76     -0.9744       0.000      0.7316       0.000    
     948  0.6001E-01  0.6330E-04 SHELL      10002 -99.9%   499.7       2.842       19.70     -0.9744       0.000      0.7316       0.000    
     ANIMATION FILE: BOULEV44A007 WRITTEN
     949  0.6007E-01  0.6330E-04 SHELL      10002 -99.9%   500.6       2.841       19.65     -0.9744       0.000      0.7316       0.000    
     950  0.6014E-01  0.6330E-04 SHELL      10002 -99.9%   501.5       2.837       19.59     -0.9744       0.000      0.7316       0.000    
     951  0.6020E-01  0.6330E-04 SHELL      10002 -99.9%   502.5       2.806       19.53     -0.9744       0.000      0.7316       0.000    
     952  0.6026E-01  0.6330E-04 SHELL      10002 -99.9%   503.4       2.832       19.48     -0.9763       0.000      0.7316       0.000    
     953  0.6033E-01  0.6330E-04 SHELL      10002 -99.9%   504.3       2.839       19.42     -0.9763       0.000      0.7316       0.000    
     954  0.6039E-01  0.6330E-04 SHELL      10002 -99.9%   505.2       2.867       19.37     -0.9763       0.000      0.7316       0.000    
     955  0.6045E-01  0.6330E-04 SHELL      10002 -99.9%   506.2       2.925       19.31     -0.9763       0.000      0.7316       0.000    
     956  0.6052E-01  0.6330E-04 SHELL      10002 -99.9%   507.1       3.007       19.26     -0.9763       0.000      0.7316       0.000    
     957  0.6058E-01  0.6330E-04 SHELL      10002 -99.9%   508.0       3.108       19.21     -0.9763       0.000      0.7316       0.000    
     958  0.6064E-01  0.6330E-04 SHELL      10002 -99.9%   508.9       3.218       19.16     -0.9763       0.000      0.7316       0.000    
     959  0.6071E-01  0.6330E-04 SHELL      10002 -99.9%   509.7       3.332       19.12     -0.9763       0.000      0.7316       0.000    
     960  0.6077E-01  0.6330E-04 SHELL      10002 -99.9%   510.6       3.444       19.08     -0.9763       0.000      0.7316       0.000    
     961  0.6083E-01  0.6330E-04 SHELL      10002 -99.9%   511.4       3.552       19.04     -0.9763       0.000      0.7316       0.000    
     962  0.6090E-01  0.6330E-04 SHELL      10002 -99.9%   512.3       3.656       18.99     -0.9763       0.000      0.7316       0.000    
     963  0.6096E-01  0.6330E-04 SHELL      10002 -99.9%   513.1       3.753       18.95     -0.9763       0.000      0.7316       0.000    
     964  0.6102E-01  0.6330E-04 SHELL      10002 -99.9%   514.0       3.841       18.90     -0.9763       0.000      0.7316       0.000    
     965  0.6109E-01  0.6330E-04 SHELL      10002 -99.9%   514.8       3.918       18.85     -0.9763       0.000      0.7316       0.000    
     966  0.6115E-01  0.6330E-04 SHELL      10002 -99.9%   515.6       3.986       18.81     -0.9763       0.000      0.7316       0.000    
     967  0.6121E-01  0.6330E-04 SHELL      10002 -99.9%   516.5       4.045       18.77     -0.9763       0.000      0.7316       0.000    
     968  0.6128E-01  0.6330E-04 SHELL      10002 -99.9%   517.3       4.099       18.73     -0.9763       0.000      0.7316       0.000    
     969  0.6134E-01  0.6330E-04 SHELL      10002 -99.9%   518.1       4.150       18.69     -0.9763       0.000      0.7316       0.000    
     970  0.6140E-01  0.6330E-04 SHELL      10002 -99.9%   519.0       4.199       18.65     -0.9763       0.000      0.7316       0.000    
     971  0.6147E-01  0.6330E-04 SHELL      10002 -99.9%   519.8       4.245       18.61     -0.9763       0.000      0.7316       0.000    
     972  0.6153E-01  0.6330E-04 SHELL      10002 -99.9%   520.7       4.286       18.56     -0.9763       0.000      0.7316       0.000    
     973  0.6159E-01  0.6330E-04 SHELL      10002 -99.9%   521.5       4.319       18.52     -0.9763       0.000      0.7316       0.000    
     974  0.6166E-01  0.6330E-04 SHELL      10002 -99.9%   522.4       4.345       18.47     -0.9763       0.000      0.7316       0.000    
     975  0.6172E-01  0.6330E-04 SHELL      10002 -99.9%   523.2       4.363       18.43     -0.9763       0.000      0.7316       0.000    
     976  0.6178E-01  0.6330E-04 SHELL      10002 -99.9%   524.1       4.377       18.39     -0.9763       0.000      0.7316       0.000    
     977  0.6185E-01  0.6330E-04 SHELL      10002 -99.9%   524.9       4.388       18.35     -0.9763       0.000      0.7316       0.000    
     978  0.6191E-01  0.6330E-04 SHELL      10002 -99.9%   525.8       4.399       18.31     -0.9763       0.000      0.7316       0.000    
     979  0.6197E-01  0.6330E-04 SHELL      10002 -99.9%   526.6       4.413       18.27     -0.9763       0.000      0.7316       0.000    
     980  0.6204E-01  0.6330E-04 SHELL      10002 -99.9%   527.5       4.427       18.22     -0.9763       0.000      0.7316       0.000    
     981  0.6210E-01  0.6330E-04 SHELL      10002 -99.9%   528.4       4.442       18.18     -0.9763       0.000      0.7316       0.000    
     982  0.6216E-01  0.6330E-04 SHELL      10002 -99.9%   529.2       4.453       18.14     -0.9763       0.000      0.7316       0.000    
     983  0.6223E-01  0.6330E-04 SHELL      10002 -99.9%   530.1       4.460       18.10     -0.9763       0.000      0.7316       0.000    
     984  0.6229E-01  0.6330E-04 SHELL      10002 -99.9%   531.0       4.463       18.07     -0.9763       0.000      0.7316       0.000    
     985  0.6235E-01  0.6330E-04 SHELL      10002 -99.9%   531.9       4.461       18.04     -0.9763       0.000      0.7316       0.000    
     986  0.6242E-01  0.6330E-04 SHELL      10002 -99.9%   532.8       4.458       18.01     -0.9763       0.000      0.7316       0.000    
     987  0.6248E-01  0.6330E-04 SHELL      10002 -99.9%   533.7       4.455       17.98     -0.9763       0.000      0.7316       0.000    
     988  0.6254E-01  0.6330E-04 SHELL      10002 -99.9%   534.6       4.452       17.94     -0.9763       0.000      0.7316       0.000    
     989  0.6261E-01  0.6330E-04 SHELL      10002 -99.9%   535.4       4.449       17.91     -0.9763       0.000      0.7316       0.000    
   CYCLE    TIME      TIME-STEP  ELEMENT          ERROR  I-ENERGY    K-ENERGY T  K-ENERGY R  EXT-WORK     MAS.ERR     TOTAL MASS  MASS ADDED
     990  0.6267E-01  0.6330E-04 SHELL      10002 -99.9%   536.4       4.445       17.87     -0.9763       0.000      0.7316       0.000    
     991  0.6273E-01  0.6330E-04 SHELL      10002 -99.9%   537.3       4.436       17.83     -0.9763       0.000      0.7316       0.000    
     992  0.6280E-01  0.6330E-04 SHELL      10002 -99.9%   538.2       4.421       17.78     -0.9763       0.000      0.7316       0.000    
     993  0.6286E-01  0.6330E-04 SHELL      10002 -99.9%   539.1       4.400       17.74     -0.9763       0.000      0.7316       0.000    
     994  0.6292E-01  0.6330E-04 SHELL      10002 -99.9%   540.0       4.375       17.69     -0.9763       0.000      0.7316       0.000    
     995  0.6299E-01  0.6330E-04 SHELL      10002 -99.9%   540.9       4.347       17.64     -0.9763       0.000      0.7316       0.000    
     996  0.6305E-01  0.6330E-04 SHELL      10002 -99.9%   541.9       4.320       17.60     -0.9763       0.000      0.7316       0.000    
     997  0.6311E-01  0.6330E-04 SHELL      10002 -99.9%   542.8       4.295       17.55     -0.9763       0.000      0.7316       0.000    
     998  0.6318E-01  0.6330E-04 SHELL      10002 -99.9%   543.7       4.274       17.50     -0.9763       0.000      0.7316       0.000    
     999  0.6324E-01  0.6330E-04 SHELL      10002 -99.9%   544.6       4.258       17.44     -0.9763       0.000      0.7316       0.000    
    1000  0.6330E-01  0.6330E-04 SHELL      10002 -99.9%   545.5       4.245       17.38     -0.9763       0.000      0.7316       0.000    
    1001  0.6337E-01  0.6330E-04 SHELL      10002 -99.9%   546.4       4.236       17.32     -0.9763       0.000      0.7316       0.000    
    1002  0.6343E-01  0.6330E-04 SHELL      10002 -99.9%   547.3       4.227       17.27     -0.9763       0.000      0.7316       0.000    
    1003  0.6349E-01  0.6330E-04 SHELL      10002 -99.9%   548.2       4.219       17.21     -0.9763       0.000      0.7316       0.000    
    1004  0.6356E-01  0.6330E-04 SHELL      10002 -99.9%   549.1       4.209       17.16     -0.9763       0.000      0.7316       0.000    
    1005  0.6362E-01  0.6330E-04 SHELL      10002 -99.9%   550.0       4.198       17.11     -0.9763       0.000      0.7316       0.000    
    1006  0.6368E-01  0.6330E-04 SHELL      10002 -99.9%   550.9       4.186       17.05     -0.9763       0.000      0.7316       0.000    
    1007  0.6375E-01  0.6330E-04 SHELL      10002 -99.9%   551.7       4.174       17.00     -0.9763       0.000      0.7316       0.000    
    1008  0.6381E-01  0.6330E-04 SHELL      10002 -99.9%   552.6       4.162       16.95     -0.9763       0.000      0.7316       0.000    
    1009  0.6387E-01  0.6330E-04 SHELL      10002 -99.9%   553.5       4.151       16.89     -0.9763       0.000      0.7316       0.000    
    1010  0.6394E-01  0.6330E-04 SHELL      10002 -99.9%   554.4       4.140       16.84     -0.9763       0.000      0.7316       0.000    
    1011  0.6400E-01  0.6330E-04 SHELL      10002 -99.9%   555.2       4.132       16.78     -0.9763       0.000      0.7316       0.000    
    1012  0.6406E-01  0.6330E-04 SHELL      10002 -99.9%   556.1       4.125       16.73     -0.9763       0.000      0.7316       0.000    
    1013  0.6413E-01  0.6330E-04 SHELL      10002 -99.9%   557.0       4.119       16.67     -0.9763       0.000      0.7316       0.000    
    1014  0.6419E-01  0.6330E-04 SHELL      10002 -99.9%   557.8       4.116       16.62     -0.9763       0.000      0.7316       0.000    
    1015  0.6425E-01  0.6330E-04 SHELL      10002 -99.9%   558.7       4.114       16.57     -0.9763       0.000      0.7316       0.000    
    1016  0.6431E-01  0.6330E-04 SHELL      10002 -99.9%   559.5       4.112       16.52     -0.9763       0.000      0.7316       0.000    
    1017  0.6438E-01  0.6330E-04 SHELL      10002 -99.9%   560.4       4.111       16.48     -0.9763       0.000      0.7316       0.000    
    1018  0.6444E-01  0.6330E-04 SHELL      10002 -99.9%   561.3       4.110       16.43     -0.9763       0.000      0.7316       0.000    
    1019  0.6450E-01  0.6330E-04 SHELL      10002 -99.9%   562.1       4.108       16.38     -0.9763       0.000      0.7316       0.000    
    1020  0.6457E-01  0.6330E-04 SHELL      10002 -99.9%   563.0       4.105       16.33     -0.9763       0.000      0.7316       0.000    
    1021  0.6463E-01  0.6330E-04 SHELL      10002 -99.9%   563.9       4.101       16.29     -0.9763       0.000      0.7316       0.000    
    1022  0.6469E-01  0.6330E-04 SHELL      10002 -99.9%   564.7       4.095       16.24     -0.9763       0.000      0.7316       0.000    
    1023  0.6476E-01  0.6330E-04 SHELL      10002 -99.9%   565.6       4.087       16.19     -0.9763       0.000      0.7316       0.000    
    1024  0.6482E-01  0.6330E-04 SHELL      10002 -99.9%   566.5       4.079       16.14     -0.9763       0.000      0.7316       0.000    
    1025  0.6488E-01  0.6330E-04 SHELL      10002 -99.9%   567.4       4.070       16.09     -0.9763       0.000      0.7316       0.000    
    1026  0.6495E-01  0.6330E-04 SHELL      10002 -99.9%   568.3       4.062       16.04     -0.9763       0.000      0.7316       0.000    
    1027  0.6501E-01  0.6330E-04 SHELL      10002 -99.9%   569.1       4.053       16.00     -0.9763       0.000      0.7316       0.000    
    1028  0.6507E-01  0.6330E-04 SHELL      10002 -99.9%   570.0       4.044       15.95     -0.9763       0.000      0.7316       0.000    
    1029  0.6514E-01  0.6330E-04 SHELL      10002 -99.9%   570.9       4.035       15.90     -0.9763       0.000      0.7316       0.000    
    1030  0.6520E-01  0.6330E-04 SHELL      10002 -99.9%   571.8       4.027       15.86     -0.9763       0.000      0.7316       0.000    
    1031  0.6526E-01  0.6330E-04 SHELL      10002 -99.9%   572.7       4.020       15.81     -0.9763       0.000      0.7316       0.000    
    1032  0.6533E-01  0.6330E-04 SHELL      10002 -99.9%   573.6       4.016       15.77     -0.9763       0.000      0.7316       0.000    
    1033  0.6539E-01  0.6330E-04 SHELL      10002 -99.9%   574.5       4.016       15.72     -0.9763       0.000      0.7316       0.000    
    1034  0.6545E-01  0.6330E-04 SHELL      10002 -99.9%   575.4       4.020       15.68     -0.9763       0.000      0.7316       0.000    
    1035  0.6552E-01  0.6330E-04 SHELL      10002 -99.9%   576.2       4.027       15.63     -0.9763       0.000      0.7316       0.000    
    1036  0.6558E-01  0.6330E-04 SHELL      10002 -99.9%   577.1       4.038       15.58     -0.9763       0.000      0.7316       0.000    
    1037  0.6564E-01  0.6330E-04 SHELL      10002 -99.9%   578.0       4.051       15.53     -0.9763       0.000      0.7316       0.000    
    1038  0.6571E-01  0.6330E-04 SHELL      10002 -99.9%   578.9       4.065       15.49     -0.9763       0.000      0.7316       0.000    
    1039  0.6577E-01  0.6330E-04 SHELL      10002 -99.9%   579.8       4.080       15.44     -0.9763       0.000      0.7316       0.000    
    1040  0.6583E-01  0.6330E-04 SHELL      10002 -99.9%   580.7       4.095       15.40     -0.9763       0.000      0.7316       0.000    
    1041  0.6590E-01  0.6330E-04 SHELL      10002 -99.9%   581.6       4.110       15.35     -0.9763       0.000      0.7316       0.000    
    1042  0.6596E-01  0.6330E-04 SHELL      10002 -99.9%   582.5       4.125       15.31     -0.9763       0.000      0.7316       0.000    
    1043  0.6602E-01  0.6330E-04 SHELL      10002 -99.9%   583.4       4.141       15.26     -0.9763       0.000      0.7316       0.000    
    1044  0.6609E-01  0.6330E-04 SHELL      10002 -99.9%   584.2       4.158       15.22     -0.9763       0.000      0.7316       0.000    
   CYCLE    TIME      TIME-STEP  ELEMENT          ERROR  I-ENERGY    K-ENERGY T  K-ENERGY R  EXT-WORK     MAS.ERR     TOTAL MASS  MASS ADDED
    1045  0.6615E-01  0.6330E-04 SHELL      10002 -99.9%   585.1       4.176       15.17     -0.9763       0.000      0.7316       0.000    
    1046  0.6621E-01  0.6330E-04 SHELL      10002 -99.9%   586.0       4.195       15.12     -0.9763       0.000      0.7316       0.000    
    1047  0.6628E-01  0.6330E-04 SHELL      10002 -99.9%   586.9       4.214       15.08     -0.9763       0.000      0.7316       0.000    
    1048  0.6634E-01  0.6330E-04 SHELL      10002 -99.9%   587.8       4.233       15.03     -0.9763       0.000      0.7316       0.000    
    1049  0.6640E-01  0.6330E-04 SHELL      10002 -99.9%   588.7       4.252       14.99     -0.9763       0.000      0.7316       0.000    
    1050  0.6647E-01  0.6330E-04 SHELL      10002 -99.9%   589.6       4.270       14.94     -0.9763       0.000      0.7316       0.000    
    1051  0.6653E-01  0.6330E-04 SHELL      10002 -99.9%   590.4       4.289       14.90     -0.9763       0.000      0.7316       0.000    
    1052  0.6659E-01  0.6330E-04 SHELL      10002 -99.9%   591.3       4.308       14.86     -0.9763       0.000      0.7316       0.000    
    1053  0.6666E-01  0.6330E-04 SHELL      10002 -99.9%   592.2       4.329       14.81     -0.9763       0.000      0.7316       0.000    
    1054  0.6672E-01  0.6330E-04 SHELL      10002 -99.9%   593.1       4.351       14.77     -0.9763       0.000      0.7316       0.000    
    1055  0.6678E-01  0.6330E-04 SHELL      10002 -99.9%   594.0       4.374       14.73     -0.9763       0.000      0.7316       0.000    
    1056  0.6685E-01  0.6330E-04 SHELL      10002 -99.9%   594.8       4.396       14.68     -0.9763       0.000      0.7316       0.000    
    1057  0.6691E-01  0.6330E-04 SHELL      10002 -99.9%   595.7       4.418       14.64     -0.9763       0.000      0.7316       0.000    
    1058  0.6697E-01  0.6330E-04 SHELL      10002 -99.9%   596.6       4.439       14.60     -0.9763       0.000      0.7316       0.000    
    1059  0.6704E-01  0.6330E-04 SHELL      10002 -99.9%   597.5       4.458       14.56     -0.9763       0.000      0.7316       0.000    
    1060  0.6710E-01  0.6330E-04 SHELL      10002 -99.9%   598.4       4.476       14.51     -0.9763       0.000      0.7316       0.000    
    1061  0.6716E-01  0.6330E-04 SHELL      10002 -99.9%   599.3       4.493       14.47     -0.9763       0.000      0.7316       0.000    
    1062  0.6723E-01  0.6330E-04 SHELL      10002 -99.9%   600.1       4.508       14.43     -0.9763       0.000      0.7316       0.000    
    1063  0.6729E-01  0.6330E-04 SHELL      10002 -99.9%   601.0       4.522       14.39     -0.9763       0.000      0.7316       0.000    
    1064  0.6735E-01  0.6330E-04 SHELL      10002 -99.9%   601.9       4.536       14.35     -0.9763       0.000      0.7316       0.000    
    1065  0.6742E-01  0.6330E-04 SHELL      10002 -99.9%   602.8       4.548       14.31     -0.9763       0.000      0.7316       0.000    
    1066  0.6748E-01  0.6330E-04 SHELL      10002 -99.9%   603.7       4.561       14.27     -0.9763       0.000      0.7316       0.000    
    1067  0.6754E-01  0.6330E-04 SHELL      10002 -99.9%   604.6       4.572       14.23     -0.9763       0.000      0.7316       0.000    
    1068  0.6761E-01  0.6330E-04 SHELL      10002 -99.9%   605.5       4.583       14.19     -0.9763       0.000      0.7316       0.000    
    1069  0.6767E-01  0.6330E-04 SHELL      10002 -99.9%   606.3       4.593       14.15     -0.9763       0.000      0.7316       0.000    
    1070  0.6773E-01  0.6330E-04 SHELL      10002 -99.9%   607.2       4.602       14.11     -0.9763       0.000      0.7316       0.000    
    1071  0.6780E-01  0.6330E-04 SHELL      10002 -99.9%   608.1       4.610       14.07     -0.9763       0.000      0.7316       0.000    
    1072  0.6786E-01  0.6330E-04 SHELL      10002 -99.9%   609.0       4.617       14.03     -0.9763       0.000      0.7316       0.000    
    1073  0.6792E-01  0.6330E-04 SHELL      10002 -99.9%   609.9       4.623       13.99     -0.9763       0.000      0.7316       0.000    
    1074  0.6799E-01  0.6330E-04 SHELL      10002 -99.9%   610.8       4.628       13.95     -0.9763       0.000      0.7316       0.000    
    1075  0.6805E-01  0.6330E-04 SHELL      10002 -99.9%   611.6       4.632       13.91     -0.9763       0.000      0.7316       0.000    
    1076  0.6811E-01  0.6330E-04 SHELL      10002 -99.9%   612.5       4.635       13.87     -0.9763       0.000      0.7316       0.000    
    1077  0.6818E-01  0.6330E-04 SHELL      10002 -99.9%   613.4       4.638       13.84     -0.9763       0.000      0.7316       0.000    
    1078  0.6824E-01  0.6330E-04 SHELL      10002 -99.9%   614.3       4.640       13.80     -0.9763       0.000      0.7316       0.000    
    1079  0.6830E-01  0.6330E-04 SHELL      10002 -99.9%   615.2       4.643       13.76     -0.9763       0.000      0.7316       0.000    
    1080  0.6837E-01  0.6330E-04 SHELL      10002 -99.9%   616.1       4.645       13.72     -0.9763       0.000      0.7316       0.000    
    1081  0.6843E-01  0.6330E-04 SHELL      10002 -99.9%   617.0       4.646       13.68     -0.9763       0.000      0.7316       0.000    
    1082  0.6849E-01  0.6330E-04 SHELL      10002 -99.9%   617.9       4.647       13.64     -0.9763       0.000      0.7316       0.000    
    1083  0.6856E-01  0.6330E-04 SHELL      10002 -99.9%   618.7       4.648       13.60     -0.9763       0.000      0.7316       0.000    
    1084  0.6862E-01  0.6330E-04 SHELL      10002 -99.9%   619.6       4.648       13.56     -0.9763       0.000      0.7316       0.000    
    1085  0.6868E-01  0.6330E-04 SHELL      10002 -99.9%   620.5       4.648       13.53     -0.9763       0.000      0.7316       0.000    
    1086  0.6875E-01  0.6330E-04 SHELL      10002 -99.9%   621.4       4.646       13.49     -0.9763       0.000      0.7316       0.000    
    1087  0.6881E-01  0.6330E-04 SHELL      10002 -99.9%   622.3       4.644       13.45     -0.9763       0.000      0.7316       0.000    
    1088  0.6887E-01  0.6330E-04 SHELL      10002 -99.9%   623.2       4.641       13.41     -0.9763       0.000      0.7316       0.000    
    1089  0.6894E-01  0.6330E-04 SHELL      10002 -99.9%   624.1       4.638       13.37     -0.9763       0.000      0.7316       0.000    
    1090  0.6900E-01  0.6330E-04 SHELL      10002 -99.9%   624.9       4.635       13.33     -0.9763       0.000      0.7316       0.000    
    1091  0.6906E-01  0.6330E-04 SHELL      10002 -99.9%   625.8       4.632       13.30     -0.9763       0.000      0.7316       0.000    
    1092  0.6913E-01  0.6330E-04 SHELL      10002 -99.9%   626.7       4.629       13.26     -0.9763       0.000      0.7316       0.000    
    1093  0.6919E-01  0.6330E-04 SHELL      10002 -99.9%   627.6       4.626       13.22     -0.9763       0.000      0.7316       0.000    
    1094  0.6925E-01  0.6330E-04 SHELL      10002 -99.9%   628.5       4.623       13.18     -0.9763       0.000      0.7316       0.000    
    1095  0.6932E-01  0.6330E-04 SHELL      10002 -99.9%   629.4       4.620       13.14     -0.9763       0.000      0.7316       0.000    
    1096  0.6938E-01  0.6330E-04 SHELL      10002 -99.9%   630.3       4.617       13.10     -0.9763       0.000      0.7316       0.000    
    1097  0.6944E-01  0.6330E-04 SHELL      10002 -99.9%   631.1       4.614       13.06     -0.9763       0.000      0.7316       0.000    
    1098  0.6951E-01  0.6330E-04 SHELL      10002 -99.9%   632.0       4.611       13.02     -0.9763       0.000      0.7316       0.000    
    1099  0.6957E-01  0.6330E-04 SHELL      10002 -99.9%   632.9       4.608       12.98     -0.9763       0.000      0.7316       0.000    
   CYCLE    TIME      TIME-STEP  ELEMENT          ERROR  I-ENERGY    K-ENERGY T  K-ENERGY R  EXT-WORK     MAS.ERR     TOTAL MASS  MASS ADDED
    1100  0.6963E-01  0.6330E-04 SHELL      10002 -99.9%   633.8       4.604       12.94     -0.9763       0.000      0.7316       0.000    
    1101  0.6970E-01  0.6330E-04 SHELL      10002 -99.9%   634.7       4.602       12.90     -0.9763       0.000      0.7316       0.000    
    1102  0.6976E-01  0.6330E-04 SHELL      10002 -99.9%   635.6       4.600       12.86     -0.9763       0.000      0.7316       0.000    
    1103  0.6982E-01  0.6330E-04 SHELL      10002 -99.9%   636.5       4.599       12.82     -0.9763       0.000      0.7316       0.000    
    1104  0.6989E-01  0.6330E-04 SHELL      10002 -99.9%   637.4       4.599       12.77     -0.9763       0.000      0.7316       0.000    
    1105  0.6995E-01  0.6330E-04 SHELL      10002 -99.9%   638.3       4.599       12.73     -0.9763       0.000      0.7316       0.000    
    1106  0.7001E-01  0.6330E-04 SHELL      10002 -99.9%   639.2       4.599       12.69     -0.9763       0.000      0.7316       0.000    
     ANIMATION FILE: BOULEV44A008 WRITTEN
    1107  0.7008E-01  0.6330E-04 SHELL      10002 -99.9%   640.0       4.599       12.65     -0.9763       0.000      0.7316       0.000    
    1108  0.7014E-01  0.6330E-04 SHELL      10002 -99.9%   640.9       4.600       12.61     -0.9763       0.000      0.7316       0.000    
    1109  0.7020E-01  0.6330E-04 SHELL      10002 -99.9%   641.8       4.602       12.57     -0.9763       0.000      0.7316       0.000    
    1110  0.7027E-01  0.6330E-04 SHELL      10002 -99.9%   642.7       4.605       12.53     -0.9763       0.000      0.7316       0.000    
    1111  0.7033E-01  0.6330E-04 SHELL      10002 -99.9%   643.6       4.608       12.48     -0.9763       0.000      0.7316       0.000    
    1112  0.7039E-01  0.6330E-04 SHELL      10002 -99.9%   644.5       4.613       12.44     -0.9763       0.000      0.7316       0.000    
    1113  0.7046E-01  0.6330E-04 SHELL      10002 -99.9%   645.4       4.619       12.40     -0.9763       0.000      0.7316       0.000    
    1114  0.7052E-01  0.6330E-04 SHELL      10002 -99.9%   646.3       4.625       12.36     -0.9763       0.000      0.7316       0.000    
    1115  0.7058E-01  0.6330E-04 SHELL      10002 -99.9%   647.2       4.632       12.32     -0.9763       0.000      0.7316       0.000    
    1116  0.7065E-01  0.6330E-04 SHELL      10002 -99.9%   648.0       4.640       12.28     -0.9763       0.000      0.7316       0.000    
    1117  0.7071E-01  0.6330E-04 SHELL      10002 -99.9%   648.9       4.648       12.24     -0.9763       0.000      0.7316       0.000    
    1118  0.7077E-01  0.6330E-04 SHELL      10002 -99.9%   649.8       4.656       12.20     -0.9763       0.000      0.7316       0.000    
    1119  0.7084E-01  0.6330E-04 SHELL      10002 -99.9%   650.7       4.663       12.16     -0.9763       0.000      0.7316       0.000    
    1120  0.7090E-01  0.6330E-04 SHELL      10002 -99.9%   651.6       4.671       12.12     -0.9763       0.000      0.7316       0.000    
    1121  0.7096E-01  0.6330E-04 SHELL      10002 -99.9%   652.5       4.679       12.08     -0.9763       0.000      0.7316       0.000    
    1122  0.7102E-01  0.6330E-04 SHELL      10002 -99.9%   653.4       4.687       12.04     -0.9763       0.000      0.7316       0.000    
    1123  0.7109E-01  0.6330E-04 SHELL      10002 -99.9%   654.3       4.696       12.00     -0.9763       0.000      0.7316       0.000    
    1124  0.7115E-01  0.6330E-04 SHELL      10002 -99.9%   655.1       4.704       11.96     -0.9763       0.000      0.7316       0.000    
    1125  0.7121E-01  0.6330E-04 SHELL      10002 -99.9%   656.0       4.713       11.92     -0.9763       0.000      0.7316       0.000    
    1126  0.7128E-01  0.6330E-04 SHELL      10002 -99.9%   656.9       4.722       11.88     -0.9763       0.000      0.7316       0.000    
    1127  0.7134E-01  0.6330E-04 SHELL      10002 -99.9%   657.8       4.732       11.84     -0.9763       0.000      0.7316       0.000    
    1128  0.7140E-01  0.6330E-04 SHELL      10002 -99.9%   658.7       4.742       11.80     -0.9763       0.000      0.7316       0.000    
    1129  0.7147E-01  0.6330E-04 SHELL      10002 -99.9%   659.6       4.753       11.77     -0.9763       0.000      0.7316       0.000    
    1130  0.7153E-01  0.6330E-04 SHELL      10002 -99.9%   660.5       4.763       11.73     -0.9763       0.000      0.7316       0.000    
    1131  0.7159E-01  0.6330E-04 SHELL      10002 -99.9%   661.3       4.774       11.69     -0.9763       0.000      0.7316       0.000    
    1132  0.7166E-01  0.6330E-04 SHELL      10002 -99.9%   662.2       4.784       11.66     -0.9763       0.000      0.7316       0.000    
    1133  0.7172E-01  0.6330E-04 SHELL      10002 -99.9%   663.1       4.793       11.62     -0.9763       0.000      0.7316       0.000    
    1134  0.7178E-01  0.6330E-04 SHELL      10002 -99.9%   664.0       4.802       11.58     -0.9763       0.000      0.7316       0.000    
    1135  0.7185E-01  0.6330E-04 SHELL      10002 -99.9%   664.9       4.810       11.55     -0.9763       0.000      0.7316       0.000    
    1136  0.7191E-01  0.6330E-04 SHELL      10002 -99.9%   665.8       4.817       11.51     -0.9763       0.000      0.7316       0.000    
    1137  0.7197E-01  0.6330E-04 SHELL      10002 -99.9%   666.6       4.823       11.48     -0.9763       0.000      0.7316       0.000    
    1138  0.7204E-01  0.6330E-04 SHELL      10002 -99.9%   667.5       4.828       11.45     -0.9763       0.000      0.7316       0.000    
    1139  0.7210E-01  0.6330E-04 SHELL      10002 -99.9%   668.4       4.833       11.41     -0.9763       0.000      0.7316       0.000    
    1140  0.7216E-01  0.6330E-04 SHELL      10002 -99.9%   669.3       4.837       11.38     -0.9763       0.000      0.7316       0.000    
    1141  0.7223E-01  0.6330E-04 SHELL      10002 -99.9%   670.2       4.840       11.34     -0.9763       0.000      0.7316       0.000    
    1142  0.7229E-01  0.6330E-04 SHELL      10002 -99.9%   671.1       4.843       11.31     -0.9763       0.000      0.7316       0.000    
    1143  0.7235E-01  0.6330E-04 SHELL      10002 -99.9%   671.9       4.844       11.28     -0.9763       0.000      0.7316       0.000    
    1144  0.7242E-01  0.6330E-04 SHELL      10002 -99.9%   672.8       4.842       11.25     -0.9763       0.000      0.7316       0.000    
    1145  0.7248E-01  0.6330E-04 SHELL      10002 -99.9%   673.7       4.825       11.21     -0.9763       0.000      0.7316       0.000    
    1146  0.7254E-01  0.6330E-04 SHELL      10002 -99.9%   674.6       4.794       11.18     -0.9763       0.000      0.7316       0.000    
    1147  0.7261E-01  0.6330E-04 SHELL      10002 -99.9%   675.5       4.756       11.15     -0.9763       0.000      0.7316       0.000    
    1148  0.7267E-01  0.6330E-04 SHELL      10002 -99.9%   676.4       4.714       11.11     -0.9763       0.000      0.7316       0.000    
    1149  0.7273E-01  0.6330E-04 SHELL      10002 -99.9%   677.3       4.669       11.07     -0.9763       0.000      0.7316       0.000    
    1150  0.7280E-01  0.6330E-04 SHELL      10002 -99.9%   678.2       4.621       11.04     -0.9763       0.000      0.7316       0.000    
    1151  0.7286E-01  0.6330E-04 SHELL      10002 -99.9%   679.2       4.574       11.00     -0.9763       0.000      0.7316       0.000    
    1152  0.7292E-01  0.6330E-04 SHELL      10002 -99.9%   680.1       4.533       10.96     -0.9763       0.000      0.7316       0.000    
    1153  0.7299E-01  0.6330E-04 SHELL      10002 -99.9%   681.0       4.498       10.92     -0.9763       0.000      0.7316       0.000    
    1154  0.7305E-01  0.6330E-04 SHELL      10002 -99.9%   682.0       4.471       10.88     -0.9763       0.000      0.7316       0.000    
   CYCLE    TIME      TIME-STEP  ELEMENT          ERROR  I-ENERGY    K-ENERGY T  K-ENERGY R  EXT-WORK     MAS.ERR     TOTAL MASS  MASS ADDED
    1155  0.7311E-01  0.6330E-04 SHELL      10002 -99.9%   682.9       4.451       10.84     -0.9763       0.000      0.7316       0.000    
    1156  0.7318E-01  0.6330E-04 SHELL      10002 -99.9%   683.8       4.438       10.80     -0.9763       0.000      0.7316       0.000    
    1157  0.7324E-01  0.6330E-04 SHELL      10002 -99.9%   684.8       4.432       10.76     -0.9763       0.000      0.7316       0.000    
    1158  0.7330E-01  0.6330E-04 SHELL      10002 -99.9%   685.8       4.432       10.72     -0.9763       0.000      0.7316       0.000    
    1159  0.7337E-01  0.6330E-04 SHELL      10002 -99.9%   686.8       4.438       10.68     -0.9763       0.000      0.7316       0.000    
    1160  0.7343E-01  0.6330E-04 SHELL      10002 -99.9%   687.7       4.449       10.64     -0.9763       0.000      0.7316       0.000    
    1161  0.7349E-01  0.6330E-04 SHELL      10002 -99.9%   688.7       4.461       10.59     -0.9763       0.000      0.7316       0.000    
    1162  0.7356E-01  0.6330E-04 SHELL      10002 -99.9%   689.7       4.470       10.55     -0.9763       0.000      0.7316       0.000    
    1163  0.7362E-01  0.6330E-04 SHELL      10002 -99.9%   690.7       4.480       10.50     -0.9763       0.000      0.7316       0.000    
    1164  0.7368E-01  0.6330E-04 SHELL      10002 -99.9%   691.7       4.493       10.46     -0.9763       0.000      0.7316       0.000    
    1165  0.7375E-01  0.6330E-04 SHELL      10002 -99.9%   692.8       4.510       10.41     -0.9763       0.000      0.7316       0.000    
    1166  0.7381E-01  0.6330E-04 SHELL      10002 -99.9%   693.8       4.532       10.37     -0.9763       0.000      0.7316       0.000    
    1167  0.7387E-01  0.6330E-04 SHELL      10002 -99.9%   694.9       4.561       10.33     -0.9763       0.000      0.7316       0.000    
    1168  0.7394E-01  0.6330E-04 SHELL      10002 -99.9%   696.0       4.600       10.29     -0.9763       0.000      0.7316       0.000    
    1169  0.7400E-01  0.6330E-04 SHELL      10002 -99.9%   697.1       4.650       10.24     -0.9763       0.000      0.7316       0.000    
    1170  0.7406E-01  0.6330E-04 SHELL      10002 -99.9%   698.2       4.712       10.20     -0.9763       0.000      0.7316       0.000    
    1171  0.7413E-01  0.6330E-04 SHELL      10002 -99.9%   699.3       4.784       10.16     -0.9763       0.000      0.7316       0.000    
    1172  0.7419E-01  0.6330E-04 SHELL      10002 -99.9%   700.4       4.864       10.12     -0.9763       0.000      0.7316       0.000    
    1173  0.7425E-01  0.6330E-04 SHELL      10002 -99.9%   701.5       4.947       10.07     -0.9763       0.000      0.7316       0.000    
    1174  0.7432E-01  0.6330E-04 SHELL      10002 -99.9%   702.5       5.029       10.03     -0.9763       0.000      0.7316       0.000    
    1175  0.7438E-01  0.6330E-04 SHELL      10002 -99.9%   703.5       5.107       9.982     -0.9763       0.000      0.7316       0.000    
    1176  0.7444E-01  0.6330E-04 SHELL      10002 -99.9%   704.6       5.177       9.937     -0.9763       0.000      0.7316       0.000    
    1177  0.7451E-01  0.6330E-04 SHELL      10002 -99.9%   705.6       5.238       9.894     -0.9763       0.000      0.7316       0.000    
    1178  0.7457E-01  0.6330E-04 SHELL      10002 -99.9%   706.6       5.290       9.852     -0.9763       0.000      0.7316       0.000    
    1179  0.7463E-01  0.6330E-04 SHELL      10002 -99.9%   707.6       5.335       9.811     -0.9763       0.000      0.7316       0.000    
    1180  0.7470E-01  0.6330E-04 SHELL      10002 -99.9%   708.6       5.375       9.770     -0.9763       0.000      0.7316       0.000    
    1181  0.7476E-01  0.6330E-04 SHELL      10002 -99.9%   709.6       5.414       9.730     -0.9763       0.000      0.7316       0.000    
    1182  0.7482E-01  0.6330E-04 SHELL      10002 -99.9%   710.6       5.454       9.691     -0.9763       0.000      0.7316       0.000    
    1183  0.7489E-01  0.6330E-04 SHELL      10002 -99.9%   711.6       5.500       9.650     -0.9763       0.000      0.7316       0.000    
    1184  0.7495E-01  0.6330E-04 SHELL      10002 -99.9%   712.6       5.553       9.609     -0.9763       0.000      0.7316       0.000    
    1185  0.7501E-01  0.6330E-04 SHELL      10002 -99.9%   713.6       5.611       9.567     -0.9763       0.000      0.7316       0.000    
    1186  0.7508E-01  0.6330E-04 SHELL      10002 -99.9%   714.7       5.673       9.526     -0.9763       0.000      0.7316       0.000    
    1187  0.7514E-01  0.6330E-04 SHELL      10002 -99.9%   715.7       5.736       9.487     -0.9763       0.000      0.7316       0.000    
    1188  0.7520E-01  0.6330E-04 SHELL      10002 -99.9%   716.7       5.796       9.449     -0.9763       0.000      0.7316       0.000    
    1189  0.7527E-01  0.6330E-04 SHELL      10002 -99.9%   717.8       5.853       9.413     -0.9763       0.000      0.7316       0.000    
    1190  0.7533E-01  0.6330E-04 SHELL      10002 -99.9%   718.8       5.904       9.378     -0.9763       0.000      0.7316       0.000    
    1191  0.7539E-01  0.6330E-04 SHELL      10002 -99.9%   719.9       5.949       9.343     -0.9763       0.000      0.7316       0.000    
    1192  0.7546E-01  0.6330E-04 SHELL      10002 -99.9%   720.9       5.991       9.308     -0.9763       0.000      0.7316       0.000    
    1193  0.7552E-01  0.6330E-04 SHELL      10002 -99.9%   721.9       6.028       9.272     -0.9763       0.000      0.7316       0.000    
    1194  0.7558E-01  0.6330E-04 SHELL      10002 -99.9%   723.0       6.062       9.234     -0.9763       0.000      0.7316       0.000    
    1195  0.7565E-01  0.6330E-04 SHELL      10002 -99.9%   724.0       6.094       9.195     -0.9763       0.000      0.7316       0.000    
    1196  0.7571E-01  0.6330E-04 SHELL      10002 -99.9%   725.1       6.124       9.156     -0.9763       0.000      0.7316       0.000    
    1197  0.7577E-01  0.6330E-04 SHELL      10002 -99.9%   726.1       6.149       9.116     -0.9763       0.000      0.7316       0.000    
    1198  0.7584E-01  0.6330E-04 SHELL      10002 -99.9%   727.2       6.170       9.077     -0.9763       0.000      0.7316       0.000    
    1199  0.7590E-01  0.6330E-04 SHELL      10002 -99.9%   728.2       6.184       9.040     -0.9763       0.000      0.7316       0.000    
    1200  0.7596E-01  0.6330E-04 SHELL      10002 -99.9%   729.3       6.194       9.004     -0.9763       0.000      0.7316       0.000    
    1201  0.7603E-01  0.6330E-04 SHELL      10002 -99.9%   730.3       6.200       8.969     -0.9763       0.000      0.7316       0.000    
    1202  0.7609E-01  0.6330E-04 SHELL      10002 -99.9%   731.4       6.205       8.934     -0.9763       0.000      0.7316       0.000    
    1203  0.7615E-01  0.6330E-04 SHELL      10002 -99.9%   732.4       6.210       8.898     -0.9763       0.000      0.7316       0.000    
    1204  0.7622E-01  0.6330E-04 SHELL      10002 -99.9%   733.5       6.217       8.862     -0.9763       0.000      0.7316       0.000    
    1205  0.7628E-01  0.6330E-04 SHELL      10002 -99.9%   734.5       6.224       8.825     -0.9763       0.000      0.7316       0.000    
    1206  0.7634E-01  0.6330E-04 SHELL      10002 -99.9%   735.6       6.233       8.787     -0.9763       0.000      0.7316       0.000    
    1207  0.7641E-01  0.6330E-04 SHELL      10002 -99.9%   736.6       6.242       8.748     -0.9763       0.000      0.7316       0.000    
    1208  0.7647E-01  0.6330E-04 SHELL      10002 -99.9%   737.7       6.251       8.709     -0.9763       0.000      0.7316       0.000    
    1209  0.7653E-01  0.6330E-04 SHELL      10002 -99.9%   738.7       6.259       8.671     -0.9763       0.000      0.7316       0.000    
   CYCLE    TIME      TIME-STEP  ELEMENT          ERROR  I-ENERGY    K-ENERGY T  K-ENERGY R  EXT-WORK     MAS.ERR     TOTAL MASS  MASS ADDED
    1210  0.7660E-01  0.6330E-04 SHELL      10002 -99.9%   739.8       6.265       8.634     -0.9763       0.000      0.7316       0.000    
    1211  0.7666E-01  0.6330E-04 SHELL      10002 -99.9%   740.8       6.268       8.598     -0.9763       0.000      0.7316       0.000    
    1212  0.7672E-01  0.6330E-04 SHELL      10002 -99.9%   741.9       6.267       8.564     -0.9763       0.000      0.7316       0.000    
    1213  0.7679E-01  0.6330E-04 SHELL      10002 -99.9%   742.9       6.261       8.532     -0.9763       0.000      0.7316       0.000    
    1214  0.7685E-01  0.6330E-04 SHELL      10002 -99.9%   744.0       6.251       8.501     -0.9763       0.000      0.7316       0.000    
    1215  0.7691E-01  0.6330E-04 SHELL      10002 -99.9%   745.0       6.238       8.471     -0.9763       0.000      0.7316       0.000    
    1216  0.7698E-01  0.6330E-04 SHELL      10002 -99.9%   746.1       6.222       8.440     -0.9763       0.000      0.7316       0.000    
    1217  0.7704E-01  0.6330E-04 SHELL      10002 -99.9%   747.1       6.207       8.407     -0.9763       0.000      0.7316       0.000    
    1218  0.7710E-01  0.6330E-04 SHELL      10002 -99.9%   748.1       6.192       8.373     -0.9763       0.000      0.7316       0.000    
    1219  0.7717E-01  0.6330E-04 SHELL      10002 -99.9%   749.2       6.178       8.337     -0.9763       0.000      0.7316       0.000    
    1220  0.7723E-01  0.6330E-04 SHELL      10002 -99.9%   750.3       6.167       8.301     -0.9763       0.000      0.7316       0.000    
    1221  0.7729E-01  0.6330E-04 SHELL      10002 -99.9%   751.3       6.157       8.266     -0.9763       0.000      0.7316       0.000    
    1222  0.7736E-01  0.6330E-04 SHELL      10002 -99.9%   752.4       6.148       8.232     -0.9763       0.000      0.7316       0.000    
    1223  0.7742E-01  0.6330E-04 SHELL      10002 -99.9%   753.4       6.136       8.201     -0.9763       0.000      0.7316       0.000    
    1224  0.7748E-01  0.6330E-04 SHELL      10002 -99.9%   754.5       6.122       8.172     -0.9763       0.000      0.7316       0.000    
    1225  0.7755E-01  0.6330E-04 SHELL      10002 -99.9%   755.6       6.104       8.144     -0.9763       0.000      0.7316       0.000    
    1226  0.7761E-01  0.6330E-04 SHELL      10002 -99.9%   756.7       6.257       8.118      -1.058       0.000      0.7316       0.000    
    1227  0.7767E-01  0.6330E-04 SHELL      10002 -99.9%   757.9       6.218       8.085      -1.058       0.000      0.7316       0.000    
    1228  0.7773E-01  0.6330E-04 SHELL      10002 -99.9%   759.2       6.271       8.046      -1.072       0.000      0.7316       0.000    
    1229  0.7780E-01  0.6330E-04 SHELL      10002 -99.9%   760.5       6.254       8.005      -1.072       0.000      0.7316       0.000    
    1230  0.7786E-01  0.6330E-04 SHELL      10002 -99.9%   761.6       6.376       7.964      -1.120       0.000      0.7316       0.000    
    1231  0.7792E-01  0.6330E-04 SHELL      10002 -99.9%   762.9       6.431       7.926      -1.120       0.000      0.7316       0.000    
    1232  0.7799E-01  0.6330E-04 SHELL      10002 -99.9%   764.2       6.487       7.893      -1.120       0.000      0.7316       0.000    
    1233  0.7805E-01  0.6330E-04 SHELL      10002 -99.9%   765.5       6.535       7.866      -1.120       0.000      0.7316       0.000    
    1234  0.7811E-01  0.6330E-04 SHELL      10002 -99.9%   766.8       6.574       7.844      -1.120       0.000      0.7316       0.000    
    1235  0.7818E-01  0.6330E-04 SHELL      10002 -99.9%   768.1       6.601       7.824      -1.120       0.000      0.7316       0.000    
    1236  0.7824E-01  0.6330E-04 SHELL      10002 -99.9%   769.3       6.620       7.804      -1.120       0.000      0.7316       0.000    
    1237  0.7830E-01  0.6330E-04 SHELL      10002 -99.9%   770.6       6.628       7.784      -1.120       0.000      0.7316       0.000    
    1238  0.7837E-01  0.6330E-04 SHELL      10002 -99.9%   771.9       6.627       7.764      -1.120       0.000      0.7316       0.000    
    1239  0.7843E-01  0.6330E-04 SHELL      10002 -99.9%   773.1       6.614       7.745      -1.120       0.000      0.7316       0.000    
    1240  0.7849E-01  0.6330E-04 SHELL      10002 -99.9%   774.3       6.591       7.730      -1.120       0.000      0.7316       0.000    
    1241  0.7856E-01  0.6330E-04 SHELL      10002 -99.9%   775.6       6.561       7.718      -1.120       0.000      0.7316       0.000    
    1242  0.7862E-01  0.6330E-04 SHELL      10002 -99.9%   776.8       6.526       7.709      -1.120       0.000      0.7316       0.000    
    1243  0.7868E-01  0.6330E-04 SHELL      10002 -99.9%   778.0       6.488       7.702      -1.120       0.000      0.7316       0.000    
    1244  0.7875E-01  0.6330E-04 SHELL      10002 -99.9%   779.3       6.449       7.696      -1.120       0.000      0.7316       0.000    
    1245  0.7881E-01  0.6330E-04 SHELL      10002 -99.9%   780.5       6.408       7.691      -1.120       0.000      0.7316       0.000    
    1246  0.7887E-01  0.6330E-04 SHELL      10002 -99.9%   781.8       6.367       7.686      -1.120       0.000      0.7316       0.000    
    1247  0.7894E-01  0.6330E-04 SHELL      10002 -99.9%   783.0       6.327       7.679      -1.120       0.000      0.7316       0.000    
    1248  0.7900E-01  0.6330E-04 SHELL      10002 -99.9%   784.3       6.290       7.671      -1.120       0.000      0.7316       0.000    
    1249  0.7906E-01  0.6330E-04 SHELL      10002 -99.9%   785.5       6.255       7.660      -1.120       0.000      0.7316       0.000    
    1250  0.7913E-01  0.6330E-04 SHELL      10002 -99.9%   786.8       6.221       7.646      -1.120       0.000      0.7316       0.000    
    1251  0.7919E-01  0.6330E-04 SHELL      10002 -99.9%   788.0       6.187       7.630      -1.120       0.000      0.7316       0.000    
    1252  0.7925E-01  0.6330E-04 SHELL      10002 -99.9%   789.3       6.149       7.614      -1.120       0.000      0.7316       0.000    
    1253  0.7932E-01  0.6330E-04 SHELL      10002 -99.9%   790.6       6.106       7.598      -1.120       0.000      0.7316       0.000    
    1254  0.7938E-01  0.6330E-04 SHELL      10002 -99.9%   791.9       6.058       7.582      -1.120       0.000      0.7316       0.000    
    1255  0.7944E-01  0.6330E-04 SHELL      10002 -99.9%   793.2       6.007       7.566      -1.120       0.000      0.7316       0.000    
    1256  0.7951E-01  0.6330E-04 SHELL      10002 -99.9%   794.5       5.955       7.551      -1.120       0.000      0.7316       0.000    
    1257  0.7957E-01  0.6330E-04 SHELL      10002 -99.9%   795.8       5.904       7.535      -1.120       0.000      0.7316       0.000    
    1258  0.7963E-01  0.6330E-04 SHELL      10002 -99.9%   797.0       5.856       7.518      -1.120       0.000      0.7316       0.000    
    1259  0.7970E-01  0.6330E-04 SHELL      10002 -99.9%   798.3       5.812       7.501      -1.120       0.000      0.7316       0.000    
    1260  0.7976E-01  0.6330E-04 SHELL      10002 -99.9%   799.6       5.771       7.483      -1.120       0.000      0.7316       0.000    
    1261  0.7982E-01  0.6330E-04 SHELL      10002 -99.9%   800.9       5.734       7.466      -1.120       0.000      0.7316       0.000    
    1262  0.7989E-01  0.6330E-04 SHELL      10002 -99.9%   802.2       5.701       7.449      -1.120       0.000      0.7316       0.000    
    1263  0.7995E-01  0.6330E-04 SHELL      10002 -99.9%   803.5       5.670       7.435      -1.120       0.000      0.7316       0.000    
    1264  0.8001E-01  0.6330E-04 SHELL      10002 -99.9%   804.7       5.638       7.423      -1.120       0.000      0.7316       0.000    
     ANIMATION FILE: BOULEV44A009 WRITTEN
   CYCLE    TIME      TIME-STEP  ELEMENT          ERROR  I-ENERGY    K-ENERGY T  K-ENERGY R  EXT-WORK     MAS.ERR     TOTAL MASS  MASS ADDED
    1265  0.8008E-01  0.6330E-04 SHELL      10002 -99.9%   806.0       5.606       7.414      -1.120       0.000      0.7316       0.000    
    1266  0.8014E-01  0.6330E-04 SHELL      10002 -99.9%   807.3       5.574       7.410      -1.120       0.000      0.7316       0.000    
    1267  0.8020E-01  0.6330E-04 SHELL      10002 -99.9%   808.6       5.541       7.410      -1.120       0.000      0.7316       0.000    
    1268  0.8027E-01  0.6330E-04 SHELL      10002 -99.9%   809.8       5.510       7.412      -1.120       0.000      0.7316       0.000    
    1269  0.8033E-01  0.6330E-04 SHELL      10002 -99.9%   811.1       5.482       7.415      -1.120       0.000      0.7316       0.000    
    1270  0.8039E-01  0.6330E-04 SHELL      10002 -99.9%   812.4       5.457       7.418      -1.120       0.000      0.7316       0.000    
    1271  0.8046E-01  0.6330E-04 SHELL      10002 -99.9%   813.6       5.435       7.420      -1.120       0.000      0.7316       0.000    
    1272  0.8052E-01  0.6330E-04 SHELL      10002 -99.9%   814.9       5.415       7.420      -1.120       0.000      0.7316       0.000    
    1273  0.8058E-01  0.6330E-04 SHELL      10002 -99.9%   816.1       5.395       7.419      -1.120       0.000      0.7316       0.000    
    1274  0.8065E-01  0.6330E-04 SHELL      10002 -99.9%   817.4       5.375       7.417      -1.120       0.000      0.7316       0.000    
    1275  0.8071E-01  0.6330E-04 SHELL      10002 -99.9%   818.6       5.351       7.415      -1.120       0.000      0.7316       0.000    
    1276  0.8077E-01  0.6330E-04 SHELL      10002 -99.9%   819.9       5.323       7.413      -1.120       0.000      0.7316       0.000    
    1277  0.8084E-01  0.6330E-04 SHELL      10002 -99.9%   821.1       5.290       7.413      -1.120       0.000      0.7316       0.000    
    1278  0.8090E-01  0.6330E-04 SHELL      10002 -99.9%   822.4       5.252       7.414      -1.120       0.000      0.7316       0.000    
    1279  0.8096E-01  0.6330E-04 SHELL      10002 -99.9%   823.7       5.213       7.416      -1.120       0.000      0.7316       0.000    
    1280  0.8103E-01  0.6330E-04 SHELL      10002 -99.9%   824.9       5.173       7.418      -1.120       0.000      0.7316       0.000    
    1281  0.8109E-01  0.6330E-04 SHELL      10002 -99.9%   826.2       5.136       7.421      -1.120       0.000      0.7316       0.000    
    1282  0.8115E-01  0.6330E-04 SHELL      10002 -99.9%   827.4       5.103       7.424      -1.120       0.000      0.7316       0.000    
    1283  0.8122E-01  0.6330E-04 SHELL      10002 -99.9%   828.6       5.076       7.427      -1.120       0.000      0.7316       0.000    
    1284  0.8128E-01  0.6330E-04 SHELL      10002 -99.9%   829.9       5.054       7.432      -1.120       0.000      0.7316       0.000    
    1285  0.8134E-01  0.6330E-04 SHELL      10002 -99.9%   831.1       5.037       7.437      -1.120       0.000      0.7316       0.000    
    1286  0.8141E-01  0.6330E-04 SHELL      10002 -99.9%   832.3       5.024       7.445      -1.120       0.000      0.7316       0.000    
    1287  0.8147E-01  0.6330E-04 SHELL      10002 -99.9%   833.6       5.014       7.456      -1.120       0.000      0.7316       0.000    
    1288  0.8153E-01  0.6330E-04 SHELL      10002 -99.9%   834.8       5.005       7.469      -1.120       0.000      0.7316       0.000    
    1289  0.8160E-01  0.6330E-04 SHELL      10002 -99.9%   836.0       4.997       7.485      -1.120       0.000      0.7316       0.000    
    1290  0.8166E-01  0.6330E-04 SHELL      10002 -99.9%   837.3       4.990       7.501      -1.120       0.000      0.7316       0.000    
    1291  0.8172E-01  0.6330E-04 SHELL      10002 -99.9%   838.5       4.982       7.519      -1.120       0.000      0.7316       0.000    
    1292  0.8179E-01  0.6330E-04 SHELL      10002 -99.9%   839.8       4.973       7.535      -1.120       0.000      0.7316       0.000    
    1293  0.8185E-01  0.6330E-04 SHELL      10002 -99.9%   841.0       4.964       7.549      -1.120       0.000      0.7316       0.000    
    1294  0.8191E-01  0.6330E-04 SHELL      10002 -99.9%   842.2       4.953       7.563      -1.120       0.000      0.7316       0.000    
    1295  0.8198E-01  0.6330E-04 SHELL      10002 -99.9%   843.5       4.942       7.575      -1.120       0.000      0.7316       0.000    
    1296  0.8204E-01  0.6330E-04 SHELL      10002 -99.9%   844.7       4.928       7.588      -1.120       0.000      0.7316       0.000    
    1297  0.8210E-01  0.6330E-04 SHELL      10002 -99.9%   846.0       4.914       7.601      -1.120       0.000      0.7316       0.000    
    1298  0.8217E-01  0.6330E-04 SHELL      10002 -99.9%   847.2       4.899       7.616      -1.120       0.000      0.7316       0.000    
    1299  0.8223E-01  0.6330E-04 SHELL      10002 -99.9%   848.5       4.884       7.632      -1.120       0.000      0.7316       0.000    
    1300  0.8229E-01  0.6330E-04 SHELL      10002 -99.9%   849.7       4.871       7.648      -1.120       0.000      0.7316       0.000    
    1301  0.8236E-01  0.6330E-04 SHELL      10002 -99.9%   850.9       4.858       7.665      -1.120       0.000      0.7316       0.000    
    1302  0.8242E-01  0.6330E-04 SHELL      10002 -99.9%   852.2       4.849       7.681      -1.120       0.000      0.7316       0.000    
    1303  0.8248E-01  0.6330E-04 SHELL      10002 -99.9%   853.4       4.841       7.696      -1.120       0.000      0.7316       0.000    
    1304  0.8255E-01  0.6330E-04 SHELL      10002 -99.9%   854.7       4.836       7.710      -1.120       0.000      0.7316       0.000    
    1305  0.8261E-01  0.6330E-04 SHELL      10002 -99.9%   855.9       4.832       7.723      -1.120       0.000      0.7316       0.000    
    1306  0.8267E-01  0.6330E-04 SHELL      10002 -99.9%   857.1       4.828       7.734      -1.120       0.000      0.7316       0.000    
    1307  0.8274E-01  0.6330E-04 SHELL      10002 -99.9%   858.4       4.824       7.744      -1.120       0.000      0.7316       0.000    
    1308  0.8280E-01  0.6330E-04 SHELL      10002 -99.9%   859.6       4.819       7.753      -1.120       0.000      0.7316       0.000    
    1309  0.8286E-01  0.6330E-04 SHELL      10002 -99.9%   860.8       4.813       7.762      -1.120       0.000      0.7316       0.000    
    1310  0.8293E-01  0.6330E-04 SHELL      10002 -99.9%   862.1       4.807       7.770      -1.120       0.000      0.7316       0.000    
    1311  0.8299E-01  0.6330E-04 SHELL      10002 -99.9%   863.3       4.800       7.777      -1.120       0.000      0.7316       0.000    
    1312  0.8305E-01  0.6330E-04 SHELL      10002 -99.9%   864.6       5.135       7.784      -1.213       0.000      0.7316       0.000    
    1313  0.8312E-01  0.6330E-04 SHELL      10002 -99.9%   865.9       5.077       7.787      -1.213       0.000      0.7316       0.000    
    1314  0.8318E-01  0.6330E-04 SHELL      10002 -99.9%   867.2       4.955       7.785      -1.213       0.000      0.7316       0.000    
    1315  0.8324E-01  0.6330E-04 SHELL      10002 -99.9%   868.5       5.072       7.780      -1.252       0.000      0.7316       0.000    
    1316  0.8331E-01  0.6330E-04 SHELL      10002 -99.9%   869.8       5.038       7.773      -1.252       0.000      0.7316       0.000    
    1317  0.8337E-01  0.6330E-04 SHELL      10002 -99.9%   871.2       5.012       7.761      -1.253       0.000      0.7316       0.000    
    1318  0.8343E-01  0.6330E-04 SHELL      10002 -99.9%   872.7       4.976       7.745      -1.253       0.000      0.7316       0.000    
    1319  0.8350E-01  0.6330E-04 SHELL      10002 -99.9%   874.1       4.936       7.726      -1.253       0.000      0.7316       0.000    
   CYCLE    TIME      TIME-STEP  ELEMENT          ERROR  I-ENERGY    K-ENERGY T  K-ENERGY R  EXT-WORK     MAS.ERR     TOTAL MASS  MASS ADDED
    1320  0.8356E-01  0.6330E-04 SHELL      10002 -99.9%   875.6       4.887       7.704      -1.253       0.000      0.7316       0.000    
    1321  0.8362E-01  0.6330E-04 SHELL      10002 -99.9%   877.1       4.825       7.684      -1.253       0.000      0.7316       0.000    
    1322  0.8369E-01  0.6330E-04 SHELL      10002 -99.9%   878.6       4.753       7.666      -1.253       0.000      0.7316       0.000    
    1323  0.8375E-01  0.6330E-04 SHELL      10002 -99.9%   880.2       4.679       7.652      -1.253       0.000      0.7316       0.000    
    1324  0.8381E-01  0.6330E-04 SHELL      10002 -99.9%   881.7       4.610       7.641      -1.253       0.000      0.7316       0.000    
    1325  0.8388E-01  0.6330E-04 SHELL      10002 -99.9%   883.3       4.551       7.634      -1.253       0.000      0.7316       0.000    
    1326  0.8394E-01  0.6330E-04 SHELL      10002 -99.9%   884.8       4.506       7.627      -1.253       0.000      0.7316       0.000    
    1327  0.8400E-01  0.6330E-04 SHELL      10002 -99.9%   886.3       4.477       7.619      -1.253       0.000      0.7316       0.000    
    1328  0.8407E-01  0.6330E-04 SHELL      10002 -99.9%   887.9       4.461       7.608      -1.253       0.000      0.7316       0.000    
    1329  0.8413E-01  0.6330E-04 SHELL      10002 -99.9%   889.4       4.455       7.593      -1.253       0.000      0.7316       0.000    
    1330  0.8419E-01  0.6330E-04 SHELL      10002 -99.9%   890.9       4.454       7.572      -1.253       0.000      0.7316       0.000    
    1331  0.8426E-01  0.6330E-04 SHELL      10002 -99.9%   892.5       4.453       7.549      -1.253       0.000      0.7316       0.000    
    1332  0.8432E-01  0.6330E-04 SHELL      10002 -99.9%   894.0       4.447       7.527      -1.253       0.000      0.7316       0.000    
    1333  0.8438E-01  0.6330E-04 SHELL      10002 -99.9%   895.4       4.436       7.507      -1.253       0.000      0.7316       0.000    
    1334  0.8445E-01  0.6330E-04 SHELL      10002 -99.9%   896.9       4.420       7.493      -1.253       0.000      0.7316       0.000    
    1335  0.8451E-01  0.6330E-04 SHELL      10002 -99.9%   898.4       4.402       7.483      -1.253       0.000      0.7316       0.000    
    1336  0.8457E-01  0.6330E-04 SHELL      10002 -99.9%   899.8       4.386       7.477      -1.253       0.000      0.7316       0.000    
    1337  0.8463E-01  0.6330E-04 SHELL      10002 -99.9%   901.3       4.371       7.470      -1.253       0.000      0.7316       0.000    
    1338  0.8470E-01  0.6330E-04 SHELL      10002 -99.9%   902.7       4.358       7.462      -1.253       0.000      0.7316       0.000    
    1339  0.8476E-01  0.6330E-04 SHELL      10002 -99.9%   904.2       4.341       7.453      -1.253       0.000      0.7316       0.000    
    1340  0.8482E-01  0.6330E-04 SHELL      10002 -99.9%   905.6       4.326       7.443      -1.253       0.000      0.7316       0.000    
    1341  0.8489E-01  0.6330E-04 SHELL      10002 -99.9%   907.0       4.303       7.435      -1.253       0.000      0.7316       0.000    
    1342  0.8495E-01  0.6330E-04 SHELL      10002 -99.9%   908.5       4.275       7.432      -1.253       0.000      0.7316       0.000    
    1343  0.8501E-01  0.6330E-04 SHELL      10002 -99.9%   909.9       4.242       7.434      -1.253       0.000      0.7316       0.000    
    1344  0.8508E-01  0.6330E-04 SHELL      10002 -99.9%   911.4       4.205       7.441      -1.253       0.000      0.7316       0.000    
    1345  0.8514E-01  0.6330E-04 SHELL      10002 -99.9%   912.9       4.166       7.453      -1.253       0.000      0.7316       0.000    
    1346  0.8520E-01  0.6330E-04 SHELL      10002 -99.9%   914.3       4.126       7.467      -1.253       0.000      0.7316       0.000    
    1347  0.8527E-01  0.6330E-04 SHELL      10002 -99.9%   915.8       4.089       7.483      -1.253       0.000      0.7316       0.000    
    1348  0.8533E-01  0.6330E-04 SHELL      10002 -99.9%   917.3       4.056       7.499      -1.253       0.000      0.7316       0.000    
    1349  0.8539E-01  0.6330E-04 SHELL      10002 -99.9%   918.8       4.030       7.513      -1.253       0.000      0.7316       0.000    
    1350  0.8546E-01  0.6330E-04 SHELL      10002 -99.9%   920.3       4.008       7.527      -1.253       0.000      0.7316       0.000    
    1351  0.8552E-01  0.6330E-04 SHELL      10002 -99.9%   921.8       3.989       7.541      -1.253       0.000      0.7316       0.000    
    1352  0.8558E-01  0.6330E-04 SHELL      10002 -99.9%   923.3       3.969       7.557      -1.253       0.000      0.7316       0.000    
    1353  0.8565E-01  0.6330E-04 SHELL      10002 -99.9%   924.8       3.945       7.577      -1.253       0.000      0.7316       0.000    
    1354  0.8571E-01  0.6330E-04 SHELL      10002 -99.9%   926.3       3.916       7.602      -1.253       0.000      0.7316       0.000    
    1355  0.8577E-01  0.6330E-04 SHELL      10002 -99.9%   927.8       3.882       7.631      -1.253       0.000      0.7316       0.000    
    1356  0.8584E-01  0.6330E-04 SHELL      10002 -99.9%   929.3       3.845       7.663      -1.253       0.000      0.7316       0.000    
    1357  0.8590E-01  0.6330E-04 SHELL      10002 -99.9%   930.8       3.819       7.696      -1.253       0.000      0.7316       0.000    
    1358  0.8596E-01  0.6330E-04 SHELL      10002 -99.9%   932.3       3.785       7.728      -1.253       0.000      0.7316       0.000    
    1359  0.8603E-01  0.6330E-04 SHELL      10002 -99.9%   933.8       3.757       7.757      -1.253       0.000      0.7316       0.000    
    1360  0.8609E-01  0.6330E-04 SHELL      10002 -99.9%   935.3       3.736       7.783      -1.253       0.000      0.7316       0.000    
    1361  0.8615E-01  0.6330E-04 SHELL      10002 -99.9%   936.8       3.721       7.806      -1.253       0.000      0.7316       0.000    
    1362  0.8622E-01  0.6330E-04 SHELL      10002 -99.9%   938.3       3.710       7.828      -1.253       0.000      0.7316       0.000    
    1363  0.8628E-01  0.6330E-04 SHELL      10002 -99.9%   939.8       3.701       7.850      -1.253       0.000      0.7316       0.000    
    1364  0.8634E-01  0.6330E-04 SHELL      10002 -99.9%   941.3       3.690       7.873      -1.253       0.000      0.7316       0.000    
    1365  0.8641E-01  0.6330E-04 SHELL      10002 -99.9%   942.8       3.678       7.898      -1.253       0.000      0.7316       0.000    
    1366  0.8647E-01  0.6330E-04 SHELL      10002 -99.9%   944.3       3.665       7.924      -1.253       0.000      0.7316       0.000    
    1367  0.8653E-01  0.6330E-04 SHELL      10002 -99.9%   945.8       3.650       7.949      -1.253       0.000      0.7316       0.000    
    1368  0.8660E-01  0.6330E-04 SHELL      10002 -99.9%   947.3       3.636       7.974      -1.253       0.000      0.7316       0.000    
    1369  0.8666E-01  0.6330E-04 SHELL      10002 -99.9%   948.7       3.622       7.998      -1.253       0.000      0.7316       0.000    
    1370  0.8672E-01  0.6330E-04 SHELL      10002 -99.9%   950.2       3.607       8.020      -1.253       0.000      0.7316       0.000    
    1371  0.8679E-01  0.6330E-04 SHELL      10002 -99.9%   951.6       3.590       8.042      -1.253       0.000      0.7316       0.000    
    1372  0.8685E-01  0.6330E-04 SHELL      10002 -99.9%   953.1       3.571       8.062      -1.253       0.000      0.7316       0.000    
    1373  0.8691E-01  0.6330E-04 SHELL      10002 -99.9%   954.6       3.550       8.082      -1.253       0.000      0.7316       0.000    
    1374  0.8698E-01  0.6330E-04 SHELL      10002 -99.9%   956.0       3.529       8.102      -1.253       0.000      0.7316       0.000    
   CYCLE    TIME      TIME-STEP  ELEMENT          ERROR  I-ENERGY    K-ENERGY T  K-ENERGY R  EXT-WORK     MAS.ERR     TOTAL MASS  MASS ADDED
    1375  0.8704E-01  0.6330E-04 SHELL      10002 -99.9%   957.4       3.508       8.121      -1.253       0.000      0.7316       0.000    
    1376  0.8710E-01  0.6330E-04 SHELL      10002 -99.9%   958.9       3.488       8.141      -1.253       0.000      0.7316       0.000    
    1377  0.8717E-01  0.6330E-04 SHELL      10002 -99.9%   960.3       3.470       8.161      -1.253       0.000      0.7316       0.000    
    1378  0.8723E-01  0.6330E-04 SHELL      10002 -99.9%   961.8       3.455       8.181      -1.253       0.000      0.7316       0.000    
    1379  0.8729E-01  0.6330E-04 SHELL      10002 -99.9%   963.3       3.441       8.201      -1.253       0.000      0.7316       0.000    
    1380  0.8736E-01  0.6330E-04 SHELL      10002 -99.9%   964.7       3.429       8.223      -1.253       0.000      0.7316       0.000    
    1381  0.8742E-01  0.6330E-04 SHELL      10002 -99.9%   966.1       3.418       8.246      -1.253       0.000      0.7316       0.000    
    1382  0.8748E-01  0.6330E-04 SHELL      10002 -99.9%   967.6       3.408       8.270      -1.253       0.000      0.7316       0.000    
    1383  0.8755E-01  0.6330E-04 SHELL      10002 -99.9%   969.0       3.398       8.295      -1.253       0.000      0.7316       0.000    
    1384  0.8761E-01  0.6330E-04 SHELL      10002 -99.9%   970.5       3.389       8.320      -1.253       0.000      0.7316       0.000    
    1385  0.8767E-01  0.6330E-04 SHELL      10002 -99.9%   971.9       3.381       8.346      -1.253       0.000      0.7316       0.000    
    1386  0.8774E-01  0.6330E-04 SHELL      10002 -99.9%   973.4       3.374       8.372      -1.253       0.000      0.7316       0.000    
    1387  0.8780E-01  0.6330E-04 SHELL      10002 -99.9%   974.8       3.368       8.397      -1.253       0.000      0.7316       0.000    
    1388  0.8786E-01  0.6330E-04 SHELL      10002 -99.9%   976.3       3.362       8.423      -1.253       0.000      0.7316       0.000    
    1389  0.8793E-01  0.6330E-04 SHELL      10002 -99.9%   977.7       3.355       8.448      -1.253       0.000      0.7316       0.000    
    1390  0.8799E-01  0.6330E-04 SHELL      10002 -99.9%   979.2       3.348       8.473      -1.253       0.000      0.7316       0.000    
    1391  0.8805E-01  0.6330E-04 SHELL      10002 -99.9%   980.6       3.340       8.499      -1.253       0.000      0.7316       0.000    
    1392  0.8812E-01  0.6330E-04 SHELL      10002 -99.9%   982.1       3.331       8.523      -1.253       0.000      0.7316       0.000    
    1393  0.8818E-01  0.6330E-04 SHELL      10002 -99.9%   983.5       3.321       8.548      -1.253       0.000      0.7316       0.000    
    1394  0.8824E-01  0.6330E-04 SHELL      10002 -99.9%   984.9       3.312       8.572      -1.253       0.000      0.7316       0.000    
    1395  0.8831E-01  0.6330E-04 SHELL      10002 -99.9%   986.4       3.305       8.597      -1.253       0.000      0.7316       0.000    
    1396  0.8837E-01  0.6330E-04 SHELL      10002 -99.9%   987.8       3.299       8.621      -1.253       0.000      0.7316       0.000    
    1397  0.8843E-01  0.6330E-04 SHELL      10002 -99.9%   989.2       3.294       8.647      -1.253       0.000      0.7316       0.000    
    1398  0.8850E-01  0.6330E-04 SHELL      10002 -99.9%   990.6       3.290       8.674      -1.253       0.000      0.7316       0.000    
    1399  0.8856E-01  0.6330E-04 SHELL      10002 -99.9%   992.1       3.288       8.702      -1.253       0.000      0.7316       0.000    
    1400  0.8862E-01  0.6330E-04 SHELL      10002 -99.9%   993.5       3.285       8.731      -1.253       0.000      0.7316       0.000    
    1401  0.8869E-01  0.6330E-04 SHELL      10002 -99.9%   994.9       3.282       8.762      -1.253       0.000      0.7316       0.000    
    1402  0.8875E-01  0.6330E-04 SHELL      10002 -99.9%   996.3       3.279       8.793      -1.253       0.000      0.7316       0.000    
    1403  0.8881E-01  0.6330E-04 SHELL      10002 -99.9%   997.7       3.274       8.824      -1.253       0.000      0.7316       0.000    
    1404  0.8888E-01  0.6330E-04 SHELL      10002 -99.9%   999.1       3.269       8.856      -1.253       0.000      0.7316       0.000    
    1405  0.8894E-01  0.6330E-04 SHELL      10002 -99.9%   1001.       3.264       8.888      -1.253       0.000      0.7316       0.000    
    1406  0.8900E-01  0.6330E-04 SHELL      10002 -99.9%   1002.       3.258       8.920      -1.253       0.000      0.7316       0.000    
    1407  0.8907E-01  0.6330E-04 SHELL      10002 -99.9%   1003.       3.254       8.952      -1.253       0.000      0.7316       0.000    
    1408  0.8913E-01  0.6330E-04 SHELL      10002 -99.9%   1005.       3.252       8.984      -1.253       0.000      0.7316       0.000    
    1409  0.8919E-01  0.6330E-04 SHELL      10002 -99.9%   1006.       3.252       9.017      -1.253       0.000      0.7316       0.000    
    1410  0.8926E-01  0.6330E-04 SHELL      10002 -99.9%   1008.       3.253       9.049      -1.253       0.000      0.7316       0.000    
    1411  0.8932E-01  0.6330E-04 SHELL      10002 -99.9%   1009.       3.257       9.082      -1.253       0.000      0.7316       0.000    
    1412  0.8938E-01  0.6330E-04 SHELL      10002 -99.9%   1010.       3.261       9.116      -1.253       0.000      0.7316       0.000    
    1413  0.8945E-01  0.6330E-04 SHELL      10002 -99.9%   1012.       3.267       9.151      -1.253       0.000      0.7316       0.000    
    1414  0.8951E-01  0.6330E-04 SHELL      10002 -99.9%   1013.       3.274       9.187      -1.253       0.000      0.7316       0.000    
    1415  0.8957E-01  0.6330E-04 SHELL      10002 -99.9%   1015.       3.282       9.223      -1.253       0.000      0.7316       0.000    
    1416  0.8964E-01  0.6330E-04 SHELL      10002 -99.9%   1016.       3.290       9.260      -1.253       0.000      0.7316       0.000    
    1417  0.8970E-01  0.6330E-04 SHELL      10002 -99.9%   1018.       3.299       9.298      -1.253       0.000      0.7316       0.000    
    1418  0.8976E-01  0.6330E-04 SHELL      10002 -99.9%   1019.       3.307       9.336      -1.253       0.000      0.7316       0.000    
    1419  0.8983E-01  0.6330E-04 SHELL      10002 -99.9%   1020.       3.316       9.374      -1.253       0.000      0.7316       0.000    
    1420  0.8989E-01  0.6330E-04 SHELL      10002 -99.9%   1022.       3.325       9.412      -1.253       0.000      0.7316       0.000    
    1421  0.8995E-01  0.6330E-04 SHELL      10002 -99.9%   1023.       3.333       9.451      -1.253       0.000      0.7316       0.000    
    1422  0.9002E-01  0.6330E-04 SHELL      10002 -99.9%   1025.       3.341       9.489      -1.253       0.000      0.7316       0.000    
     ANIMATION FILE: BOULEV44A010 WRITTEN
    1423  0.9008E-01  0.6330E-04 SHELL      10002 -99.9%   1026.       3.346       9.528      -1.253       0.000      0.7316       0.000    
    1424  0.9014E-01  0.6330E-04 SHELL      10002 -99.9%   1027.       3.350       9.567      -1.253       0.000      0.7316       0.000    
    1425  0.9021E-01  0.6330E-04 SHELL      10002 -99.9%   1029.       3.352       9.606      -1.253       0.000      0.7316       0.000    
    1426  0.9027E-01  0.6330E-04 SHELL      10002 -99.9%   1030.       3.352       9.645      -1.253       0.000      0.7316       0.000    
    1427  0.9033E-01  0.6330E-04 SHELL      10002 -99.9%   1032.       3.351       9.684      -1.253       0.000      0.7316       0.000    
    1428  0.9040E-01  0.6330E-04 SHELL      10002 -99.9%   1033.       3.350       9.722      -1.253       0.000      0.7316       0.000    
    1429  0.9046E-01  0.6330E-04 SHELL      10002 -99.9%   1034.       3.349       9.760      -1.253       0.000      0.7316       0.000    
   CYCLE    TIME      TIME-STEP  ELEMENT          ERROR  I-ENERGY    K-ENERGY T  K-ENERGY R  EXT-WORK     MAS.ERR     TOTAL MASS  MASS ADDED
    1430  0.9052E-01  0.6330E-04 SHELL      10002 -99.9%   1036.       3.349       9.798      -1.253       0.000      0.7316       0.000    
    1431  0.9059E-01  0.6330E-04 SHELL      10002 -99.9%   1037.       3.351       9.837      -1.253       0.000      0.7316       0.000    
    1432  0.9065E-01  0.6330E-04 SHELL      10002 -99.9%   1039.       3.353       9.877      -1.253       0.000      0.7316       0.000    
    1433  0.9071E-01  0.6330E-04 SHELL      10002 -99.9%   1040.       3.357       9.917      -1.253       0.000      0.7316       0.000    
    1434  0.9078E-01  0.6330E-04 SHELL      10002 -99.9%   1041.       3.361       9.959      -1.253       0.000      0.7316       0.000    
    1435  0.9084E-01  0.6330E-04 SHELL      10002 -99.9%   1043.       3.366       10.00      -1.253       0.000      0.7316       0.000    
    1436  0.9090E-01  0.6330E-04 SHELL      10002 -99.9%   1044.       3.372       10.04      -1.253       0.000      0.7316       0.000    
    1437  0.9097E-01  0.6330E-04 SHELL      10002 -99.9%   1045.       3.378       10.08      -1.253       0.000      0.7316       0.000    
    1438  0.9103E-01  0.6330E-04 SHELL      10002 -99.9%   1047.       3.385       10.13      -1.253       0.000      0.7316       0.000    
    1439  0.9109E-01  0.6330E-04 SHELL      10002 -99.9%   1048.       3.393       10.17      -1.253       0.000      0.7316       0.000    
    1440  0.9116E-01  0.6330E-04 SHELL      10002 -99.9%   1050.       3.400       10.21      -1.253       0.000      0.7316       0.000    
    1441  0.9122E-01  0.6330E-04 SHELL      10002 -99.9%   1051.       3.408       10.25      -1.253       0.000      0.7316       0.000    
    1442  0.9128E-01  0.6330E-04 SHELL      10002 -99.9%   1052.       3.416       10.30      -1.253       0.000      0.7316       0.000    
    1443  0.9134E-01  0.6330E-04 SHELL      10002 -99.9%   1054.       3.424       10.34      -1.253       0.000      0.7316       0.000    
    1444  0.9141E-01  0.6330E-04 SHELL      10002 -99.9%   1055.       3.431       10.39      -1.253       0.000      0.7316       0.000    
    1445  0.9147E-01  0.6330E-04 SHELL      10002 -99.9%   1056.       3.438       10.43      -1.253       0.000      0.7316       0.000    
    1446  0.9153E-01  0.6330E-04 SHELL      10002 -99.9%   1058.       3.444       10.48      -1.253       0.000      0.7316       0.000    
    1447  0.9160E-01  0.6330E-04 SHELL      10002 -99.9%   1059.       3.450       10.53      -1.253       0.000      0.7316       0.000    
    1448  0.9166E-01  0.6330E-04 SHELL      10002 -99.9%   1061.       3.455       10.58      -1.253       0.000      0.7316       0.000    
    1449  0.9172E-01  0.6330E-04 SHELL      10002 -99.9%   1062.       3.461       10.62      -1.253       0.000      0.7316       0.000    
    1450  0.9179E-01  0.6330E-04 SHELL      10002 -99.9%   1063.       3.467       10.67      -1.253       0.000      0.7316       0.000    
    1451  0.9185E-01  0.6330E-04 SHELL      10002 -99.9%   1065.       3.473       10.72      -1.253       0.000      0.7316       0.000    
    1452  0.9191E-01  0.6330E-04 SHELL      10002 -99.9%   1066.       3.480       10.77      -1.253       0.000      0.7316       0.000    
    1453  0.9198E-01  0.6330E-04 SHELL      10002 -99.9%   1067.       3.487       10.82      -1.253       0.000      0.7316       0.000    
    1454  0.9204E-01  0.6330E-04 SHELL      10002 -99.9%   1069.       3.494       10.87      -1.253       0.000      0.7316       0.000    
    1455  0.9210E-01  0.6330E-04 SHELL      10002 -99.9%   1070.       3.501       10.92      -1.253       0.000      0.7316       0.000    
    1456  0.9217E-01  0.6330E-04 SHELL      10002 -99.9%   1071.       3.508       10.97      -1.253       0.000      0.7316       0.000    
    1457  0.9223E-01  0.6330E-04 SHELL      10002 -99.9%   1073.       3.515       11.03      -1.253       0.000      0.7316       0.000    
    1458  0.9229E-01  0.6330E-04 SHELL      10002 -99.9%   1074.       3.521       11.08      -1.253       0.000      0.7316       0.000    
    1459  0.9236E-01  0.6330E-04 SHELL      10002 -99.9%   1076.       3.527       11.14      -1.253       0.000      0.7316       0.000    
    1460  0.9242E-01  0.6330E-04 SHELL      10002 -99.9%   1077.       3.533       11.19      -1.253       0.000      0.7316       0.000    
    1461  0.9248E-01  0.6330E-04 SHELL      10002 -99.9%   1078.       3.539       11.25      -1.253       0.000      0.7316       0.000    
    1462  0.9255E-01  0.6330E-04 SHELL      10002 -99.9%   1080.       3.546       11.30      -1.253       0.000      0.7316       0.000    
    1463  0.9261E-01  0.6330E-04 SHELL      10002 -99.9%   1081.       3.552       11.36      -1.253       0.000      0.7316       0.000    
    1464  0.9267E-01  0.6330E-04 SHELL      10002 -99.9%   1082.       3.559       11.41      -1.253       0.000      0.7316       0.000    
    1465  0.9274E-01  0.6330E-04 SHELL      10002 -99.9%   1084.       3.565       11.47      -1.253       0.000      0.7316       0.000    
    1466  0.9280E-01  0.6330E-04 SHELL      10002 -99.9%   1085.       3.570       11.53      -1.253       0.000      0.7316       0.000    
    1467  0.9286E-01  0.6330E-04 SHELL      10002 -99.9%   1086.       3.575       11.58      -1.253       0.000      0.7316       0.000    
    1468  0.9293E-01  0.6330E-04 SHELL      10002 -99.9%   1088.       3.579       11.64      -1.253       0.000      0.7316       0.000    
    1469  0.9299E-01  0.6330E-04 SHELL      10002 -99.9%   1089.       3.583       11.70      -1.253       0.000      0.7316       0.000    
    1470  0.9305E-01  0.6330E-04 SHELL      10002 -99.9%   1090.       3.586       11.76      -1.253       0.000      0.7316       0.000    
    1471  0.9312E-01  0.6330E-04 SHELL      10002 -99.9%   1092.       3.589       11.82      -1.253       0.000      0.7316       0.000    
    1472  0.9318E-01  0.6330E-04 SHELL      10002 -99.9%   1093.       3.592       11.88      -1.253       0.000      0.7316       0.000    
    1473  0.9324E-01  0.6330E-04 SHELL      10002 -99.9%   1094.       3.594       11.94      -1.253       0.000      0.7316       0.000    
    1474  0.9331E-01  0.6330E-04 SHELL      10002 -99.9%   1096.       3.597       12.00      -1.253       0.000      0.7316       0.000    
    1475  0.9337E-01  0.6330E-04 SHELL      10002 -99.9%   1097.       3.599       12.06      -1.253       0.000      0.7316       0.000    
    1476  0.9343E-01  0.6330E-04 SHELL      10002 -99.9%   1098.       3.602       12.13      -1.253       0.000      0.7316       0.000    
    1477  0.9350E-01  0.6330E-04 SHELL      10002 -99.9%   1100.       3.604       12.19      -1.253       0.000      0.7316       0.000    
    1478  0.9356E-01  0.6330E-04 SHELL      10002 -99.9%   1101.       3.617       12.25      -1.253       0.000      0.7316       0.000    
    1479  0.9362E-01  0.6330E-04 SHELL      10002 -99.9%   1102.       3.628       12.31      -1.253       0.000      0.7316       0.000    
    1480  0.9369E-01  0.6330E-04 SHELL      10002 -99.9%   1104.       3.633       12.38      -1.253       0.000      0.7316       0.000    
    1481  0.9375E-01  0.6330E-04 SHELL      10002 -99.9%   1105.       3.635       12.44      -1.253       0.000      0.7316       0.000    
    1482  0.9381E-01  0.6330E-04 SHELL      10002 -99.9%   1106.       3.643       12.51      -1.254       0.000      0.7316       0.000    
    1483  0.9388E-01  0.6330E-04 SHELL      10002 -99.9%   1108.       3.649       12.58      -1.254       0.000      0.7316       0.000    
    1484  0.9394E-01  0.6330E-04 SHELL      10002 -99.9%   1109.       3.656       12.65      -1.254       0.000      0.7316       0.000    
   CYCLE    TIME      TIME-STEP  ELEMENT          ERROR  I-ENERGY    K-ENERGY T  K-ENERGY R  EXT-WORK     MAS.ERR     TOTAL MASS  MASS ADDED
    1485  0.9400E-01  0.6330E-04 SHELL      10002 -99.9%   1110.       3.664       12.72      -1.254       0.000      0.7316       0.000    
    1486  0.9407E-01  0.6330E-04 SHELL      10002 -99.9%   1112.       3.673       12.79      -1.254       0.000      0.7316       0.000    
    1487  0.9413E-01  0.6330E-04 SHELL      10002 -99.9%   1113.       3.682       12.86      -1.254       0.000      0.7316       0.000    
    1488  0.9419E-01  0.6330E-04 SHELL      10002 -99.9%   1114.       3.691       12.93      -1.254       0.000      0.7316       0.000    
    1489  0.9426E-01  0.6330E-04 SHELL      10002 -99.9%   1116.       3.700       13.00      -1.254       0.000      0.7316       0.000    
    1490  0.9432E-01  0.6330E-04 SHELL      10002 -99.9%   1117.       3.708       13.07      -1.254       0.000      0.7316       0.000    
    1491  0.9438E-01  0.6330E-04 SHELL      10002 -99.9%   1118.       3.714       13.14      -1.254       0.000      0.7316       0.000    
    1492  0.9445E-01  0.6330E-04 SHELL      10002 -99.9%   1119.       3.720       13.22      -1.254       0.000      0.7316       0.000    
    1493  0.9451E-01  0.6330E-04 SHELL      10002 -99.9%   1121.       3.724       13.29      -1.254       0.000      0.7316       0.000    
    1494  0.9457E-01  0.6330E-04 SHELL      10002 -99.9%   1122.       3.726       13.36      -1.254       0.000      0.7316       0.000    
    1495  0.9464E-01  0.6330E-04 SHELL      10002 -99.9%   1123.       3.727       13.43      -1.254       0.000      0.7316       0.000    
    1496  0.9470E-01  0.6330E-04 SHELL      10002 -99.9%   1125.       3.728       13.51      -1.254       0.000      0.7316       0.000    
    1497  0.9476E-01  0.6330E-04 SHELL      10002 -99.9%   1126.       3.728       13.58      -1.254       0.000      0.7316       0.000    
    1498  0.9483E-01  0.6330E-04 SHELL      10002 -99.9%   1127.       3.727       13.65      -1.254       0.000      0.7316       0.000    
    1499  0.9489E-01  0.6330E-04 SHELL      10002 -99.9%   1129.       3.727       13.72      -1.254       0.000      0.7316       0.000    
    1500  0.9495E-01  0.6330E-04 SHELL      10002 -99.9%   1130.       3.726       13.79      -1.254       0.000      0.7316       0.000    
    1501  0.9502E-01  0.6330E-04 SHELL      10002 -99.9%   1131.       3.726       13.86      -1.254       0.000      0.7316       0.000    
    1502  0.9508E-01  0.6330E-04 SHELL      10002 -99.9%   1133.       3.726       13.93      -1.254       0.000      0.7316       0.000    
    1503  0.9514E-01  0.6330E-04 SHELL      10002 -99.9%   1134.       3.726       14.01      -1.254       0.000      0.7316       0.000    
    1504  0.9521E-01  0.6330E-04 SHELL      10002 -99.9%   1135.       3.726       14.08      -1.254       0.000      0.7316       0.000    
    1505  0.9527E-01  0.6330E-04 SHELL      10002 -99.9%   1136.       3.726       14.15      -1.254       0.000      0.7316       0.000    
    1506  0.9533E-01  0.6330E-04 SHELL      10002 -99.9%   1138.       3.727       14.22      -1.254       0.000      0.7316       0.000    
    1507  0.9540E-01  0.6330E-04 SHELL      10002 -99.9%   1139.       3.727       14.29      -1.254       0.000      0.7316       0.000    
    1508  0.9546E-01  0.6330E-04 SHELL      10002 -99.9%   1140.       3.727       14.36      -1.254       0.000      0.7316       0.000    
    1509  0.9552E-01  0.6330E-04 SHELL      10002 -99.9%   1142.       3.727       14.43      -1.254       0.000      0.7316       0.000    
    1510  0.9559E-01  0.6330E-04 SHELL      10002 -99.9%   1143.       3.726       14.49      -1.254       0.000      0.7316       0.000    
    1511  0.9565E-01  0.6330E-04 SHELL      10002 -99.9%   1144.       3.804       14.56      -1.257       0.000      0.7316       0.000    
    1512  0.9571E-01  0.6330E-04 SHELL      10002 -99.9%   1145.       3.799       14.63      -1.257       0.000      0.7316       0.000    
    1513  0.9578E-01  0.6330E-04 SHELL      10002 -99.9%   1147.       3.816       14.71      -1.257       0.000      0.7316       0.000    
    1514  0.9584E-01  0.6330E-04 SHELL      10002 -99.9%   1148.       3.818       14.78      -1.257       0.000      0.7316       0.000    
    1515  0.9590E-01  0.6330E-04 SHELL      10002 -99.9%   1149.       3.840       14.85      -1.258       0.000      0.7316       0.000    
    1516  0.9597E-01  0.6330E-04 SHELL      10002 -99.9%   1150.       3.851       14.91      -1.258       0.000      0.7316       0.000    
    1517  0.9603E-01  0.6330E-04 SHELL      10002 -99.9%   1152.       3.861       14.98      -1.258       0.000      0.7316       0.000    
    1518  0.9609E-01  0.6330E-04 SHELL      10002 -99.9%   1153.       3.870       15.04      -1.258       0.000      0.7316       0.000    
    1519  0.9616E-01  0.6330E-04 SHELL      10002 -99.9%   1154.       3.875       15.10      -1.258       0.000      0.7316       0.000    
    1520  0.9622E-01  0.6330E-04 SHELL      10002 -99.9%   1156.       3.875       15.16      -1.258       0.000      0.7316       0.000    
    1521  0.9628E-01  0.6330E-04 SHELL      10002 -99.9%   1157.       3.871       15.22      -1.258       0.000      0.7316       0.000    
    1522  0.9635E-01  0.6330E-04 SHELL      10002 -99.9%   1158.       3.862       15.28      -1.258       0.000      0.7316       0.000    
    1523  0.9641E-01  0.6330E-04 SHELL      10002 -99.9%   1159.       3.851       15.34      -1.258       0.000      0.7316       0.000    
    1524  0.9647E-01  0.6330E-04 SHELL      10002 -99.9%   1161.       3.840       15.40      -1.258       0.000      0.7316       0.000    
    1525  0.9654E-01  0.6330E-04 SHELL      10002 -99.9%   1162.       3.832       15.46      -1.258       0.000      0.7316       0.000    
    1526  0.9660E-01  0.6330E-04 SHELL      10002 -99.9%   1163.       3.826       15.51      -1.258       0.000      0.7316       0.000    
    1527  0.9666E-01  0.6330E-04 SHELL      10002 -99.9%   1164.       3.823       15.57      -1.258       0.000      0.7316       0.000    
    1528  0.9673E-01  0.6330E-04 SHELL      10002 -99.9%   1166.       3.822       15.62      -1.258       0.000      0.7316       0.000    
    1529  0.9679E-01  0.6330E-04 SHELL      10002 -99.9%   1167.       3.825       15.68      -1.258       0.000      0.7316       0.000    
    1530  0.9685E-01  0.6330E-04 SHELL      10002 -99.9%   1168.       3.830       15.73      -1.258       0.000      0.7316       0.000    
    1531  0.9692E-01  0.6330E-04 SHELL      10002 -99.9%   1169.       3.838       15.79      -1.258       0.000      0.7316       0.000    
    1532  0.9698E-01  0.6330E-04 SHELL      10002 -99.9%   1171.       3.849       15.85      -1.258       0.000      0.7316       0.000    
    1533  0.9704E-01  0.6330E-04 SHELL      10002 -99.9%   1172.       3.860       15.91      -1.258       0.000      0.7316       0.000    
    1534  0.9711E-01  0.6330E-04 SHELL      10002 -99.9%   1173.       3.873       15.97      -1.258       0.000      0.7316       0.000    
    1535  0.9717E-01  0.6330E-04 SHELL      10002 -99.9%   1174.       3.885       16.03      -1.258       0.000      0.7316       0.000    
    1536  0.9723E-01  0.6330E-04 SHELL      10002 -99.9%   1176.       3.896       16.08      -1.258       0.000      0.7316       0.000    
    1537  0.9730E-01  0.6330E-04 SHELL      10002 -99.9%   1177.       3.897       16.14      -1.258       0.000      0.7316       0.000    
    1538  0.9736E-01  0.6330E-04 SHELL      10002 -99.9%   1178.       3.883       16.20      -1.258       0.000      0.7316       0.000    
    1539  0.9742E-01  0.6330E-04 SHELL      10002 -99.9%   1179.       3.860       16.26      -1.258       0.000      0.7316       0.000    
   CYCLE    TIME      TIME-STEP  ELEMENT          ERROR  I-ENERGY    K-ENERGY T  K-ENERGY R  EXT-WORK     MAS.ERR     TOTAL MASS  MASS ADDED
    1540  0.9749E-01  0.6330E-04 SHELL      10002 -99.9%   1181.       3.833       16.32      -1.258       0.000      0.7316       0.000    
    1541  0.9755E-01  0.6330E-04 SHELL      10002 -99.9%   1182.       3.801       16.37      -1.258       0.000      0.7316       0.000    
    1542  0.9761E-01  0.6330E-04 SHELL      10002 -99.9%   1183.       3.767       16.43      -1.258       0.000      0.7316       0.000    
    1543  0.9768E-01  0.6330E-04 SHELL      10002 -99.9%   1185.       3.733       16.48      -1.258       0.000      0.7316       0.000    
    1544  0.9774E-01  0.6330E-04 SHELL      10002 -99.9%   1186.       3.700       16.54      -1.258       0.000      0.7316       0.000    
    1545  0.9780E-01  0.6330E-04 SHELL      10002 -99.9%   1187.       3.670       16.59      -1.258       0.000      0.7316       0.000    
    1546  0.9787E-01  0.6330E-04 SHELL      10002 -99.9%   1189.       3.643       16.64      -1.258       0.000      0.7316       0.000    
    1547  0.9793E-01  0.6330E-04 SHELL      10002 -99.9%   1190.       3.619       16.69      -1.258       0.000      0.7316       0.000    
    1548  0.9799E-01  0.6330E-04 SHELL      10002 -99.9%   1191.       3.599       16.74      -1.258       0.000      0.7316       0.000    
    1549  0.9805E-01  0.6330E-04 SHELL      10002 -99.9%   1193.       3.580       16.79      -1.258       0.000      0.7316       0.000    
    1550  0.9812E-01  0.6330E-04 SHELL      10002 -99.9%   1194.       3.554       16.84      -1.258       0.000      0.7316       0.000    
    1551  0.9818E-01  0.6330E-04 SHELL      10002 -99.9%   1195.       3.520       16.89      -1.258       0.000      0.7316       0.000    
    1552  0.9824E-01  0.6330E-04 SHELL      10002 -99.9%   1197.       3.484       16.93      -1.258       0.000      0.7316       0.000    
    1553  0.9831E-01  0.6330E-04 SHELL      10002 -99.9%   1198.       3.455       16.96      -1.258       0.000      0.7316       0.000    
    1554  0.9837E-01  0.6330E-04 SHELL      10002 -99.9%   1199.       3.433       16.99      -1.258       0.000      0.7316       0.000    
    1555  0.9843E-01  0.6330E-04 SHELL      10002 -99.9%   1201.       3.419       17.02      -1.258       0.000      0.7316       0.000    
    1556  0.9850E-01  0.6330E-04 SHELL      10002 -99.9%   1202.       3.411       17.04      -1.258       0.000      0.7316       0.000    
    1557  0.9856E-01  0.6330E-04 SHELL      10002 -99.9%   1204.       3.408       17.07      -1.258       0.000      0.7316       0.000    
    1558  0.9862E-01  0.6330E-04 SHELL      10002 -99.9%   1205.       3.407       17.09      -1.258       0.000      0.7316       0.000    
    1559  0.9869E-01  0.6330E-04 SHELL      10002 -99.9%   1206.       3.408       17.12      -1.258       0.000      0.7316       0.000    
    1560  0.9875E-01  0.6330E-04 SHELL      10002 -99.9%   1208.       3.410       17.14      -1.258       0.000      0.7316       0.000    
    1561  0.9881E-01  0.6330E-04 SHELL      10002 -99.9%   1209.       3.412       17.17      -1.258       0.000      0.7316       0.000    
    1562  0.9888E-01  0.6330E-04 SHELL      10002 -99.9%   1211.       3.412       17.19      -1.258       0.000      0.7316       0.000    
    1563  0.9894E-01  0.6330E-04 SHELL      10002 -99.9%   1212.       3.409       17.23      -1.258       0.000      0.7316       0.000    
    1564  0.9900E-01  0.6330E-04 SHELL      10002 -99.9%   1214.       3.401       17.27      -1.258       0.000      0.7316       0.000    
    1565  0.9907E-01  0.6330E-04 SHELL      10002 -99.9%   1215.       3.388       17.31      -1.258       0.000      0.7316       0.000    
    1566  0.9913E-01  0.6330E-04 SHELL      10002 -99.9%   1216.       3.370       17.37      -1.258       0.000      0.7316       0.000    
    1567  0.9919E-01  0.6330E-04 SHELL      10002 -99.9%   1218.       3.348       17.42      -1.258       0.000      0.7316       0.000    
    1568  0.9926E-01  0.6330E-04 SHELL      10002 -99.9%   1219.       3.325       17.48      -1.258       0.000      0.7316       0.000    
    1569  0.9932E-01  0.6330E-04 SHELL      10002 -99.9%   1221.       3.303       17.55      -1.258       0.000      0.7316       0.000    
    1570  0.9938E-01  0.6330E-04 SHELL      10002 -99.9%   1222.       3.282       17.61      -1.258       0.000      0.7316       0.000    
    1571  0.9945E-01  0.6330E-04 SHELL      10002 -99.9%   1224.       3.255       17.68      -1.258       0.000      0.7316       0.000    
    1572  0.9951E-01  0.6330E-04 SHELL      10002 -99.9%   1225.       3.248       17.75      -1.258       0.000      0.7316       0.000    
    1573  0.9957E-01  0.6330E-04 SHELL      10002 -99.9%   1226.       3.236       17.82      -1.258       0.000      0.7316       0.000    
    1574  0.9964E-01  0.6330E-04 SHELL      10002 -99.9%   1228.       3.227       17.89      -1.258       0.000      0.7316       0.000    
    1575  0.9970E-01  0.6330E-04 SHELL      10002 -99.9%   1229.       3.224       17.97      -1.258       0.000      0.7316       0.000    
    1576  0.9976E-01  0.6330E-04 SHELL      10002 -99.9%   1231.       3.228       18.04      -1.258       0.000      0.7316       0.000    
    1577  0.9983E-01  0.6330E-04 SHELL      10002 -99.9%   1232.       3.239       18.13      -1.258       0.000      0.7316       0.000    
    1578  0.9989E-01  0.6330E-04 SHELL      10002 -99.9%   1233.       3.258       18.21      -1.258       0.000      0.7316       0.000    
    1579  0.9995E-01  0.6330E-04 SHELL      10002 -99.9%   1235.       3.282       18.29      -1.258       0.000      0.7316       0.000    
    1580  0.1000      0.6330E-04 SHELL      10002 -99.9%   1236.       3.308       18.37      -1.258       0.000      0.7316       0.000    
     ANIMATION FILE: BOULEV44A011 WRITTEN
    1581  0.1001      0.6330E-04 SHELL      10002 -99.9%   1237.       3.335       18.46      -1.258       0.000      0.7316       0.000    
    1582  0.1001      0.6330E-04 SHELL      10002 -99.9%   1239.       3.362       18.54      -1.258       0.000      0.7316       0.000    
    1583  0.1002      0.6330E-04 SHELL      10002 -99.9%   1240.       3.385       18.62      -1.258       0.000      0.7316       0.000    
    1584  0.1003      0.6330E-04 SHELL      10002 -99.9%   1241.       3.403       18.71      -1.258       0.000      0.7316       0.000    
    1585  0.1003      0.6330E-04 SHELL      10002 -99.9%   1243.       3.414       18.80      -1.258       0.000      0.7316       0.000    
    1586  0.1004      0.6330E-04 SHELL      10002 -99.9%   1244.       3.418       18.89      -1.258       0.000      0.7316       0.000    
    1587  0.1005      0.6330E-04 SHELL      10002 -99.9%   1245.       3.416       18.99      -1.258       0.000      0.7316       0.000    
    1588  0.1005      0.6330E-04 SHELL      10002 -99.9%   1247.       3.411       19.09      -1.258       0.000      0.7316       0.000    
    1589  0.1006      0.6330E-04 SHELL      10002 -99.9%   1248.       3.407       19.19      -1.258       0.000      0.7316       0.000    
    1590  0.1007      0.6330E-04 SHELL      10002 -99.9%   1249.       3.405       19.28      -1.258       0.000      0.7316       0.000    
    1591  0.1007      0.6330E-04 SHELL      10002 -99.9%   1251.       3.408       19.38      -1.258       0.000      0.7316       0.000    
    1592  0.1008      0.6330E-04 SHELL      10002 -99.9%   1252.       3.412       19.47      -1.258       0.000      0.7316       0.000    
    1593  0.1008      0.6330E-04 SHELL      10002 -99.9%   1254.       3.418       19.57      -1.258       0.000      0.7316       0.000    
    1594  0.1009      0.6330E-04 SHELL      10002 -99.9%   1255.       3.423       19.66      -1.258       0.000      0.7316       0.000    
   CYCLE    TIME      TIME-STEP  ELEMENT          ERROR  I-ENERGY    K-ENERGY T  K-ENERGY R  EXT-WORK     MAS.ERR     TOTAL MASS  MASS ADDED
    1595  0.1010      0.6330E-04 SHELL      10002 -99.9%   1257.       3.427       19.77      -1.258       0.000      0.7316       0.000    
    1596  0.1010      0.6330E-04 SHELL      10002 -99.9%   1258.       3.430       19.87      -1.258       0.000      0.7316       0.000    
    1597  0.1011      0.6330E-04 SHELL      10002 -99.9%   1259.       3.433       19.99      -1.258       0.000      0.7316       0.000    
    1598  0.1012      0.6330E-04 SHELL      10002 -99.9%   1261.       3.437       20.10      -1.258       0.000      0.7316       0.000    
    1599  0.1012      0.6330E-04 SHELL      10002 -99.9%   1262.       3.440       20.22      -1.258       0.000      0.7316       0.000    
    1600  0.1013      0.6330E-04 SHELL      10002 -99.9%   1264.       3.444       20.34      -1.258       0.000      0.7316       0.000    
    1601  0.1013      0.6330E-04 SHELL      10002 -99.9%   1265.       3.446       20.46      -1.258       0.000      0.7316       0.000    
    1602  0.1014      0.6330E-04 SHELL      10002 -99.9%   1266.       3.449       20.58      -1.258       0.000      0.7316       0.000    
    1603  0.1015      0.6330E-04 SHELL      10002 -99.9%   1268.       3.450       20.70      -1.258       0.000      0.7316       0.000    
    1604  0.1015      0.6330E-04 SHELL      10002 -99.9%   1269.       3.449       20.82      -1.258       0.000      0.7316       0.000    
    1605  0.1016      0.6330E-04 SHELL      10002 -99.9%   1271.       3.445       20.95      -1.258       0.000      0.7316       0.000    
    1606  0.1017      0.6330E-04 SHELL      10002 -99.9%   1272.       3.439       21.07      -1.258       0.000      0.7316       0.000    
    1607  0.1017      0.6330E-04 SHELL      10002 -99.9%   1273.       3.431       21.20      -1.258       0.000      0.7316       0.000    
    1608  0.1018      0.6330E-04 SHELL      10002 -99.9%   1275.       3.591       21.33      -1.330       0.000      0.7316       0.000    
    1609  0.1019      0.6330E-04 SHELL      10002 -99.9%   1276.       3.581       21.44      -1.330       0.000      0.7316       0.000    
    1610  0.1019      0.6330E-04 SHELL      10002 -99.9%   1278.       3.680       21.54      -1.342       0.000      0.7316       0.000    
    1611  0.1020      0.6330E-04 SHELL      10002 -99.9%   1279.       3.790       21.63      -1.342       0.000      0.7316       0.000    
    1612  0.1020      0.6330E-04 SHELL      10002 -99.9%   1281.       3.931       21.72      -1.342       0.000      0.7316       0.000    
    1613  0.1021      0.6330E-04 SHELL      10002 -99.9%   1282.       4.085       21.81      -1.342       0.000      0.7316       0.000    
    1614  0.1022      0.6330E-04 SHELL      10002 -99.9%   1283.       4.229       21.91      -1.342       0.000      0.7316       0.000    
    1615  0.1022      0.6330E-04 SHELL      10002 -99.9%   1285.       4.347       22.01      -1.342       0.000      0.7316       0.000    
    1616  0.1023      0.6330E-04 SHELL      10002 -99.9%   1286.       4.429       22.13      -1.342       0.000      0.7316       0.000    
    1617  0.1024      0.6330E-04 SHELL      10002 -99.9%   1288.       4.469       22.24      -1.342       0.000      0.7316       0.000    
    1618  0.1024      0.6330E-04 SHELL      10002 -99.9%   1289.       4.465       22.36      -1.342       0.000      0.7316       0.000    
    1619  0.1025      0.6330E-04 SHELL      10002 -99.9%   1290.       4.423       22.47      -1.342       0.000      0.7316       0.000    
    1620  0.1025      0.6330E-04 SHELL      10002 -99.9%   1292.       4.350       22.57      -1.342       0.000      0.7316       0.000    
    1621  0.1026      0.6330E-04 SHELL      10002 -99.9%   1293.       4.259       22.66      -1.342       0.000      0.7316       0.000    
    1622  0.1027      0.6330E-04 SHELL      10002 -99.9%   1295.       4.156       22.75      -1.342       0.000      0.7316       0.000    
    1623  0.1027      0.6330E-04 SHELL      10002 -99.9%   1296.       4.048       22.84      -1.342       0.000      0.7316       0.000    
    1624  0.1028      0.6330E-04 SHELL      10002 -99.9%   1298.       3.940       22.95      -1.342       0.000      0.7316       0.000    
    1625  0.1029      0.6330E-04 SHELL      10002 -99.9%   1299.       3.838       23.06      -1.342       0.000      0.7316       0.000    
    1626  0.1029      0.6330E-04 SHELL      10002 -99.9%   1301.       3.752       23.17      -1.342       0.000      0.7316       0.000    
    1627  0.1030      0.6330E-04 SHELL      10002 -99.9%   1302.       3.691       23.30      -1.342       0.000      0.7316       0.000    
    1628  0.1031      0.6330E-04 SHELL      10002 -99.9%   1303.       3.661       23.42      -1.342       0.000      0.7316       0.000    
    1629  0.1031      0.6330E-04 SHELL      10002 -99.9%   1305.       3.665       23.54      -1.342       0.000      0.7316       0.000    
    1630  0.1032      0.6330E-04 SHELL      10002 -99.9%   1306.       3.700       23.65      -1.342       0.000      0.7316       0.000    
    1631  0.1032      0.6330E-04 SHELL      10002 -99.9%   1308.       3.758       23.76      -1.342       0.000      0.7316       0.000    
    1632  0.1033      0.6330E-04 SHELL      10002 -99.9%   1309.       3.831       23.88      -1.342       0.000      0.7316       0.000    
    1633  0.1034      0.6330E-04 SHELL      10002 -99.9%   1311.       3.908       24.00      -1.342       0.000      0.7316       0.000    
    1634  0.1034      0.6330E-04 SHELL      10002 -99.9%   1312.       3.980       24.13      -1.342       0.000      0.7316       0.000    
    1635  0.1035      0.6330E-04 SHELL      10002 -99.9%   1314.       4.041       24.26      -1.342       0.000      0.7316       0.000    
    1636  0.1036      0.6330E-04 SHELL      10002 -99.9%   1315.       4.088       24.40      -1.342       0.000      0.7316       0.000    
    1637  0.1036      0.6330E-04 SHELL      10002 -99.9%   1317.       4.121       24.53      -1.342       0.000      0.7316       0.000    
    1638  0.1037      0.6330E-04 SHELL      10002 -99.9%   1318.       4.140       24.66      -1.342       0.000      0.7316       0.000    
    1639  0.1038      0.6330E-04 SHELL      10002 -99.9%   1320.       4.147       24.79      -1.342       0.000      0.7316       0.000    
    1640  0.1038      0.6330E-04 SHELL      10002 -99.9%   1321.       4.437       24.91      -1.403       0.000      0.7316       0.000    
    1641  0.1039      0.6330E-04 SHELL      10002 -99.9%   1323.       4.411       25.01      -1.403       0.000      0.7316       0.000    
    1642  0.1039      0.6330E-04 SHELL      10002 -99.9%   1324.       4.495       25.11      -1.411       0.000      0.7316       0.000    
    1643  0.1040      0.6330E-04 SHELL      10002 -99.9%   1326.       4.560       25.22      -1.411       0.000      0.7316       0.000    
    1644  0.1041      0.6330E-04 SHELL      10002 -99.9%   1327.       4.630       25.33      -1.411       0.000      0.7316       0.000    
    1645  0.1041      0.6330E-04 SHELL      10002 -99.9%   1329.       4.679       25.46      -1.411       0.000      0.7316       0.000    
    1646  0.1042      0.6330E-04 SHELL      10002 -99.9%   1331.       4.689       25.61      -1.411       0.000      0.7316       0.000    
    1647  0.1043      0.6330E-04 SHELL      10002 -99.9%   1332.       4.656       25.78      -1.411       0.000      0.7316       0.000    
    1648  0.1043      0.6330E-04 SHELL      10002 -99.9%   1334.       4.594       25.95      -1.411       0.000      0.7316       0.000    
    1649  0.1044      0.6330E-04 SHELL      10002 -99.9%   1335.       4.522       26.13      -1.411       0.000      0.7316       0.000    
   CYCLE    TIME      TIME-STEP  ELEMENT          ERROR  I-ENERGY    K-ENERGY T  K-ENERGY R  EXT-WORK     MAS.ERR     TOTAL MASS  MASS ADDED
    1650  0.1044      0.6330E-04 SHELL      10002 -99.9%   1337.       4.463       26.30      -1.411       0.000      0.7316       0.000    
    1651  0.1045      0.6330E-04 SHELL      10002 -99.9%   1339.       4.431       26.46      -1.411       0.000      0.7316       0.000    
    1652  0.1046      0.6330E-04 SHELL      10002 -99.9%   1340.       4.434       26.60      -1.411       0.000      0.7316       0.000    
    1653  0.1046      0.6330E-04 SHELL      10002 -99.9%   1342.       4.467       26.72      -1.411       0.000      0.7316       0.000    
    1654  0.1047      0.6330E-04 SHELL      10002 -99.9%   1343.       4.521       26.83      -1.411       0.000      0.7316       0.000    
    1655  0.1048      0.6330E-04 SHELL      10002 -99.9%   1345.       4.577       26.94      -1.411       0.000      0.7316       0.000    
    1656  0.1048      0.6330E-04 SHELL      10002 -99.9%   1347.       4.622       27.06      -1.411       0.000      0.7316       0.000    
    1657  0.1049      0.6330E-04 SHELL      10002 -99.9%   1348.       4.645       27.18      -1.411       0.000      0.7316       0.000    
    1658  0.1050      0.6330E-04 SHELL      10002 -99.9%   1350.       4.648       27.32      -1.411       0.000      0.7316       0.000    
    1659  0.1050      0.6330E-04 SHELL      10002 -99.9%   1351.       4.635       27.47      -1.411       0.000      0.7316       0.000    
    1660  0.1051      0.6330E-04 SHELL      10002 -99.9%   1353.       4.617       27.62      -1.411       0.000      0.7316       0.000    
    1661  0.1051      0.6330E-04 SHELL      10002 -99.9%   1354.       4.601       27.77      -1.411       0.000      0.7316       0.000    
    1662  0.1052      0.6330E-04 SHELL      10002 -99.9%   1356.       4.590       27.91      -1.411       0.000      0.7316       0.000    
    1663  0.1053      0.6330E-04 SHELL      10002 -99.9%   1358.       4.586       28.04      -1.411       0.000      0.7316       0.000    
    1664  0.1053      0.6330E-04 SHELL      10002 -99.9%   1359.       4.586       28.18      -1.411       0.000      0.7316       0.000    
    1665  0.1054      0.6330E-04 SHELL      10002 -99.9%   1361.       4.585       28.31      -1.411       0.000      0.7316       0.000    
    1666  0.1055      0.6330E-04 SHELL      10002 -99.9%   1362.       4.579       28.45      -1.411       0.000      0.7316       0.000    
    1667  0.1055      0.6330E-04 SHELL      10002 -99.9%   1364.       4.566       28.60      -1.411       0.000      0.7316       0.000    
    1668  0.1056      0.6330E-04 SHELL      10002 -99.9%   1366.       4.549       28.75      -1.411       0.000      0.7316       0.000    
    1669  0.1057      0.6330E-04 SHELL      10002 -99.9%   1367.       4.532       28.90      -1.411       0.000      0.7316       0.000    
    1670  0.1057      0.6330E-04 SHELL      10002 -99.9%   1369.       4.522       29.05      -1.411       0.000      0.7316       0.000    
    1671  0.1058      0.6330E-04 SHELL      10002 -99.9%   1370.       4.522       29.20      -1.411       0.000      0.7316       0.000    
    1672  0.1058      0.6330E-04 SHELL      10002 -99.9%   1372.       4.534       29.35      -1.411       0.000      0.7316       0.000    
    1673  0.1059      0.6330E-04 SHELL      10002 -99.9%   1374.       4.559       29.50      -1.411       0.000      0.7316       0.000    
    1674  0.1060      0.6330E-04 SHELL      10002 -99.9%   1375.       4.595       29.65      -1.411       0.000      0.7316       0.000    
    1675  0.1060      0.6330E-04 SHELL      10002 -99.9%   1377.       4.637       29.80      -1.411       0.000      0.7316       0.000    
    1676  0.1061      0.6330E-04 SHELL      10002 -99.9%   1378.       4.681       29.95      -1.411       0.000      0.7316       0.000    
    1677  0.1062      0.6330E-04 SHELL      10002 -99.9%   1380.       4.721       30.11      -1.411       0.000      0.7316       0.000    
    1678  0.1062      0.6330E-04 SHELL      10002 -99.9%   1382.       4.751       30.27      -1.411       0.000      0.7316       0.000    
    1679  0.1063      0.6330E-04 SHELL      10002 -99.9%   1383.       4.770       30.43      -1.411       0.000      0.7316       0.000    
    1680  0.1063      0.6330E-04 SHELL      10002 -99.9%   1385.       4.780       30.59      -1.411       0.000      0.7316       0.000    
    1681  0.1064      0.6330E-04 SHELL      10002 -99.9%   1386.       4.783       30.74      -1.411       0.000      0.7316       0.000    
    1682  0.1065      0.6330E-04 SHELL      10002 -99.9%   1388.       4.783       30.90      -1.411       0.000      0.7316       0.000    
    1683  0.1065      0.6330E-04 SHELL      10002 -99.9%   1389.       4.782       31.05      -1.411       0.000      0.7316       0.000    
    1684  0.1066      0.6078E-04 NODE        1006 -99.9%   1391.       4.775       31.20      -1.411       0.000      0.7316       0.000    
    1685  0.1067      0.6070E-04 NODE        1006 -99.9%   1392.       4.743       31.34      -1.411       0.000      0.7316       0.000    
    1686  0.1067      0.6070E-04 NODE        1038 -99.9%   1394.       4.712       31.47      -1.411       0.000      0.7316       0.000    
    1687  0.1068      0.6073E-04 NODE        1038 -99.9%   1396.       4.668       31.61      -1.411       0.000      0.7316       0.000    
    1688  0.1068      0.6075E-04 NODE        1038 -99.9%   1397.       4.577       31.77      -1.411       0.000      0.7316       0.000    
    1689  0.1069      0.6074E-04 NODE        1006 -99.9%   1399.       4.483       31.93      -1.411       0.000      0.7316       0.000    
    1690  0.1070      0.6071E-04 NODE        1006 -99.9%   1400.       4.415       32.08      -1.411       0.000      0.7316       0.000    
    1691  0.1070      0.6068E-04 NODE        1038 -99.9%   1402.       4.373       32.22      -1.411       0.000      0.7316       0.000    
    1692  0.1071      0.6068E-04 NODE        1038 -99.9%   1403.       4.384       32.33      -1.411       0.000      0.7316       0.000    
    1693  0.1071      0.6070E-04 NODE        1038 -99.9%   1405.       4.447       32.42      -1.411       0.000      0.7316       0.000    
    1694  0.1072      0.6072E-04 NODE        1038 -99.9%   1406.       4.533       32.51      -1.411       0.000      0.7316       0.000    
    1695  0.1073      0.6073E-04 NODE        1006 -99.9%   1408.       4.638       32.59      -1.411       0.000      0.7316       0.000    
    1696  0.1073      0.6070E-04 NODE        1006 -99.9%   1409.       4.752       32.67      -1.411       0.000      0.7316       0.000    
    1697  0.1074      0.6068E-04 NODE        1006 -99.9%   1411.       4.854       32.75      -1.411       0.000      0.7316       0.000    
    1698  0.1075      0.6067E-04 NODE        1038 -99.9%   1412.       4.936       32.83      -1.411       0.000      0.7316       0.000    
    1699  0.1075      0.6069E-04 NODE        1038 -99.9%   1414.       4.988       32.92      -1.411       0.000      0.7316       0.000    
    1700  0.1076      0.6070E-04 NODE        1038 -99.9%   1415.       4.935       33.02      -1.411       0.000      0.7316       0.000    
    1701  0.1076      0.6070E-04 NODE        1006 -99.9%   1417.       4.957       33.12      -1.451       0.000      0.7316       0.000    
    1702  0.1077      0.6069E-04 NODE        1006 -99.9%   1418.       4.886       33.21      -1.451       0.000      0.7316       0.000    
    1703  0.1078      0.6067E-04 NODE        1038 -99.9%   1420.       4.820       33.30      -1.451       0.000      0.7316       0.000    
    1704  0.1078      0.6067E-04 NODE        1038 -99.9%   1421.       4.777       33.38      -1.451       0.000      0.7316       0.000    
   CYCLE    TIME      TIME-STEP  ELEMENT          ERROR  I-ENERGY    K-ENERGY T  K-ENERGY R  EXT-WORK     MAS.ERR     TOTAL MASS  MASS ADDED
    1705  0.1079      0.6068E-04 NODE        1038 -99.9%   1422.       4.758       33.46      -1.451       0.000      0.7316       0.000    
    1706  0.1079      0.6069E-04 NODE        1038 -99.9%   1424.       4.754       33.53      -1.451       0.000      0.7316       0.000    
    1707  0.1080      0.6070E-04 NODE        1038 -99.9%   1425.       4.767       33.59      -1.451       0.000      0.7316       0.000    
    1708  0.1081      0.6069E-04 NODE        1006 -99.9%   1427.       4.802       33.65      -1.451       0.000      0.7316       0.000    
    1709  0.1081      0.6068E-04 NODE        1038 -99.9%   1428.       4.852       33.70      -1.451       0.000      0.7316       0.000    
    1710  0.1082      0.6068E-04 NODE        1038 -99.9%   1430.       4.911       33.74      -1.451       0.000      0.7316       0.000    
    1711  0.1082      0.6069E-04 NODE        1038 -99.9%   1431.       4.966       33.78      -1.451       0.000      0.7316       0.000    
    1712  0.1083      0.6070E-04 NODE        1038 -99.9%   1433.       5.004       33.83      -1.451       0.000      0.7316       0.000    
    1713  0.1084      0.6069E-04 NODE        1006 -99.9%   1434.       5.025       33.88      -1.451       0.000      0.7316       0.000    
    1714  0.1084      0.6068E-04 NODE        1006 -99.9%   1436.       5.038       33.93      -1.451       0.000      0.7316       0.000    
    1715  0.1085      0.6068E-04 NODE        1038 -99.9%   1437.       5.043       33.98      -1.451       0.000      0.7316       0.000    
    1716  0.1085      0.6068E-04 NODE        1038 -99.9%   1439.       5.041       34.02      -1.451       0.000      0.7316       0.000    
    1717  0.1086      0.6068E-04 NODE        1038 -99.9%   1440.       5.030       34.06      -1.451       0.000      0.7316       0.000    
    1718  0.1087      0.6069E-04 NODE        1038 -99.9%   1442.       4.995       34.09      -1.451       0.000      0.7316       0.000    
    1719  0.1087      0.6058E-04 NODE        1033 -99.9%   1443.       4.798       34.13      -1.451       0.000      0.7316       0.000    
    1720  0.1088      0.6057E-04 NODE        1033 -99.9%   1445.       4.653       34.13      -1.451       0.000      0.7316       0.000    
    1721  0.1088      0.6063E-04 NODE        1033 -99.9%   1447.       4.683       34.07      -1.451       0.000      0.7316       0.000    
    1722  0.1089      0.6068E-04 NODE        1001 -99.9%   1448.       4.718       33.94      -1.451       0.000      0.7316       0.000    
    1723  0.1090      0.6066E-04 NODE        1001 -99.9%   1450.       4.867       33.80      -1.451       0.000      0.7316       0.000    
    1724  0.1090      0.6057E-04 NODE        1001 -99.9%   1451.       5.097       33.65      -1.451       0.000      0.7316       0.000    
    1725  0.1091      0.6049E-04 NODE        1033 -99.9%   1453.       5.262       33.48      -1.451       0.000      0.7316       0.000    
    1726  0.1091      0.6049E-04 NODE        1033 -99.9%   1454.       5.458       33.27      -1.451       0.000      0.7316       0.000    
    1727  0.1092      0.6054E-04 NODE        1033 -99.9%   1456.       5.712       33.04      -1.451       0.000      0.7316       0.000    
    1728  0.1093      0.6059E-04 NODE        1001 -99.9%   1458.       5.899       32.82      -1.451       0.000      0.7316       0.000    
    1729  0.1093      0.6060E-04 NODE        1001 -99.9%   1460.       6.034       32.62      -1.451       0.000      0.7316       0.000    
    1730  0.1094      0.6055E-04 NODE        1001 -99.9%   1461.       6.127       32.46      -1.451       0.000      0.7316       0.000    
    1731  0.1095      0.6049E-04 NODE        1033 -99.9%   1463.       6.110       32.32      -1.451       0.000      0.7316       0.000    
    1732  0.1095      0.6048E-04 NODE        1033 -99.9%   1464.       6.034       32.19      -1.451       0.000      0.7316       0.000    
    1733  0.1096      0.6052E-04 NODE        1033 -99.9%   1466.       5.976       32.06      -1.451       0.000      0.7316       0.000    
    1734  0.1096      0.6056E-04 NODE        1001 -99.9%   1468.       5.907       31.92      -1.451       0.000      0.7316       0.000    
    1735  0.1097      0.6059E-04 NODE        1001 -99.9%   1469.       5.825       31.79      -1.451       0.000      0.7316       0.000    
    1736  0.1098      0.6057E-04 NODE        1001 -99.9%   1471.       5.757       31.65      -1.451       0.000      0.7316       0.000    
    1737  0.1098      0.6053E-04 NODE        1033 -99.9%   1472.       5.671       31.51      -1.451       0.000      0.7316       0.000    
    1738  0.1099      0.6051E-04 NODE        1033 -99.9%   1474.       5.564       31.37      -1.451       0.000      0.7316       0.000    
    1739  0.1099      0.6053E-04 NODE        1033 -99.9%   1476.       5.475       31.23      -1.451       0.000      0.7316       0.000    
    1740  0.1100      0.6057E-04 NODE        1033 -99.9%   1478.       5.399       31.09      -1.451       0.000      0.7316       0.000    
    1741  0.1101      0.6059E-04 NODE        1001 -99.9%   1479.       5.327       30.95      -1.451       0.000      0.7316       0.000    
     ANIMATION FILE: BOULEV44A012 WRITTEN
    1742  0.1101      0.6058E-04 NODE        1001 -99.9%   1481.       5.277       30.81      -1.451       0.000      0.7316       0.000    
    1743  0.1102      0.6055E-04 NODE        1001 -99.9%   1483.       5.236       30.67      -1.451       0.000      0.7316       0.000    
    1744  0.1102      0.6053E-04 NODE        1033 -99.9%   1484.       5.186       30.52      -1.451       0.000      0.7316       0.000    
    1745  0.1103      0.6053E-04 NODE        1033 -99.9%   1486.       5.138       30.37      -1.451       0.000      0.7316       0.000    
    1746  0.1104      0.6056E-04 NODE        1033 -99.9%   1488.       5.091       30.24      -1.451       0.000      0.7316       0.000    
    1747  0.1104      0.6058E-04 NODE        1001 -99.9%   1490.       5.034       30.11      -1.451       0.000      0.7316       0.000    
    1748  0.1105      0.6059E-04 NODE        1001 -99.9%   1492.       4.981       29.99      -1.451       0.000      0.7316       0.000    
    1749  0.1105      0.6057E-04 NODE        1001 -99.9%   1493.       4.941       29.86      -1.451       0.000      0.7316       0.000    
    1750  0.1106      0.6055E-04 NODE        1033 -99.9%   1495.       4.909       29.72      -1.451       0.000      0.7316       0.000    
    1751  0.1107      0.6055E-04 NODE        1033 -99.9%   1497.       4.880       29.57      -1.451       0.000      0.7316       0.000    
    1752  0.1107      0.6056E-04 NODE        1033 -99.9%   1498.       4.853       29.42      -1.451       0.000      0.7316       0.000    
    1753  0.1108      0.6058E-04 NODE        1001 -99.9%   1500.       4.820       29.27      -1.451       0.000      0.7316       0.000    
    1754  0.1108      0.6058E-04 NODE        1001 -99.9%   1502.       4.782       29.14      -1.451       0.000      0.7316       0.000    
    1755  0.1109      0.6057E-04 NODE        1001 -99.9%   1503.       4.747       29.01      -1.451       0.000      0.7316       0.000    
    1756  0.1110      0.6055E-04 NODE        1033 -99.9%   1505.       4.721       28.89      -1.451       0.000      0.7316       0.000    
    1757  0.1110      0.6054E-04 NODE        1033 -99.9%   1507.       4.704       28.76      -1.451       0.000      0.7316       0.000    
    1758  0.1111      0.6056E-04 NODE        1033 -99.9%   1508.       4.700       28.64      -1.451       0.000      0.7316       0.000    
    1759  0.1111      0.6057E-04 NODE        1033 -99.9%   1510.       4.712       28.51      -1.451       0.000      0.7316       0.000    
   CYCLE    TIME      TIME-STEP  ELEMENT          ERROR  I-ENERGY    K-ENERGY T  K-ENERGY R  EXT-WORK     MAS.ERR     TOTAL MASS  MASS ADDED
    1760  0.1112      0.6058E-04 NODE        1001 -99.9%   1512.       4.744       28.39      -1.451       0.000      0.7316       0.000    
    1761  0.1113      0.6058E-04 NODE        1001 -99.9%   1513.       4.796       28.28      -1.451       0.000      0.7316       0.000    
    1762  0.1113      0.6057E-04 NODE        1033 -99.9%   1515.       4.862       28.16      -1.451       0.000      0.7316       0.000    
    1763  0.1114      0.6056E-04 NODE        1033 -99.9%   1517.       4.931       28.05      -1.451       0.000      0.7316       0.000    
    1764  0.1115      0.6056E-04 NODE        1033 -99.9%   1518.       4.992       27.94      -1.451       0.000      0.7316       0.000    
    1765  0.1115      0.6058E-04 NODE        1033 -99.9%   1520.       5.038       27.83      -1.451       0.000      0.7316       0.000    
    1766  0.1116      0.6058E-04 NODE        1001 -99.9%   1522.       5.067       27.73      -1.451       0.000      0.7316       0.000    
    1767  0.1116      0.6059E-04 NODE        1001 -99.9%   1523.       5.079       27.64      -1.451       0.000      0.7316       0.000    
    1768  0.1117      0.6058E-04 NODE        1001 -99.9%   1525.       5.080       27.55      -1.451       0.000      0.7316       0.000    
    1769  0.1118      0.6058E-04 NODE        1033 -99.9%   1526.       5.073       27.45      -1.451       0.000      0.7316       0.000    
    1770  0.1118      0.6059E-04 NODE        1033 -99.9%   1528.       5.055       27.34      -1.451       0.000      0.7316       0.000    
    1771  0.1119      0.6060E-04 NODE        1033 -99.9%   1530.       5.026       27.23      -1.451       0.000      0.7316       0.000    
    1772  0.1119      0.6060E-04 NODE        1033 -99.9%   1531.       4.992       27.13      -1.451       0.000      0.7316       0.000    
    1773  0.1120      0.6061E-04 NODE        1001 -99.9%   1533.       4.956       27.02      -1.451       0.000      0.7316       0.000    
    1774  0.1121      0.6061E-04 NODE        1001 -99.9%   1535.       4.924       26.92      -1.451       0.000      0.7316       0.000    
    1775  0.1121      0.6060E-04 NODE        1033 -99.9%   1536.       4.900       26.82      -1.451       0.000      0.7316       0.000    
    1776  0.1122      0.6060E-04 NODE        1033 -99.9%   1538.       4.884       26.71      -1.451       0.000      0.7316       0.000    
    1777  0.1122      0.6061E-04 NODE        1033 -99.9%   1539.       4.874       26.60      -1.451       0.000      0.7316       0.000    
    1778  0.1123      0.6061E-04 NODE        1033 -99.9%   1541.       4.868       26.50      -1.451       0.000      0.7316       0.000    
    1779  0.1124      0.6062E-04 NODE        1001 -99.9%   1543.       4.865       26.39      -1.451       0.000      0.7316       0.000    
    1780  0.1124      0.6062E-04 NODE        1001 -99.9%   1544.       4.864       26.29      -1.451       0.000      0.7316       0.000    
    1781  0.1125      0.6061E-04 NODE        1001 -99.9%   1546.       4.865       26.19      -1.451       0.000      0.7316       0.000    
    1782  0.1125      0.6061E-04 NODE        1033 -99.9%   1548.       4.865       26.08      -1.451       0.000      0.7316       0.000    
    1783  0.1126      0.6061E-04 NODE        1033 -99.9%   1549.       4.862       25.98      -1.451       0.000      0.7316       0.000    
    1784  0.1127      0.6062E-04 NODE        1033 -99.9%   1551.       4.857       25.87      -1.451       0.000      0.7316       0.000    
    1785  0.1127      0.6062E-04 NODE        1033 -99.9%   1553.       4.852       25.76      -1.451       0.000      0.7316       0.000    
    1786  0.1128      0.6063E-04 NODE        1001 -99.9%   1555.       4.848       25.65      -1.451       0.000      0.7316       0.000    
    1787  0.1128      0.6063E-04 NODE        1001 -99.9%   1556.       4.848       25.53      -1.451       0.000      0.7316       0.000    
    1788  0.1129      0.6062E-04 NODE        1033 -99.9%   1558.       4.853       25.42      -1.451       0.000      0.7316       0.000    
    1789  0.1130      0.6062E-04 NODE        1033 -99.9%   1560.       4.859       25.31      -1.451       0.000      0.7316       0.000    
    1790  0.1130      0.6062E-04 NODE        1033 -99.9%   1561.       4.864       25.20      -1.451       0.000      0.7316       0.000    
    1791  0.1131      0.6062E-04 NODE        1033 -99.9%   1563.       4.868       25.10      -1.451       0.000      0.7316       0.000    
    1792  0.1131      0.6063E-04 NODE        1033 -99.9%   1565.       4.873       24.99      -1.451       0.000      0.7316       0.000    
    1793  0.1132      0.6063E-04 NODE        1001 -99.9%   1566.       4.881       24.89      -1.451       0.000      0.7316       0.000    
    1794  0.1133      0.6062E-04 NODE        1001 -99.9%   1568.       4.891       24.79      -1.451       0.000      0.7316       0.000    
    1795  0.1133      0.6062E-04 NODE        1033 -99.9%   1569.       4.905       24.68      -1.451       0.000      0.7316       0.000    
    1796  0.1134      0.6062E-04 NODE        1033 -99.9%   1571.       4.920       24.57      -1.451       0.000      0.7316       0.000    
    1797  0.1135      0.6062E-04 NODE        1033 -99.9%   1573.       4.937       24.46      -1.451       0.000      0.7316       0.000    
    1798  0.1135      0.6062E-04 NODE        1033 -99.9%   1574.       4.953       24.36      -1.451       0.000      0.7316       0.000    
    1799  0.1136      0.6063E-04 NODE        1001 -99.9%   1576.       4.967       24.26      -1.451       0.000      0.7316       0.000    
    1800  0.1136      0.6062E-04 NODE        1001 -99.9%   1578.       4.978       24.16      -1.451       0.000      0.7316       0.000    
    1801  0.1137      0.6062E-04 NODE        1033 -99.9%   1579.       4.984       24.07      -1.451       0.000      0.7316       0.000    
    1802  0.1138      0.6062E-04 NODE        1033 -99.9%   1581.       4.985       23.99      -1.451       0.000      0.7316       0.000    
    1803  0.1138      0.5369E-04 NODE        1036 -99.9%   1583.       4.979       23.90      -1.451       0.000      0.7316       0.000    
    1804  0.1139      0.5351E-04 NODE        1004 -99.9%   1584.       4.995       23.82      -1.451       0.000      0.7316       0.000    
    1805  0.1139      0.5355E-04 NODE        1004 -99.9%   1586.       5.044       23.74      -1.451       0.000      0.7316       0.000    
    1806  0.1140      0.5359E-04 NODE        1004 -99.9%   1587.       5.033       23.67      -1.451       0.000      0.7316       0.000    
    1807  0.1140      0.5359E-04 NODE        1036 -99.9%   1589.       5.009       23.59      -1.451       0.000      0.7316       0.000    
    1808  0.1141      0.5354E-04 NODE        1036 -99.9%   1590.       5.025       23.51      -1.451       0.000      0.7316       0.000    
    1809  0.1141      0.5353E-04 NODE        1004 -99.9%   1591.       5.067       23.42      -1.451       0.000      0.7316       0.000    
    1810  0.1142      0.5355E-04 NODE        1004 -99.9%   1593.       5.117       23.34      -1.451       0.000      0.7316       0.000    
    1811  0.1142      0.5358E-04 NODE        1004 -99.9%   1594.       5.126       23.25      -1.451       0.000      0.7316       0.000    
    1812  0.1143      0.5358E-04 NODE        1036 -99.9%   1596.       5.112       23.18      -1.451       0.000      0.7316       0.000    
    1813  0.1143      0.5355E-04 NODE        1036 -99.9%   1597.       5.111       23.11      -1.451       0.000      0.7316       0.000    
    1814  0.1144      0.5354E-04 NODE        1004 -99.9%   1599.       5.122       23.05      -1.451       0.000      0.7316       0.000    
   CYCLE    TIME      TIME-STEP  ELEMENT          ERROR  I-ENERGY    K-ENERGY T  K-ENERGY R  EXT-WORK     MAS.ERR     TOTAL MASS  MASS ADDED
    1815  0.1145      0.5355E-04 NODE        1004 -99.9%   1600.       5.134       22.98      -1.451       0.000      0.7316       0.000    
    1816  0.1145      0.5357E-04 NODE        1004 -99.9%   1602.       5.119       22.92      -1.451       0.000      0.7316       0.000    
    1817  0.1146      0.5357E-04 NODE        1036 -99.9%   1603.       5.096       22.85      -1.451       0.000      0.7316       0.000    
    1818  0.1146      0.5355E-04 NODE        1036 -99.9%   1605.       5.091       22.78      -1.451       0.000      0.7316       0.000    
    1819  0.1147      0.5354E-04 NODE        1004 -99.9%   1606.       5.106       22.71      -1.451       0.000      0.7316       0.000    
    1820  0.1147      0.5356E-04 NODE        1004 -99.9%   1608.       5.126       22.65      -1.451       0.000      0.7316       0.000    
    1821  0.1148      0.5357E-04 NODE        1004 -99.9%   1610.       5.128       22.59      -1.451       0.000      0.7316       0.000    
    1822  0.1148      0.5357E-04 NODE        1036 -99.9%   1611.       5.117       22.54      -1.451       0.000      0.7316       0.000    
    1823  0.1149      0.5355E-04 NODE        1036 -99.9%   1613.       5.108       22.50      -1.451       0.000      0.7316       0.000    
    1824  0.1149      0.5354E-04 NODE        1004 -99.9%   1614.       5.105       22.46      -1.451       0.000      0.7316       0.000    
    1825  0.1150      0.5355E-04 NODE        1004 -99.9%   1616.       5.099       22.42      -1.451       0.000      0.7316       0.000    
    1826  0.1150      0.5356E-04 NODE        1004 -99.9%   1617.       5.082       22.37      -1.451       0.000      0.7316       0.000    
    1827  0.1151      0.5356E-04 NODE        1036 -99.9%   1618.       5.061       22.32      -1.451       0.000      0.7316       0.000    
    1828  0.1152      0.5355E-04 NODE        1036 -99.9%   1620.       5.050       22.27      -1.451       0.000      0.7316       0.000    
    1829  0.1152      0.5354E-04 NODE        1004 -99.9%   1621.       5.047       22.22      -1.451       0.000      0.7316       0.000    
    1830  0.1153      0.5355E-04 NODE        1004 -99.9%   1623.       5.042       22.17      -1.451       0.000      0.7316       0.000    
    1831  0.1153      0.5355E-04 NODE        1004 -99.9%   1624.       5.027       22.12      -1.451       0.000      0.7316       0.000    
    1832  0.1154      0.5355E-04 NODE        1036 -99.9%   1626.       5.004       22.07      -1.451       0.000      0.7316       0.000    
    1833  0.1154      0.5354E-04 NODE        1036 -99.9%   1627.       4.982       22.03      -1.451       0.000      0.7316       0.000    
    1834  0.1155      0.5354E-04 NODE        1036 -99.9%   1629.       4.963       22.00      -1.451       0.000      0.7316       0.000    
    1835  0.1155      0.5354E-04 NODE        1036 -99.9%   1630.       4.941       21.97      -1.451       0.000      0.7316       0.000    
    1836  0.1156      0.5355E-04 NODE        1036 -99.9%   1632.       4.915       21.96      -1.451       0.000      0.7316       0.000    
    1837  0.1156      0.5354E-04 NODE        1036 -99.9%   1633.       4.891       21.94      -1.451       0.000      0.7316       0.000    
    1838  0.1157      0.5354E-04 NODE        1036 -99.9%   1635.       4.876       21.94      -1.451       0.000      0.7316       0.000    
    1839  0.1157      0.5353E-04 NODE        1036 -99.9%   1636.       4.874       21.93      -1.451       0.000      0.7316       0.000    
    1840  0.1158      0.5354E-04 NODE        1036 -99.9%   1638.       4.880       21.93      -1.451       0.000      0.7316       0.000    
    1841  0.1158      0.5354E-04 NODE        1036 -99.9%   1639.       4.892       21.92      -1.451       0.000      0.7316       0.000    
    1842  0.1159      0.5354E-04 NODE        1036 -99.9%   1641.       4.911       21.92      -1.451       0.000      0.7316       0.000    
    1843  0.1160      0.5353E-04 NODE        1036 -99.9%   1642.       4.944       21.91      -1.451       0.000      0.7316       0.000    
    1844  0.1160      0.5353E-04 NODE        1036 -99.9%   1644.       4.992       21.90      -1.451       0.000      0.7316       0.000    
    1845  0.1161      0.5354E-04 NODE        1036 -99.9%   1645.       5.045       21.90      -1.451       0.000      0.7316       0.000    
    1846  0.1161      0.5354E-04 NODE        1036 -99.9%   1647.       5.087       21.90      -1.451       0.000      0.7316       0.000    
    1847  0.1162      0.5354E-04 NODE        1036 -99.9%   1648.       5.111       21.92      -1.451       0.000      0.7316       0.000    
    1848  0.1162      0.5353E-04 NODE        1036 -99.9%   1650.       5.120       21.94      -1.451       0.000      0.7316       0.000    
    1849  0.1163      0.5353E-04 NODE        1004 -99.9%   1651.       5.124       21.96      -1.451       0.000      0.7316       0.000    
    1850  0.1163      0.5353E-04 NODE        1036 -99.9%   1653.       5.125       21.98      -1.451       0.000      0.7316       0.000    
    1851  0.1164      0.5354E-04 NODE        1036 -99.9%   1654.       5.124       21.99      -1.451       0.000      0.7316       0.000    
    1852  0.1164      0.5353E-04 NODE        1036 -99.9%   1656.       5.125       21.99      -1.451       0.000      0.7316       0.000    
    1853  0.1165      0.5353E-04 NODE        1036 -99.9%   1657.       5.129       21.98      -1.451       0.000      0.7316       0.000    
    1854  0.1165      0.5353E-04 NODE        1004 -99.9%   1659.       5.134       21.97      -1.451       0.000      0.7316       0.000    
    1855  0.1166      0.5353E-04 NODE        1004 -99.9%   1660.       5.132       21.96      -1.451       0.000      0.7316       0.000    
    1856  0.1167      0.5353E-04 NODE        1036 -99.9%   1662.       5.119       21.95      -1.451       0.000      0.7316       0.000    
    1857  0.1167      0.5353E-04 NODE        1036 -99.9%   1663.       5.096       21.94      -1.451       0.000      0.7316       0.000    
    1858  0.1168      0.5353E-04 NODE        1036 -99.9%   1665.       5.067       21.93      -1.451       0.000      0.7316       0.000    
    1859  0.1168      0.5353E-04 NODE        1004 -99.9%   1666.       5.035       21.92      -1.451       0.000      0.7316       0.000    
    1860  0.1169      0.5353E-04 NODE        1004 -99.9%   1668.       5.000       21.91      -1.451       0.000      0.7316       0.000    
    1861  0.1169      0.5353E-04 NODE        1004 -99.9%   1670.       4.964       21.91      -1.451       0.000      0.7316       0.000    
    1862  0.1170      0.5353E-04 NODE        1036 -99.9%   1671.       4.931       21.91      -1.451       0.000      0.7316       0.000    
    1863  0.1170      0.5353E-04 NODE        1036 -99.9%   1673.       4.905       21.91      -1.451       0.000      0.7316       0.000    
    1864  0.1171      0.5353E-04 NODE        1004 -99.9%   1674.       4.886       21.91      -1.451       0.000      0.7316       0.000    
    1865  0.1171      0.5353E-04 NODE        1004 -99.9%   1676.       4.873       21.92      -1.451       0.000      0.7316       0.000    
    1866  0.1172      0.5353E-04 NODE        1004 -99.9%   1677.       4.867       21.92      -1.451       0.000      0.7316       0.000    
    1867  0.1172      0.5353E-04 NODE        1036 -99.9%   1679.       4.870       21.92      -1.451       0.000      0.7316       0.000    
    1868  0.1173      0.5353E-04 NODE        1004 -99.9%   1681.       4.882       21.92      -1.451       0.000      0.7316       0.000    
    1869  0.1173      0.5353E-04 NODE        1004 -99.9%   1682.       4.900       21.91      -1.451       0.000      0.7316       0.000    
   CYCLE    TIME      TIME-STEP  ELEMENT          ERROR  I-ENERGY    K-ENERGY T  K-ENERGY R  EXT-WORK     MAS.ERR     TOTAL MASS  MASS ADDED
    1870  0.1174      0.5353E-04 NODE        1004 -99.9%   1684.       4.922       21.91      -1.451       0.000      0.7316       0.000    
    1871  0.1175      0.5353E-04 NODE        1004 -99.9%   1685.       4.944       21.91      -1.451       0.000      0.7316       0.000    
    1872  0.1175      0.5353E-04 NODE        1004 -99.9%   1687.       4.963       21.92      -1.451       0.000      0.7316       0.000    
    1873  0.1176      0.5353E-04 NODE        1004 -99.9%   1689.       4.978       21.92      -1.451       0.000      0.7316       0.000    
    1874  0.1176      0.5353E-04 NODE        1004 -99.9%   1690.       4.989       21.94      -1.451       0.000      0.7316       0.000    
    1875  0.1177      0.5353E-04 NODE        1004 -99.9%   1692.       4.996       21.95      -1.451       0.000      0.7316       0.000    
    1876  0.1177      0.5353E-04 NODE        1004 -99.9%   1693.       5.005       21.96      -1.451       0.000      0.7316       0.000    
    1877  0.1178      0.5353E-04 NODE        1004 -99.9%   1695.       5.016       21.97      -1.451       0.000      0.7316       0.000    
    1878  0.1178      0.5353E-04 NODE        1004 -99.9%   1697.       5.033       21.97      -1.451       0.000      0.7316       0.000    
    1879  0.1179      0.5353E-04 NODE        1004 -99.9%   1698.       5.054       21.97      -1.451       0.000      0.7316       0.000    
    1880  0.1179      0.5353E-04 NODE        1004 -99.9%   1700.       5.076       21.97      -1.451       0.000      0.7316       0.000    
    1881  0.1180      0.5352E-04 NODE        1004 -99.9%   1701.       5.097       21.97      -1.451       0.000      0.7316       0.000    
    1882  0.1180      0.5352E-04 NODE        1004 -99.9%   1703.       5.112       21.97      -1.451       0.000      0.7316       0.000    
    1883  0.1181      0.5352E-04 NODE        1004 -99.9%   1705.       5.120       21.98      -1.451       0.000      0.7316       0.000    
    1884  0.1182      0.5352E-04 NODE        1004 -99.9%   1706.       5.120       21.99      -1.451       0.000      0.7316       0.000    
    1885  0.1182      0.5352E-04 NODE        1004 -99.9%   1708.       5.115       22.01      -1.451       0.000      0.7316       0.000    
    1886  0.1183      0.5352E-04 NODE        1004 -99.9%   1709.       5.107       22.02      -1.451       0.000      0.7316       0.000    
    1887  0.1183      0.5352E-04 NODE        1004 -99.9%   1711.       5.101       22.03      -1.451       0.000      0.7316       0.000    
    1888  0.1184      0.5351E-04 NODE        1004 -99.9%   1713.       5.098       22.04      -1.451       0.000      0.7316       0.000    
    1889  0.1184      0.5351E-04 NODE        1004 -99.9%   1714.       5.100       22.05      -1.451       0.000      0.7316       0.000    
    1890  0.1185      0.5351E-04 NODE        1004 -99.9%   1716.       5.106       22.05      -1.451       0.000      0.7316       0.000    
    1891  0.1185      0.5351E-04 NODE        1004 -99.9%   1717.       5.115       22.05      -1.451       0.000      0.7316       0.000    
    1892  0.1186      0.5351E-04 NODE        1004 -99.9%   1719.       5.125       22.05      -1.451       0.000      0.7316       0.000    
    1893  0.1186      0.5351E-04 NODE        1004 -99.9%   1721.       5.134       22.05      -1.451       0.000      0.7316       0.000    
    1894  0.1187      0.5350E-04 NODE        1004 -99.9%   1722.       5.141       22.06      -1.451       0.000      0.7316       0.000    
    1895  0.1187      0.5350E-04 NODE        1004 -99.9%   1724.       5.147       22.07      -1.451       0.000      0.7316       0.000    
    1896  0.1188      0.5350E-04 NODE        1004 -99.9%   1725.       5.153       22.08      -1.451       0.000      0.7316       0.000    
    1897  0.1188      0.5350E-04 NODE        1004 -99.9%   1727.       5.160       22.10      -1.451       0.000      0.7316       0.000    
    1898  0.1189      0.5350E-04 NODE        1004 -99.9%   1729.       5.171       22.12      -1.451       0.000      0.7316       0.000    
    1899  0.1190      0.5349E-04 NODE        1004 -99.9%   1730.       5.186       22.14      -1.451       0.000      0.7316       0.000    
    1900  0.1190      0.5349E-04 NODE        1004 -99.9%   1732.       5.204       22.16      -1.451       0.000      0.7316       0.000    
    1901  0.1191      0.5349E-04 NODE        1004 -99.9%   1734.       5.227       22.17      -1.451       0.000      0.7316       0.000    
    1902  0.1191      0.5349E-04 NODE        1004 -99.9%   1735.       5.251       22.19      -1.451       0.000      0.7316       0.000    
    1903  0.1192      0.5348E-04 NODE        1004 -99.9%   1737.       5.278       22.20      -1.451       0.000      0.7316       0.000    
    1904  0.1192      0.5348E-04 NODE        1004 -99.9%   1738.       5.305       22.22      -1.451       0.000      0.7316       0.000    
    1905  0.1193      0.5348E-04 NODE        1004 -99.9%   1740.       5.332       22.24      -1.451       0.000      0.7316       0.000    
    1906  0.1193      0.5348E-04 NODE        1004 -99.9%   1742.       5.358       22.26      -1.451       0.000      0.7316       0.000    
    1907  0.1194      0.5348E-04 NODE        1004 -99.9%   1743.       5.382       22.28      -1.451       0.000      0.7316       0.000    
    1908  0.1194      0.5347E-04 NODE        1004 -99.9%   1745.       5.403       22.30      -1.451       0.000      0.7316       0.000    
    1909  0.1195      0.5347E-04 NODE        1004 -99.9%   1746.       5.421       22.33      -1.451       0.000      0.7316       0.000    
    1910  0.1195      0.5882E-04 NODE        1004 -99.9%   1748.       5.435       22.35      -1.451       0.000      0.7316       0.000    
    1911  0.1196      0.5983E-04 NODE        1004 -99.9%   1750.       5.447       22.39      -1.451       0.000      0.7316       0.000    
    1912  0.1197      0.6064E-04 NODE        1001 -99.9%   1752.       5.455       22.42      -1.451       0.000      0.7316       0.000    
    1913  0.1197      0.6065E-04 NODE        1001 -99.9%   1753.       5.469       22.45      -1.451       0.000      0.7316       0.000    
    1914  0.1198      0.6066E-04 NODE        1033 -99.9%   1755.       5.503       22.47      -1.451       0.000      0.7316       0.000    
    1915  0.1198      0.6066E-04 NODE        1001 -99.9%   1757.       5.550       22.50      -1.451       0.000      0.7316       0.000    
    1916  0.1199      0.6066E-04 NODE        1001 -99.9%   1758.       5.601       22.54      -1.451       0.000      0.7316       0.000    
    1917  0.1200      0.6067E-04 NODE        1001 -99.9%   1760.       5.653       22.57      -1.451       0.000      0.7316       0.000    
    1918  0.1200      0.6067E-04 NODE        1001 -99.9%   1762.       5.704       22.61      -1.451       0.000      0.7316       0.000    
     ANIMATION FILE: BOULEV44A013 WRITTEN
    1919  0.1201      0.6067E-04 NODE        1001 -99.9%   1764.       5.749       22.65      -1.451       0.000      0.7316       0.000    
    1920  0.1201      0.6066E-04 NODE        1033 -99.9%   1766.       5.787       22.68      -1.451       0.000      0.7316       0.000    
    1921  0.1202      0.6066E-04 NODE        1033 -99.9%   1767.       5.826       22.72      -1.451       0.000      0.7316       0.000    
    1922  0.1203      0.6066E-04 NODE        1001 -99.9%   1769.       5.872       22.77      -1.451       0.000      0.7316       0.000    
    1923  0.1203      0.6066E-04 NODE        1001 -99.9%   1771.       5.930       22.81      -1.451       0.000      0.7316       0.000    
    1924  0.1204      0.5359E-04 NODE        1036 -99.9%   1773.       6.004       22.86      -1.451       0.000      0.7316       0.000    
   CYCLE    TIME      TIME-STEP  ELEMENT          ERROR  I-ENERGY    K-ENERGY T  K-ENERGY R  EXT-WORK     MAS.ERR     TOTAL MASS  MASS ADDED
    1925  0.1204      0.5342E-04 NODE        1004 -99.9%   1775.       6.087       22.90      -1.451       0.000      0.7316       0.000    
    1926  0.1205      0.4913E-04 NODE        1003 -99.9%   1776.       6.178       22.94      -1.451       0.000      0.7316       0.000    
    1927  0.1205      0.4899E-04 NODE        1003 -99.9%   1778.       6.259       22.99      -1.451       0.000      0.7316       0.000    
    1928  0.1206      0.4898E-04 NODE        1035 -99.9%   1779.       6.352       23.04      -1.451       0.000      0.7316       0.000    
    1929  0.1206      0.4898E-04 NODE        1035 -99.9%   1781.       6.439       23.10      -1.451       0.000      0.7316       0.000    
    1930  0.1207      0.4899E-04 NODE        1035 -99.9%   1782.       6.513       23.16      -1.451       0.000      0.7316       0.000    
    1931  0.1207      0.4900E-04 NODE        1035 -99.9%   1784.       6.592       23.22      -1.451       0.000      0.7316       0.000    
    1932  0.1208      0.4900E-04 NODE        1003 -99.9%   1785.       6.690       23.26      -1.451       0.000      0.7316       0.000    
    1933  0.1208      0.4899E-04 NODE        1003 -99.9%   1786.       6.816       23.28      -1.451       0.000      0.7316       0.000    
    1934  0.1209      0.4898E-04 NODE        1003 -99.9%   1788.       6.971       23.27      -1.451       0.000      0.7316       0.000    
    1935  0.1209      0.4899E-04 NODE        1035 -99.9%   1789.       7.148       23.25      -1.451       0.000      0.7316       0.000    
    1936  0.1210      0.4900E-04 NODE        1035 -99.9%   1790.       7.327       23.23      -1.451       0.000      0.7316       0.000    
    1937  0.1210      0.4901E-04 NODE        1003 -99.9%   1792.       7.481       23.22      -1.451       0.000      0.7316       0.000    
    1938  0.1211      0.5392E-04 NODE        1001 -99.9%   1793.       7.606       23.23      -1.451       0.000      0.7316       0.000    
    1939  0.1211      0.5931E-04 NODE        1001 -99.9%   1795.       7.728       23.26      -1.451       0.000      0.7316       0.000    
    1940  0.1212      0.5967E-04 NODE        1001 -99.9%   1797.       7.880       23.31      -1.451       0.000      0.7316       0.000    
    1941  0.1213      0.5967E-04 NODE        1001 -99.9%   1799.       8.086       23.38      -1.451       0.000      0.7316       0.000    
    1942  0.1213      0.5966E-04 NODE        1001 -99.9%   1801.       8.348       23.45      -1.451       0.000      0.7316       0.000    
    1943  0.1214      0.5965E-04 NODE        1001 -99.9%   1803.       8.655       23.51      -1.451       0.000      0.7316       0.000    
    1944  0.1214      0.5964E-04 NODE        1001 -99.9%   1805.       8.992       23.57      -1.451       0.000      0.7316       0.000    
    1945  0.1215      0.5963E-04 NODE        1001 -99.9%   1807.       9.336       23.63      -1.451       0.000      0.7316       0.000    
    1946  0.1216      0.5962E-04 NODE        1001 -99.9%   1809.       9.671       23.70      -1.451       0.000      0.7316       0.000    
    1947  0.1216      0.5961E-04 NODE        1001 -99.9%   1811.       10.00       23.78      -1.451       0.000      0.7316       0.000    
    1948  0.1217      0.5960E-04 NODE        1001 -99.9%   1813.       10.34       23.87      -1.451       0.000      0.7316       0.000    
    1949  0.1217      0.5959E-04 NODE        1001 -99.9%   1815.       10.69       23.97      -1.451       0.000      0.7316       0.000    
    1950  0.1218      0.5958E-04 NODE        1001 -99.9%   1817.       11.06       24.05      -1.451       0.000      0.7316       0.000    
    1951  0.1219      0.5957E-04 NODE        1001 -99.9%   1820.       11.44       24.14      -1.451       0.000      0.7316       0.000    
    1952  0.1219      0.5956E-04 NODE        1001 -99.9%   1822.       11.82       24.22      -2.687       0.000      0.7316       0.000    
    1953  0.1220      0.5955E-04 NODE        1001 -99.9%   1824.       12.14       24.18      -2.687       0.000      0.7316       0.000    
    1954  0.1220      0.5954E-04 NODE        1001 -99.9%   1827.       12.44       23.95      -2.687       0.000      0.7316       0.000    
    1955  0.1221      0.5953E-04 NODE        1001 -99.9%   1830.       12.73       23.64      -2.687       0.000      0.7316       0.000    
    1956  0.1222      0.5952E-04 NODE        1001 -99.9%   1832.       13.01       23.38      -2.687       0.000      0.7316       0.000    
    1957  0.1222      0.5952E-04 NODE        1001 -99.9%   1835.       13.27       23.23      -2.687       0.000      0.7316       0.000    
    1958  0.1223      0.5952E-04 NODE        1001 -99.9%   1837.       13.52       23.20      -2.687       0.000      0.7316       0.000    
    1959  0.1223      0.5952E-04 NODE        1001 -99.9%   1840.       13.77       23.22      -2.687       0.000      0.7316       0.000    
    1960  0.1224      0.5952E-04 NODE        1001 -99.9%   1843.       14.03       23.24      -2.687       0.000      0.7316       0.000    
    1961  0.1224      0.4930E-04 NODE        1035 -99.9%   1845.       14.29       23.21      -2.687       0.000      0.7316       0.000    
    1962  0.1225      0.4900E-04 NODE        1003 -99.9%   1847.       14.52       23.13      -2.687       0.000      0.7316       0.000    
    1963  0.1225      0.4900E-04 NODE        1003 -99.9%   1850.       14.76       23.01      -2.687       0.000      0.7316       0.000    
    1964  0.1226      0.4901E-04 NODE        1003 -99.9%   1852.       14.98       22.87      -2.687       0.000      0.7316       0.000    
    1965  0.1226      0.4902E-04 NODE        1003 -99.9%   1854.       15.18       22.72      -2.687       0.000      0.7316       0.000    
    1966  0.1227      0.4901E-04 NODE        1003 -99.9%   1856.       15.38       22.59      -2.687       0.000      0.7316       0.000    
    1967  0.1227      0.4899E-04 NODE        1003 -99.9%   1859.       15.59       22.48      -2.687       0.000      0.7316       0.000    
    1968  0.1228      0.4900E-04 NODE        1003 -99.9%   1861.       15.83       22.41      -2.687       0.000      0.7316       0.000    
    1969  0.1228      0.4900E-04 NODE        1003 -99.9%   1863.       16.09       22.36      -2.687       0.000      0.7316       0.000    
    1970  0.1229      0.4901E-04 NODE        1003 -99.9%   1865.       16.85       22.35      -2.995       0.000      0.7316       0.000    
    1971  0.1229      0.4900E-04 NODE        1003 -99.9%   1867.       17.22       22.34      -2.995       0.000      0.7316       0.000    
    1972  0.1230      0.4900E-04 NODE        1003 -99.9%   1869.       17.70       22.33      -2.995       0.000      0.7316       0.000    
    1973  0.1230      0.4901E-04 NODE        1003 -99.9%   1871.       18.26       22.32      -2.995       0.000      0.7316       0.000    
    1974  0.1231      0.4903E-04 NODE        1003 -99.9%   1873.       18.82       22.30      -2.995       0.000      0.7316       0.000    
    1975  0.1231      0.5393E-04 NODE        1001 -99.9%   1875.       19.34       22.29      -2.995       0.000      0.7316       0.000    
    1976  0.1232      0.5932E-04 NODE        1001 -99.9%   1878.       19.88       22.28      -2.995       0.000      0.7316       0.000    
    1977  0.1232      0.5959E-04 NODE        1001 -99.9%   1880.       20.35       22.26      -2.995       0.000      0.7316       0.000    
    1978  0.1233      0.5961E-04 NODE        1001 -99.9%   1883.       20.93       22.22      -3.014       0.000      0.7316       0.000    
    1979  0.1234      0.5963E-04 NODE        1001 -99.9%   1885.       21.46       22.17      -3.014       0.000      0.7316       0.000    
   CYCLE    TIME      TIME-STEP  ELEMENT          ERROR  I-ENERGY    K-ENERGY T  K-ENERGY R  EXT-WORK     MAS.ERR     TOTAL MASS  MASS ADDED
    1980  0.1234      0.5964E-04 NODE        1001 -99.9%   1888.       22.00       22.12      -3.014       0.000      0.7316       0.000    
    1981  0.1235      0.5964E-04 NODE        1001 -99.9%   1890.       22.56       22.08      -3.014       0.000      0.7316       0.000    
    1982  0.1235      0.5965E-04 NODE        1001 -99.9%   1893.       23.12       22.05      -3.014       0.000      0.7316       0.000    
    1983  0.1236      0.5966E-04 NODE        1001 -99.9%   1896.       23.68       22.03      -3.014       0.000      0.7316       0.000    
    1984  0.1237      0.5966E-04 NODE        1001 -99.9%   1898.       24.26       22.01      -3.014       0.000      0.7316       0.000    
    1985  0.1237      0.5967E-04 NODE        1001 -99.9%   1901.       24.86       22.00      -3.014       0.000      0.7316       0.000    
    1986  0.1238      0.5966E-04 NODE        1001 -99.9%   1903.       25.49       22.00      -3.014       0.000      0.7316       0.000    
    1987  0.1238      0.5965E-04 NODE        1001 -99.9%   1906.       26.13       22.03      -3.014       0.000      0.7316       0.000    
    1988  0.1239      0.5964E-04 NODE        1001 -99.9%   1909.       26.80       22.06      -3.014       0.000      0.7316       0.000    
    1989  0.1240      0.5964E-04 NODE        1001 -99.9%   1912.       27.47       22.09      -3.014       0.000      0.7316       0.000    
    1990  0.1240      0.5964E-04 NODE        1001 -99.9%   1915.       28.12       22.10      -3.014       0.000      0.7316       0.000    
    1991  0.1241      0.5965E-04 NODE        1001 -99.9%   1917.       28.75       22.09      -3.014       0.000      0.7316       0.000    
    1992  0.1241      0.5965E-04 NODE        1001 -99.9%   1920.       29.39       22.06      -3.014       0.000      0.7316       0.000    
    1993  0.1242      0.5965E-04 NODE        1001 -99.9%   1923.       30.05       22.03      -3.014       0.000      0.7316       0.000    
    1994  0.1243      0.5964E-04 NODE        1001 -99.9%   1926.       30.73       22.02      -3.014       0.000      0.7316       0.000    
    1995  0.1243      0.5963E-04 NODE        1001 -99.9%   1929.       31.41       22.01      -3.014       0.000      0.7316       0.000    
    1996  0.1244      0.5963E-04 NODE        1001 -99.9%   1932.       32.09       22.02      -3.014       0.000      0.7316       0.000    
    1997  0.1244      0.5963E-04 NODE        1001 -99.9%   1935.       32.78       22.04      -3.014       0.000      0.7316       0.000    
    1998  0.1245      0.5962E-04 NODE        1001 -99.9%   1938.       33.49       22.08      -3.014       0.000      0.7316       0.000    
    1999  0.1246      0.5961E-04 NODE        1001 -99.9%   1941.       34.20       22.12      -3.014       0.000      0.7316       0.000    
    2000  0.1246      0.4930E-04 NODE        1003 -99.9%   1943.       34.91       22.18      -3.014       0.000      0.7316       0.000    
    2001  0.1247      0.4901E-04 NODE        1003 -99.9%   1946.       35.51       22.23      -3.014       0.000      0.7316       0.000    
    2002  0.1247      0.4902E-04 NODE        1003 -99.9%   1948.       36.12       22.27      -3.014       0.000      0.7316       0.000    
    2003  0.1248      0.4903E-04 NODE        1003 -99.9%   1950.       36.80       22.31      -4.113       0.000      0.7316       0.000    
    2004  0.1248      0.4903E-04 NODE        1003 -99.9%   1953.       37.24       22.27      -4.113       0.000      0.7316       0.000    
    2005  0.1249      0.4901E-04 NODE        1003 -99.9%   1955.       37.79       22.12      -4.206       0.000      0.7316       0.000    
    2006  0.1249      0.4901E-04 NODE        1003 -99.9%   1958.       37.98       21.90      -4.206       0.000      0.7316       0.000    
    2007  0.1250      0.4902E-04 NODE        1003 -99.9%   1960.       38.51       21.68      -4.581       0.000      0.7316       0.000    
    2008  0.1250      0.4903E-04 NODE        1003 -99.9%   1963.       38.80       21.49      -4.581       0.000      0.7316       0.000    
    2009  0.1251      0.4903E-04 NODE        1003 -99.9%   1965.       39.04       21.34      -4.581       0.000      0.7316       0.000    
    2010  0.1251      0.4902E-04 NODE        1003 -99.9%   1968.       39.21       21.26      -4.581       0.000      0.7316       0.000    
    2011  0.1252      0.4902E-04 NODE        1003 -99.9%   1970.       39.32       21.24      -4.581       0.000      0.7316       0.000    
    2012  0.1252      0.4903E-04 NODE        1003 -99.9%   1973.       39.29       21.26      -4.581       0.000      0.7316       0.000    
    2013  0.1253      0.4904E-04 NODE        1003 -99.9%   1976.       38.99       21.32      -4.581       0.000      0.7316       0.000    
    2014  0.1253      0.4904E-04 NODE        1003 -99.9%   1979.       38.53       21.41      -4.582       0.000      0.7316       0.000    
    2015  0.1254      0.4903E-04 NODE        1003 -99.9%   1981.       38.03       21.51      -4.582       0.000      0.7316       0.000    
    2016  0.1254      0.4904E-04 NODE        1003 -99.9%   1984.       37.61       21.63      -4.582       0.000      0.7316       0.000    
    2017  0.1255      0.4904E-04 NODE        1003 -99.9%   1988.       37.31       21.77      -4.582       0.000      0.7316       0.000    
    2018  0.1255      0.4904E-04 NODE        1003 -99.9%   1991.       37.13       21.92      -4.582       0.000      0.7316       0.000    
    2019  0.1256      0.4904E-04 NODE        1003 -99.9%   1995.       37.04       22.09      -4.582       0.000      0.7316       0.000    
    2020  0.1256      0.4904E-04 NODE        1003 -99.9%   1998.       37.01       22.28      -4.582       0.000      0.7316       0.000    
    2021  0.1256      0.4905E-04 NODE        1003 -99.9%   2002.       37.03       22.48      -4.582       0.000      0.7316       0.000    
    2022  0.1257      0.4905E-04 NODE        1003 -99.9%   2006.       37.08       22.71      -4.582       0.000      0.7316       0.000    
    2023  0.1257      0.5382E-04 NODE        1003 -99.9%   2010.       37.00       22.95      -4.582       0.000      0.7316       0.000    
    2024  0.1258      0.5395E-04 NODE        1003 -99.9%   2014.       36.72       23.24      -4.912       0.000      0.7316       0.000    
    2025  0.1259      0.5396E-04 NODE        1003 -99.9%   2019.       35.90       23.49      -4.912       0.000      0.7316       0.000    
    2026  0.1259      0.5936E-04 NODE        1003 -99.9%   2023.       35.32       23.64      -4.942       0.000      0.7316       0.000    
    2027  0.1260      0.6051E-04 NODE        1003 -99.9%   2027.       35.12       23.67      -4.942       0.000      0.7316       0.000    
    2028  0.1260      0.6052E-04 NODE        1003 -99.9%   2032.       35.33       23.59      -4.942       0.000      0.7316       0.000    
    2029  0.1261      0.6053E-04 NODE        1003 -99.9%   2036.       35.51       23.46      -4.942       0.000      0.7316       0.000    
    2030  0.1262      0.6053E-04 NODE        1003 -99.9%   2041.       35.49       23.36      -4.942       0.000      0.7316       0.000    
    2031  0.1262      0.6053E-04 NODE        1003 -99.9%   2045.       35.42       23.29      -4.942       0.000      0.7316       0.000    
    2032  0.1263      0.4935E-04 NODE        1003 -99.9%   2050.       35.40       23.23      -4.942       0.000      0.7316       0.000    
    2033  0.1263      0.4904E-04 NODE        1003 -99.9%   2054.       35.32       23.17      -4.942       0.000      0.7316       0.000    
    2034  0.1264      0.4904E-04 NODE        1003 -99.9%   2058.       35.09       23.12      -4.942       0.000      0.7316       0.000    
   CYCLE    TIME      TIME-STEP  ELEMENT          ERROR  I-ENERGY    K-ENERGY T  K-ENERGY R  EXT-WORK     MAS.ERR     TOTAL MASS  MASS ADDED
    2035  0.1264      0.4905E-04 NODE        1003 -99.9%   2062.       34.78       23.08      -4.961       0.000      0.7316       0.000    
    2036  0.1265      0.4904E-04 NODE        1003 -99.9%   2066.       34.39       23.05      -4.961       0.000      0.7316       0.000    
    2037  0.1265      0.5378E-04 NODE        1003 -99.9%   2070.       34.00       23.04      -4.961       0.000      0.7316       0.000    
    2038  0.1266      0.5391E-04 NODE        1003 -99.9%   2074.       33.57       23.03      -4.961       0.000      0.7316       0.000    
    2039  0.1266      0.5393E-04 NODE        1003 -99.9%   2078.       33.16       23.00      -4.961       0.000      0.7316       0.000    
    2040  0.1267      0.5394E-04 NODE        1003 -99.9%   2082.       32.75       22.94      -4.961       0.000      0.7316       0.000    
    2041  0.1267      0.5393E-04 NODE        1003 -99.9%   2087.       32.36       22.88      -4.961       0.000      0.7316       0.000    
    2042  0.1268      0.5392E-04 NODE        1003 -99.9%   2091.       31.99       22.82      -4.961       0.000      0.7316       0.000    
    2043  0.1268      0.5392E-04 NODE        1003 -99.9%   2094.       31.64       22.78      -4.961       0.000      0.7316       0.000    
    2044  0.1269      0.5393E-04 NODE        1003 -99.9%   2098.       31.25       22.73      -4.961       0.000      0.7316       0.000    
    2045  0.1269      0.5392E-04 NODE        1003 -99.9%   2102.       30.82       22.67      -4.961       0.000      0.7316       0.000    
    2046  0.1270      0.5391E-04 NODE        1003 -99.9%   2106.       30.38       22.58      -4.961       0.000      0.7316       0.000    
    2047  0.1271      0.5391E-04 NODE        1003 -99.9%   2110.       29.94       22.50      -4.961       0.000      0.7316       0.000    
    2048  0.1271      0.5391E-04 NODE        1003 -99.9%   2114.       29.52       22.44      -4.961       0.000      0.7316       0.000    
    2049  0.1272      0.5930E-04 NODE        1003 -99.9%   2117.       29.09       22.41      -4.961       0.000      0.7316       0.000    
    2050  0.1272      0.6043E-04 NODE        1003 -99.9%   2122.       28.61       22.40      -4.961       0.000      0.7316       0.000    
    2051  0.1273      0.5404E-04 NODE        1003 -99.9%   2126.       28.10       22.39      -4.961       0.000      0.7316       0.000    
    2052  0.1273      0.5391E-04 NODE        1003 -99.9%   2129.       27.65       22.38      -4.961       0.000      0.7316       0.000    
    2053  0.1274      0.5930E-04 NODE        1003 -99.9%   2133.       27.27       22.36      -4.968       0.000      0.7316       0.000    
    2054  0.1275      0.6043E-04 NODE        1003 -99.9%   2137.       26.83       22.34      -4.968       0.000      0.7316       0.000    
    2055  0.1275      0.6044E-04 NODE        1003 -99.9%   2141.       26.36       22.33      -4.968       0.000      0.7316       0.000    
    2056  0.1276      0.6045E-04 NODE        1003 -99.9%   2145.       25.86       22.33      -4.968       0.000      0.7316       0.000    
    2057  0.1276      0.6046E-04 NODE        1003 -99.9%   2149.       25.34       22.34      -4.968       0.000      0.7316       0.000    
    2058  0.1277      0.6047E-04 NODE        1003 -99.9%   2153.       24.83       22.36      -4.968       0.000      0.7316       0.000    
    2059  0.1278      0.6047E-04 NODE        1003 -99.9%   2156.       24.36       22.36      -4.968       0.000      0.7316       0.000    
    2060  0.1278      0.6047E-04 NODE        1003 -99.9%   2160.       23.97       22.33      -4.968       0.000      0.7316       0.000    
    2061  0.1279      0.6047E-04 NODE        1003 -99.9%   2164.       23.67       22.29      -4.968       0.000      0.7316       0.000    
    2062  0.1279      0.6047E-04 NODE        1003 -99.9%   2168.       23.45       22.23      -4.968       0.000      0.7316       0.000    
    2063  0.1280      0.6048E-04 NODE        1003 -99.9%   2171.       23.27       22.18      -4.968       0.000      0.7316       0.000    
    2064  0.1281      0.6048E-04 NODE        1003 -99.9%   2175.       23.12       22.14      -4.968       0.000      0.7316       0.000    
    2065  0.1281      0.6048E-04 NODE        1003 -99.9%   2179.       22.97       22.12      -4.968       0.000      0.7316       0.000    
    2066  0.1282      0.6049E-04 NODE        1003 -99.9%   2183.       22.78       22.14      -4.968       0.000      0.7316       0.000    
    2067  0.1282      0.6050E-04 NODE        1003 -99.9%   2187.       22.57       22.18      -4.968       0.000      0.7316       0.000    
    2068  0.1283      0.6050E-04 NODE        1003 -99.9%   2191.       22.34       22.26      -4.968       0.000      0.7316       0.000    
    2069  0.1284      0.6050E-04 NODE        1003 -99.9%   2196.       22.12       22.35      -4.968       0.000      0.7316       0.000    
    2070  0.1284      0.6051E-04 NODE        1003 -99.9%   2200.       21.95       22.43      -4.968       0.000      0.7316       0.000    
    2071  0.1285      0.6051E-04 NODE        1003 -99.9%   2204.       21.83       22.51      -4.968       0.000      0.7316       0.000    
    2072  0.1285      0.6051E-04 NODE        1003 -99.9%   2208.       21.75       22.57      -4.968       0.000      0.7316       0.000    
    2073  0.1286      0.6052E-04 NODE        1003 -99.9%   2212.       21.70       22.62      -4.968       0.000      0.7316       0.000    
    2074  0.1287      0.6052E-04 NODE        1003 -99.9%   2216.       21.63       22.67      -4.968       0.000      0.7316       0.000    
    2075  0.1287      0.6052E-04 NODE        1003 -99.9%   2220.       21.55       22.72      -4.968       0.000      0.7316       0.000    
    2076  0.1288      0.6052E-04 NODE        1003 -99.9%   2224.       21.48       22.80      -4.968       0.000      0.7316       0.000    
    2077  0.1288      0.6053E-04 NODE        1003 -99.9%   2228.       21.42       22.90      -4.968       0.000      0.7316       0.000    
    2078  0.1289      0.6053E-04 NODE        1003 -99.9%   2232.       21.38       23.01      -4.968       0.000      0.7316       0.000    
    2079  0.1290      0.6053E-04 NODE        1003 -99.9%   2236.       21.37       23.15      -4.968       0.000      0.7316       0.000    
    2080  0.1290      0.6054E-04 NODE        1003 -99.9%   2241.       21.42       23.29      -4.968       0.000      0.7316       0.000    
    2081  0.1291      0.6054E-04 NODE        1003 -99.9%   2245.       21.55       23.42      -4.968       0.000      0.7316       0.000    
    2082  0.1291      0.6055E-04 NODE        1003 -99.9%   2249.       21.75       23.53      -4.968       0.000      0.7316       0.000    
    2083  0.1292      0.6055E-04 NODE        1003 -99.9%   2253.       22.00       23.62      -4.968       0.000      0.7316       0.000    
    2084  0.1293      0.6056E-04 NODE        1003 -99.9%   2257.       22.31       23.70      -4.968       0.000      0.7316       0.000    
    2085  0.1293      0.6056E-04 NODE        1003 -99.9%   2261.       22.64       23.76      -4.968       0.000      0.7316       0.000    
    2086  0.1294      0.6056E-04 NODE        1003 -99.9%   2266.       22.98       23.82      -4.968       0.000      0.7316       0.000    
    2087  0.1294      0.6057E-04 NODE        1003 -99.9%   2270.       23.30       23.88      -4.968       0.000      0.7316       0.000    
    2088  0.1295      0.6057E-04 NODE        1003 -99.9%   2274.       23.60       23.95      -4.968       0.000      0.7316       0.000    
    2089  0.1296      0.6057E-04 NODE        1003 -99.9%   2279.       23.92       24.02      -4.968       0.000      0.7316       0.000    
   CYCLE    TIME      TIME-STEP  ELEMENT          ERROR  I-ENERGY    K-ENERGY T  K-ENERGY R  EXT-WORK     MAS.ERR     TOTAL MASS  MASS ADDED
    2090  0.1296      0.6057E-04 NODE        1003 -99.9%   2283.       24.27       24.06      -4.968       0.000      0.7316       0.000    
    2091  0.1297      0.6057E-04 NODE        1003 -99.9%   2287.       24.62       24.07      -4.968       0.000      0.7316       0.000    
    2092  0.1298      0.6057E-04 NODE        1036 -99.9%   2291.       24.98       24.06      -4.968       0.000      0.7316       0.000    
    2093  0.1298      0.6057E-04 NODE        1036 -99.9%   2296.       25.33       24.05      -4.968       0.000      0.7316       0.000    
    2094  0.1299      0.6057E-04 NODE        1036 -99.9%   2300.       25.68       24.07      -4.968       0.000      0.7316       0.000    
    2095  0.1299      0.6057E-04 NODE        1036 -99.9%   2305.       26.00       24.13      -4.968       0.000      0.7316       0.000    
    2096  0.1300      0.6057E-04 NODE        1036 -99.9%   2310.       26.31       24.21      -4.968       0.000      0.7316       0.000    

     RESTART FILES: BOULEV44_0001_[0001-0004].rst WRITTEN
     -------------

    2097  0.1301      0.6056E-04 NODE        1036 -99.9%   2314.       26.59       24.32      -4.968       0.000      0.7316       0.000    
     ANIMATION FILE: BOULEV44A014 WRITTEN
  
                           ** CPU USER TIME **
  
  
                        ** SUMMARY **
  
 #PROC  CONTSORT  CONTFOR   ELEMENT   KINCOND   INTEG     IO        T0        ASM       RESOL    
   1   .1364E+00 .5977E-01 .1520E+00 .9237E-01 .3203E-01 .2888E+00 .1340E+00 .3078E-01 .1265E+01
   2   .2011E+00 .6593E-01 .1458E+00 .8305E-01 .3155E-01 .1568E+00 .1594E+00 .2972E-01 .1305E+01
   3   .3048E+00 .5155E-01 .1492E+00 .8536E-01 .3186E-01 .1512E+00 .1640E+00 .2918E-01 .1304E+01
   4   .2129E+00 .4560E-01 .1424E+00 .9283E-01 .3032E-01 .1460E+00 .1618E+00 .2836E-01 .1295E+01
  
                 ** SPMD COM. TIME **
  
 #PROC  FORCES    RBYFOR    RBYVEL    VEL       TOT       %        
   1   .9362E-01 .0000E+00 .0000E+00 .3057E-01 .1242E+00 .9820E+01
   2   .1003E+00 .0000E+00 .0000E+00 .1296E+00 .2299E+00 .1761E+02
   3   .1051E+00 .0000E+00 .0000E+00 .2638E-01 .1315E+00 .1009E+02
   4   .1245E+00 .0000E+00 .0000E+00 .1155E+00 .2400E+00 .1853E+02
  
 
                   ** CUMULATIVE CPU TIME SUMMARY **
  
 CONTACT SORTING.............: .8552E+00    16.55 % 
 CONTACT FORCES..............: .2228E+00     4.31 % 
 ELEMENT FORCES..............: .5894E+00    11.40 % 
 KINEMATIC COND..............: .3536E+00     6.84 % 
 INTEGRATION.................: .1258E+00     2.43 % 
 ASSEMBLING..................: .1180E+00     2.28 % 
 OTHERS (including I/O)......: .2904E+01    56.18 % 
 TOTAL.......................: .5168E+01   100.00 % 
  
  
                           ** ELAPSED TIME **
  
  
                        ** SUMMARY **
  
 #PROC  CONTSORT  CONTFOR   ELEMENT   KINCOND   INTEG     IO        T0        ASM       RESOL    
   1   .8007E-01 .3479E-01 .8920E-01 .5418E-01 .1849E-01 .1793E+00 .7778E-01 .1794E-01 .7475E+00
   2   .1140E+00 .3779E-01 .8477E-01 .4816E-01 .1812E-01 .9088E-01 .9180E-01 .1722E-01 .7475E+00
   3   .1745E+00 .2969E-01 .8681E-01 .4982E-01 .1841E-01 .8708E-01 .9413E-01 .1687E-01 .7474E+00
   4   .1220E+00 .2630E-01 .8298E-01 .5445E-01 .1754E-01 .8447E-01 .9386E-01 .1632E-01 .7475E+00
  
        CONTSORT  CONTFOR   ELEMENT   KINCOND   INTEG     IO        T0        ASM       RESOL    
 MIN   .8007E-01 .2630E-01 .8298E-01 .4816E-01 .1754E-01 .8447E-01 .7778E-01 .1632E-01 .7474E+00
 MAX   .1745E+00 .3779E-01 .8920E-01 .5445E-01 .1849E-01 .1793E+00 .9413E-01 .1794E-01 .7475E+00
 AVG   .1227E+00 .3214E-01 .8594E-01 .5165E-01 .1814E-01 .1104E+00 .8939E-01 .1709E-01 .7475E+00
  
                 ** SPMD COM. TIME **
  
 #PROC  FORCES    RBYFOR    RBYVEL    VEL       TOT       %        
   1   .5531E-01 .0000E+00 .0000E+00 .1810E-01 .7341E-01 .9822E+01
   2   .5762E-01 .0000E+00 .0000E+00 .7409E-01 .1317E+00 .1762E+02
   3   .6046E-01 .0000E+00 .0000E+00 .1541E-01 .7587E-01 .1015E+02
   4   .7189E-01 .0000E+00 .0000E+00 .6662E-01 .1385E+00 .1853E+02
  
        FORCES    RBYFOR    RBYVEL    VEL       TOT       %        
 MIN   .5531E-01 .0000E+00 .0000E+00 .1541E-01 .7341E-01 .9822E+01
 MAX   .7189E-01 .0000E+00 .0000E+00 .7409E-01 .1385E+00 .1853E+02
 AVG   .6132E-01 .0000E+00 .0000E+00 .4356E-01 .1049E+00 .1403E+02
  
                   ** MEMORY USAGE STATISTICS **
  
 TOTAL MEMORY USED .........................:      229 MB
 MAXIMUM MEMORY PER PROCESSOR...............:       58 MB
 MINIMUM MEMORY PER PROCESSOR...............:       57 MB
 AVERAGE MEMORY PER PROCESSOR...............:       57 MB
  
                   ** DISK USAGE STATISTICS **
  
 TOTAL DISK SPACE USED .....................:          1 MB
 ANIMATION/H3D/TH/OUTP SIZE ................:          0 MB
 RESTART FILE SIZE .........................:          1 MB
  
                   ** COMPUTE TIME INFORMATION **
                        ** CURRENT ENGINE **
  
 EXECUTION STARTED .........................:      2022/11/23  16:21:20
 EXECUTION COMPLETED .......................:      2022/11/23  16:21:21
  
 ELAPSED TIME     =          0.83 s
                          0:00:00
 ESTIMATED SPEEDUP=          6.22



     NORMAL TERMINATION      



     TOTAL NUMBER OF CYCLES  :    2098

  
                   ** COMPUTE RUNTIME INFORMATION SUMMARY **
  
        STARTER RUNTIME =          0.66s (00:00:00)
 # 001   ENGINE RUNTIME =          0.83s (00:00:00)
 ------------------------------ 
 STARTER+ENGINE RUNTIME =          1.50s (00:00:01)
  
