 TEST62_0001.out
************************************************************************
**                                                                    **
**                                                                    **
**                         OpenRadioss Engine                         **
**                                                                    **
**            Non-linear Finite Element Analysis Software             **
**                                                                    **
**                                                                    **
**                                                                    **
**                Linux 64 bits, GNU compiler, OpenMPI                **
**                                                                    **
**                                                                    **
**                                                                    **
** CommitID: 440deeba848d606665f88afb8302e85b1ecf72bf                 **
************************************************************************
** OpenRadioss Software                                               **
** COPYRIGHT (C) 1986-2022 Altair Engineering, Inc.                   **
** Licensed under GNU Affero General Public License.                  **
** See License file.                                                  **
************************************************************************
 
 NUMBER OF SPMD DOMAINS           4
 NUMBER OF THREADS PER DOMAIN     2
 NUMBER OF HMPP PROCESSES         8
  
 COMPUTATION HARDWARE DESCRIPTION
  
 CPU#  HOSTNAME     CPU TYPE, FREQUENCY AND MEMORY
   1   fr-shady.europe.altair.com   Intel(R) Xeon(R) CPU           X5680  @ 3.33GHz (x86_64), 1596 MHz,  20012 MB RAM,  49126 MB swap
   2   fr-shady.europe.altair.com   Intel(R) Xeon(R) CPU           X5680  @ 3.33GHz (x86_64), 1596 MHz,  20012 MB RAM,  49126 MB swap
   3   fr-shady.europe.altair.com   Intel(R) Xeon(R) CPU           X5680  @ 3.33GHz (x86_64), 1596 MHz,  20012 MB RAM,  49126 MB swap
   4   fr-shady.europe.altair.com   Intel(R) Xeon(R) CPU           X5680  @ 3.33GHz (x86_64), 1596 MHz,  20012 MB RAM,  49126 MB swap
  
************************************************************************


 TEST62D01CISAILLEMENT 62                                                        


 FINAL TIME . . . . . . . . . . . . . . . . . . .   40.00000    

 TIME INTERVAL FOR TIME HISTORY PLOTS . . . . . .  0.1000000    

 TIME STEP SCALE FACTOR . . . . . . . . . . . . .  0.9000000    

 MINIMUM TIME STEP  . . . . . . . . . . . . . . .   0.000000    


 BRICK TIME STEP SCALE FACTOR . . . . . . . . . .  0.9000000    
 BRICK MINIMUM TIME STEP. . . . . . . . . . . . .   0.000000    
 MIN. TIME STEP FLAG (1:STOP RUN, 2:DELETE BRICK)     1

 QUAD TIME STEP SCALE FACTOR. . . . . . . . . . .  0.9000000    
 QUAD MINIMUM TIME STEP . . . . . . . . . . . . .   0.000000    
 MIN. TIME STEP FLAG (1:STOP RUN, 2:DELETE QUAD).     1

 SHELL TIME STEP SCALE FACTOR . . . . . . . . . .  0.9000000    
 SHELL MINIMUM TIME STEP. . . . . . . . . . . . .   0.000000    
 MIN. TIME FLAG (1:STOP, 2:DELETE, 3:SMALL STRAIN)    2

 TRUSS TIME STEP SCALE FACTOR . . . . . . . . . .  0.9000000    
 TRUSS MINIMUM TIME STEP. . . . . . . . . . . . .   0.000000    
 MIN. TIME FLAG (1:STOP, 2:DELETE). . . . . . . .     0

 BEAM TIME STEP SCALE FACTOR. . . . . . . . . . .  0.9000000    
 BEAM MINIMUM TIME STEP . . . . . . . . . . . . .   0.000000    
 MIN. TIME FLAG (1:STOP, 2:DELETE). . . . . . . .     0

 SPRING TIME STEP SCALE FACTOR. . . . . . . . . .  0.9000000    
 SPRING MINIMUM TIME STEP . . . . . . . . . . . .   0.000000    
 MIN. TIME FLAG (1:STOP, 2:DELETE). . . . . . . .     0

 AIRBAG TIME STEP SCALE FACTOR. . . . . . . . . .  0.9000000    
 AIRBAG MINIMUM TIME STEP . . . . . . . . . . . .   0.000000    
 MIN. TIME FLAG (1:STOP). . . . . . . . . . . . .     0

 CONTACT TIME STEP SCALE FACTOR . . . . . . . . .  0.9000000    
 CONTACT MINIMUM TIME STEP. . . . . . . . . . . .   0.000000    
 MIN. TIME FLAG(1:STOP, 2:REMOVE NODE FROM INTERF)    0

 PRINTOUT CYCLE FREQUENCY . . . . . . . . . . . .    -1

 RESTART CYCLE FREQUENCY. . . . . . . . . . . . .       5000

 MAXIMUM RESTART WRITE BEFORE OVERWRITE . . . . .     0

 INVERS: INPUT DECK VERSION . . . . . . . . . . .  2019
 ITTYP : FLAG FOR TYPE OF T-FILE. . . . . . . . .     4


 TIME FOR FIRST ANIMATION-FILE PLOT . . . . . . .   0.000000    
 TIME INTERVAL FOR ANIMATION-FILE PLOTS . . . . .   2.000000    
 SENSOR FOR ANIMATION-FILE PLOTS. . . . . . . . .          0
 TIME INTERVAL FOR SENSOR ANIMATION-FILE PLOTS. .   0.000000    

 VARIABLE SAVED ON ANIMATION FILES (1: YES) :
      PLASTIC STRAIN. . . . . .     0
      DENSITY     (SOLID ONLY).     0
      SPECIFIC ENERGY . . . . .     0
      HOURGLASS ENERGY. . . . .     0
      TEMPERATURE (SOLID ONLY).     0
      THICKNESS   (SHELL ONLY).     0
      PRESSURE    (SOLID ONLY).     0
      VON MISES . . . . . . . .     1
      TURBULENT ENERGY (FLUID).     0
      TURBULENT VISCOSITY(FLUID)    0
      VORTICITY (FLUID) . . . .     0
 NODAL VALUES SAVED ON ANIMATION FILES (1: YES) :
      PRESSURE. . . . . . . . .     0
      DENSITY . . . . . . . . .     0
      TEMPERATURE . . . . . . .     0
 VECTOR SAVED ON ANIMATION FILES (1: YES) :
      VELOCITY VECTOR . . . . .     1
      DISPLACEMENT VECTOR . . .     1
      ACCELERATION VECTOR . . .     0
      CONTACT FORCES. . . . . .     0
      INTERNAL FORCES . . . . .     0
      EXTERNAL FORCES . . . . .     0
      SECTION RBY RWALL FORCES.     0
      ROTATIONAL VELOCITY VECTOR    0
      CONTACT PRESSURE (VECTORS)    0
 SHELL TENSOR SAVED ON ANIMATION FILES (1: YES) :
      MEMBRANE STRESS . . . . .     0
      BENDING STRESS(MOMENT/T^2)    0
      UPPER LAYER STRESS. . . .     0
      LOWER LAYER STRESS. . . .     0
      MEMBRANE STRAIN . . . . .     0
      CURVATURE . . . . . . . .     0
      UPPER LAYER STRAIN. . . .     0
      LOWER LAYER STRAIN. . . .     0
 NODAL MASS SAVED ON ANIMATION FILES (1: YES) :    0
 KEEP DELETED ELEMENT (1: YES) :    0


 INITIAL TIME STEP. . . . . . . . . . . . . . . .   0.000000    
 MAXIMUM TIME STEP. . . . . . . . . . . . . . . .  0.1000000E+31

 PARALLEL ARITHMETIC ON
 NUMBER OF INTERFACES TO BE ELIMINATED. . . . . .        0

 NUMBER OF SOLID  ELEMENT BLOCKS TO BE ELIMINATED        0

 NUMBER OF QUAD   ELEMENT BLOCKS TO BE ELIMINATED        0

 NUMBER OF SHELL  ELEMENT BLOCKS TO BE ELIMINATED        0

 NUMBER OF TRUSS  ELEMENT BLOCKS TO BE ELIMINATED        0

 NUMBER OF BEAM   ELEMENT BLOCKS TO BE ELIMINATED        0

 NUMBER OF SPRING ELEMENT BLOCKS TO BE ELIMINATED        0

 NUMBER OF SH_3N  ELEMENT BLOCKS TO BE ELIMINATED        0

 NUMBER OF  SPH PARTICLES BLOCKS TO BE ELIMINATED        0

 NUMBER OF RIGID LINKS. . . . . . . . . . . . . .        0

 NUMBER OF NEW BOUNDARY CONDITIONS. . . . . . . .        0

 23/11/2022
   CYCLE    TIME      TIME-STEP  ELEMENT          ERROR  I-ENERGY    K-ENERGY T  K-ENERGY R  EXT-WORK     MAS.ERR     TOTAL MASS  MASS ADDED
       0   0.000      0.9725     SOLID        687   0.0%   0.000       0.000       0.000       0.000       0.000      0.2166E-01   0.000    
     ANIMATION FILE: TEST62A001 WRITTEN
       1  0.9725      0.9122     SOLID        687   0.0%  0.2641E-02  0.5414E-02   0.000      0.8055E-02   0.000      0.2166E-01   0.000    
       2   1.885      0.8549     SOLID        687   0.0%  0.1000E-01  0.5414E-02   0.000      0.1542E-01   0.000      0.2166E-01   0.000    
       3   2.740      0.8014     SOLID        687  -0.0%  0.2142E-01  0.5414E-02   0.000      0.2683E-01   0.000      0.2166E-01   0.000    
     ANIMATION FILE: TEST62A002 WRITTEN
       4   3.541      0.7518     SOLID        687   0.0%  0.3642E-01  0.5414E-02   0.000      0.4183E-01   0.000      0.2166E-01   0.000    
       5   4.293      0.7063     SOLID        687   0.0%  0.5466E-01  0.5414E-02   0.000      0.6008E-01   0.000      0.2166E-01   0.000    
     ANIMATION FILE: TEST62A003 WRITTEN
       6   4.999      0.6646     SOLID        687   0.0%  0.7590E-01  0.5414E-02   0.000      0.8132E-01   0.000      0.2166E-01   0.000    
       7   5.664      0.6266     SOLID        687   0.0%  0.9996E-01  0.5414E-02   0.000      0.1054       0.000      0.2166E-01   0.000    
       8   6.290      0.5919     SOLID        687   0.0%  0.1267      0.5414E-02   0.000      0.1321       0.000      0.2166E-01   0.000    
     ANIMATION FILE: TEST62A004 WRITTEN
       9   6.882      0.5603     SOLID        687   0.0%  0.1560      0.5414E-02   0.000      0.1614       0.000      0.2166E-01   0.000    
      10   7.442      0.5314     SOLID        687   0.0%  0.1879      0.5414E-02   0.000      0.1933       0.000      0.2166E-01   0.000    
      11   7.974      0.5050     SOLID        687   0.0%  0.2221      0.5414E-02   0.000      0.2275       0.000      0.2166E-01   0.000    
      12   8.479      0.4809     SOLID        687   0.0%  0.2588      0.5414E-02   0.000      0.2642       0.000      0.2166E-01   0.000    
     ANIMATION FILE: TEST62A005 WRITTEN
      13   8.960      0.4588     SOLID        687   0.0%  0.2979      0.5414E-02   0.000      0.3033       0.000      0.2166E-01   0.000    
      14   9.419      0.4384     SOLID        687   0.0%  0.3392      0.5414E-02   0.000      0.3447       0.000      0.2166E-01   0.000    
      15   9.857      0.4196     SOLID        687   0.0%  0.3829      0.5414E-02   0.000      0.3884       0.000      0.2166E-01   0.000    
      16   10.28      0.4023     SOLID        687  -0.0%  0.4289      0.5414E-02   0.000      0.4344       0.000      0.2166E-01   0.000    
     ANIMATION FILE: TEST62A006 WRITTEN
      17   10.68      0.3863     SOLID        687   0.0%  0.4772      0.5414E-02   0.000      0.4826       0.000      0.2166E-01   0.000    
      18   11.07      0.3714     SOLID        687  -0.0%  0.5277      0.5414E-02   0.000      0.5332       0.000      0.2166E-01   0.000    
      19   11.44      0.3576     SOLID        687  -0.0%  0.5805      0.5414E-02   0.000      0.5860       0.000      0.2166E-01   0.000    
      20   11.79      0.3447     SOLID        687  -0.0%  0.6356      0.5414E-02   0.000      0.6410       0.000      0.2166E-01   0.000    
      21   12.14      0.3327     SOLID        687  -0.0%  0.6929      0.5414E-02   0.000      0.6983       0.000      0.2166E-01   0.000    
     ANIMATION FILE: TEST62A007 WRITTEN
      22   12.47      0.3214     SOLID        687  -0.0%  0.7524      0.5414E-02   0.000      0.7578       0.000      0.2166E-01   0.000    
      23   12.79      0.3109     SOLID        687  -0.0%  0.8141      0.5414E-02   0.000      0.8195       0.000      0.2166E-01   0.000    
      24   13.10      0.3010     SOLID        687  -0.0%  0.8780      0.5414E-02   0.000      0.8834       0.000      0.2166E-01   0.000    
      25   13.40      0.2917     SOLID        687  -0.0%  0.9442      0.5414E-02   0.000      0.9496       0.000      0.2166E-01   0.000    
      26   13.70      0.2830     SOLID        687  -0.0%   1.013      0.5414E-02   0.000       1.018       0.000      0.2166E-01   0.000    
      27   13.98      0.2747     SOLID        687  -0.0%   1.083      0.5414E-02   0.000       1.089       0.000      0.2166E-01   0.000    
      28   14.25      0.2669     SOLID        687  -0.0%   1.156      0.5414E-02   0.000       1.161       0.000      0.2166E-01   0.000    
     ANIMATION FILE: TEST62A008 WRITTEN
      29   14.52      0.2595     SOLID        687  -0.0%   1.231      0.5414E-02   0.000       1.236       0.000      0.2166E-01   0.000    
      30   14.78      0.2525     SOLID        687  -0.0%   1.308      0.5414E-02   0.000       1.313       0.000      0.2166E-01   0.000    
      31   15.03      0.2459     SOLID        687  -0.0%   1.387      0.5414E-02   0.000       1.393       0.000      0.2166E-01   0.000    
      32   15.28      0.2396     SOLID        687  -0.0%   1.469      0.5414E-02   0.000       1.474       0.000      0.2166E-01   0.000    
      33   15.52      0.2336     SOLID        687  -0.0%   1.553      0.5414E-02   0.000       1.558       0.000      0.2166E-01   0.000    
      34   15.75      0.2279     SOLID        687  -0.0%   1.638      0.5414E-02   0.000       1.644       0.000      0.2166E-01   0.000    
      35   15.98      0.2225     SOLID        687  -0.0%   1.727      0.5414E-02   0.000       1.732       0.000      0.2166E-01   0.000    
      36   16.20      0.2173     SOLID        687  -0.0%   1.817      0.5414E-02   0.000       1.822       0.000      0.2166E-01   0.000    
     ANIMATION FILE: TEST62A009 WRITTEN
      37   16.42      0.2124     SOLID        687  -0.0%   1.909      0.5414E-02   0.000       1.915       0.000      0.2166E-01   0.000    
      38   16.63      0.2076     SOLID        687  -0.0%   2.004      0.5414E-02   0.000       2.009       0.000      0.2166E-01   0.000    
      39   16.84      0.2031     SOLID        687  -0.0%   2.101      0.5414E-02   0.000       2.106       0.000      0.2166E-01   0.000    
      40   17.04      0.1988     SOLID        687  -0.0%   2.200      0.5414E-02   0.000       2.205       0.000      0.2166E-01   0.000    
      41   17.24      0.1946     SOLID        687  -0.0%   2.301      0.5414E-02   0.000       2.306       0.000      0.2166E-01   0.000    
      42   17.44      0.1906     SOLID        687  -0.0%   2.404      0.5414E-02   0.000       2.409       0.000      0.2166E-01   0.000    
      43   17.63      0.1868     SOLID        687  -0.0%   2.510      0.5414E-02   0.000       2.515       0.000      0.2166E-01   0.000    
      44   17.81      0.1831     SOLID        687  -0.0%   2.617      0.5414E-02   0.000       2.623       0.000      0.2166E-01   0.000    
      45   18.00      0.1796     SOLID        687  -0.0%   2.727      0.5414E-02   0.000       2.732       0.000      0.2166E-01   0.000    
      46   18.18      0.1762     SOLID        687  -0.0%   2.839      0.5414E-02   0.000       2.844       0.000      0.2166E-01   0.000    
     ANIMATION FILE: TEST62A010 WRITTEN
      47   18.35      0.1729     SOLID        687  -0.0%   2.953      0.5414E-02   0.000       2.958       0.000      0.2166E-01   0.000    
      48   18.53      0.1698     SOLID        687  -0.0%   3.069      0.5414E-02   0.000       3.075       0.000      0.2166E-01   0.000    
      49   18.70      0.1667     SOLID        687  -0.0%   3.188      0.5414E-02   0.000       3.193       0.000      0.2166E-01   0.000    
      50   18.86      0.1638     SOLID        687  -0.0%   3.308      0.5414E-02   0.000       3.314       0.000      0.2166E-01   0.000    
      51   19.03      0.1609     SOLID        687  -0.0%   3.431      0.5414E-02   0.000       3.436       0.000      0.2166E-01   0.000    
      52   19.19      0.1582     SOLID        687  -0.0%   3.556      0.5414E-02   0.000       3.561       0.000      0.2166E-01   0.000    
      53   19.35      0.1556     SOLID        687  -0.0%   3.683      0.5414E-02   0.000       3.688       0.000      0.2166E-01   0.000    
      54   19.50      0.1530     SOLID        687  -0.0%   3.812      0.5414E-02   0.000       3.817       0.000      0.2166E-01   0.000    
   CYCLE    TIME      TIME-STEP  ELEMENT          ERROR  I-ENERGY    K-ENERGY T  K-ENERGY R  EXT-WORK     MAS.ERR     TOTAL MASS  MASS ADDED
      55   19.65      0.1505     SOLID        687  -0.0%   3.943      0.5414E-02   0.000       3.949       0.000      0.2166E-01   0.000    
      56   19.80      0.1481     SOLID        687  -0.0%   4.077      0.5414E-02   0.000       4.082       0.000      0.2166E-01   0.000    
      57   19.95      0.1458     SOLID        687   1.1%   4.213      0.5587E-03   0.000       4.169       0.000      0.2166E-01   0.000    
      58   20.10      0.1466     SOLID        687   0.5%   4.166      0.2449E-02   0.000       4.146       0.000      0.2166E-01   0.000    
     ANIMATION FILE: TEST62A011 WRITTEN
      59   20.24      0.1489     SOLID        687   0.0%   4.033      0.5414E-02   0.000       4.038       0.000      0.2166E-01   0.000    
      60   20.39      0.1513     SOLID        687   0.0%   3.903      0.5414E-02   0.000       3.908       0.000      0.2166E-01   0.000    
      61   20.54      0.1537     SOLID        687   0.0%   3.775      0.5414E-02   0.000       3.780       0.000      0.2166E-01   0.000    
      62   20.70      0.1563     SOLID        687   0.0%   3.650      0.5414E-02   0.000       3.655       0.000      0.2166E-01   0.000    
      63   20.85      0.1589     SOLID        687   0.0%   3.527      0.5414E-02   0.000       3.532       0.000      0.2166E-01   0.000    
      64   21.01      0.1616     SOLID        687   0.0%   3.407      0.5414E-02   0.000       3.412       0.000      0.2166E-01   0.000    
      65   21.18      0.1644     SOLID        687   0.0%   3.289      0.5414E-02   0.000       3.294       0.000      0.2166E-01   0.000    
      66   21.34      0.1674     SOLID        687   0.0%   3.173      0.5414E-02   0.000       3.178       0.000      0.2166E-01   0.000    
      67   21.51      0.1704     SOLID        687   0.0%   3.060      0.5414E-02   0.000       3.065       0.000      0.2166E-01   0.000    
      68   21.68      0.1735     SOLID        687   0.0%   2.949      0.5414E-02   0.000       2.954       0.000      0.2166E-01   0.000    
      69   21.85      0.1767     SOLID        687   0.0%   2.841      0.5414E-02   0.000       2.845       0.000      0.2166E-01   0.000    
      70   22.03      0.1801     SOLID        687   0.0%   2.735      0.5414E-02   0.000       2.740       0.000      0.2166E-01   0.000    
     ANIMATION FILE: TEST62A012 WRITTEN
      71   22.21      0.1836     SOLID        687   0.0%   2.631      0.5414E-02   0.000       2.636       0.000      0.2166E-01   0.000    
      72   22.39      0.1872     SOLID        687   0.0%   2.530      0.5414E-02   0.000       2.535       0.000      0.2166E-01   0.000    
      73   22.58      0.1909     SOLID        687   0.0%   2.432      0.5414E-02   0.000       2.436       0.000      0.2166E-01   0.000    
      74   22.77      0.1949     SOLID        687   0.0%   2.336      0.5414E-02   0.000       2.340       0.000      0.2166E-01   0.000    
      75   22.96      0.1989     SOLID        687   0.0%   2.242      0.5414E-02   0.000       2.247       0.000      0.2166E-01   0.000    
      76   23.16      0.2032     SOLID        687   0.0%   2.151      0.5414E-02   0.000       2.155       0.000      0.2166E-01   0.000    
      77   23.37      0.2076     SOLID        687   0.0%   2.062      0.5414E-02   0.000       2.067       0.000      0.2166E-01   0.000    
      78   23.57      0.2122     SOLID        687   0.0%   1.976      0.5414E-02   0.000       1.981       0.000      0.2166E-01   0.000    
      79   23.79      0.2171     SOLID        687   0.0%   1.892      0.5414E-02   0.000       1.897       0.000      0.2166E-01   0.000    
      80   24.00      0.2221     SOLID        687   0.0%   1.811      0.5414E-02   0.000       1.816       0.000      0.2166E-01   0.000    
     ANIMATION FILE: TEST62A013 WRITTEN
      81   24.23      0.2274     SOLID        687   0.0%   1.732      0.5414E-02   0.000       1.737       0.000      0.2166E-01   0.000    
      82   24.45      0.2329     SOLID        687   0.0%   1.656      0.5414E-02   0.000       1.661       0.000      0.2166E-01   0.000    
      83   24.69      0.2387     SOLID        687   0.0%   1.583      0.5414E-02   0.000       1.587       0.000      0.2166E-01   0.000    
      84   24.92      0.2448     SOLID        687   0.0%   1.511      0.5414E-02   0.000       1.516       0.000      0.2166E-01   0.000    
      85   25.17      0.2512     SOLID        687   0.0%   1.443      0.5414E-02   0.000       1.448       0.000      0.2166E-01   0.000    
      86   25.42      0.2579     SOLID        687   0.0%   1.377      0.5414E-02   0.000       1.382       0.000      0.2166E-01   0.000    
      87   25.68      0.2650     SOLID        687   0.0%   1.314      0.5414E-02   0.000       1.319       0.000      0.2166E-01   0.000    
      88   25.94      0.2725     SOLID        687   0.0%   1.253      0.5414E-02   0.000       1.258       0.000      0.2166E-01   0.000    
      89   26.22      0.2804     SOLID        687   0.1%   1.195      0.5414E-02   0.000       1.200       0.000      0.2166E-01   0.000    
     ANIMATION FILE: TEST62A014 WRITTEN
      90   26.50      0.2887     SOLID        687   0.1%   1.140      0.5414E-02   0.000       1.144       0.000      0.2166E-01   0.000    
      91   26.79      0.2975     SOLID        687   0.1%   1.087      0.5414E-02   0.000       1.092       0.000      0.2166E-01   0.000    
      92   27.08      0.3069     SOLID        687   0.1%   1.037      0.5414E-02   0.000       1.042       0.000      0.2166E-01   0.000    
      93   27.39      0.3168     SOLID        687   0.1%  0.9894      0.5414E-02   0.000      0.9942       0.000      0.2166E-01   0.000    
      94   27.71      0.3274     SOLID        687   0.1%  0.9447      0.5414E-02   0.000      0.9495       0.000      0.2166E-01   0.000    
      95   28.03      0.3386     SOLID        687   0.1%  0.9028      0.5414E-02   0.000      0.9076       0.000      0.2166E-01   0.000    
     ANIMATION FILE: TEST62A015 WRITTEN
      96   28.37      0.3506     SOLID        687   0.1%  0.8637      0.5414E-02   0.000      0.8685       0.000      0.2166E-01   0.000    
      97   28.72      0.3635     SOLID        687   0.1%  0.8274      0.5414E-02   0.000      0.8322       0.000      0.2166E-01   0.000    
      98   29.09      0.3772     SOLID        687   0.1%  0.7939      0.5414E-02   0.000      0.7987       0.000      0.2166E-01   0.000    
      99   29.46      0.3919     SOLID        687   0.1%  0.7633      0.5414E-02   0.000      0.7681       0.000      0.2166E-01   0.000    
     100   29.86      0.4077     SOLID        687   0.1%  0.7356      0.5414E-02   0.000      0.7404       0.000      0.2166E-01   0.000    
     101   30.26      0.4247     SOLID        687   0.1%  0.7109      0.5414E-02   0.000      0.7157       0.000      0.2166E-01   0.000    
     ANIMATION FILE: TEST62A016 WRITTEN
     102   30.69      0.4431     SOLID        687   0.1%  0.6892      0.5414E-02   0.000      0.6940       0.000      0.2166E-01   0.000    
     103   31.13      0.4629     SOLID        687   0.1%  0.6705      0.5414E-02   0.000      0.6753       0.000      0.2166E-01   0.000    
     104   31.59      0.4843     SOLID        687   0.1%  0.6550      0.5414E-02   0.000      0.6598       0.000      0.2166E-01   0.000    
     105   32.08      0.5076     SOLID        687   0.1%  0.6427      0.5414E-02   0.000      0.6475       0.000      0.2166E-01   0.000    
     ANIMATION FILE: TEST62A017 WRITTEN
     106   32.59      0.5329     SOLID        687   0.1%  0.6336      0.5414E-02   0.000      0.6384       0.000      0.2166E-01   0.000    
     107   33.12      0.5603     SOLID        687   0.1%  0.6279      0.5414E-02   0.000      0.6327       0.000      0.2166E-01   0.000    
     108   33.68      0.5902     SOLID        687   0.1%  0.6257      0.5414E-02   0.000      0.6305       0.000      0.2166E-01   0.000    
     109   34.27      0.6228     SOLID        687   0.1%  0.6270      0.5414E-02   0.000      0.6318       0.000      0.2166E-01   0.000    
     ANIMATION FILE: TEST62A018 WRITTEN
   CYCLE    TIME      TIME-STEP  ELEMENT          ERROR  I-ENERGY    K-ENERGY T  K-ENERGY R  EXT-WORK     MAS.ERR     TOTAL MASS  MASS ADDED
     110   34.89      0.6583     SOLID        687   0.1%  0.6321      0.5414E-02   0.000      0.6369       0.000      0.2166E-01   0.000    
     111   35.55      0.6969     SOLID        687   0.1%  0.6410      0.5414E-02   0.000      0.6458       0.000      0.2166E-01   0.000    
     112   36.25      0.7389     SOLID        687   0.1%  0.6540      0.5414E-02   0.000      0.6588       0.000      0.2166E-01   0.000    
     ANIMATION FILE: TEST62A019 WRITTEN
     113   36.99      0.7843     SOLID        687   0.1%  0.6713      0.5414E-02   0.000      0.6761       0.000      0.2166E-01   0.000    
     114   37.77      0.8333     SOLID        687   0.1%  0.6932      0.5414E-02   0.000      0.6980       0.000      0.2166E-01   0.000    
     115   38.60      0.8857     SOLID        687   0.1%  0.7201      0.5414E-02   0.000      0.7249       0.000      0.2166E-01   0.000    
     ANIMATION FILE: TEST62A020 WRITTEN
     116   39.49      0.9410     SOLID        687   0.1%  0.7523      0.5414E-02   0.000      0.7571       0.000      0.2166E-01   0.000    

     RESTART FILES: TEST62_0001_[0001-0004].rst WRITTEN
     -------------

  
                           ** CPU USER TIME **
  
  
                        ** SUMMARY **
  
 #PROC  ELEMENT   KINCOND   INTEG     IO        T0        ASM       RESOL    
   1   .8437E-02 .3111E-02 .2097E-02 .1026E+00 .6332E-02 .1121E-02 .1463E+00
   2   .2265E-02 .2316E-02 .1989E-02 .8934E-01 .5320E-01 .1013E-02 .1751E+00
   3   .2457E-02 .2475E-02 .2112E-02 .8760E-01 .5314E-01 .1088E-02 .1724E+00
   4   .2248E-02 .2244E-02 .1948E-02 .8906E-01 .5277E-01 .9979E-03 .1728E+00
  
                 ** SPMD COM. TIME **
  
 #PROC  FORCES    RBYFOR    RBYVEL    VEL       TOT       %        
   1   .6660E-03 .0000E+00 .0000E+00 .7939E-03 .1460E-02 .9982E+00
   2   .6639E-03 .0000E+00 .0000E+00 .7461E-03 .1410E-02 .8052E+00
   3   .6890E-03 .0000E+00 .0000E+00 .7760E-03 .1465E-02 .8496E+00
   4   .6590E-03 .0000E+00 .0000E+00 .7200E-03 .1379E-02 .7981E+00
  
 
                   ** CUMULATIVE CPU TIME SUMMARY **
  
 CONTACT SORTING.............: .0000E+00     0.00 % 
 CONTACT FORCES..............: .9670E-03     0.15 % 
 ELEMENT FORCES..............: .1541E-01     2.31 % 
 KINEMATIC COND..............: .1015E-01     1.52 % 
 INTEGRATION.................: .8146E-02     1.22 % 
 ASSEMBLING..................: .4220E-02     0.63 % 
 OTHERS (including I/O)......: .6277E+00    94.17 % 
 TOTAL.......................: .6666E+00   100.00 % 
  
  
                           ** ELAPSED TIME **
  
  
                        ** SUMMARY **
  
 #PROC  ELEMENT   KINCOND   INTEG     IO        T0        ASM       RESOL    
   1   .5144E-02 .1847E-02 .1202E-02 .7270E-01 .3690E-02 .6335E-03 .1027E+00
   2   .1280E-02 .1285E-02 .1099E-02 .5248E-01 .2843E-01 .5644E-03 .1028E+00
   3   .1351E-02 .1385E-02 .1170E-02 .5207E-01 .2845E-01 .6091E-03 .1023E+00
   4   .1273E-02 .1285E-02 .1073E-02 .5233E-01 .2855E-01 .5672E-03 .1023E+00
  
        ELEMENT   KINCOND   INTEG     IO        T0        ASM       RESOL    
 MIN   .1273E-02 .1285E-02 .1073E-02 .5207E-01 .3690E-02 .5644E-03 .1023E+00
 MAX   .5144E-02 .1847E-02 .1202E-02 .7270E-01 .2855E-01 .6335E-03 .1028E+00
 AVG   .2262E-02 .1451E-02 .1136E-02 .5739E-01 .2228E-01 .5936E-03 .1025E+00
  
                 ** SPMD COM. TIME **
  
 #PROC  FORCES    RBYFOR    RBYVEL    VEL       TOT       %        
   1   .3755E-03 .0000E+00 .0000E+00 .4623E-03 .8378E-03 .8155E+00
   2   .3734E-03 .0000E+00 .0000E+00 .4249E-03 .7983E-03 .7769E+00
   3   .3874E-03 .0000E+00 .0000E+00 .4219E-03 .8093E-03 .7909E+00
   4   .3714E-03 .0000E+00 .0000E+00 .4142E-03 .7856E-03 .7676E+00
  
        FORCES    RBYFOR    RBYVEL    VEL       TOT       %        
 MIN   .3714E-03 .0000E+00 .0000E+00 .4142E-03 .7856E-03 .7676E+00
 MAX   .3874E-03 .0000E+00 .0000E+00 .4623E-03 .8378E-03 .8155E+00
 AVG   .3769E-03 .0000E+00 .0000E+00 .4308E-03 .8078E-03 .7877E+00
  
                   ** MEMORY USAGE STATISTICS **
  
 TOTAL MEMORY USED .........................:      228 MB
 MAXIMUM MEMORY PER PROCESSOR...............:       57 MB
 MINIMUM MEMORY PER PROCESSOR...............:       57 MB
 AVERAGE MEMORY PER PROCESSOR...............:       57 MB
  
                   ** DISK USAGE STATISTICS **
  
 TOTAL DISK SPACE USED .....................:          1 MB
 ANIMATION/H3D/TH/OUTP SIZE ................:          0 MB
 RESTART FILE SIZE .........................:          1 MB
  
                   ** COMPUTE TIME INFORMATION **
                        ** CURRENT ENGINE **
  
 EXECUTION STARTED .........................:      2022/11/23  16:22:13
 EXECUTION COMPLETED .......................:      2022/11/23  16:22:13
  
 ELAPSED TIME     =          0.20 s
                          0:00:00
 ESTIMATED SPEEDUP=          3.34



     NORMAL TERMINATION      



     TOTAL NUMBER OF CYCLES  :     117

  
                   ** COMPUTE RUNTIME INFORMATION SUMMARY **
  
        STARTER RUNTIME =          0.64s (00:00:00)
 # 001   ENGINE RUNTIME =          0.20s (00:00:00)
 ------------------------------ 
 STARTER+ENGINE RUNTIME =          0.84s (00:00:00)
  
