 FFO25SCB_0001.out
************************************************************************
**                                                                    **
**                                                                    **
**                         OpenRadioss Engine                         **
**                                                                    **
**            Non-linear Finite Element Analysis Software             **
**                                                                    **
**                                                                    **
**                                                                    **
**                Linux 64 bits, GNU compiler, OpenMPI                **
**                                                                    **
**                                                                    **
**                                                                    **
** CommitID: 440deeba848d606665f88afb8302e85b1ecf72bf                 **
************************************************************************
** OpenRadioss Software                                               **
** COPYRIGHT (C) 1986-2022 Altair Engineering, Inc.                   **
** Licensed under GNU Affero General Public License.                  **
** See License file.                                                  **
************************************************************************
 
 NUMBER OF SPMD DOMAINS           4
 NUMBER OF THREADS PER DOMAIN     2
 NUMBER OF HMPP PROCESSES         8
  
 COMPUTATION HARDWARE DESCRIPTION
  
 CPU#  HOSTNAME     CPU TYPE, FREQUENCY AND MEMORY
   1   fr-shady.europe.altair.com   Intel(R) Xeon(R) CPU           X5680  @ 3.33GHz (x86_64), 1596 MHz,  20012 MB RAM,  49126 MB swap
   2   fr-shady.europe.altair.com   Intel(R) Xeon(R) CPU           X5680  @ 3.33GHz (x86_64), 1596 MHz,  20012 MB RAM,  49126 MB swap
   3   fr-shady.europe.altair.com   Intel(R) Xeon(R) CPU           X5680  @ 3.33GHz (x86_64), 1596 MHz,  20012 MB RAM,  49126 MB swap
   4   fr-shady.europe.altair.com   Intel(R) Xeon(R) CPU           X5680  @ 3.33GHz (x86_64), 1596 MHz,  20012 MB RAM,  49126 MB swap
  
************************************************************************


 FFO25SCBD01                                                                     


 FINAL TIME . . . . . . . . . . . . . . . . . . .   1.001000    

 TIME INTERVAL FOR TIME HISTORY PLOTS . . . . . .  0.1000000    

 TIME STEP SCALE FACTOR . . . . . . . . . . . . .  0.9000000    

 MINIMUM TIME STEP  . . . . . . . . . . . . . . .   0.000000    


 NODAL TIME STEP SCALE FACTOR,  . . . . . . . . .  0.9000000    
 NODAL MINIMUM TIME STEP. . . . . . . . . . . . .  0.2000000E-03
 MIN. TIME FLAG . . . . . . . . . . . . . . . . .     8
    1:STOP. . . . . . . . . . . . . . . . . . . . 
    3:INCREASE MASS, ORIGINAL FORMULATION . . . . 
    8:INCREASE MASS, IMPROVED FORMULATION . . . . 


 BRICK TIME STEP SCALE FACTOR . . . . . . . . . .  0.9000000    
 BRICK MINIMUM TIME STEP. . . . . . . . . . . . .   0.000000    
 MIN. TIME STEP FLAG (1:STOP RUN, 2:DELETE BRICK)     0

 QUAD TIME STEP SCALE FACTOR. . . . . . . . . . .  0.9000000    
 QUAD MINIMUM TIME STEP . . . . . . . . . . . . .   0.000000    
 MIN. TIME STEP FLAG (1:STOP RUN, 2:DELETE QUAD).     0

 SHELL TIME STEP SCALE FACTOR . . . . . . . . . .  0.9000000    
 SHELL MINIMUM TIME STEP. . . . . . . . . . . . .   0.000000    
 MIN. TIME FLAG (1:STOP, 2:DELETE, 3:SMALL STRAIN)    0

 TRUSS TIME STEP SCALE FACTOR . . . . . . . . . .  0.9000000    
 TRUSS MINIMUM TIME STEP. . . . . . . . . . . . .   0.000000    
 MIN. TIME FLAG (1:STOP, 2:DELETE). . . . . . . .     0

 BEAM TIME STEP SCALE FACTOR. . . . . . . . . . .  0.9000000    
 BEAM MINIMUM TIME STEP . . . . . . . . . . . . .   0.000000    
 MIN. TIME FLAG (1:STOP, 2:DELETE). . . . . . . .     0

 SPRING TIME STEP SCALE FACTOR. . . . . . . . . .  0.9000000    
 SPRING MINIMUM TIME STEP . . . . . . . . . . . .   0.000000    
 MIN. TIME FLAG (1:STOP, 2:DELETE). . . . . . . .     0

 AIRBAG TIME STEP SCALE FACTOR. . . . . . . . . .  0.9000000    
 AIRBAG MINIMUM TIME STEP . . . . . . . . . . . .   0.000000    
 MIN. TIME FLAG (1:STOP). . . . . . . . . . . . .     0

 CONTACT TIME STEP SCALE FACTOR . . . . . . . . .  0.9000000    
 CONTACT MINIMUM TIME STEP. . . . . . . . . . . .   0.000000    
 MIN. TIME FLAG(1:STOP, 2:REMOVE NODE FROM INTERF)    0

 PRINTOUT CYCLE FREQUENCY . . . . . . . . . . . .    -1

 RESTART CYCLE FREQUENCY. . . . . . . . . . . . .   10000000

 MAXIMUM RESTART WRITE BEFORE OVERWRITE . . . . .     0

 INVERS: INPUT DECK VERSION . . . . . . . . . . .   100
 ITTYP : FLAG FOR TYPE OF T-FILE. . . . . . . . .     4


 TIME FOR FIRST ANIMATION-FILE PLOT . . . . . . .   0.000000    
 TIME INTERVAL FOR ANIMATION-FILE PLOTS . . . . .  0.2000000    
 SENSOR FOR ANIMATION-FILE PLOTS. . . . . . . . .          0
 TIME INTERVAL FOR SENSOR ANIMATION-FILE PLOTS. .   0.000000    

 VARIABLE SAVED ON ANIMATION FILES (1: YES) :
      PLASTIC STRAIN. . . . . .     1
      DENSITY     (SOLID ONLY).     0
      SPECIFIC ENERGY . . . . .     1
      HOURGLASS ENERGY. . . . .     1
      TEMPERATURE (SOLID ONLY).     0
      THICKNESS   (SHELL ONLY).     0
      PRESSURE    (SOLID ONLY).     0
      VON MISES . . . . . . . .     1
      TURBULENT ENERGY (FLUID).     0
      TURBULENT VISCOSITY(FLUID)    0
      VORTICITY (FLUID) . . . .     0
 NODAL VALUES SAVED ON ANIMATION FILES (1: YES) :
      PRESSURE. . . . . . . . .     0
      DENSITY . . . . . . . . .     0
      TEMPERATURE . . . . . . .     0
 VECTOR SAVED ON ANIMATION FILES (1: YES) :
      VELOCITY VECTOR . . . . .     1
      DISPLACEMENT VECTOR . . .     0
      ACCELERATION VECTOR . . .     0
      CONTACT FORCES. . . . . .     1
      INTERNAL FORCES . . . . .     0
      EXTERNAL FORCES . . . . .     0
      SECTION RBY RWALL FORCES.     1
      ROTATIONAL VELOCITY VECTOR    0
      CONTACT PRESSURE (VECTORS)    0
 SHELL TENSOR SAVED ON ANIMATION FILES (1: YES) :
      MEMBRANE STRESS . . . . .     0
      BENDING STRESS(MOMENT/T^2)    0
      UPPER LAYER STRESS. . . .     0
      LOWER LAYER STRESS. . . .     0
      MEMBRANE STRAIN . . . . .     0
      CURVATURE . . . . . . . .     0
      UPPER LAYER STRAIN. . . .     0
      LOWER LAYER STRAIN. . . .     0
 NODAL MASS SAVED ON ANIMATION FILES (1: YES) :    1
 KEEP DELETED ELEMENT (1: YES) :    0


 INITIAL TIME STEP. . . . . . . . . . . . . . . .   0.000000    
 MAXIMUM TIME STEP. . . . . . . . . . . . . . . .  0.1000000E+31

 PARALLEL ARITHMETIC ON
 NUMBER OF INTERFACES TO BE ELIMINATED. . . . . .        0

 NUMBER OF SOLID  ELEMENT BLOCKS TO BE ELIMINATED        0

 NUMBER OF QUAD   ELEMENT BLOCKS TO BE ELIMINATED        0

 NUMBER OF SHELL  ELEMENT BLOCKS TO BE ELIMINATED        0

 NUMBER OF TRUSS  ELEMENT BLOCKS TO BE ELIMINATED        0

 NUMBER OF BEAM   ELEMENT BLOCKS TO BE ELIMINATED        0

 NUMBER OF SPRING ELEMENT BLOCKS TO BE ELIMINATED        0

 NUMBER OF SH_3N  ELEMENT BLOCKS TO BE ELIMINATED        0

 NUMBER OF  SPH PARTICLES BLOCKS TO BE ELIMINATED        0

 NUMBER OF RIGID LINKS. . . . . . . . . . . . . .        0

 NUMBER OF NEW BOUNDARY CONDITIONS. . . . . . . .        0

 23/11/2022
   CYCLE    TIME      TIME-STEP  ELEMENT          ERROR  I-ENERGY    K-ENERGY T  K-ENERGY R  EXT-WORK     MAS.ERR     TOTAL MASS  MASS ADDED
       0   0.000      0.7539E-03 NODE          21   0.0%   0.000      0.2854E-11   0.000       0.000       0.000       4.017       0.000    
     ANIMATION FILE: FFO25SCBA001 WRITTEN
     OUTPUT FILE: FFO25SCB_0001.sty WRITTEN
       1  0.7539E-03  0.3351E-03 NODE          21 -99.9%  0.1434E-12  0.1705E-10  0.4114E-14 -0.8627E-11   0.000       4.017       0.000    
       2  0.1089E-02  0.3686E-03 NODE          21 -99.9%  0.6026E-12  0.3257E-10  0.2327E-13 -0.1150E-10   0.000       4.017       0.000    
       3  0.1458E-02  0.4055E-03 NODE          21 -99.9%  0.1865E-11  0.5542E-10  0.1063E-12 -0.1543E-10   0.000       4.017       0.000    
       4  0.1863E-02  0.4460E-03 NODE          21 -99.9%  0.4760E-11  0.8760E-10  0.3865E-12 -0.2090E-10   0.000       4.017       0.000    
       5  0.2309E-02  0.4519E-03 NODE          21 -99.9%  0.1062E-10  0.1297E-09  0.1186E-11 -0.2821E-10   0.000       4.017       0.000    
       6  0.2761E-02  0.4491E-03 NODE          21 -99.9%  0.2032E-10  0.1807E-09  0.2947E-11 -0.3667E-10   0.000       4.017       0.000    
       7  0.3210E-02  0.4504E-03 NODE          21 -99.9%  0.3456E-10  0.2408E-09  0.6180E-11 -0.4608E-10   0.000       4.017       0.000    
       8  0.3661E-02  0.4498E-03 NODE          21 -99.9%  0.5410E-10  0.3108E-09  0.1151E-10 -0.5644E-10   0.000       4.017       0.000    
       9  0.4110E-02  0.4501E-03 NODE          21 -99.9%  0.7929E-10  0.3914E-09  0.1950E-10 -0.6764E-10   0.000       4.017       0.000    
      10  0.4561E-02  0.4500E-03 NODE          21 -99.9%  0.1104E-09  0.4837E-09  0.3064E-10 -0.7962E-10   0.000       4.017       0.000    
      11  0.5011E-02  0.4500E-03 NODE          21 -99.9%  0.1475E-09  0.5890E-09  0.4523E-10 -0.9231E-10   0.000       4.017       0.000    
      12  0.5461E-02  0.4500E-03 NODE          21 -99.9%  0.1906E-09  0.7084E-09  0.6334E-10 -0.1057E-09   0.000       4.017       0.000    
      13  0.5911E-02  0.4500E-03 NODE          21 -99.9%  0.2396E-09  0.8435E-09  0.8476E-10 -0.1197E-09   0.000       4.017       0.000    
      14  0.6361E-02  0.4500E-03 NODE          32 -99.9%  0.2945E-09  0.9957E-09  0.1090E-09 -0.1343E-09   0.000       4.017       0.000    
      15  0.6811E-02  0.4500E-03 NODE          32 -99.9%  0.3552E-09  0.1166E-08  0.1355E-09 -0.1496E-09   0.000       4.017       0.000    
      16  0.7261E-02  0.4500E-03 NODE          21 -99.9%  0.4218E-09  0.1357E-08  0.1633E-09 -0.1655E-09   0.000       4.017       0.000    
      17  0.7711E-02  0.4500E-03 NODE          21 -99.9%  0.4944E-09  0.1569E-08  0.1915E-09 -0.1821E-09   0.000       4.017       0.000    
      18  0.8161E-02  0.4500E-03 NODE          21 -99.9%  0.5734E-09  0.1802E-08  0.2194E-09 -0.1993E-09   0.000       4.017       0.000    
      19  0.8611E-02  0.4500E-03 NODE          21 -99.9%  0.6590E-09  0.2058E-08  0.2462E-09 -0.2171E-09   0.000       4.017       0.000    
      20  0.9061E-02  0.4500E-03 NODE          21 -99.9%  0.7515E-09  0.2336E-08  0.2713E-09 -0.2355E-09   0.000       4.017       0.000    
      21  0.9511E-02  0.4500E-03 NODE          21 -99.9%  0.8515E-09  0.2638E-08  0.2944E-09 -0.2546E-09   0.000       4.017       0.000    
      22  0.9961E-02  0.4500E-03 NODE          21 -99.9%  0.9593E-09  0.2963E-08  0.3155E-09 -0.2742E-09   0.000       4.017       0.000    
      23  0.1041E-01  0.4500E-03 NODE          21 -99.9%  0.1075E-08  0.3310E-08  0.3349E-09 -0.2943E-09   0.000       4.017       0.000    
      24  0.1086E-01  0.4500E-03 NODE          21 -99.9%  0.1200E-08  0.3679E-08  0.3528E-09 -0.3149E-09   0.000       4.017       0.000    
      25  0.1131E-01  0.4500E-03 NODE          21 -99.9%  0.1333E-08  0.4070E-08  0.3698E-09 -0.3360E-09   0.000       4.017       0.000    
      26  0.1176E-01  0.4500E-03 NODE          21 -99.9%  0.1476E-08  0.4483E-08  0.3867E-09 -0.3575E-09   0.000       4.017       0.000    
      27  0.1221E-01  0.4500E-03 NODE          21 -99.9%  0.1628E-08  0.4917E-08  0.4040E-09 -0.3793E-09   0.000       4.017       0.000    
      28  0.1266E-01  0.4500E-03 NODE          21 -99.9%  0.1790E-08  0.5373E-08  0.4224E-09 -0.4016E-09   0.000       4.017       0.000    
      29  0.1311E-01  0.4500E-03 NODE          21 -99.9%  0.1962E-08  0.5850E-08  0.4424E-09 -0.4242E-09   0.000       4.017       0.000    
      30  0.1356E-01  0.4500E-03 NODE          21 -99.9%  0.2143E-08  0.6349E-08  0.4643E-09 -0.4472E-09   0.000       4.017       0.000    
      31  0.1401E-01  0.4500E-03 NODE          21 -99.9%  0.2335E-08  0.6871E-08  0.4884E-09 -0.4705E-09   0.000       4.017       0.000    
      32  0.1446E-01  0.4500E-03 NODE          21 -99.9%  0.2537E-08  0.7417E-08  0.5146E-09 -0.4942E-09   0.000       4.017       0.000    
      33  0.1491E-01  0.4500E-03 NODE          21 -99.9%  0.2749E-08  0.7987E-08  0.5429E-09 -0.5183E-09   0.000       4.017       0.000    
      34  0.1536E-01  0.4500E-03 NODE          21 -99.9%  0.2971E-08  0.8584E-08  0.5728E-09 -0.5428E-09   0.000       4.017       0.000    
      35  0.1581E-01  0.4500E-03 NODE          21 -99.9%  0.3204E-08  0.9209E-08  0.6041E-09 -0.5677E-09   0.000       4.017       0.000    
      36  0.1626E-01  0.4500E-03 NODE          21 -99.9%  0.3447E-08  0.9862E-08  0.6362E-09 -0.5930E-09   0.000       4.017       0.000    
      37  0.1671E-01  0.4500E-03 NODE          21 -99.9%  0.3701E-08  0.1054E-07  0.6689E-09 -0.6188E-09   0.000       4.017       0.000    
      38  0.1716E-01  0.4500E-03 NODE          21 -99.9%  0.3966E-08  0.1126E-07  0.7017E-09 -0.6450E-09   0.000       4.017       0.000    
      39  0.1761E-01  0.4500E-03 NODE          21 -99.9%  0.4242E-08  0.1200E-07  0.7343E-09 -0.6717E-09   0.000       4.017       0.000    
      40  0.1806E-01  0.4500E-03 NODE          21 -99.9%  0.4529E-08  0.1278E-07  0.7667E-09 -0.6988E-09   0.000       4.017       0.000    
      41  0.1851E-01  0.4500E-03 NODE          21 -99.9%  0.4828E-08  0.1359E-07  0.7986E-09 -0.7264E-09   0.000       4.017       0.000    
      42  0.1896E-01  0.4500E-03 NODE          21 -99.9%  0.5138E-08  0.1444E-07  0.8302E-09 -0.7544E-09   0.000       4.017       0.000    
      43  0.1941E-01  0.4500E-03 NODE          31 -99.9%  0.5460E-08  0.1532E-07  0.8617E-09 -0.7828E-09   0.000       4.017       0.000    
      44  0.1986E-01  0.4500E-03 NODE          21 -99.9%  0.5793E-08  0.1623E-07  0.8933E-09 -0.8116E-09   0.000       4.017       0.000    
      45  0.2031E-01  0.4500E-03 NODE          21 -99.9%  0.6139E-08  0.1718E-07  0.9252E-09 -0.8408E-09   0.000       4.017       0.000    
      46  0.2076E-01  0.4500E-03 NODE          32 -99.9%  0.6496E-08  0.1816E-07  0.9577E-09 -0.8704E-09   0.000       4.017       0.000    
      47  0.2121E-01  0.4500E-03 NODE          21 -99.9%  0.6865E-08  0.1917E-07  0.9912E-09 -0.9003E-09   0.000       4.017       0.000    
      48  0.2166E-01  0.4500E-03 NODE          21 -99.9%  0.7246E-08  0.2022E-07  0.1026E-08 -0.9305E-09   0.000       4.017       0.000    
      49  0.2211E-01  0.4500E-03 NODE          21 -99.9%  0.7639E-08  0.2130E-07  0.1061E-08 -0.9610E-09   0.000       4.017       0.000    
      50  0.2256E-01  0.4500E-03 NODE          21 -99.9%  0.8045E-08  0.2241E-07  0.1099E-08 -0.9919E-09   0.000       4.017       0.000    
      51  0.2301E-01  0.4500E-03 NODE          21 -99.9%  0.8462E-08  0.2356E-07  0.1137E-08 -0.1023E-08   0.000       4.017       0.000    
      52  0.2346E-01  0.4500E-03 NODE          21 -99.9%  0.8891E-08  0.2474E-07  0.1177E-08 -0.1054E-08   0.000       4.017       0.000    
      53  0.2391E-01  0.4500E-03 NODE          21 -99.9%  0.9332E-08  0.2595E-07  0.1217E-08 -0.1086E-08   0.000       4.017       0.000    
      54  0.2436E-01  0.4500E-03 NODE          21 -99.9%  0.9786E-08  0.2720E-07  0.1259E-08 -0.1118E-08   0.000       4.017       0.000    
   CYCLE    TIME      TIME-STEP  ELEMENT          ERROR  I-ENERGY    K-ENERGY T  K-ENERGY R  EXT-WORK     MAS.ERR     TOTAL MASS  MASS ADDED
      55  0.2481E-01  0.4500E-03 NODE          21 -99.9%  0.1025E-07  0.2848E-07  0.1301E-08 -0.1150E-08   0.000       4.017       0.000    
      56  0.2526E-01  0.4500E-03 NODE          21 -99.9%  0.1073E-07  0.2979E-07  0.1345E-08 -0.1183E-08   0.000       4.017       0.000    
      57  0.2571E-01  0.4500E-03 NODE          21 -99.9%  0.1122E-07  0.3114E-07  0.1388E-08 -0.1216E-08   0.000       4.017       0.000    
      58  0.2616E-01  0.4500E-03 NODE          21 -99.9%  0.1172E-07  0.3252E-07  0.1432E-08 -0.1249E-08   0.000       4.017       0.000    
      59  0.2661E-01  0.4500E-03 NODE          21 -99.9%  0.1224E-07  0.3394E-07  0.1477E-08 -0.1282E-08   0.000       4.017       0.000    
      60  0.2706E-01  0.4500E-03 NODE          21 -99.9%  0.1276E-07  0.3539E-07  0.1522E-08 -0.1315E-08   0.000       4.017       0.000    
      61  0.2751E-01  0.4500E-03 NODE          21 -99.9%  0.1330E-07  0.3687E-07  0.1567E-08 -0.1349E-08   0.000       4.017       0.000    
      62  0.2796E-01  0.4500E-03 NODE          21 -99.9%  0.1385E-07  0.3839E-07  0.1613E-08 -0.1384E-08   0.000       4.017       0.000    
      63  0.2841E-01  0.4500E-03 NODE          21 -99.9%  0.1442E-07  0.3995E-07  0.1659E-08 -0.1418E-08   0.000       4.017       0.000    
      64  0.2886E-01  0.4500E-03 NODE          21 -99.9%  0.1500E-07  0.4154E-07  0.1706E-08 -0.1453E-08   0.000       4.017       0.000    
      65  0.2931E-01  0.4500E-03 NODE          21 -99.9%  0.1559E-07  0.4317E-07  0.1754E-08 -0.1489E-08   0.000       4.017       0.000    
      66  0.2976E-01  0.4500E-03 NODE          21 -99.9%  0.1620E-07  0.4484E-07  0.1802E-08 -0.1525E-08   0.000       4.017       0.000    
      67  0.3021E-01  0.4500E-03 NODE          21 -99.9%  0.1682E-07  0.4654E-07  0.1850E-08 -0.1561E-08   0.000       4.017       0.000    
      68  0.3066E-01  0.4500E-03 NODE          21 -99.9%  0.1746E-07  0.4828E-07  0.1898E-08 -0.1598E-08   0.000       4.017       0.000    
      69  0.3111E-01  0.4500E-03 NODE          21 -99.9%  0.1812E-07  0.5005E-07  0.1947E-08 -0.1636E-08   0.000       4.017       0.000    
      70  0.3156E-01  0.4500E-03 NODE          21 -99.9%  0.1879E-07  0.5187E-07  0.1996E-08 -0.1675E-08   0.000       4.017       0.000    
      71  0.3201E-01  0.4500E-03 NODE          21 -99.9%  0.1948E-07  0.5372E-07  0.2044E-08 -0.1713E-08   0.000       4.017       0.000    
      72  0.3246E-01  0.4500E-03 NODE          21 -99.9%  0.2019E-07  0.5561E-07  0.2092E-08 -0.1753E-08   0.000       4.017       0.000    
      73  0.3291E-01  0.4500E-03 NODE          21 -99.9%  0.2092E-07  0.5754E-07  0.2140E-08 -0.1793E-08   0.000       4.017       0.000    
      74  0.3336E-01  0.4500E-03 NODE          21 -99.9%  0.2166E-07  0.5951E-07  0.2186E-08 -0.1834E-08   0.000       4.017       0.000    
      75  0.3381E-01  0.4500E-03 NODE          21 -99.9%  0.2243E-07  0.6152E-07  0.2232E-08 -0.1874E-08   0.000       4.017       0.000    
      76  0.3426E-01  0.4500E-03 NODE          21 -99.9%  0.2322E-07  0.6357E-07  0.2278E-08 -0.1916E-08   0.000       4.017       0.000    
      77  0.3471E-01  0.4500E-03 NODE          21 -99.9%  0.2403E-07  0.6566E-07  0.2322E-08 -0.1957E-08   0.000       4.017       0.000    
      78  0.3516E-01  0.4500E-03 NODE          21 -99.9%  0.2486E-07  0.6779E-07  0.2365E-08 -0.1999E-08   0.000       4.017       0.000    
      79  0.3561E-01  0.4500E-03 NODE          21 -99.9%  0.2571E-07  0.6996E-07  0.2408E-08 -0.2041E-08   0.000       4.017       0.000    
      80  0.3606E-01  0.4500E-03 NODE          21 -99.9%  0.2659E-07  0.7217E-07  0.2449E-08 -0.2084E-08   0.000       4.017       0.000    
      81  0.3651E-01  0.4500E-03 NODE          21 -99.9%  0.2748E-07  0.7443E-07  0.2491E-08 -0.2126E-08   0.000       4.017       0.000    
      82  0.3696E-01  0.4500E-03 NODE          21 -99.9%  0.2839E-07  0.7673E-07  0.2531E-08 -0.2168E-08   0.000       4.017       0.000    
      83  0.3741E-01  0.4500E-03 NODE          21 -99.9%  0.2932E-07  0.7907E-07  0.2572E-08 -0.2211E-08   0.000       4.017       0.000    
      84  0.3786E-01  0.4500E-03 NODE          21 -99.9%  0.3027E-07  0.8145E-07  0.2612E-08 -0.2253E-08   0.000       4.017       0.000    
      85  0.3831E-01  0.4500E-03 NODE          21 -99.9%  0.3124E-07  0.8388E-07  0.2652E-08 -0.2295E-08   0.000       4.017       0.000    
      86  0.3876E-01  0.4500E-03 NODE          21 -99.9%  0.3223E-07  0.8635E-07  0.2692E-08 -0.2337E-08   0.000       4.017       0.000    
      87  0.3921E-01  0.4500E-03 NODE          21 -99.9%  0.3323E-07  0.8886E-07  0.2733E-08 -0.2379E-08   0.000       4.017       0.000    
      88  0.3966E-01  0.4500E-03 NODE          21 -99.9%  0.3425E-07  0.9141E-07  0.2774E-08 -0.2421E-08   0.000       4.017       0.000    
      89  0.4011E-01  0.4500E-03 NODE          21 -99.9%  0.3529E-07  0.9402E-07  0.2816E-08 -0.2463E-08   0.000       4.017       0.000    
      90  0.4056E-01  0.4500E-03 NODE          21 -99.9%  0.3634E-07  0.9666E-07  0.2859E-08 -0.2504E-08   0.000       4.017       0.000    
      91  0.4101E-01  0.4500E-03 NODE          21 -99.9%  0.3740E-07  0.9935E-07  0.2904E-08 -0.2546E-08   0.000       4.017       0.000    
      92  0.4146E-01  0.4500E-03 NODE          21 -99.9%  0.3848E-07  0.1021E-06  0.2949E-08 -0.2587E-08   0.000       4.017       0.000    
      93  0.4191E-01  0.4500E-03 NODE          21 -99.9%  0.3957E-07  0.1049E-06  0.2996E-08 -0.2628E-08   0.000       4.017       0.000    
      94  0.4236E-01  0.4500E-03 NODE          21 -99.9%  0.4067E-07  0.1077E-06  0.3045E-08 -0.2668E-08   0.000       4.017       0.000    
      95  0.4281E-01  0.4500E-03 NODE          21 -99.9%  0.4179E-07  0.1106E-06  0.3096E-08 -0.2709E-08   0.000       4.017       0.000    
      96  0.4326E-01  0.4500E-03 NODE          21 -99.9%  0.4291E-07  0.1135E-06  0.3150E-08 -0.2749E-08   0.000       4.017       0.000    
      97  0.4371E-01  0.4500E-03 NODE          21 -99.9%  0.4404E-07  0.1165E-06  0.3205E-08 -0.2789E-08   0.000       4.017       0.000    
      98  0.4416E-01  0.4500E-03 NODE          21 -99.9%  0.4518E-07  0.1195E-06  0.3264E-08 -0.2828E-08   0.000       4.017       0.000    
      99  0.4461E-01  0.4500E-03 NODE          21 -99.9%  0.4633E-07  0.1225E-06  0.3325E-08 -0.2868E-08   0.000       4.017       0.000    
     100  0.4506E-01  0.4500E-03 NODE          21 -99.9%  0.4748E-07  0.1257E-06  0.3390E-08 -0.2907E-08   0.000       4.017       0.000    
     101  0.4551E-01  0.4500E-03 NODE          21 -99.9%  0.4864E-07  0.1288E-06  0.3457E-08 -0.2946E-08   0.000       4.017       0.000    
     102  0.4596E-01  0.4500E-03 NODE          21 -99.9%  0.4981E-07  0.1321E-06  0.3527E-08 -0.2984E-08   0.000       4.017       0.000    
     103  0.4641E-01  0.4500E-03 NODE          21 -99.9%  0.5098E-07  0.1353E-06  0.3601E-08 -0.3023E-08   0.000       4.017       0.000    
     104  0.4686E-01  0.4500E-03 NODE          21 -99.9%  0.5215E-07  0.1387E-06  0.3677E-08 -0.3061E-08   0.000       4.017       0.000    
     105  0.4731E-01  0.4500E-03 NODE          21 -99.9%  0.5333E-07  0.1420E-06  0.3757E-08 -0.3099E-08   0.000       4.017       0.000    
     106  0.4776E-01  0.4500E-03 NODE          21 -99.9%  0.5451E-07  0.1455E-06  0.3840E-08 -0.3137E-08   0.000       4.017       0.000    
     107  0.4821E-01  0.4500E-03 NODE          21 -99.9%  0.5569E-07  0.1490E-06  0.3927E-08 -0.3175E-08   0.000       4.017       0.000    
     108  0.4866E-01  0.4500E-03 NODE          21 -99.9%  0.5688E-07  0.1525E-06  0.4016E-08 -0.3213E-08   0.000       4.017       0.000    
     109  0.4911E-01  0.4500E-03 NODE          21 -99.9%  0.5806E-07  0.1561E-06  0.4109E-08 -0.3251E-08   0.000       4.017       0.000    
   CYCLE    TIME      TIME-STEP  ELEMENT          ERROR  I-ENERGY    K-ENERGY T  K-ENERGY R  EXT-WORK     MAS.ERR     TOTAL MASS  MASS ADDED
     110  0.4956E-01  0.4500E-03 NODE          21 -99.9%  0.5925E-07  0.1598E-06  0.4205E-08 -0.3288E-08   0.000       4.017       0.000    
     111  0.5001E-01  0.4500E-03 NODE          21 -99.9%  0.6043E-07  0.1635E-06  0.4304E-08 -0.3326E-08   0.000       4.017       0.000    
     112  0.5046E-01  0.4500E-03 NODE          21 -99.9%  0.6162E-07  0.1673E-06  0.4406E-08 -0.3363E-08   0.000       4.017       0.000    
     113  0.5091E-01  0.4500E-03 NODE          21 -99.9%  0.6280E-07  0.1711E-06  0.4512E-08 -0.3400E-08   0.000       4.017       0.000    
     114  0.5136E-01  0.4500E-03 NODE          21 -99.9%  0.6398E-07  0.1750E-06  0.4621E-08 -0.3437E-08   0.000       4.017       0.000    
     115  0.5181E-01  0.4500E-03 NODE          21 -99.9%  0.6516E-07  0.1790E-06  0.4734E-08 -0.3474E-08   0.000       4.017       0.000    
     116  0.5226E-01  0.4500E-03 NODE          21 -99.9%  0.6634E-07  0.1830E-06  0.4850E-08 -0.3511E-08   0.000       4.017       0.000    
     117  0.5271E-01  0.4500E-03 NODE          21 -99.9%  0.6752E-07  0.1871E-06  0.4969E-08 -0.3548E-08   0.000       4.017       0.000    
     118  0.5316E-01  0.4500E-03 NODE          21 -99.9%  0.6869E-07  0.1912E-06  0.5092E-08 -0.3585E-08   0.000       4.017       0.000    
     119  0.5361E-01  0.4500E-03 NODE          21 -99.9%  0.6986E-07  0.1954E-06  0.5218E-08 -0.3622E-08   0.000       4.017       0.000    
     120  0.5406E-01  0.4500E-03 NODE          21 -99.9%  0.7103E-07  0.1997E-06  0.5348E-08 -0.3659E-08   0.000       4.017       0.000    
     121  0.5451E-01  0.4500E-03 NODE          21 -99.9%  0.7219E-07  0.2041E-06  0.5482E-08 -0.3696E-08   0.000       4.017       0.000    
     122  0.5496E-01  0.4500E-03 NODE          21 -99.9%  0.7335E-07  0.2085E-06  0.5619E-08 -0.3733E-08   0.000       4.017       0.000    
     123  0.5541E-01  0.4500E-03 NODE          21 -99.9%  0.7450E-07  0.2131E-06  0.5760E-08 -0.3770E-08   0.000       4.017       0.000    
     124  0.5586E-01  0.4500E-03 NODE           1 -99.9%  0.7565E-07  0.2177E-06  0.5904E-08 -0.3807E-08   0.000       4.017       0.000    
     125  0.5631E-01  0.4500E-03 NODE          21 -99.9%  0.7680E-07  0.2224E-06  0.6052E-08 -0.3844E-08   0.000       4.017       0.000    
     126  0.5676E-01  0.4500E-03 NODE          21 -99.9%  0.7794E-07  0.2271E-06  0.6204E-08 -0.3882E-08   0.000       4.017       0.000    
     127  0.5721E-01  0.4500E-03 NODE           1 -99.9%  0.7907E-07  0.2320E-06  0.6359E-08 -0.3920E-08   0.000       4.017       0.000    
     128  0.5766E-01  0.4500E-03 NODE           1 -99.9%  0.8020E-07  0.2370E-06  0.6518E-08 -0.3958E-08   0.000       4.017       0.000    
     129  0.5811E-01  0.4500E-03 NODE          21 -99.9%  0.8133E-07  0.2421E-06  0.6680E-08 -0.3996E-08   0.000       4.017       0.000    
     130  0.5856E-01  0.4500E-03 NODE          21 -99.9%  0.8245E-07  0.2472E-06  0.6847E-08 -0.4035E-08   0.000       4.017       0.000    
     131  0.5901E-01  0.4500E-03 NODE           1 -99.9%  0.8356E-07  0.2525E-06  0.7017E-08 -0.4074E-08   0.000       4.017       0.000    
     132  0.5946E-01  0.4500E-03 NODE           1 -99.9%  0.8467E-07  0.2579E-06  0.7190E-08 -0.4113E-08   0.000       4.017       0.000    
     133  0.5991E-01  0.4500E-03 NODE          21 -99.9%  0.8578E-07  0.2634E-06  0.7368E-08 -0.4153E-08   0.000       4.017       0.000    
     134  0.6036E-01  0.4500E-03 NODE           1 -99.9%  0.8688E-07  0.2690E-06  0.7549E-08 -0.4193E-08   0.000       4.017       0.000    
     135  0.6081E-01  0.4500E-03 NODE          21 -99.9%  0.8797E-07  0.2748E-06  0.7734E-08 -0.4233E-08   0.000       4.017       0.000    
     136  0.6126E-01  0.4500E-03 NODE          21 -99.9%  0.8906E-07  0.2806E-06  0.7923E-08 -0.4274E-08   0.000       4.017       0.000    
     137  0.6171E-01  0.4500E-03 NODE           1 -99.9%  0.9015E-07  0.2866E-06  0.8115E-08 -0.4315E-08   0.000       4.017       0.000    
     138  0.6216E-01  0.4500E-03 NODE          21 -99.9%  0.9122E-07  0.2927E-06  0.8311E-08 -0.4357E-08   0.000       4.017       0.000    
     139  0.6261E-01  0.4500E-03 NODE          21 -99.9%  0.9230E-07  0.2990E-06  0.8511E-08 -0.4399E-08   0.000       4.017       0.000    
     140  0.6306E-01  0.4500E-03 NODE          21 -99.9%  0.9336E-07  0.3053E-06  0.8714E-08 -0.4441E-08   0.000       4.017       0.000    
     141  0.6351E-01  0.4500E-03 NODE          21 -99.9%  0.9442E-07  0.3118E-06  0.8921E-08 -0.4484E-08   0.000       4.017       0.000    
     142  0.6396E-01  0.4500E-03 NODE          21 -99.9%  0.9548E-07  0.3184E-06  0.9131E-08 -0.4527E-08   0.000       4.017       0.000    
     143  0.6441E-01  0.4500E-03 NODE          21 -99.9%  0.9652E-07  0.3252E-06  0.9344E-08 -0.4571E-08   0.000       4.017       0.000    
     144  0.6486E-01  0.4500E-03 NODE          21 -99.9%  0.9756E-07  0.3320E-06  0.9561E-08 -0.4615E-08   0.000       4.017       0.000    
     145  0.6531E-01  0.4500E-03 NODE          21 -99.9%  0.9860E-07  0.3390E-06  0.9780E-08 -0.4659E-08   0.000       4.017       0.000    
     146  0.6576E-01  0.4500E-03 NODE          21 -99.9%  0.9962E-07  0.3461E-06  0.1000E-07 -0.4703E-08   0.000       4.017       0.000    
     147  0.6621E-01  0.4500E-03 NODE          21 -99.9%  0.1006E-06  0.3533E-06  0.1023E-07 -0.4748E-08   0.000       4.017       0.000    
     148  0.6666E-01  0.4500E-03 NODE          21 -99.9%  0.1016E-06  0.3607E-06  0.1045E-07 -0.4793E-08   0.000       4.017       0.000    
     149  0.6711E-01  0.4500E-03 NODE          21 -99.9%  0.1027E-06  0.3681E-06  0.1068E-07 -0.4838E-08   0.000       4.017       0.000    
     150  0.6756E-01  0.4500E-03 NODE          26 -99.9%  0.1036E-06  0.3756E-06  0.1092E-07 -0.4884E-08   0.000       4.017       0.000    
     151  0.6801E-01  0.4500E-03 NODE          21 -99.9%  0.1046E-06  0.3833E-06  0.1115E-07 -0.4930E-08   0.000       4.017       0.000    
     152  0.6846E-01  0.4500E-03 NODE          21 -99.9%  0.1056E-06  0.3911E-06  0.1139E-07 -0.4976E-08   0.000       4.017       0.000    
     153  0.6891E-01  0.4500E-03 NODE          21 -99.9%  0.1066E-06  0.3989E-06  0.1162E-07 -0.5022E-08   0.000       4.017       0.000    
     154  0.6936E-01  0.4500E-03 NODE          21 -99.9%  0.1075E-06  0.4068E-06  0.1186E-07 -0.5069E-08   0.000       4.017       0.000    
     155  0.6981E-01  0.4500E-03 NODE          21 -99.9%  0.1085E-06  0.4149E-06  0.1210E-07 -0.5116E-08   0.000       4.017       0.000    
     156  0.7026E-01  0.4500E-03 NODE          21 -99.9%  0.1094E-06  0.4230E-06  0.1235E-07 -0.5164E-08   0.000       4.017       0.000    
     157  0.7071E-01  0.4500E-03 NODE          21 -99.9%  0.1104E-06  0.4311E-06  0.1259E-07 -0.5212E-08   0.000       4.017       0.000    
     158  0.7116E-01  0.4500E-03 NODE          21 -99.9%  0.1113E-06  0.4394E-06  0.1283E-07 -0.5260E-08   0.000       4.017       0.000    
     159  0.7161E-01  0.4500E-03 NODE          21 -99.9%  0.1122E-06  0.4477E-06  0.1308E-07 -0.5308E-08   0.000       4.017       0.000    
     160  0.7206E-01  0.4500E-03 NODE          21 -99.9%  0.1131E-06  0.4561E-06  0.1333E-07 -0.5357E-08   0.000       4.017       0.000    
     161  0.7251E-01  0.4500E-03 NODE          32 -99.9%  0.1140E-06  0.4646E-06  0.1357E-07 -0.5407E-08   0.000       4.017       0.000    
     162  0.7296E-01  0.4500E-03 NODE          26 -99.9%  0.1149E-06  0.4731E-06  0.1382E-07 -0.5456E-08   0.000       4.017       0.000    
     163  0.7341E-01  0.4500E-03 NODE          36 -99.9%  0.1158E-06  0.4816E-06  0.1407E-07 -0.5507E-08   0.000       4.017       0.000    
     164  0.7386E-01  0.4500E-03 NODE           4 -99.9%  0.1167E-06  0.4902E-06  0.1432E-07 -0.5557E-08   0.000       4.017       0.000    
   CYCLE    TIME      TIME-STEP  ELEMENT          ERROR  I-ENERGY    K-ENERGY T  K-ENERGY R  EXT-WORK     MAS.ERR     TOTAL MASS  MASS ADDED
     165  0.7431E-01  0.4500E-03 NODE           1 -99.9%  0.1176E-06  0.4989E-06  0.1457E-07 -0.5608E-08   0.000       4.017       0.000    
     166  0.7476E-01  0.4500E-03 NODE           1 -99.9%  0.1185E-06  0.5075E-06  0.1482E-07 -0.5660E-08   0.000       4.017       0.000    
     167  0.7521E-01  0.4500E-03 NODE           1 -99.9%  0.1194E-06  0.5163E-06  0.1506E-07 -0.5712E-08   0.000       4.017       0.000    
     168  0.7566E-01  0.4500E-03 NODE          32 -99.9%  0.1203E-06  0.5250E-06  0.1531E-07 -0.5764E-08   0.000       4.017       0.000    
     169  0.7611E-01  0.4500E-03 NODE          32 -99.9%  0.1212E-06  0.5338E-06  0.1556E-07 -0.5817E-08   0.000       4.017       0.000    
     170  0.7656E-01  0.4500E-03 NODE          21 -99.9%  0.1221E-06  0.5426E-06  0.1580E-07 -0.5871E-08   0.000       4.017       0.000    
     171  0.7701E-01  0.4500E-03 NODE          32 -99.9%  0.1230E-06  0.5514E-06  0.1605E-07 -0.5925E-08   0.000       4.017       0.000    
     172  0.7746E-01  0.4500E-03 NODE          26 -99.9%  0.1239E-06  0.5602E-06  0.1630E-07 -0.5979E-08   0.000       4.017       0.000    
     173  0.7791E-01  0.4500E-03 NODE          21 -99.9%  0.1248E-06  0.5690E-06  0.1654E-07 -0.6034E-08   0.000       4.017       0.000    
     174  0.7836E-01  0.4500E-03 NODE           1 -99.9%  0.1258E-06  0.5779E-06  0.1678E-07 -0.6089E-08   0.000       4.017       0.000    
     175  0.7881E-01  0.4500E-03 NODE          26 -99.9%  0.1267E-06  0.5867E-06  0.1702E-07 -0.6145E-08   0.000       4.017       0.000    
     176  0.7926E-01  0.4500E-03 NODE          36 -99.9%  0.1277E-06  0.5956E-06  0.1726E-07 -0.6202E-08   0.000       4.017       0.000    
     177  0.7971E-01  0.4500E-03 NODE           1 -99.9%  0.1286E-06  0.6044E-06  0.1750E-07 -0.6259E-08   0.000       4.017       0.000    
     178  0.8016E-01  0.4500E-03 NODE          26 -99.9%  0.1296E-06  0.6133E-06  0.1773E-07 -0.6316E-08   0.000       4.017       0.000    
     179  0.8061E-01  0.4500E-03 NODE          21 -99.9%  0.1306E-06  0.6221E-06  0.1797E-07 -0.6374E-08   0.000       4.017       0.000    
     180  0.8106E-01  0.4500E-03 NODE          26 -99.9%  0.1316E-06  0.6309E-06  0.1820E-07 -0.6432E-08   0.000       4.017       0.000    
     181  0.8151E-01  0.4500E-03 NODE           1 -99.9%  0.1326E-06  0.6397E-06  0.1843E-07 -0.6491E-08   0.000       4.017       0.000    
     182  0.8196E-01  0.4500E-03 NODE           1 -99.9%  0.1337E-06  0.6485E-06  0.1866E-07 -0.6550E-08   0.000       4.017       0.000    
     183  0.8241E-01  0.4500E-03 NODE           1 -99.9%  0.1348E-06  0.6573E-06  0.1889E-07 -0.6610E-08   0.000       4.017       0.000    
     184  0.8286E-01  0.4500E-03 NODE          28 -99.9%  0.1359E-06  0.6660E-06  0.1911E-07 -0.6670E-08   0.000       4.017       0.000    
     185  0.8331E-01  0.4500E-03 NODE           1 -99.9%  0.1370E-06  0.6747E-06  0.1934E-07 -0.6730E-08   0.000       4.017       0.000    
     186  0.8376E-01  0.4500E-03 NODE           1 -99.9%  0.1381E-06  0.6834E-06  0.1956E-07 -0.6791E-08   0.000       4.017       0.000    
     187  0.8421E-01  0.4500E-03 NODE           1 -99.9%  0.1393E-06  0.6920E-06  0.1978E-07 -0.6852E-08   0.000       4.017       0.000    
     188  0.8466E-01  0.4500E-03 NODE           1 -99.9%  0.1405E-06  0.7006E-06  0.2000E-07 -0.6914E-08   0.000       4.017       0.000    
     189  0.8511E-01  0.4500E-03 NODE           1 -99.9%  0.1418E-06  0.7091E-06  0.2021E-07 -0.6976E-08   0.000       4.017       0.000    
     190  0.8556E-01  0.4500E-03 NODE           1 -99.9%  0.1431E-06  0.7177E-06  0.2043E-07 -0.7038E-08   0.000       4.017       0.000    
     191  0.8601E-01  0.4500E-03 NODE           1 -99.9%  0.1444E-06  0.7261E-06  0.2064E-07 -0.7101E-08   0.000       4.017       0.000    
     192  0.8646E-01  0.4500E-03 NODE           1 -99.9%  0.1457E-06  0.7346E-06  0.2085E-07 -0.7163E-08   0.000       4.017       0.000    
     193  0.8691E-01  0.4500E-03 NODE           1 -99.9%  0.1471E-06  0.7429E-06  0.2106E-07 -0.7227E-08   0.000       4.017       0.000    
     194  0.8736E-01  0.4500E-03 NODE           1 -99.9%  0.1485E-06  0.7513E-06  0.2127E-07 -0.7290E-08   0.000       4.017       0.000    
     195  0.8781E-01  0.4500E-03 NODE           1 -99.9%  0.1499E-06  0.7596E-06  0.2148E-07 -0.7353E-08   0.000       4.017       0.000    
     196  0.8826E-01  0.4500E-03 NODE           1 -99.9%  0.1514E-06  0.7678E-06  0.2168E-07 -0.7417E-08   0.000       4.017       0.000    
     197  0.8871E-01  0.4500E-03 NODE          28 -99.9%  0.1530E-06  0.7760E-06  0.2188E-07 -0.7481E-08   0.000       4.017       0.000    
     198  0.8916E-01  0.4500E-03 NODE          28 -99.9%  0.1546E-06  0.7841E-06  0.2208E-07 -0.7545E-08   0.000       4.017       0.000    
     199  0.8961E-01  0.4500E-03 NODE          28 -99.9%  0.1562E-06  0.7922E-06  0.2228E-07 -0.7610E-08   0.000       4.017       0.000    
     200  0.9006E-01  0.4500E-03 NODE           1 -99.9%  0.1578E-06  0.8002E-06  0.2248E-07 -0.7674E-08   0.000       4.017       0.000    
     201  0.9051E-01  0.4500E-03 NODE           1 -99.9%  0.1595E-06  0.8082E-06  0.2267E-07 -0.7739E-08   0.000       4.017       0.000    
     202  0.9096E-01  0.4500E-03 NODE           1 -99.9%  0.1613E-06  0.8162E-06  0.2287E-07 -0.7803E-08   0.000       4.017       0.000    
     203  0.9141E-01  0.4500E-03 NODE           1 -99.9%  0.1631E-06  0.8240E-06  0.2306E-07 -0.7868E-08   0.000       4.017       0.000    
     204  0.9186E-01  0.4500E-03 NODE           1 -99.9%  0.1650E-06  0.8319E-06  0.2325E-07 -0.7932E-08   0.000       4.017       0.000    
     205  0.9231E-01  0.4500E-03 NODE          26 -99.9%  0.1669E-06  0.8397E-06  0.2344E-07 -0.7997E-08   0.000       4.017       0.000    
     206  0.9276E-01  0.4500E-03 NODE           1 -99.9%  0.1688E-06  0.8474E-06  0.2362E-07 -0.8062E-08   0.000       4.017       0.000    
     207  0.9321E-01  0.4500E-03 NODE          26 -99.9%  0.1708E-06  0.8551E-06  0.2381E-07 -0.8126E-08   0.000       4.017       0.000    
     208  0.9366E-01  0.4500E-03 NODE           1 -99.9%  0.1728E-06  0.8627E-06  0.2399E-07 -0.8191E-08   0.000       4.017       0.000    
     209  0.9411E-01  0.4500E-03 NODE           1 -99.9%  0.1749E-06  0.8703E-06  0.2417E-07 -0.8255E-08   0.000       4.017       0.000    
     210  0.9456E-01  0.4500E-03 NODE          36 -99.9%  0.1771E-06  0.8778E-06  0.2435E-07 -0.8320E-08   0.000       4.017       0.000    
     211  0.9501E-01  0.4500E-03 NODE          21 -99.9%  0.1793E-06  0.8853E-06  0.2452E-07 -0.8384E-08   0.000       4.017       0.000    
     212  0.9546E-01  0.4500E-03 NODE          28 -99.9%  0.1815E-06  0.8928E-06  0.2470E-07 -0.8448E-08   0.000       4.017       0.000    
     213  0.9591E-01  0.4500E-03 NODE          28 -99.9%  0.1838E-06  0.9001E-06  0.2487E-07 -0.8512E-08   0.000       4.017       0.000    
     214  0.9636E-01  0.4500E-03 NODE          28 -99.9%  0.1861E-06  0.9075E-06  0.2503E-07 -0.8577E-08   0.000       4.017       0.000    
     215  0.9681E-01  0.4500E-03 NODE           1 -99.9%  0.1885E-06  0.9148E-06  0.2520E-07 -0.8641E-08   0.000       4.017       0.000    
     216  0.9726E-01  0.4500E-03 NODE          29 -99.9%  0.1910E-06  0.9221E-06  0.2536E-07 -0.8704E-08   0.000       4.017       0.000    
     217  0.9771E-01  0.4500E-03 NODE           1 -99.9%  0.1935E-06  0.9293E-06  0.2552E-07 -0.8768E-08   0.000       4.017       0.000    
     218  0.9816E-01  0.4500E-03 NODE          28 -99.9%  0.1960E-06  0.9365E-06  0.2567E-07 -0.8832E-08   0.000       4.017       0.000    
     219  0.9861E-01  0.4500E-03 NODE          29 -99.9%  0.1987E-06  0.9436E-06  0.2583E-07 -0.8896E-08   0.000       4.017       0.000    
   CYCLE    TIME      TIME-STEP  ELEMENT          ERROR  I-ENERGY    K-ENERGY T  K-ENERGY R  EXT-WORK     MAS.ERR     TOTAL MASS  MASS ADDED
     220  0.9906E-01  0.4500E-03 NODE           1 -99.9%  0.2013E-06  0.9507E-06  0.2597E-07 -0.8960E-08   0.000       4.017       0.000    
     221  0.9951E-01  0.4500E-03 NODE          26 -99.9%  0.2040E-06  0.9577E-06  0.2612E-07 -0.9023E-08   0.000       4.017       0.000    
     222  0.9996E-01  0.4500E-03 NODE          21 -99.9%  0.2068E-06  0.9647E-06  0.2626E-07 -0.9087E-08   0.000       4.017       0.000    
     223  0.1004      0.4500E-03 NODE          36 -99.9%  0.2096E-06  0.9717E-06  0.2639E-07 -0.9150E-08   0.000       4.017       0.000    
     224  0.1009      0.4500E-03 NODE           4 -99.9%  0.2125E-06  0.9786E-06  0.2653E-07 -0.9214E-08   0.000       4.017       0.000    
     225  0.1013      0.4500E-03 NODE           1 -99.9%  0.2154E-06  0.9855E-06  0.2665E-07 -0.9278E-08   0.000       4.017       0.000    
     226  0.1018      0.4500E-03 NODE           1 -99.9%  0.2184E-06  0.9924E-06  0.2677E-07 -0.9341E-08   0.000       4.017       0.000    
     227  0.1022      0.4500E-03 NODE           1 -99.9%  0.2215E-06  0.9992E-06  0.2689E-07 -0.9405E-08   0.000       4.017       0.000    
     228  0.1027      0.4500E-03 NODE           1 -99.9%  0.2245E-06  0.1006E-05  0.2700E-07 -0.9469E-08   0.000       4.017       0.000    
     229  0.1031      0.4500E-03 NODE          26 -99.9%  0.2277E-06  0.1013E-05  0.2710E-07 -0.9532E-08   0.000       4.017       0.000    
     230  0.1036      0.4500E-03 NODE           1 -99.9%  0.2309E-06  0.1019E-05  0.2720E-07 -0.9596E-08   0.000       4.017       0.000    
     231  0.1040      0.4500E-03 NODE           1 -99.9%  0.2342E-06  0.1026E-05  0.2729E-07 -0.9660E-08   0.000       4.017       0.000    
     232  0.1045      0.4500E-03 NODE           1 -99.9%  0.2375E-06  0.1033E-05  0.2738E-07 -0.9723E-08   0.000       4.017       0.000    
     233  0.1049      0.4500E-03 NODE           1 -99.9%  0.2409E-06  0.1039E-05  0.2746E-07 -0.9787E-08   0.000       4.017       0.000    
     234  0.1054      0.4500E-03 NODE           1 -99.9%  0.2443E-06  0.1046E-05  0.2753E-07 -0.9851E-08   0.000       4.017       0.000    
     235  0.1058      0.4500E-03 NODE           1 -99.9%  0.2478E-06  0.1053E-05  0.2760E-07 -0.9915E-08   0.000       4.017       0.000    
     236  0.1063      0.4500E-03 NODE          21 -99.9%  0.2514E-06  0.1059E-05  0.2766E-07 -0.9978E-08   0.000       4.017       0.000    
     237  0.1067      0.4500E-03 NODE           1 -99.9%  0.2550E-06  0.1066E-05  0.2771E-07 -0.1004E-07   0.000       4.017       0.000    
     238  0.1072      0.4500E-03 NODE           1 -99.9%  0.2587E-06  0.1072E-05  0.2775E-07 -0.1011E-07   0.000       4.017       0.000    
     239  0.1076      0.4500E-03 NODE           1 -99.9%  0.2624E-06  0.1079E-05  0.2779E-07 -0.1017E-07   0.000       4.017       0.000    
     240  0.1081      0.4500E-03 NODE           1 -99.9%  0.2662E-06  0.1085E-05  0.2783E-07 -0.1023E-07   0.000       4.017       0.000    
     241  0.1085      0.4500E-03 NODE          36 -99.9%  0.2700E-06  0.1091E-05  0.2785E-07 -0.1030E-07   0.000       4.017       0.000    
     242  0.1090      0.4500E-03 NODE           1 -99.9%  0.2739E-06  0.1098E-05  0.2787E-07 -0.1036E-07   0.000       4.017       0.000    
     243  0.1094      0.4500E-03 NODE           1 -99.9%  0.2779E-06  0.1104E-05  0.2788E-07 -0.1042E-07   0.000       4.017       0.000    
     244  0.1099      0.4500E-03 NODE           1 -99.9%  0.2819E-06  0.1111E-05  0.2788E-07 -0.1049E-07   0.000       4.017       0.000    
     245  0.1103      0.4500E-03 NODE           1 -99.9%  0.2860E-06  0.1117E-05  0.2788E-07 -0.1055E-07   0.000       4.017       0.000    
     246  0.1108      0.4500E-03 NODE           1 -99.9%  0.2901E-06  0.1124E-05  0.2787E-07 -0.1061E-07   0.000       4.017       0.000    
     247  0.1112      0.4500E-03 NODE           1 -99.9%  0.2943E-06  0.1126E-05  0.2786E-07 -0.1489E-07   0.000       4.017       0.000    
     248  0.1117      0.4500E-03 NODE          36 -99.9%  0.2988E-06  0.1132E-05  0.2778E-07 -0.1509E-07   0.000       4.017       0.000    
     249  0.1121      0.4500E-03 NODE           1 -99.9%  0.3034E-06  0.1138E-05  0.2765E-07 -0.1525E-07   0.000       4.017       0.000    
     250  0.1126      0.4500E-03 NODE           1 -99.9%  0.3081E-06  0.1144E-05  0.2757E-07 -0.1538E-07   0.000       4.017       0.000    
     251  0.1130      0.4500E-03 NODE           1 -99.9%  0.3129E-06  0.1150E-05  0.2756E-07 -0.1548E-07   0.000       4.017       0.000    
     252  0.1135      0.4500E-03 NODE           1 -99.9%  0.3177E-06  0.1156E-05  0.2767E-07 -0.1596E-07   0.000       4.017       0.000    
     253  0.1139      0.4500E-03 NODE           1 -99.9%  0.3227E-06  0.1162E-05  0.2788E-07 -0.1606E-07   0.000       4.017       0.000    
     254  0.1144      0.4500E-03 NODE           1 -99.9%  0.3276E-06  0.1168E-05  0.2821E-07 -0.1622E-07   0.000       4.017       0.000    
     255  0.1148      0.4500E-03 NODE           1 -99.9%  0.3327E-06  0.1173E-05  0.2862E-07 -0.1632E-07   0.000       4.017       0.000    
     256  0.1153      0.4500E-03 NODE           1 -99.9%  0.3377E-06  0.1179E-05  0.2910E-07 -0.1649E-07   0.000       4.017       0.000    
     257  0.1157      0.4500E-03 NODE           1 -99.9%  0.3429E-06  0.1185E-05  0.2959E-07 -0.1660E-07   0.000       4.017       0.000    
     258  0.1162      0.4500E-03 NODE          32 -99.9%  0.3481E-06  0.1190E-05  0.3008E-07 -0.1671E-07   0.000       4.017       0.000    
     259  0.1166      0.4500E-03 NODE          31 -99.9%  0.3534E-06  0.1196E-05  0.3051E-07 -0.1683E-07   0.000       4.017       0.000    
     260  0.1171      0.4500E-03 NODE           1 -99.9%  0.3588E-06  0.1202E-05  0.3086E-07 -0.1695E-07   0.000       4.017       0.000    
     261  0.1175      0.4500E-03 NODE           1 -99.9%  0.3642E-06  0.1208E-05  0.3112E-07 -0.1706E-07   0.000       4.017       0.000    
     262  0.1180      0.4500E-03 NODE           1 -99.9%  0.3698E-06  0.1214E-05  0.3128E-07 -0.1718E-07   0.000       4.017       0.000    
     263  0.1184      0.4500E-03 NODE          28 -99.9%  0.3755E-06  0.1220E-05  0.3133E-07 -0.1728E-07   0.000       4.017       0.000    
     264  0.1189      0.4500E-03 NODE          32 -99.9%  0.3812E-06  0.1227E-05  0.3131E-07 -0.1738E-07   0.000       4.017       0.000    
     265  0.1193      0.4500E-03 NODE          21 -99.9%  0.3870E-06  0.1233E-05  0.3121E-07 -0.1748E-07   0.000       4.017       0.000    
     266  0.1198      0.4500E-03 NODE          31 -99.9%  0.3928E-06  0.1240E-05  0.3107E-07 -0.1757E-07   0.000       4.017       0.000    
     267  0.1202      0.4500E-03 NODE          32 -99.9%  0.3987E-06  0.1246E-05  0.3092E-07 -0.1765E-07   0.000       4.017       0.000    
     268  0.1207      0.4500E-03 NODE          31 -99.9%  0.4046E-06  0.1253E-05  0.3077E-07 -0.1774E-07   0.000       4.017       0.000    
     269  0.1211      0.4500E-03 NODE          31 -99.9%  0.4106E-06  0.1260E-05  0.3065E-07 -0.1782E-07   0.000       4.017       0.000    
     270  0.1216      0.4500E-03 NODE           1 -99.9%  0.4166E-06  0.1267E-05  0.3057E-07 -0.1791E-07   0.000       4.017       0.000    
     271  0.1220      0.4500E-03 NODE          28 -99.9%  0.4227E-06  0.1274E-05  0.3055E-07 -0.1799E-07   0.000       4.017       0.000    
     272  0.1225      0.4500E-03 NODE          31 -99.9%  0.4288E-06  0.1280E-05  0.3058E-07 -0.1808E-07   0.000       4.017       0.000    
     273  0.1229      0.4500E-03 NODE          28 -99.9%  0.4349E-06  0.1287E-05  0.3069E-07 -0.1817E-07   0.000       4.017       0.000    
     274  0.1234      0.4500E-03 NODE          32 -99.9%  0.4411E-06  0.1294E-05  0.3086E-07 -0.1826E-07   0.000       4.017       0.000    
   CYCLE    TIME      TIME-STEP  ELEMENT          ERROR  I-ENERGY    K-ENERGY T  K-ENERGY R  EXT-WORK     MAS.ERR     TOTAL MASS  MASS ADDED
     275  0.1238      0.4500E-03 NODE          21 -99.9%  0.4474E-06  0.1301E-05  0.3109E-07 -0.1836E-07   0.000       4.017       0.000    
     276  0.1243      0.4500E-03 NODE          28 -99.9%  0.4538E-06  0.1307E-05  0.3136E-07 -0.1845E-07   0.000       4.017       0.000    
     277  0.1247      0.4500E-03 NODE          28 -99.9%  0.4602E-06  0.1313E-05  0.3168E-07 -0.1855E-07   0.000       4.017       0.000    
     278  0.1252      0.4500E-03 NODE          28 -99.9%  0.4667E-06  0.1320E-05  0.3203E-07 -0.1864E-07   0.000       4.017       0.000    
     279  0.1256      0.4500E-03 NODE          31 -99.9%  0.4733E-06  0.1326E-05  0.3240E-07 -0.1874E-07   0.000       4.017       0.000    
     280  0.1261      0.4500E-03 NODE          28 -99.9%  0.4799E-06  0.1332E-05  0.3277E-07 -0.1883E-07   0.000       4.017       0.000    
     281  0.1265      0.4500E-03 NODE          28 -99.9%  0.4866E-06  0.1338E-05  0.3314E-07 -0.1892E-07   0.000       4.017       0.000    
     282  0.1270      0.4500E-03 NODE          32 -99.9%  0.4934E-06  0.1343E-05  0.3348E-07 -0.1902E-07   0.000       4.017       0.000    
     283  0.1274      0.4500E-03 NODE          32 -99.9%  0.5003E-06  0.1349E-05  0.3379E-07 -0.1911E-07   0.000       4.017       0.000    
     284  0.1279      0.4500E-03 NODE          32 -99.9%  0.5072E-06  0.1354E-05  0.3407E-07 -0.1921E-07   0.000       4.017       0.000    
     285  0.1283      0.4500E-03 NODE          21 -99.9%  0.5143E-06  0.1359E-05  0.3429E-07 -0.1931E-07   0.000       4.017       0.000    
     286  0.1288      0.4500E-03 NODE          21 -99.9%  0.5214E-06  0.1363E-05  0.3447E-07 -0.1940E-07   0.000       4.017       0.000    
     287  0.1292      0.4500E-03 NODE          28 -99.9%  0.5286E-06  0.1368E-05  0.3459E-07 -0.1950E-07   0.000       4.017       0.000    
     288  0.1297      0.4500E-03 NODE          21 -99.9%  0.5359E-06  0.1372E-05  0.3467E-07 -0.1960E-07   0.000       4.017       0.000    
     289  0.1301      0.4500E-03 NODE          31 -99.9%  0.5432E-06  0.1376E-05  0.3471E-07 -0.1970E-07   0.000       4.017       0.000    
     290  0.1306      0.4500E-03 NODE          29 -99.9%  0.5507E-06  0.1379E-05  0.3470E-07 -0.1980E-07   0.000       4.017       0.000    
     291  0.1310      0.4500E-03 NODE          21 -99.9%  0.5583E-06  0.1382E-05  0.3468E-07 -0.1989E-07   0.000       4.017       0.000    
     292  0.1315      0.4500E-03 NODE          21 -99.9%  0.5660E-06  0.1385E-05  0.3463E-07 -0.1999E-07   0.000       4.017       0.000    
     293  0.1319      0.4500E-03 NODE          29 -99.9%  0.5738E-06  0.1388E-05  0.3458E-07 -0.2008E-07   0.000       4.017       0.000    
     294  0.1324      0.4500E-03 NODE           1 -99.9%  0.5817E-06  0.1390E-05  0.3453E-07 -0.2017E-07   0.000       4.017       0.000    
     295  0.1328      0.4500E-03 NODE          32 -99.9%  0.5897E-06  0.1393E-05  0.3449E-07 -0.2026E-07   0.000       4.017       0.000    
     296  0.1333      0.4500E-03 NODE          29 -99.9%  0.5978E-06  0.1395E-05  0.3446E-07 -0.2034E-07   0.000       4.017       0.000    
     297  0.1337      0.4500E-03 NODE          28 -99.9%  0.6059E-06  0.1397E-05  0.3444E-07 -0.2042E-07   0.000       4.017       0.000    
     298  0.1342      0.4500E-03 NODE          28 -99.9%  0.6142E-06  0.1399E-05  0.3445E-07 -0.2051E-07   0.000       4.017       0.000    
     299  0.1346      0.4500E-03 NODE          21 -99.9%  0.6225E-06  0.1401E-05  0.3447E-07 -0.2059E-07   0.000       4.017       0.000    
     300  0.1351      0.4500E-03 NODE          32 -99.9%  0.6309E-06  0.1402E-05  0.3451E-07 -0.2066E-07   0.000       4.017       0.000    
     301  0.1355      0.4500E-03 NODE          28 -99.9%  0.6394E-06  0.1404E-05  0.3456E-07 -0.2074E-07   0.000       4.017       0.000    
     302  0.1360      0.4500E-03 NODE          21 -99.9%  0.6480E-06  0.1407E-05  0.3463E-07 -0.2082E-07   0.000       4.017       0.000    
     303  0.1364      0.4500E-03 NODE          29 -99.9%  0.6566E-06  0.1409E-05  0.3470E-07 -0.2091E-07   0.000       4.017       0.000    
     304  0.1369      0.4500E-03 NODE          32 -99.9%  0.6654E-06  0.1411E-05  0.3478E-07 -0.2099E-07   0.000       4.017       0.000    
     305  0.1373      0.4500E-03 NODE          32 -99.9%  0.6742E-06  0.1414E-05  0.3486E-07 -0.2107E-07   0.000       4.017       0.000    
     306  0.1378      0.4500E-03 NODE          26 -99.9%  0.6831E-06  0.1417E-05  0.3495E-07 -0.2116E-07   0.000       4.017       0.000    
     307  0.1382      0.4500E-03 NODE          28 -99.9%  0.6921E-06  0.1420E-05  0.3503E-07 -0.2124E-07   0.000       4.017       0.000    
     308  0.1387      0.4500E-03 NODE          31 -99.9%  0.7012E-06  0.1424E-05  0.3513E-07 -0.2133E-07   0.000       4.017       0.000    
     309  0.1391      0.4500E-03 NODE          32 -99.9%  0.7104E-06  0.1427E-05  0.3522E-07 -0.2142E-07   0.000       4.017       0.000    
     310  0.1396      0.4500E-03 NODE          32 -99.9%  0.7197E-06  0.1431E-05  0.3532E-07 -0.2151E-07   0.000       4.017       0.000    
     311  0.1400      0.4500E-03 NODE          29 -99.9%  0.7291E-06  0.1436E-05  0.3542E-07 -0.2161E-07   0.000       4.017       0.000    
     312  0.1405      0.4500E-03 NODE          31 -99.9%  0.7386E-06  0.1440E-05  0.3553E-07 -0.2170E-07   0.000       4.017       0.000    
     313  0.1409      0.4500E-03 NODE          28 -99.9%  0.7482E-06  0.1445E-05  0.3565E-07 -0.2180E-07   0.000       4.017       0.000    
     314  0.1414      0.4500E-03 NODE          28 -99.9%  0.7579E-06  0.1450E-05  0.3577E-07 -0.2191E-07   0.000       4.017       0.000    
     315  0.1418      0.4500E-03 NODE          32 -99.9%  0.7677E-06  0.1456E-05  0.3590E-07 -0.2201E-07   0.000       4.017       0.000    
     316  0.1423      0.4500E-03 NODE          21 -99.9%  0.7777E-06  0.1462E-05  0.3604E-07 -0.2212E-07   0.000       4.017       0.000    
     317  0.1427      0.4500E-03 NODE          28 -99.9%  0.7877E-06  0.1468E-05  0.3618E-07 -0.2223E-07   0.000       4.017       0.000    
     318  0.1432      0.4500E-03 NODE          32 -99.9%  0.7979E-06  0.1474E-05  0.3632E-07 -0.2234E-07   0.000       4.017       0.000    
     319  0.1436      0.4500E-03 NODE          28 -99.9%  0.8082E-06  0.1480E-05  0.3647E-07 -0.2245E-07   0.000       4.017       0.000    
     320  0.1441      0.4500E-03 NODE          32 -99.9%  0.8186E-06  0.1487E-05  0.3661E-07 -0.2257E-07   0.000       4.017       0.000    
     321  0.1445      0.4500E-03 NODE          32 -99.9%  0.8292E-06  0.1494E-05  0.3676E-07 -0.2268E-07   0.000       4.017       0.000    
     322  0.1450      0.4500E-03 NODE           1 -99.9%  0.8398E-06  0.1502E-05  0.3690E-07 -0.2280E-07   0.000       4.017       0.000    
     323  0.1454      0.4500E-03 NODE          21 -99.9%  0.8506E-06  0.1509E-05  0.3705E-07 -0.2292E-07   0.000       4.017       0.000    
     324  0.1459      0.4500E-03 NODE           1 -99.9%  0.8615E-06  0.1517E-05  0.3720E-07 -0.2303E-07   0.000       4.017       0.000    
     325  0.1463      0.4500E-03 NODE           1 -99.9%  0.8726E-06  0.1525E-05  0.3735E-07 -0.2315E-07   0.000       4.017       0.000    
     326  0.1468      0.4500E-03 NODE           1 -99.9%  0.8838E-06  0.1534E-05  0.3750E-07 -0.2327E-07   0.000       4.017       0.000    
     327  0.1472      0.4500E-03 NODE          21 -99.9%  0.8951E-06  0.1543E-05  0.3766E-07 -0.2339E-07   0.000       4.017       0.000    
     328  0.1477      0.4500E-03 NODE           1 -99.9%  0.9065E-06  0.1552E-05  0.3782E-07 -0.2351E-07   0.000       4.017       0.000    
     329  0.1481      0.4500E-03 NODE           1 -99.9%  0.9180E-06  0.1562E-05  0.3799E-07 -0.2363E-07   0.000       4.017       0.000    
   CYCLE    TIME      TIME-STEP  ELEMENT          ERROR  I-ENERGY    K-ENERGY T  K-ENERGY R  EXT-WORK     MAS.ERR     TOTAL MASS  MASS ADDED
     330  0.1486      0.4500E-03 NODE           1 -99.9%  0.9296E-06  0.1572E-05  0.3817E-07 -0.2375E-07   0.000       4.017       0.000    
     331  0.1490      0.4500E-03 NODE           1 -99.9%  0.9414E-06  0.1582E-05  0.3836E-07 -0.2387E-07   0.000       4.017       0.000    
     332  0.1495      0.4500E-03 NODE           1 -99.9%  0.9533E-06  0.1592E-05  0.3856E-07 -0.2399E-07   0.000       4.017       0.000    
     333  0.1499      0.4500E-03 NODE           4 -99.9%  0.9653E-06  0.1603E-05  0.3878E-07 -0.2411E-07   0.000       4.017       0.000    
     334  0.1504      0.4500E-03 NODE           1 -99.9%  0.9774E-06  0.1614E-05  0.3901E-07 -0.2423E-07   0.000       4.017       0.000    
     335  0.1508      0.4500E-03 NODE           1 -99.9%  0.9896E-06  0.1626E-05  0.3925E-07 -0.2435E-07   0.000       4.017       0.000    
     336  0.1513      0.4500E-03 NODE           4 -99.9%  0.1002E-05  0.1637E-05  0.3951E-07 -0.2447E-07   0.000       4.017       0.000    
     337  0.1517      0.4500E-03 NODE           4 -99.9%  0.1014E-05  0.1649E-05  0.3978E-07 -0.2459E-07   0.000       4.017       0.000    
     338  0.1522      0.4500E-03 NODE           1 -99.9%  0.1027E-05  0.1661E-05  0.4006E-07 -0.2472E-07   0.000       4.017       0.000    
     339  0.1526      0.4500E-03 NODE           1 -99.9%  0.1040E-05  0.1673E-05  0.4035E-07 -0.2484E-07   0.000       4.017       0.000    
     340  0.1531      0.4500E-03 NODE           1 -99.9%  0.1052E-05  0.1686E-05  0.4065E-07 -0.2496E-07   0.000       4.017       0.000    
     341  0.1535      0.4500E-03 NODE           1 -99.9%  0.1065E-05  0.1698E-05  0.4096E-07 -0.2508E-07   0.000       4.017       0.000    
     342  0.1540      0.4500E-03 NODE           1 -99.9%  0.1078E-05  0.1711E-05  0.4127E-07 -0.2521E-07   0.000       4.017       0.000    
     343  0.1544      0.4500E-03 NODE           1 -99.9%  0.1091E-05  0.1724E-05  0.4157E-07 -0.2534E-07   0.000       4.017       0.000    
     344  0.1549      0.4500E-03 NODE           4 -99.9%  0.1104E-05  0.1736E-05  0.4188E-07 -0.2546E-07   0.000       4.017       0.000    
     345  0.1553      0.4500E-03 NODE           1 -99.9%  0.1118E-05  0.1749E-05  0.4217E-07 -0.2559E-07   0.000       4.017       0.000    
     346  0.1558      0.4500E-03 NODE           4 -99.9%  0.1131E-05  0.1762E-05  0.4246E-07 -0.2572E-07   0.000       4.017       0.000    
     347  0.1562      0.4500E-03 NODE           1 -99.9%  0.1145E-05  0.1775E-05  0.4274E-07 -0.2585E-07   0.000       4.017       0.000    
     348  0.1567      0.4500E-03 NODE           1 -99.9%  0.1158E-05  0.1788E-05  0.4301E-07 -0.2599E-07   0.000       4.017       0.000    
     349  0.1571      0.4500E-03 NODE           1 -99.9%  0.1172E-05  0.1801E-05  0.4327E-07 -0.2612E-07   0.000       4.017       0.000    
     350  0.1576      0.4500E-03 NODE           1 -99.9%  0.1186E-05  0.1814E-05  0.4352E-07 -0.2626E-07   0.000       4.017       0.000    
     351  0.1580      0.4500E-03 NODE           1 -99.9%  0.1200E-05  0.1827E-05  0.4375E-07 -0.2639E-07   0.000       4.017       0.000    
     352  0.1585      0.4500E-03 NODE           1 -99.9%  0.1214E-05  0.1840E-05  0.4398E-07 -0.2653E-07   0.000       4.017       0.000    
     353  0.1589      0.4500E-03 NODE           1 -99.9%  0.1228E-05  0.1853E-05  0.4420E-07 -0.2667E-07   0.000       4.017       0.000    
     354  0.1594      0.4500E-03 NODE          21 -99.9%  0.1242E-05  0.1867E-05  0.4440E-07 -0.2681E-07   0.000       4.017       0.000    
     355  0.1598      0.4500E-03 NODE          21 -99.9%  0.1257E-05  0.1880E-05  0.4461E-07 -0.2695E-07   0.000       4.017       0.000    
     356  0.1603      0.4500E-03 NODE           1 -99.9%  0.1271E-05  0.1893E-05  0.4480E-07 -0.2709E-07   0.000       4.017       0.000    
     357  0.1607      0.4500E-03 NODE           4 -99.9%  0.1286E-05  0.1907E-05  0.4500E-07 -0.2723E-07   0.000       4.017       0.000    
     358  0.1612      0.4500E-03 NODE           1 -99.9%  0.1301E-05  0.1920E-05  0.4518E-07 -0.2737E-07   0.000       4.017       0.000    
     359  0.1616      0.4500E-03 NODE          21 -99.9%  0.1316E-05  0.1933E-05  0.4537E-07 -0.2751E-07   0.000       4.017       0.000    
     360  0.1621      0.4500E-03 NODE          21 -99.9%  0.1331E-05  0.1947E-05  0.4555E-07 -0.2765E-07   0.000       4.017       0.000    
     361  0.1625      0.4500E-03 NODE           4 -99.9%  0.1346E-05  0.1960E-05  0.4574E-07 -0.2780E-07   0.000       4.017       0.000    
     362  0.1630      0.4500E-03 NODE          21 -99.9%  0.1362E-05  0.1974E-05  0.4592E-07 -0.2794E-07   0.000       4.017       0.000    
     363  0.1634      0.4500E-03 NODE          21 -99.9%  0.1377E-05  0.1987E-05  0.4610E-07 -0.2808E-07   0.000       4.017       0.000    
     364  0.1639      0.4500E-03 NODE           1 -99.9%  0.1393E-05  0.2001E-05  0.4629E-07 -0.2822E-07   0.000       4.017       0.000    
     365  0.1643      0.4500E-03 NODE           4 -99.9%  0.1408E-05  0.2015E-05  0.4647E-07 -0.2836E-07   0.000       4.017       0.000    
     366  0.1648      0.4500E-03 NODE           4 -99.9%  0.1424E-05  0.2028E-05  0.4666E-07 -0.2850E-07   0.000       4.017       0.000    
     367  0.1652      0.4500E-03 NODE           1 -99.9%  0.1440E-05  0.2042E-05  0.4685E-07 -0.2864E-07   0.000       4.017       0.000    
     368  0.1657      0.4500E-03 NODE          21 -99.9%  0.1456E-05  0.2056E-05  0.4703E-07 -0.2878E-07   0.000       4.017       0.000    
     369  0.1661      0.4500E-03 NODE          34 -99.9%  0.1473E-05  0.2069E-05  0.4722E-07 -0.2892E-07   0.000       4.017       0.000    
     370  0.1666      0.4500E-03 NODE          21 -99.9%  0.1489E-05  0.2083E-05  0.4741E-07 -0.2906E-07   0.000       4.017       0.000    
     371  0.1670      0.4500E-03 NODE          31 -99.9%  0.1505E-05  0.2097E-05  0.4761E-07 -0.2920E-07   0.000       4.017       0.000    
     372  0.1675      0.4500E-03 NODE           1 -99.9%  0.1522E-05  0.2111E-05  0.4780E-07 -0.2934E-07   0.000       4.017       0.000    
     373  0.1679      0.4500E-03 NODE           1 -99.9%  0.1539E-05  0.2124E-05  0.4800E-07 -0.2948E-07   0.000       4.017       0.000    
     374  0.1684      0.4500E-03 NODE          34 -99.9%  0.1556E-05  0.2138E-05  0.4820E-07 -0.2962E-07   0.000       4.017       0.000    
     375  0.1688      0.4500E-03 NODE          21 -99.9%  0.1573E-05  0.2152E-05  0.4840E-07 -0.2976E-07   0.000       4.017       0.000    
     376  0.1693      0.4500E-03 NODE           1 -99.9%  0.1590E-05  0.2166E-05  0.4861E-07 -0.2990E-07   0.000       4.017       0.000    
     377  0.1697      0.4500E-03 NODE           4 -99.9%  0.1607E-05  0.2179E-05  0.4882E-07 -0.3004E-07   0.000       4.017       0.000    
     378  0.1702      0.4500E-03 NODE           1 -99.9%  0.1624E-05  0.2193E-05  0.4904E-07 -0.3018E-07   0.000       4.017       0.000    
     379  0.1706      0.4500E-03 NODE           1 -99.9%  0.1642E-05  0.2207E-05  0.4927E-07 -0.3033E-07   0.000       4.017       0.000    
     380  0.1711      0.4500E-03 NODE           1 -99.9%  0.1659E-05  0.2221E-05  0.4950E-07 -0.3047E-07   0.000       4.017       0.000    
     381  0.1715      0.4500E-03 NODE           1 -99.9%  0.1677E-05  0.2235E-05  0.4975E-07 -0.3061E-07   0.000       4.017       0.000    
     382  0.1720      0.4500E-03 NODE           1 -99.9%  0.1695E-05  0.2249E-05  0.5001E-07 -0.3076E-07   0.000       4.017       0.000    
     383  0.1724      0.4500E-03 NODE           1 -99.9%  0.1713E-05  0.2264E-05  0.5028E-07 -0.3090E-07   0.000       4.017       0.000    
     384  0.1729      0.4500E-03 NODE           1 -99.9%  0.1731E-05  0.2278E-05  0.5056E-07 -0.3105E-07   0.000       4.017       0.000    
   CYCLE    TIME      TIME-STEP  ELEMENT          ERROR  I-ENERGY    K-ENERGY T  K-ENERGY R  EXT-WORK     MAS.ERR     TOTAL MASS  MASS ADDED
     385  0.1733      0.4500E-03 NODE           1 -99.9%  0.1749E-05  0.2292E-05  0.5086E-07 -0.3120E-07   0.000       4.017       0.000    
     386  0.1738      0.4500E-03 NODE           4 -99.9%  0.1768E-05  0.2307E-05  0.5118E-07 -0.3134E-07   0.000       4.017       0.000    
     387  0.1742      0.4500E-03 NODE           1 -99.9%  0.1786E-05  0.2322E-05  0.5152E-07 -0.3149E-07   0.000       4.017       0.000    
     388  0.1747      0.4500E-03 NODE           1 -99.9%  0.1805E-05  0.2337E-05  0.5187E-07 -0.3164E-07   0.000       4.017       0.000    
     389  0.1751      0.4500E-03 NODE           1 -99.9%  0.1824E-05  0.2352E-05  0.5224E-07 -0.3180E-07   0.000       4.017       0.000    
     390  0.1756      0.4500E-03 NODE           1 -99.9%  0.1843E-05  0.2367E-05  0.5263E-07 -0.3195E-07   0.000       4.017       0.000    
     391  0.1760      0.4500E-03 NODE           1 -99.9%  0.1862E-05  0.2383E-05  0.5303E-07 -0.3210E-07   0.000       4.017       0.000    
     392  0.1765      0.4500E-03 NODE           1 -99.9%  0.1881E-05  0.2399E-05  0.5346E-07 -0.3225E-07   0.000       4.017       0.000    
     393  0.1769      0.4500E-03 NODE           1 -99.9%  0.1901E-05  0.2415E-05  0.5390E-07 -0.3241E-07   0.000       4.017       0.000    
     394  0.1774      0.4500E-03 NODE           1 -99.9%  0.1920E-05  0.2431E-05  0.5437E-07 -0.3256E-07   0.000       4.017       0.000    
     395  0.1778      0.4500E-03 NODE           1 -99.9%  0.1940E-05  0.2447E-05  0.5485E-07 -0.3272E-07   0.000       4.017       0.000    
     396  0.1783      0.4500E-03 NODE           4 -99.9%  0.1960E-05  0.2464E-05  0.5535E-07 -0.3287E-07   0.000       4.017       0.000    
     397  0.1787      0.4500E-03 NODE           1 -99.9%  0.1980E-05  0.2481E-05  0.5586E-07 -0.3303E-07   0.000       4.017       0.000    
     398  0.1792      0.4500E-03 NODE           1 -99.9%  0.2000E-05  0.2498E-05  0.5640E-07 -0.3318E-07   0.000       4.017       0.000    
     399  0.1796      0.4500E-03 NODE           1 -99.9%  0.2020E-05  0.2515E-05  0.5694E-07 -0.3334E-07   0.000       4.017       0.000    
     400  0.1801      0.4500E-03 NODE           1 -99.9%  0.2040E-05  0.2533E-05  0.5751E-07 -0.3349E-07   0.000       4.017       0.000    
     401  0.1805      0.4500E-03 NODE           1 -99.9%  0.2061E-05  0.2551E-05  0.5809E-07 -0.3365E-07   0.000       4.017       0.000    
     402  0.1810      0.4500E-03 NODE           1 -99.9%  0.2082E-05  0.2568E-05  0.5868E-07 -0.3380E-07   0.000       4.017       0.000    
     403  0.1814      0.4500E-03 NODE           1 -99.9%  0.2102E-05  0.2586E-05  0.5929E-07 -0.3396E-07   0.000       4.017       0.000    
     404  0.1819      0.4500E-03 NODE           1 -99.9%  0.2123E-05  0.2605E-05  0.5991E-07 -0.3412E-07   0.000       4.017       0.000    
     405  0.1823      0.4500E-03 NODE           1 -99.9%  0.2144E-05  0.2623E-05  0.6055E-07 -0.3427E-07   0.000       4.017       0.000    
     406  0.1828      0.4500E-03 NODE           1 -99.9%  0.2166E-05  0.2641E-05  0.6119E-07 -0.3443E-07   0.000       4.017       0.000    
     407  0.1832      0.4500E-03 NODE           1 -99.9%  0.2187E-05  0.2660E-05  0.6185E-07 -0.3458E-07   0.000       4.017       0.000    
     408  0.1837      0.4500E-03 NODE           1 -99.9%  0.2208E-05  0.2679E-05  0.6253E-07 -0.3474E-07   0.000       4.017       0.000    
     409  0.1841      0.4500E-03 NODE           1 -99.9%  0.2230E-05  0.2697E-05  0.6321E-07 -0.3490E-07   0.000       4.017       0.000    
     410  0.1846      0.4500E-03 NODE           4 -99.9%  0.2252E-05  0.2716E-05  0.6391E-07 -0.3505E-07   0.000       4.017       0.000    
     411  0.1850      0.4500E-03 NODE           1 -99.9%  0.2274E-05  0.2735E-05  0.6461E-07 -0.3521E-07   0.000       4.017       0.000    
     412  0.1855      0.4500E-03 NODE           1 -99.9%  0.2295E-05  0.2754E-05  0.6533E-07 -0.3537E-07   0.000       4.017       0.000    
     413  0.1859      0.4500E-03 NODE           1 -99.9%  0.2318E-05  0.2773E-05  0.6606E-07 -0.3552E-07   0.000       4.017       0.000    
     414  0.1864      0.4500E-03 NODE           1 -99.9%  0.2340E-05  0.2791E-05  0.6679E-07 -0.3568E-07   0.000       4.017       0.000    
     415  0.1868      0.4500E-03 NODE           1 -99.9%  0.2362E-05  0.2810E-05  0.6753E-07 -0.3584E-07   0.000       4.017       0.000    
     416  0.1873      0.4500E-03 NODE           1 -99.9%  0.2385E-05  0.2829E-05  0.6829E-07 -0.3600E-07   0.000       4.017       0.000    
     417  0.1877      0.4500E-03 NODE           1 -99.9%  0.2407E-05  0.2847E-05  0.6904E-07 -0.3616E-07   0.000       4.017       0.000    
     418  0.1882      0.4500E-03 NODE           1 -99.9%  0.2430E-05  0.2866E-05  0.6980E-07 -0.3633E-07   0.000       4.017       0.000    
     419  0.1886      0.4500E-03 NODE           1 -99.9%  0.2453E-05  0.2885E-05  0.7057E-07 -0.3649E-07   0.000       4.017       0.000    
     420  0.1891      0.4500E-03 NODE           1 -99.9%  0.2476E-05  0.2903E-05  0.7134E-07 -0.3665E-07   0.000       4.017       0.000    
     421  0.1895      0.4500E-03 NODE           1 -99.9%  0.2499E-05  0.2921E-05  0.7211E-07 -0.3682E-07   0.000       4.017       0.000    
     422  0.1900      0.4500E-03 NODE           1 -99.9%  0.2522E-05  0.2939E-05  0.7288E-07 -0.3698E-07   0.000       4.017       0.000    
     423  0.1904      0.4500E-03 NODE           1 -99.9%  0.2546E-05  0.2958E-05  0.7365E-07 -0.3715E-07   0.000       4.017       0.000    
     424  0.1909      0.4500E-03 NODE           1 -99.9%  0.2569E-05  0.2976E-05  0.7442E-07 -0.3732E-07   0.000       4.017       0.000    
     425  0.1913      0.4500E-03 NODE           1 -99.9%  0.2593E-05  0.2993E-05  0.7519E-07 -0.3749E-07   0.000       4.017       0.000    
     426  0.1918      0.4500E-03 NODE           1 -99.9%  0.2617E-05  0.3011E-05  0.7596E-07 -0.3766E-07   0.000       4.017       0.000    
     427  0.1922      0.4500E-03 NODE           1 -99.9%  0.2641E-05  0.3029E-05  0.7672E-07 -0.3783E-07   0.000       4.017       0.000    
     428  0.1927      0.4500E-03 NODE           1 -99.9%  0.2665E-05  0.3046E-05  0.7747E-07 -0.3800E-07   0.000       4.017       0.000    
     429  0.1931      0.4500E-03 NODE           1 -99.9%  0.2689E-05  0.3064E-05  0.7822E-07 -0.3817E-07   0.000       4.017       0.000    
     430  0.1936      0.4500E-03 NODE           1 -99.9%  0.2714E-05  0.3081E-05  0.7897E-07 -0.3834E-07   0.000       4.017       0.000    
     431  0.1940      0.4500E-03 NODE           1 -99.9%  0.2738E-05  0.3098E-05  0.7971E-07 -0.3851E-07   0.000       4.017       0.000    
     432  0.1945      0.4500E-03 NODE           1 -99.9%  0.2763E-05  0.3115E-05  0.8044E-07 -0.3869E-07   0.000       4.017       0.000    
     433  0.1949      0.4500E-03 NODE           1 -99.9%  0.2788E-05  0.3132E-05  0.8116E-07 -0.3886E-07   0.000       4.017       0.000    
     434  0.1954      0.4500E-03 NODE           1 -99.9%  0.2813E-05  0.3149E-05  0.8188E-07 -0.3903E-07   0.000       4.017       0.000    
     435  0.1958      0.4500E-03 NODE           1 -99.9%  0.2838E-05  0.3166E-05  0.8259E-07 -0.3920E-07   0.000       4.017       0.000    
     436  0.1963      0.4500E-03 NODE           4 -99.9%  0.2864E-05  0.3182E-05  0.8329E-07 -0.3938E-07   0.000       4.017       0.000    
     437  0.1967      0.4500E-03 NODE           1 -99.9%  0.2889E-05  0.3199E-05  0.8399E-07 -0.3955E-07   0.000       4.017       0.000    
     438  0.1972      0.4500E-03 NODE           1 -99.9%  0.2915E-05  0.3216E-05  0.8468E-07 -0.3972E-07   0.000       4.017       0.000    
     439  0.1976      0.4500E-03 NODE           1 -99.9%  0.2941E-05  0.3233E-05  0.8537E-07 -0.3990E-07   0.000       4.017       0.000    
   CYCLE    TIME      TIME-STEP  ELEMENT          ERROR  I-ENERGY    K-ENERGY T  K-ENERGY R  EXT-WORK     MAS.ERR     TOTAL MASS  MASS ADDED
     440  0.1981      0.4500E-03 NODE           1 -99.9%  0.2967E-05  0.3249E-05  0.8605E-07 -0.4007E-07   0.000       4.017       0.000    
     441  0.1985      0.4500E-03 NODE           1 -99.9%  0.2993E-05  0.3266E-05  0.8673E-07 -0.4025E-07   0.000       4.017       0.000    
     442  0.1990      0.4500E-03 NODE           4 -99.9%  0.3019E-05  0.3283E-05  0.8740E-07 -0.4042E-07   0.000       4.017       0.000    
     443  0.1994      0.4500E-03 NODE           1 -99.9%  0.3046E-05  0.3299E-05  0.8806E-07 -0.4060E-07   0.000       4.017       0.000    
     444  0.1999      0.4500E-03 NODE           1 -99.9%  0.3072E-05  0.3316E-05  0.8873E-07 -0.4077E-07   0.000       4.017       0.000    
     445  0.2003      0.4500E-03 NODE           1 -99.9%  0.3099E-05  0.3333E-05  0.8939E-07 -0.4095E-07   0.000       4.017       0.000    
     ANIMATION FILE: FFO25SCBA002 WRITTEN
     OUTPUT FILE: FFO25SCB_0002.sty WRITTEN
     446  0.2008      0.4500E-03 NODE           1 -99.9%  0.3126E-05  0.3350E-05  0.9005E-07 -0.4113E-07   0.000       4.017       0.000    
     447  0.2012      0.4500E-03 NODE           1 -99.9%  0.3154E-05  0.3367E-05  0.9070E-07 -0.4131E-07   0.000       4.017       0.000    
     448  0.2017      0.4500E-03 NODE           4 -99.9%  0.3181E-05  0.3384E-05  0.9136E-07 -0.4149E-07   0.000       4.017       0.000    
     449  0.2021      0.4500E-03 NODE           1 -99.9%  0.3208E-05  0.3401E-05  0.9201E-07 -0.4167E-07   0.000       4.017       0.000    
     450  0.2026      0.4500E-03 NODE           1 -99.9%  0.3236E-05  0.3419E-05  0.9266E-07 -0.4185E-07   0.000       4.017       0.000    
     451  0.2030      0.4500E-03 NODE           1 -99.9%  0.3264E-05  0.3436E-05  0.9330E-07 -0.4203E-07   0.000       4.017       0.000    
     452  0.2035      0.4500E-03 NODE           1 -99.9%  0.3292E-05  0.3454E-05  0.9395E-07 -0.4221E-07   0.000       4.017       0.000    
     453  0.2039      0.4500E-03 NODE           1 -99.9%  0.3320E-05  0.3471E-05  0.9459E-07 -0.4240E-07   0.000       4.017       0.000    
     454  0.2044      0.4500E-03 NODE           1 -99.9%  0.3349E-05  0.3489E-05  0.9523E-07 -0.4259E-07   0.000       4.017       0.000    
     455  0.2048      0.4500E-03 NODE           1 -99.9%  0.3377E-05  0.3507E-05  0.9587E-07 -0.4277E-07   0.000       4.017       0.000    
     456  0.2053      0.4500E-03 NODE           1 -99.9%  0.3406E-05  0.3525E-05  0.9651E-07 -0.4296E-07   0.000       4.017       0.000    
     457  0.2057      0.4500E-03 NODE           4 -99.9%  0.3435E-05  0.3543E-05  0.9715E-07 -0.4315E-07   0.000       4.017       0.000    
     458  0.2062      0.4500E-03 NODE           4 -99.9%  0.3464E-05  0.3562E-05  0.9778E-07 -0.4335E-07   0.000       4.017       0.000    
     459  0.2066      0.4500E-03 NODE           1 -99.9%  0.3494E-05  0.3580E-05  0.9840E-07 -0.4354E-07   0.000       4.017       0.000    
     460  0.2071      0.4500E-03 NODE           1 -99.9%  0.3523E-05  0.3599E-05  0.9903E-07 -0.4374E-07   0.000       4.017       0.000    
     461  0.2075      0.4500E-03 NODE           1 -99.9%  0.3553E-05  0.3618E-05  0.9965E-07 -0.4393E-07   0.000       4.017       0.000    
     462  0.2080      0.4500E-03 NODE           1 -99.9%  0.3583E-05  0.3637E-05  0.1003E-06 -0.4413E-07   0.000       4.017       0.000    
     463  0.2084      0.4500E-03 NODE           4 -99.9%  0.3613E-05  0.3656E-05  0.1009E-06 -0.4433E-07   0.000       4.017       0.000    
     464  0.2089      0.4500E-03 NODE           1 -99.9%  0.3644E-05  0.3676E-05  0.1015E-06 -0.4453E-07   0.000       4.017       0.000    
     465  0.2093      0.4500E-03 NODE           1 -99.9%  0.3674E-05  0.3695E-05  0.1021E-06 -0.4473E-07   0.000       4.017       0.000    
     466  0.2098      0.4500E-03 NODE           4 -99.9%  0.3705E-05  0.3715E-05  0.1027E-06 -0.4493E-07   0.000       4.017       0.000    
     467  0.2102      0.4500E-03 NODE           4 -99.9%  0.3736E-05  0.3735E-05  0.1033E-06 -0.4513E-07   0.000       4.017       0.000    
     468  0.2107      0.4500E-03 NODE           4 -99.9%  0.3767E-05  0.3755E-05  0.1039E-06 -0.4534E-07   0.000       4.017       0.000    
     469  0.2111      0.4500E-03 NODE           1 -99.9%  0.3798E-05  0.3775E-05  0.1045E-06 -0.4554E-07   0.000       4.017       0.000    
     470  0.2116      0.4500E-03 NODE           1 -99.9%  0.3830E-05  0.3796E-05  0.1051E-06 -0.4575E-07   0.000       4.017       0.000    
     471  0.2120      0.4500E-03 NODE           1 -99.9%  0.3862E-05  0.3816E-05  0.1056E-06 -0.4595E-07   0.000       4.017       0.000    
     472  0.2125      0.4500E-03 NODE           1 -99.9%  0.3894E-05  0.3837E-05  0.1062E-06 -0.4616E-07   0.000       4.017       0.000    
     473  0.2129      0.4500E-03 NODE           1 -99.9%  0.3926E-05  0.3857E-05  0.1068E-06 -0.4637E-07   0.000       4.017       0.000    
     474  0.2134      0.4500E-03 NODE           1 -99.9%  0.3958E-05  0.3878E-05  0.1073E-06 -0.4658E-07   0.000       4.017       0.000    
     475  0.2138      0.4500E-03 NODE           1 -99.9%  0.3991E-05  0.3899E-05  0.1079E-06 -0.4678E-07   0.000       4.017       0.000    
     476  0.2143      0.4500E-03 NODE           1 -99.9%  0.4024E-05  0.3920E-05  0.1085E-06 -0.4699E-07   0.000       4.017       0.000    
     477  0.2147      0.4500E-03 NODE           1 -99.9%  0.4057E-05  0.3941E-05  0.1090E-06 -0.4720E-07   0.000       4.017       0.000    
     478  0.2152      0.4500E-03 NODE           1 -99.9%  0.4090E-05  0.3963E-05  0.1095E-06 -0.4741E-07   0.000       4.017       0.000    
     479  0.2156      0.4500E-03 NODE           1 -99.9%  0.4124E-05  0.3984E-05  0.1101E-06 -0.4763E-07   0.000       4.017       0.000    
     480  0.2161      0.4500E-03 NODE           1 -99.9%  0.4157E-05  0.4005E-05  0.1106E-06 -0.4784E-07   0.000       4.017       0.000    
     481  0.2165      0.4500E-03 NODE           1 -99.9%  0.4191E-05  0.4026E-05  0.1111E-06 -0.4805E-07   0.000       4.017       0.000    
     482  0.2170      0.4500E-03 NODE           1 -99.9%  0.4225E-05  0.4048E-05  0.1116E-06 -0.4826E-07   0.000       4.017       0.000    
     483  0.2174      0.4500E-03 NODE           1 -99.9%  0.4260E-05  0.4069E-05  0.1121E-06 -0.4848E-07   0.000       4.017       0.000    
     484  0.2179      0.4500E-03 NODE           1 -99.9%  0.4294E-05  0.4090E-05  0.1126E-06 -0.4869E-07   0.000       4.017       0.000    
     485  0.2183      0.4500E-03 NODE           1 -99.9%  0.4329E-05  0.4111E-05  0.1131E-06 -0.4891E-07   0.000       4.017       0.000    
     486  0.2188      0.4500E-03 NODE           1 -99.9%  0.4364E-05  0.4132E-05  0.1135E-06 -0.4913E-07   0.000       4.017       0.000    
     487  0.2192      0.4500E-03 NODE           1 -99.9%  0.4399E-05  0.4154E-05  0.1140E-06 -0.4935E-07   0.000       4.017       0.000    
     488  0.2197      0.4500E-03 NODE           1 -99.9%  0.4435E-05  0.4175E-05  0.1144E-06 -0.4957E-07   0.000       4.017       0.000    
     489  0.2201      0.4500E-03 NODE           1 -99.9%  0.4470E-05  0.4195E-05  0.1148E-06 -0.4979E-07   0.000       4.017       0.000    
     490  0.2206      0.4500E-03 NODE           1 -99.9%  0.4506E-05  0.4216E-05  0.1153E-06 -0.5001E-07   0.000       4.017       0.000    
     491  0.2210      0.4500E-03 NODE           1 -99.9%  0.4542E-05  0.4237E-05  0.1157E-06 -0.5023E-07   0.000       4.017       0.000    
     492  0.2215      0.4500E-03 NODE           1 -99.9%  0.4578E-05  0.4257E-05  0.1160E-06 -0.5045E-07   0.000       4.017       0.000    
     493  0.2219      0.4500E-03 NODE           1 -99.9%  0.4615E-05  0.4277E-05  0.1164E-06 -0.5068E-07   0.000       4.017       0.000    
     494  0.2224      0.4500E-03 NODE           4 -99.9%  0.4652E-05  0.4298E-05  0.1168E-06 -0.5090E-07   0.000       4.017       0.000    
   CYCLE    TIME      TIME-STEP  ELEMENT          ERROR  I-ENERGY    K-ENERGY T  K-ENERGY R  EXT-WORK     MAS.ERR     TOTAL MASS  MASS ADDED
     495  0.2228      0.4500E-03 NODE           4 -99.9%  0.4689E-05  0.4317E-05  0.1171E-06 -0.5113E-07   0.000       4.017       0.000    
     496  0.2233      0.4500E-03 NODE           1 -99.9%  0.4726E-05  0.4337E-05  0.1174E-06 -0.5136E-07   0.000       4.017       0.000    
     497  0.2237      0.4500E-03 NODE           4 -99.9%  0.4763E-05  0.4356E-05  0.1178E-06 -0.5159E-07   0.000       4.017       0.000    
     498  0.2242      0.4500E-03 NODE           4 -99.9%  0.4801E-05  0.4376E-05  0.1181E-06 -0.5181E-07   0.000       4.017       0.000    
     499  0.2246      0.4500E-03 NODE           1 -99.9%  0.4839E-05  0.4395E-05  0.1183E-06 -0.5204E-07   0.000       4.017       0.000    
     500  0.2251      0.4500E-03 NODE           1 -99.9%  0.4877E-05  0.4413E-05  0.1186E-06 -0.5227E-07   0.000       4.017       0.000    
     501  0.2255      0.4500E-03 NODE           4 -99.9%  0.4915E-05  0.4432E-05  0.1189E-06 -0.5250E-07   0.000       4.017       0.000    
     502  0.2260      0.4500E-03 NODE           1 -99.9%  0.4954E-05  0.4450E-05  0.1191E-06 -0.5273E-07   0.000       4.017       0.000    
     503  0.2264      0.4500E-03 NODE           1 -99.9%  0.4993E-05  0.4468E-05  0.1193E-06 -0.5297E-07   0.000       4.017       0.000    
     504  0.2269      0.4500E-03 NODE           1 -99.9%  0.5032E-05  0.4485E-05  0.1196E-06 -0.5320E-07   0.000       4.017       0.000    
     505  0.2273      0.4500E-03 NODE           1 -99.9%  0.5071E-05  0.4502E-05  0.1198E-06 -0.5343E-07   0.000       4.017       0.000    
     506  0.2278      0.4500E-03 NODE           1 -99.9%  0.5111E-05  0.4519E-05  0.1200E-06 -0.5366E-07   0.000       4.017       0.000    
     507  0.2282      0.4500E-03 NODE           1 -99.9%  0.5151E-05  0.4536E-05  0.1201E-06 -0.5389E-07   0.000       4.017       0.000    
     508  0.2287      0.4500E-03 NODE           4 -99.9%  0.5191E-05  0.4552E-05  0.1203E-06 -0.5412E-07   0.000       4.017       0.000    
     509  0.2291      0.4500E-03 NODE           4 -99.9%  0.5231E-05  0.4568E-05  0.1205E-06 -0.5436E-07   0.000       4.017       0.000    
     510  0.2296      0.4500E-03 NODE           1 -99.9%  0.5272E-05  0.4584E-05  0.1206E-06 -0.5459E-07   0.000       4.017       0.000    
     511  0.2300      0.4500E-03 NODE           1 -99.9%  0.5313E-05  0.4600E-05  0.1208E-06 -0.5482E-07   0.000       4.017       0.000    
     512  0.2305      0.4500E-03 NODE           4 -99.9%  0.5354E-05  0.4615E-05  0.1209E-06 -0.5505E-07   0.000       4.017       0.000    
     513  0.2309      0.4500E-03 NODE           1 -99.9%  0.5395E-05  0.4630E-05  0.1210E-06 -0.5529E-07   0.000       4.017       0.000    
     514  0.2314      0.4500E-03 NODE           4 -99.9%  0.5437E-05  0.4645E-05  0.1212E-06 -0.5552E-07   0.000       4.017       0.000    
     515  0.2318      0.4500E-03 NODE           1 -99.9%  0.5479E-05  0.4659E-05  0.1213E-06 -0.5575E-07   0.000       4.017       0.000    
     516  0.2323      0.4500E-03 NODE           1 -99.9%  0.5521E-05  0.4673E-05  0.1214E-06 -0.5598E-07   0.000       4.017       0.000    
     517  0.2327      0.4500E-03 NODE           4 -99.9%  0.5563E-05  0.4687E-05  0.1215E-06 -0.5622E-07   0.000       4.017       0.000    
     518  0.2332      0.4500E-03 NODE           1 -99.9%  0.5606E-05  0.4701E-05  0.1216E-06 -0.5645E-07   0.000       4.017       0.000    
     519  0.2336      0.4500E-03 NODE           1 -99.9%  0.5649E-05  0.4715E-05  0.1217E-06 -0.5668E-07   0.000       4.017       0.000    
     520  0.2341      0.4500E-03 NODE           1 -99.9%  0.5692E-05  0.4728E-05  0.1219E-06 -0.5691E-07   0.000       4.017       0.000    
     521  0.2345      0.4500E-03 NODE           1 -99.9%  0.5736E-05  0.4741E-05  0.1220E-06 -0.5715E-07   0.000       4.017       0.000    
     522  0.2350      0.4500E-03 NODE           1 -99.9%  0.5780E-05  0.4755E-05  0.1221E-06 -0.5738E-07   0.000       4.017       0.000    
     523  0.2354      0.4500E-03 NODE           1 -99.9%  0.5824E-05  0.4767E-05  0.1222E-06 -0.5762E-07   0.000       4.017       0.000    
     524  0.2359      0.4500E-03 NODE           1 -99.9%  0.5868E-05  0.4780E-05  0.1223E-06 -0.5785E-07   0.000       4.017       0.000    
     525  0.2363      0.4500E-03 NODE           1 -99.9%  0.5912E-05  0.4793E-05  0.1225E-06 -0.5809E-07   0.000       4.017       0.000    
     526  0.2368      0.4500E-03 NODE           4 -99.9%  0.5957E-05  0.4806E-05  0.1226E-06 -0.5832E-07   0.000       4.017       0.000    
     527  0.2372      0.4500E-03 NODE           1 -99.9%  0.6002E-05  0.4818E-05  0.1227E-06 -0.5856E-07   0.000       4.017       0.000    
     528  0.2377      0.4500E-03 NODE           1 -99.9%  0.6048E-05  0.4830E-05  0.1229E-06 -0.5880E-07   0.000       4.017       0.000    
     529  0.2381      0.4500E-03 NODE           1 -99.9%  0.6093E-05  0.4843E-05  0.1230E-06 -0.5903E-07   0.000       4.017       0.000    
     530  0.2386      0.4500E-03 NODE           1 -99.9%  0.6139E-05  0.4855E-05  0.1231E-06 -0.5927E-07   0.000       4.017       0.000    
     531  0.2390      0.4500E-03 NODE           1 -99.9%  0.6185E-05  0.4867E-05  0.1233E-06 -0.5951E-07   0.000       4.017       0.000    
     532  0.2395      0.4500E-03 NODE           1 -99.9%  0.6232E-05  0.4879E-05  0.1235E-06 -0.5975E-07   0.000       4.017       0.000    
     533  0.2399      0.4500E-03 NODE           1 -99.9%  0.6279E-05  0.4891E-05  0.1236E-06 -0.5999E-07   0.000       4.017       0.000    
     534  0.2404      0.4500E-03 NODE           4 -99.9%  0.6326E-05  0.4903E-05  0.1238E-06 -0.6023E-07   0.000       4.017       0.000    
     535  0.2408      0.4500E-03 NODE           1 -99.9%  0.6373E-05  0.4915E-05  0.1240E-06 -0.6047E-07   0.000       4.017       0.000    
     536  0.2413      0.4500E-03 NODE           1 -99.9%  0.6421E-05  0.4927E-05  0.1242E-06 -0.6071E-07   0.000       4.017       0.000    
     537  0.2417      0.4500E-03 NODE           1 -99.9%  0.6469E-05  0.4939E-05  0.1244E-06 -0.6095E-07   0.000       4.017       0.000    
     538  0.2422      0.4500E-03 NODE           1 -99.9%  0.6517E-05  0.4950E-05  0.1246E-06 -0.6119E-07   0.000       4.017       0.000    
     539  0.2426      0.4500E-03 NODE           1 -99.9%  0.6565E-05  0.4962E-05  0.1248E-06 -0.6143E-07   0.000       4.017       0.000    
     540  0.2431      0.4500E-03 NODE           4 -99.9%  0.6614E-05  0.4974E-05  0.1250E-06 -0.6167E-07   0.000       4.017       0.000    
     541  0.2435      0.4500E-03 NODE           1 -99.9%  0.6663E-05  0.4985E-05  0.1253E-06 -0.6192E-07   0.000       4.017       0.000    
     542  0.2440      0.4500E-03 NODE           4 -99.9%  0.6712E-05  0.4997E-05  0.1255E-06 -0.6216E-07   0.000       4.017       0.000    
     543  0.2444      0.4500E-03 NODE           4 -99.9%  0.6762E-05  0.5009E-05  0.1258E-06 -0.6240E-07   0.000       4.017       0.000    
     544  0.2449      0.4500E-03 NODE           1 -99.9%  0.6812E-05  0.5020E-05  0.1260E-06 -0.6264E-07   0.000       4.017       0.000    
     545  0.2453      0.4500E-03 NODE           1 -99.9%  0.6862E-05  0.5032E-05  0.1263E-06 -0.6289E-07   0.000       4.017       0.000    
     546  0.2458      0.4500E-03 NODE           4 -99.9%  0.6912E-05  0.5043E-05  0.1265E-06 -0.6313E-07   0.000       4.017       0.000    
     547  0.2462      0.4500E-03 NODE           1 -99.9%  0.6963E-05  0.5054E-05  0.1268E-06 -0.6338E-07   0.000       4.017       0.000    
     548  0.2467      0.4500E-03 NODE           1 -99.9%  0.7014E-05  0.5066E-05  0.1271E-06 -0.6362E-07   0.000       4.017       0.000    
     549  0.2471      0.4500E-03 NODE           1 -99.9%  0.7065E-05  0.5077E-05  0.1274E-06 -0.6387E-07   0.000       4.017       0.000    
   CYCLE    TIME      TIME-STEP  ELEMENT          ERROR  I-ENERGY    K-ENERGY T  K-ENERGY R  EXT-WORK     MAS.ERR     TOTAL MASS  MASS ADDED
     550  0.2476      0.4500E-03 NODE           1 -99.9%  0.7117E-05  0.5088E-05  0.1277E-06 -0.6411E-07   0.000       4.017       0.000    
     551  0.2480      0.4500E-03 NODE           1 -99.9%  0.7169E-05  0.5099E-05  0.1279E-06 -0.6436E-07   0.000       4.017       0.000    
     552  0.2485      0.4500E-03 NODE           4 -99.9%  0.7221E-05  0.5110E-05  0.1282E-06 -0.6460E-07   0.000       4.017       0.000    
     553  0.2489      0.4500E-03 NODE           1 -99.9%  0.7273E-05  0.5121E-05  0.1285E-06 -0.6485E-07   0.000       4.017       0.000    
     554  0.2494      0.4500E-03 NODE           1 -99.9%  0.7326E-05  0.5132E-05  0.1288E-06 -0.6510E-07   0.000       4.017       0.000    
     555  0.2498      0.4500E-03 NODE           4 -99.9%  0.7379E-05  0.5143E-05  0.1291E-06 -0.6535E-07   0.000       4.017       0.000    
     556  0.2503      0.4500E-03 NODE           4 -99.9%  0.7432E-05  0.5154E-05  0.1294E-06 -0.6559E-07   0.000       4.017       0.000    
     557  0.2507      0.4500E-03 NODE           1 -99.9%  0.7486E-05  0.5164E-05  0.1297E-06 -0.6584E-07   0.000       4.017       0.000    
     558  0.2512      0.4500E-03 NODE           1 -99.9%  0.7539E-05  0.5175E-05  0.1300E-06 -0.6610E-07   0.000       4.017       0.000    
     559  0.2516      0.4500E-03 NODE           4 -99.9%  0.7594E-05  0.5186E-05  0.1303E-06 -0.6635E-07   0.000       4.017       0.000    
     560  0.2521      0.4500E-03 NODE           1 -99.9%  0.7648E-05  0.5196E-05  0.1306E-06 -0.6660E-07   0.000       4.017       0.000    
     561  0.2525      0.4500E-03 NODE           1 -99.9%  0.7703E-05  0.5206E-05  0.1309E-06 -0.6685E-07   0.000       4.017       0.000    
     562  0.2530      0.4500E-03 NODE           1 -99.9%  0.7758E-05  0.5217E-05  0.1312E-06 -0.6711E-07   0.000       4.017       0.000    
     563  0.2534      0.4500E-03 NODE           1 -99.9%  0.7813E-05  0.5227E-05  0.1315E-06 -0.6736E-07   0.000       4.017       0.000    
     564  0.2539      0.4500E-03 NODE           1 -99.9%  0.7869E-05  0.5237E-05  0.1318E-06 -0.6762E-07   0.000       4.017       0.000    
     565  0.2543      0.4500E-03 NODE           1 -99.9%  0.7925E-05  0.5247E-05  0.1321E-06 -0.6787E-07   0.000       4.017       0.000    
     566  0.2548      0.4500E-03 NODE           1 -99.9%  0.7981E-05  0.5257E-05  0.1323E-06 -0.6813E-07   0.000       4.017       0.000    
     567  0.2552      0.4500E-03 NODE           4 -99.9%  0.8037E-05  0.5267E-05  0.1326E-06 -0.6839E-07   0.000       4.017       0.000    
     568  0.2557      0.4500E-03 NODE           1 -99.9%  0.8094E-05  0.5277E-05  0.1329E-06 -0.6865E-07   0.000       4.017       0.000    
     569  0.2561      0.4500E-03 NODE           4 -99.9%  0.8151E-05  0.5287E-05  0.1331E-06 -0.6891E-07   0.000       4.017       0.000    
     570  0.2566      0.4500E-03 NODE           1 -99.9%  0.8209E-05  0.5296E-05  0.1334E-06 -0.6917E-07   0.000       4.017       0.000    
     571  0.2570      0.4500E-03 NODE           4 -99.9%  0.8266E-05  0.5306E-05  0.1336E-06 -0.6944E-07   0.000       4.017       0.000    
     572  0.2575      0.4500E-03 NODE           1 -99.9%  0.8324E-05  0.5316E-05  0.1338E-06 -0.6970E-07   0.000       4.017       0.000    
     573  0.2579      0.4500E-03 NODE           1 -99.9%  0.8383E-05  0.5325E-05  0.1341E-06 -0.6997E-07   0.000       4.017       0.000    
     574  0.2584      0.4500E-03 NODE           4 -99.9%  0.8441E-05  0.5335E-05  0.1343E-06 -0.7023E-07   0.000       4.017       0.000    
     575  0.2588      0.4500E-03 NODE           4 -99.9%  0.8500E-05  0.5345E-05  0.1345E-06 -0.7050E-07   0.000       4.017       0.000    
     576  0.2593      0.4500E-03 NODE           4 -99.9%  0.8560E-05  0.5354E-05  0.1347E-06 -0.7077E-07   0.000       4.017       0.000    
     577  0.2597      0.4500E-03 NODE           4 -99.9%  0.8619E-05  0.5364E-05  0.1349E-06 -0.7103E-07   0.000       4.017       0.000    
     578  0.2602      0.4500E-03 NODE           4 -99.9%  0.8679E-05  0.5373E-05  0.1351E-06 -0.7130E-07   0.000       4.017       0.000    
     579  0.2606      0.4500E-03 NODE           4 -99.9%  0.8739E-05  0.5383E-05  0.1353E-06 -0.7157E-07   0.000       4.017       0.000    
     580  0.2611      0.4500E-03 NODE           1 -99.9%  0.8800E-05  0.5393E-05  0.1354E-06 -0.7184E-07   0.000       4.017       0.000    
     581  0.2615      0.4500E-03 NODE           4 -99.9%  0.8861E-05  0.5403E-05  0.1356E-06 -0.7212E-07   0.000       4.017       0.000    
     582  0.2620      0.4500E-03 NODE           1 -99.9%  0.8922E-05  0.5412E-05  0.1358E-06 -0.7239E-07   0.000       4.017       0.000    
     583  0.2624      0.4500E-03 NODE           4 -99.9%  0.8983E-05  0.5422E-05  0.1359E-06 -0.7266E-07   0.000       4.017       0.000    
     584  0.2629      0.4500E-03 NODE           1 -99.9%  0.9045E-05  0.5432E-05  0.1361E-06 -0.7294E-07   0.000       4.017       0.000    
     585  0.2633      0.4500E-03 NODE           4 -99.9%  0.9107E-05  0.5442E-05  0.1363E-06 -0.7321E-07   0.000       4.017       0.000    
     586  0.2638      0.4500E-03 NODE           4 -99.9%  0.9170E-05  0.5452E-05  0.1364E-06 -0.7349E-07   0.000       4.017       0.000    
     587  0.2642      0.4500E-03 NODE           1 -99.9%  0.9233E-05  0.5463E-05  0.1366E-06 -0.7377E-07   0.000       4.017       0.000    
     588  0.2647      0.4500E-03 NODE           1 -99.9%  0.9296E-05  0.5473E-05  0.1367E-06 -0.7404E-07   0.000       4.017       0.000    
     589  0.2651      0.4500E-03 NODE           1 -99.9%  0.9359E-05  0.5484E-05  0.1368E-06 -0.7432E-07   0.000       4.017       0.000    
     590  0.2656      0.4500E-03 NODE           1 -99.9%  0.9423E-05  0.5495E-05  0.1370E-06 -0.7460E-07   0.000       4.017       0.000    
     591  0.2660      0.4500E-03 NODE           1 -99.9%  0.9487E-05  0.5506E-05  0.1371E-06 -0.7489E-07   0.000       4.017       0.000    
     592  0.2665      0.4500E-03 NODE           1 -99.9%  0.9552E-05  0.5517E-05  0.1373E-06 -0.7517E-07   0.000       4.017       0.000    
     593  0.2669      0.4500E-03 NODE           1 -99.9%  0.9617E-05  0.5529E-05  0.1374E-06 -0.7545E-07   0.000       4.017       0.000    
     594  0.2674      0.4500E-03 NODE           1 -99.9%  0.9682E-05  0.5540E-05  0.1376E-06 -0.7574E-07   0.000       4.017       0.000    
     595  0.2678      0.4500E-03 NODE           1 -99.9%  0.9747E-05  0.5552E-05  0.1377E-06 -0.7602E-07   0.000       4.017       0.000    
     596  0.2683      0.4500E-03 NODE           1 -99.9%  0.9813E-05  0.5564E-05  0.1379E-06 -0.7631E-07   0.000       4.017       0.000    
     597  0.2687      0.4500E-03 NODE           1 -99.9%  0.9879E-05  0.5577E-05  0.1380E-06 -0.7660E-07   0.000       4.017       0.000    
     598  0.2692      0.4500E-03 NODE           1 -99.9%  0.9946E-05  0.5590E-05  0.1382E-06 -0.7689E-07   0.000       4.017       0.000    
     599  0.2696      0.4500E-03 NODE           1 -99.9%  0.1001E-04  0.5603E-05  0.1384E-06 -0.7718E-07   0.000       4.017       0.000    
     600  0.2701      0.4500E-03 NODE           1 -99.9%  0.1008E-04  0.5616E-05  0.1385E-06 -0.7747E-07   0.000       4.017       0.000    
     601  0.2705      0.4500E-03 NODE           1 -99.9%  0.1015E-04  0.5630E-05  0.1387E-06 -0.7777E-07   0.000       4.017       0.000    
     602  0.2710      0.4500E-03 NODE           1 -99.9%  0.1022E-04  0.5644E-05  0.1389E-06 -0.7806E-07   0.000       4.017       0.000    
     603  0.2714      0.4500E-03 NODE           1 -99.9%  0.1028E-04  0.5658E-05  0.1391E-06 -0.7836E-07   0.000       4.017       0.000    
     604  0.2719      0.4500E-03 NODE           1 -99.9%  0.1035E-04  0.5673E-05  0.1393E-06 -0.7866E-07   0.000       4.017       0.000    
   CYCLE    TIME      TIME-STEP  ELEMENT          ERROR  I-ENERGY    K-ENERGY T  K-ENERGY R  EXT-WORK     MAS.ERR     TOTAL MASS  MASS ADDED
     605  0.2723      0.4500E-03 NODE           1 -99.9%  0.1042E-04  0.5688E-05  0.1395E-06 -0.7895E-07   0.000       4.017       0.000    
     606  0.2728      0.4500E-03 NODE           1 -99.9%  0.1049E-04  0.5703E-05  0.1397E-06 -0.7925E-07   0.000       4.017       0.000    
     607  0.2732      0.4500E-03 NODE           1 -99.9%  0.1056E-04  0.5719E-05  0.1399E-06 -0.7956E-07   0.000       4.017       0.000    
     608  0.2737      0.4500E-03 NODE           1 -99.9%  0.1063E-04  0.5735E-05  0.1402E-06 -0.7986E-07   0.000       4.017       0.000    
     609  0.2741      0.4500E-03 NODE           1 -99.9%  0.1070E-04  0.5751E-05  0.1404E-06 -0.8016E-07   0.000       4.017       0.000    
     610  0.2746      0.4500E-03 NODE           1 -99.9%  0.1077E-04  0.5768E-05  0.1406E-06 -0.8047E-07   0.000       4.017       0.000    
     611  0.2750      0.4500E-03 NODE           1 -99.9%  0.1084E-04  0.5785E-05  0.1409E-06 -0.8077E-07   0.000       4.017       0.000    
     612  0.2755      0.4500E-03 NODE           1 -99.9%  0.1091E-04  0.5803E-05  0.1412E-06 -0.8108E-07   0.000       4.017       0.000    
     613  0.2759      0.4500E-03 NODE           1 -99.9%  0.1099E-04  0.5821E-05  0.1414E-06 -0.8139E-07   0.000       4.017       0.000    
     614  0.2764      0.4500E-03 NODE           1 -99.9%  0.1106E-04  0.5839E-05  0.1417E-06 -0.8170E-07   0.000       4.017       0.000    
     615  0.2768      0.4500E-03 NODE           1 -99.9%  0.1113E-04  0.5857E-05  0.1420E-06 -0.8201E-07   0.000       4.017       0.000    
     616  0.2773      0.4500E-03 NODE           1 -99.9%  0.1120E-04  0.5876E-05  0.1423E-06 -0.8233E-07   0.000       4.017       0.000    
     617  0.2777      0.4500E-03 NODE           1 -99.9%  0.1128E-04  0.5895E-05  0.1426E-06 -0.8264E-07   0.000       4.017       0.000    
     618  0.2782      0.4500E-03 NODE           1 -99.9%  0.1135E-04  0.5915E-05  0.1429E-06 -0.8296E-07   0.000       4.017       0.000    
     619  0.2786      0.4500E-03 NODE           1 -99.9%  0.1142E-04  0.5935E-05  0.1432E-06 -0.8327E-07   0.000       4.017       0.000    
     620  0.2791      0.4500E-03 NODE           1 -99.9%  0.1150E-04  0.5955E-05  0.1436E-06 -0.8359E-07   0.000       4.017       0.000    
     621  0.2795      0.4500E-03 NODE           1 -99.9%  0.1157E-04  0.5975E-05  0.1439E-06 -0.8391E-07   0.000       4.017       0.000    
     622  0.2800      0.4500E-03 NODE           1 -99.9%  0.1165E-04  0.5996E-05  0.1443E-06 -0.8423E-07   0.000       4.017       0.000    
     623  0.2804      0.4500E-03 NODE           1 -99.9%  0.1172E-04  0.6017E-05  0.1446E-06 -0.8455E-07   0.000       4.017       0.000    
     624  0.2809      0.4500E-03 NODE           1 -99.9%  0.1180E-04  0.6038E-05  0.1450E-06 -0.8487E-07   0.000       4.017       0.000    
     625  0.2813      0.4500E-03 NODE           1 -99.9%  0.1188E-04  0.6059E-05  0.1454E-06 -0.8520E-07   0.000       4.017       0.000    
     626  0.2818      0.4500E-03 NODE           1 -99.9%  0.1195E-04  0.6081E-05  0.1457E-06 -0.8552E-07   0.000       4.017       0.000    
     627  0.2822      0.4500E-03 NODE           1 -99.9%  0.1203E-04  0.6103E-05  0.1461E-06 -0.8585E-07   0.000       4.017       0.000    
     628  0.2827      0.4500E-03 NODE           1 -99.9%  0.1211E-04  0.6125E-05  0.1465E-06 -0.8618E-07   0.000       4.017       0.000    
     629  0.2831      0.4500E-03 NODE           4 -99.9%  0.1218E-04  0.6147E-05  0.1469E-06 -0.8651E-07   0.000       4.017       0.000    
     630  0.2836      0.4500E-03 NODE           4 -99.9%  0.1226E-04  0.6169E-05  0.1473E-06 -0.8684E-07   0.000       4.017       0.000    
     631  0.2840      0.4500E-03 NODE           1 -99.9%  0.1234E-04  0.6192E-05  0.1477E-06 -0.8717E-07   0.000       4.017       0.000    
     632  0.2845      0.4500E-03 NODE           1 -99.9%  0.1242E-04  0.6215E-05  0.1482E-06 -0.8750E-07   0.000       4.017       0.000    
     633  0.2849      0.4500E-03 NODE           1 -99.9%  0.1250E-04  0.6238E-05  0.1486E-06 -0.8784E-07   0.000       4.017       0.000    
     634  0.2854      0.4500E-03 NODE           1 -99.9%  0.1258E-04  0.6261E-05  0.1490E-06 -0.8818E-07   0.000       4.017       0.000    
     635  0.2858      0.4500E-03 NODE           1 -99.9%  0.1266E-04  0.6284E-05  0.1495E-06 -0.8851E-07   0.000       4.017       0.000    
     636  0.2863      0.4500E-03 NODE           1 -99.9%  0.1274E-04  0.6307E-05  0.1499E-06 -0.8885E-07   0.000       4.017       0.000    
     637  0.2867      0.4500E-03 NODE           1 -99.9%  0.1282E-04  0.6330E-05  0.1503E-06 -0.8919E-07   0.000       4.017       0.000    
     638  0.2872      0.4500E-03 NODE           1 -99.9%  0.1290E-04  0.6354E-05  0.1508E-06 -0.8954E-07   0.000       4.017       0.000    
     639  0.2876      0.4500E-03 NODE           1 -99.9%  0.1298E-04  0.6377E-05  0.1512E-06 -0.8988E-07   0.000       4.017       0.000    
     640  0.2881      0.4500E-03 NODE           1 -99.9%  0.1306E-04  0.6401E-05  0.1517E-06 -0.9022E-07   0.000       4.017       0.000    
     641  0.2885      0.4500E-03 NODE           1 -99.9%  0.1315E-04  0.6424E-05  0.1521E-06 -0.9057E-07   0.000       4.017       0.000    
     642  0.2890      0.4500E-03 NODE           1 -99.9%  0.1323E-04  0.6448E-05  0.1526E-06 -0.9091E-07   0.000       4.017       0.000    
     643  0.2894      0.4500E-03 NODE           1 -99.9%  0.1331E-04  0.6472E-05  0.1531E-06 -0.9126E-07   0.000       4.017       0.000    
     644  0.2899      0.4500E-03 NODE           1 -99.9%  0.1340E-04  0.6495E-05  0.1536E-06 -0.9161E-07   0.000       4.017       0.000    
     645  0.2903      0.4500E-03 NODE           1 -99.9%  0.1348E-04  0.6519E-05  0.1540E-06 -0.9196E-07   0.000       4.017       0.000    
     646  0.2908      0.4500E-03 NODE           1 -99.9%  0.1356E-04  0.6543E-05  0.1545E-06 -0.9231E-07   0.000       4.017       0.000    
     647  0.2912      0.4500E-03 NODE           1 -99.9%  0.1365E-04  0.6567E-05  0.1550E-06 -0.9266E-07   0.000       4.017       0.000    
     648  0.2917      0.4500E-03 NODE           1 -99.9%  0.1373E-04  0.6591E-05  0.1555E-06 -0.9301E-07   0.000       4.017       0.000    
     649  0.2921      0.4500E-03 NODE           1 -99.9%  0.1382E-04  0.6615E-05  0.1560E-06 -0.9337E-07   0.000       4.017       0.000    
     650  0.2926      0.4500E-03 NODE           1 -99.9%  0.1390E-04  0.6639E-05  0.1565E-06 -0.9372E-07   0.000       4.017       0.000    
     651  0.2930      0.4500E-03 NODE           1 -99.9%  0.1399E-04  0.6663E-05  0.1570E-06 -0.9408E-07   0.000       4.017       0.000    
     652  0.2935      0.4500E-03 NODE           1 -99.9%  0.1408E-04  0.6687E-05  0.1576E-06 -0.9443E-07   0.000       4.017       0.000    
     653  0.2939      0.4500E-03 NODE           1 -99.9%  0.1416E-04  0.6711E-05  0.1581E-06 -0.9479E-07   0.000       4.017       0.000    
     654  0.2944      0.4500E-03 NODE           1 -99.9%  0.1425E-04  0.6735E-05  0.1586E-06 -0.9514E-07   0.000       4.017       0.000    
     655  0.2948      0.4500E-03 NODE           1 -99.9%  0.1434E-04  0.6759E-05  0.1592E-06 -0.9550E-07   0.000       4.017       0.000    
     656  0.2953      0.4500E-03 NODE           1 -99.9%  0.1443E-04  0.6783E-05  0.1597E-06 -0.9586E-07   0.000       4.017       0.000    
     657  0.2957      0.4500E-03 NODE           1 -99.9%  0.1452E-04  0.6808E-05  0.1603E-06 -0.9622E-07   0.000       4.017       0.000    
     658  0.2962      0.4500E-03 NODE           1 -99.9%  0.1460E-04  0.6832E-05  0.1609E-06 -0.9658E-07   0.000       4.017       0.000    
     659  0.2966      0.4500E-03 NODE           1 -99.9%  0.1469E-04  0.6857E-05  0.1615E-06 -0.9694E-07   0.000       4.017       0.000    
   CYCLE    TIME      TIME-STEP  ELEMENT          ERROR  I-ENERGY    K-ENERGY T  K-ENERGY R  EXT-WORK     MAS.ERR     TOTAL MASS  MASS ADDED
     660  0.2971      0.4500E-03 NODE           1 -99.9%  0.1478E-04  0.6881E-05  0.1621E-06 -0.9730E-07   0.000       4.017       0.000    
     661  0.2975      0.4500E-03 NODE           1 -99.9%  0.1487E-04  0.6906E-05  0.1627E-06 -0.9766E-07   0.000       4.017       0.000    
     662  0.2980      0.4500E-03 NODE           1 -99.9%  0.1496E-04  0.6930E-05  0.1633E-06 -0.9803E-07   0.000       4.017       0.000    
     663  0.2984      0.4500E-03 NODE           1 -99.9%  0.1506E-04  0.6955E-05  0.1640E-06 -0.9839E-07   0.000       4.017       0.000    
     664  0.2989      0.4500E-03 NODE           1 -99.9%  0.1515E-04  0.6980E-05  0.1646E-06 -0.9875E-07   0.000       4.017       0.000    
     665  0.2993      0.4500E-03 NODE           4 -99.9%  0.1524E-04  0.7005E-05  0.1653E-06 -0.9912E-07   0.000       4.017       0.000    
     666  0.2998      0.4500E-03 NODE           1 -99.9%  0.1533E-04  0.7030E-05  0.1660E-06 -0.9948E-07   0.000       4.017       0.000    
     667  0.3002      0.4500E-03 NODE           1 -99.9%  0.1542E-04  0.7055E-05  0.1667E-06 -0.9985E-07   0.000       4.017       0.000    
     668  0.3007      0.4500E-03 NODE           1 -99.9%  0.1552E-04  0.7081E-05  0.1674E-06 -0.1002E-06   0.000       4.017       0.000    
     669  0.3011      0.4500E-03 NODE           1 -99.9%  0.1561E-04  0.7106E-05  0.1681E-06 -0.1006E-06   0.000       4.017       0.000    
     670  0.3016      0.4500E-03 NODE           1 -99.9%  0.1570E-04  0.7132E-05  0.1689E-06 -0.1010E-06   0.000       4.017       0.000    
     671  0.3020      0.4500E-03 NODE           1 -99.9%  0.1580E-04  0.7158E-05  0.1696E-06 -0.1013E-06   0.000       4.017       0.000    
     672  0.3025      0.4500E-03 NODE           1 -99.9%  0.1589E-04  0.7184E-05  0.1704E-06 -0.1017E-06   0.000       4.017       0.000    
     673  0.3029      0.4500E-03 NODE           1 -99.9%  0.1599E-04  0.7210E-05  0.1712E-06 -0.1021E-06   0.000       4.017       0.000    
     674  0.3034      0.4500E-03 NODE           1 -99.9%  0.1608E-04  0.7236E-05  0.1720E-06 -0.1024E-06   0.000       4.017       0.000    
     675  0.3038      0.4500E-03 NODE           1 -99.9%  0.1618E-04  0.7262E-05  0.1728E-06 -0.1028E-06   0.000       4.017       0.000    
     676  0.3043      0.4500E-03 NODE           1 -99.9%  0.1628E-04  0.7289E-05  0.1737E-06 -0.1032E-06   0.000       4.017       0.000    
     677  0.3047      0.4500E-03 NODE           1 -99.9%  0.1637E-04  0.7315E-05  0.1745E-06 -0.1035E-06   0.000       4.017       0.000    
     678  0.3052      0.4500E-03 NODE           4 -99.9%  0.1647E-04  0.7342E-05  0.1754E-06 -0.1039E-06   0.000       4.017       0.000    
     679  0.3056      0.4500E-03 NODE           1 -99.9%  0.1657E-04  0.7369E-05  0.1763E-06 -0.1043E-06   0.000       4.017       0.000    
     680  0.3061      0.4500E-03 NODE           1 -99.9%  0.1667E-04  0.7396E-05  0.1772E-06 -0.1047E-06   0.000       4.017       0.000    
     681  0.3065      0.4500E-03 NODE           1 -99.9%  0.1676E-04  0.7423E-05  0.1781E-06 -0.1051E-06   0.000       4.017       0.000    
     682  0.3070      0.4500E-03 NODE           4 -99.9%  0.1686E-04  0.7451E-05  0.1790E-06 -0.1054E-06   0.000       4.017       0.000    
     683  0.3074      0.4500E-03 NODE           1 -99.9%  0.1696E-04  0.7478E-05  0.1800E-06 -0.1058E-06   0.000       4.017       0.000    
     684  0.3079      0.4500E-03 NODE           4 -99.9%  0.1706E-04  0.7506E-05  0.1810E-06 -0.1062E-06   0.000       4.017       0.000    
     685  0.3083      0.4500E-03 NODE           1 -99.9%  0.1716E-04  0.7534E-05  0.1820E-06 -0.1066E-06   0.000       4.017       0.000    
     686  0.3088      0.4500E-03 NODE           1 -99.9%  0.1726E-04  0.7562E-05  0.1830E-06 -0.1070E-06   0.000       4.017       0.000    
     687  0.3092      0.4500E-03 NODE           1 -99.9%  0.1736E-04  0.7590E-05  0.1840E-06 -0.1073E-06   0.000       4.017       0.000    
     688  0.3097      0.4500E-03 NODE           1 -99.9%  0.1747E-04  0.7618E-05  0.1850E-06 -0.1077E-06   0.000       4.017       0.000    
     689  0.3101      0.4500E-03 NODE           1 -99.9%  0.1757E-04  0.7647E-05  0.1860E-06 -0.1081E-06   0.000       4.017       0.000    
     690  0.3106      0.4500E-03 NODE           4 -99.9%  0.1767E-04  0.7675E-05  0.1871E-06 -0.1085E-06   0.000       4.017       0.000    
     691  0.3110      0.4500E-03 NODE           1 -99.9%  0.1777E-04  0.7704E-05  0.1881E-06 -0.1089E-06   0.000       4.017       0.000    
     692  0.3115      0.4500E-03 NODE           1 -99.9%  0.1788E-04  0.7733E-05  0.1892E-06 -0.1093E-06   0.000       4.017       0.000    
     693  0.3119      0.4500E-03 NODE           1 -99.9%  0.1798E-04  0.7762E-05  0.1903E-06 -0.1096E-06   0.000       4.017       0.000    
     694  0.3124      0.4500E-03 NODE           1 -99.9%  0.1808E-04  0.7791E-05  0.1914E-06 -0.1100E-06   0.000       4.017       0.000    
     695  0.3128      0.4500E-03 NODE           4 -99.9%  0.1819E-04  0.7820E-05  0.1925E-06 -0.1104E-06   0.000       4.017       0.000    
     696  0.3133      0.4500E-03 NODE           1 -99.9%  0.1829E-04  0.7850E-05  0.1936E-06 -0.1108E-06   0.000       4.017       0.000    
     697  0.3137      0.4500E-03 NODE           1 -99.9%  0.1840E-04  0.7879E-05  0.1947E-06 -0.1112E-06   0.000       4.017       0.000    
     698  0.3142      0.4500E-03 NODE           1 -99.9%  0.1850E-04  0.7908E-05  0.1958E-06 -0.1116E-06   0.000       4.017       0.000    
     699  0.3146      0.4500E-03 NODE           1 -99.9%  0.1861E-04  0.7938E-05  0.1970E-06 -0.1120E-06   0.000       4.017       0.000    
     700  0.3151      0.4500E-03 NODE           1 -99.9%  0.1872E-04  0.7968E-05  0.1981E-06 -0.1124E-06   0.000       4.017       0.000    
     701  0.3155      0.4500E-03 NODE           1 -99.9%  0.1882E-04  0.7997E-05  0.1992E-06 -0.1128E-06   0.000       4.017       0.000    
     702  0.3160      0.4500E-03 NODE           1 -99.9%  0.1893E-04  0.8027E-05  0.2004E-06 -0.1132E-06   0.000       4.017       0.000    
     703  0.3164      0.4500E-03 NODE           1 -99.9%  0.1904E-04  0.8057E-05  0.2015E-06 -0.1136E-06   0.000       4.017       0.000    
     704  0.3169      0.4500E-03 NODE           1 -99.9%  0.1915E-04  0.8087E-05  0.2026E-06 -0.1140E-06   0.000       4.017       0.000    
     705  0.3173      0.4500E-03 NODE           1 -99.9%  0.1926E-04  0.8117E-05  0.2038E-06 -0.1144E-06   0.000       4.017       0.000    
     706  0.3178      0.4500E-03 NODE           1 -99.9%  0.1937E-04  0.8147E-05  0.2049E-06 -0.1148E-06   0.000       4.017       0.000    
     707  0.3182      0.4500E-03 NODE           1 -99.9%  0.1948E-04  0.8177E-05  0.2061E-06 -0.1152E-06   0.000       4.017       0.000    
     708  0.3187      0.4500E-03 NODE           1 -99.9%  0.1959E-04  0.8207E-05  0.2072E-06 -0.1156E-06   0.000       4.017       0.000    
     709  0.3191      0.4500E-03 NODE           4 -99.9%  0.1970E-04  0.8237E-05  0.2083E-06 -0.1160E-06   0.000       4.017       0.000    
     710  0.3196      0.4500E-03 NODE           1 -99.9%  0.1981E-04  0.8267E-05  0.2095E-06 -0.1164E-06   0.000       4.017       0.000    
     711  0.3200      0.4500E-03 NODE           1 -99.9%  0.1992E-04  0.8297E-05  0.2106E-06 -0.1168E-06   0.000       4.017       0.000    
     712  0.3205      0.4500E-03 NODE           4 -99.9%  0.2003E-04  0.8327E-05  0.2117E-06 -0.1173E-06   0.000       4.017       0.000    
     713  0.3209      0.4500E-03 NODE           4 -99.9%  0.2014E-04  0.8357E-05  0.2129E-06 -0.1177E-06   0.000       4.017       0.000    
     714  0.3214      0.4500E-03 NODE           1 -99.9%  0.2026E-04  0.8387E-05  0.2140E-06 -0.1181E-06   0.000       4.017       0.000    
   CYCLE    TIME      TIME-STEP  ELEMENT          ERROR  I-ENERGY    K-ENERGY T  K-ENERGY R  EXT-WORK     MAS.ERR     TOTAL MASS  MASS ADDED
     715  0.3218      0.4500E-03 NODE           1 -99.9%  0.2037E-04  0.8417E-05  0.2151E-06 -0.1185E-06   0.000       4.017       0.000    
     716  0.3223      0.4500E-03 NODE           1 -99.9%  0.2048E-04  0.8448E-05  0.2162E-06 -0.1189E-06   0.000       4.017       0.000    
     717  0.3227      0.4500E-03 NODE           1 -99.9%  0.2060E-04  0.8478E-05  0.2173E-06 -0.1193E-06   0.000       4.017       0.000    
     718  0.3232      0.4500E-03 NODE           1 -99.9%  0.2071E-04  0.8508E-05  0.2184E-06 -0.1198E-06   0.000       4.017       0.000    
     719  0.3236      0.4500E-03 NODE           1 -99.9%  0.2083E-04  0.8538E-05  0.2195E-06 -0.1202E-06   0.000       4.017       0.000    
     720  0.3241      0.4500E-03 NODE           1 -99.9%  0.2094E-04  0.8568E-05  0.2206E-06 -0.1206E-06   0.000       4.017       0.000    
     721  0.3245      0.4500E-03 NODE           1 -99.9%  0.2106E-04  0.8598E-05  0.2216E-06 -0.1210E-06   0.000       4.017       0.000    
     722  0.3250      0.4500E-03 NODE           1 -99.9%  0.2117E-04  0.8629E-05  0.2227E-06 -0.1214E-06   0.000       4.017       0.000    
     723  0.3254      0.4500E-03 NODE           1 -99.9%  0.2129E-04  0.8659E-05  0.2237E-06 -0.1219E-06   0.000       4.017       0.000    
     724  0.3259      0.4500E-03 NODE           1 -99.9%  0.2141E-04  0.8689E-05  0.2248E-06 -0.1223E-06   0.000       4.017       0.000    
     725  0.3263      0.4500E-03 NODE           1 -99.9%  0.2153E-04  0.8719E-05  0.2258E-06 -0.1227E-06   0.000       4.017       0.000    
     726  0.3268      0.4500E-03 NODE           1 -99.9%  0.2165E-04  0.8750E-05  0.2268E-06 -0.1231E-06   0.000       4.017       0.000    
     727  0.3272      0.4500E-03 NODE           1 -99.9%  0.2176E-04  0.8780E-05  0.2279E-06 -0.1236E-06   0.000       4.017       0.000    
     728  0.3277      0.4500E-03 NODE           1 -99.9%  0.2188E-04  0.8810E-05  0.2289E-06 -0.1240E-06   0.000       4.017       0.000    
     729  0.3281      0.4500E-03 NODE           1 -99.9%  0.2200E-04  0.8841E-05  0.2299E-06 -0.1244E-06   0.000       4.017       0.000    
     730  0.3286      0.4500E-03 NODE           4 -99.9%  0.2212E-04  0.8871E-05  0.2309E-06 -0.1249E-06   0.000       4.017       0.000    
     731  0.3290      0.4500E-03 NODE           1 -99.9%  0.2224E-04  0.8902E-05  0.2318E-06 -0.1253E-06   0.000       4.017       0.000    
     732  0.3295      0.4500E-03 NODE           1 -99.9%  0.2237E-04  0.8932E-05  0.2328E-06 -0.1257E-06   0.000       4.017       0.000    
     733  0.3299      0.4500E-03 NODE           1 -99.9%  0.2249E-04  0.8963E-05  0.2338E-06 -0.1262E-06   0.000       4.017       0.000    
     734  0.3304      0.4500E-03 NODE           1 -99.9%  0.2261E-04  0.8993E-05  0.2348E-06 -0.1266E-06   0.000       4.017       0.000    
     735  0.3308      0.4500E-03 NODE           1 -99.9%  0.2273E-04  0.9024E-05  0.2357E-06 -0.1271E-06   0.000       4.017       0.000    
     736  0.3313      0.4500E-03 NODE           1 -99.9%  0.2286E-04  0.9055E-05  0.2366E-06 -0.1275E-06   0.000       4.017       0.000    
     737  0.3317      0.4500E-03 NODE           1 -99.9%  0.2298E-04  0.9086E-05  0.2376E-06 -0.1279E-06   0.000       4.017       0.000    
     738  0.3322      0.4500E-03 NODE           1 -99.9%  0.2310E-04  0.9116E-05  0.2385E-06 -0.1284E-06   0.000       4.017       0.000    
     739  0.3326      0.4500E-03 NODE           1 -99.9%  0.2323E-04  0.9147E-05  0.2394E-06 -0.1288E-06   0.000       4.017       0.000    
     740  0.3331      0.4500E-03 NODE           1 -99.9%  0.2335E-04  0.9178E-05  0.2403E-06 -0.1293E-06   0.000       4.017       0.000    
     741  0.3335      0.4500E-03 NODE           1 -99.9%  0.2348E-04  0.9210E-05  0.2412E-06 -0.1297E-06   0.000       4.017       0.000    
     742  0.3340      0.4500E-03 NODE           4 -99.9%  0.2361E-04  0.9241E-05  0.2421E-06 -0.1302E-06   0.000       4.017       0.000    
     743  0.3344      0.4500E-03 NODE           1 -99.9%  0.2373E-04  0.9272E-05  0.2430E-06 -0.1306E-06   0.000       4.017       0.000    
     744  0.3349      0.4500E-03 NODE           4 -99.9%  0.2386E-04  0.9303E-05  0.2439E-06 -0.1311E-06   0.000       4.017       0.000    
     745  0.3353      0.4500E-03 NODE           1 -99.9%  0.2399E-04  0.9335E-05  0.2448E-06 -0.1315E-06   0.000       4.017       0.000    
     746  0.3358      0.4500E-03 NODE           1 -99.9%  0.2411E-04  0.9366E-05  0.2456E-06 -0.1320E-06   0.000       4.017       0.000    
     747  0.3362      0.4500E-03 NODE           1 -99.9%  0.2424E-04  0.9397E-05  0.2465E-06 -0.1324E-06   0.000       4.017       0.000    
     748  0.3367      0.4500E-03 NODE           1 -99.9%  0.2437E-04  0.9429E-05  0.2474E-06 -0.1329E-06   0.000       4.017       0.000    
     749  0.3371      0.4500E-03 NODE           1 -99.9%  0.2450E-04  0.9461E-05  0.2482E-06 -0.1333E-06   0.000       4.017       0.000    
     750  0.3376      0.4500E-03 NODE           1 -99.9%  0.2463E-04  0.9492E-05  0.2490E-06 -0.1338E-06   0.000       4.017       0.000    
     751  0.3380      0.4500E-03 NODE           1 -99.9%  0.2476E-04  0.9524E-05  0.2499E-06 -0.1343E-06   0.000       4.017       0.000    
     752  0.3385      0.4500E-03 NODE           1 -99.9%  0.2490E-04  0.9556E-05  0.2507E-06 -0.1347E-06   0.000       4.017       0.000    
     753  0.3389      0.4500E-03 NODE           1 -99.9%  0.2503E-04  0.9587E-05  0.2515E-06 -0.1352E-06   0.000       4.017       0.000    
     754  0.3394      0.4500E-03 NODE           1 -99.9%  0.2516E-04  0.9619E-05  0.2523E-06 -0.1357E-06   0.000       4.017       0.000    
     755  0.3398      0.4500E-03 NODE           1 -99.9%  0.2529E-04  0.9651E-05  0.2531E-06 -0.1361E-06   0.000       4.017       0.000    
     756  0.3403      0.4500E-03 NODE           1 -99.9%  0.2543E-04  0.9683E-05  0.2539E-06 -0.1366E-06   0.000       4.017       0.000    
     757  0.3407      0.4500E-03 NODE           1 -99.9%  0.2556E-04  0.9715E-05  0.2547E-06 -0.1371E-06   0.000       4.017       0.000    
     758  0.3412      0.4500E-03 NODE           1 -99.9%  0.2569E-04  0.9746E-05  0.2554E-06 -0.1375E-06   0.000       4.017       0.000    
     759  0.3416      0.4500E-03 NODE           1 -99.9%  0.2583E-04  0.9778E-05  0.2562E-06 -0.1380E-06   0.000       4.017       0.000    
     760  0.3421      0.4500E-03 NODE           1 -99.9%  0.2596E-04  0.9810E-05  0.2570E-06 -0.1385E-06   0.000       4.017       0.000    
     761  0.3425      0.4500E-03 NODE           1 -99.9%  0.2610E-04  0.9841E-05  0.2577E-06 -0.1389E-06   0.000       4.017       0.000    
     762  0.3430      0.4500E-03 NODE           4 -99.9%  0.2624E-04  0.9873E-05  0.2585E-06 -0.1394E-06   0.000       4.017       0.000    
     763  0.3434      0.4500E-03 NODE           1 -99.9%  0.2637E-04  0.9904E-05  0.2592E-06 -0.1399E-06   0.000       4.017       0.000    
     764  0.3439      0.4500E-03 NODE           1 -99.9%  0.2651E-04  0.9936E-05  0.2599E-06 -0.1404E-06   0.000       4.017       0.000    
     765  0.3443      0.4500E-03 NODE           1 -99.9%  0.2665E-04  0.9967E-05  0.2606E-06 -0.1409E-06   0.000       4.017       0.000    
     766  0.3448      0.4500E-03 NODE           1 -99.9%  0.2679E-04  0.9998E-05  0.2613E-06 -0.1413E-06   0.000       4.017       0.000    
     767  0.3452      0.4500E-03 NODE           4 -99.9%  0.2693E-04  0.1003E-04  0.2620E-06 -0.1418E-06   0.000       4.017       0.000    
     768  0.3457      0.4500E-03 NODE           1 -99.9%  0.2707E-04  0.1006E-04  0.2627E-06 -0.1423E-06   0.000       4.017       0.000    
     769  0.3461      0.4500E-03 NODE           1 -99.9%  0.2721E-04  0.1009E-04  0.2634E-06 -0.1428E-06   0.000       4.017       0.000    
   CYCLE    TIME      TIME-STEP  ELEMENT          ERROR  I-ENERGY    K-ENERGY T  K-ENERGY R  EXT-WORK     MAS.ERR     TOTAL MASS  MASS ADDED
     770  0.3466      0.4500E-03 NODE           1 -99.9%  0.2735E-04  0.1012E-04  0.2641E-06 -0.1433E-06   0.000       4.017       0.000    
     771  0.3470      0.4500E-03 NODE           1 -99.9%  0.2749E-04  0.1015E-04  0.2647E-06 -0.1438E-06   0.000       4.017       0.000    
     772  0.3475      0.4500E-03 NODE           1 -99.9%  0.2763E-04  0.1018E-04  0.2654E-06 -0.1442E-06   0.000       4.017       0.000    
     773  0.3479      0.4500E-03 NODE           1 -99.9%  0.2778E-04  0.1021E-04  0.2660E-06 -0.1447E-06   0.000       4.017       0.000    
     774  0.3484      0.4500E-03 NODE           1 -99.9%  0.2792E-04  0.1024E-04  0.2667E-06 -0.1452E-06   0.000       4.017       0.000    
     775  0.3488      0.4500E-03 NODE           1 -99.9%  0.2806E-04  0.1027E-04  0.2673E-06 -0.1457E-06   0.000       4.017       0.000    
     776  0.3493      0.4500E-03 NODE           1 -99.9%  0.2821E-04  0.1030E-04  0.2679E-06 -0.1462E-06   0.000       4.017       0.000    
     777  0.3497      0.4500E-03 NODE           1 -99.9%  0.2835E-04  0.1033E-04  0.2685E-06 -0.1467E-06   0.000       4.017       0.000    
     778  0.3502      0.4500E-03 NODE           1 -99.9%  0.2850E-04  0.1036E-04  0.2691E-06 -0.1472E-06   0.000       4.017       0.000    
     779  0.3506      0.4500E-03 NODE           4 -99.9%  0.2864E-04  0.1039E-04  0.2697E-06 -0.1477E-06   0.000       4.017       0.000    
     780  0.3511      0.4500E-03 NODE           4 -99.9%  0.2879E-04  0.1042E-04  0.2702E-06 -0.1482E-06   0.000       4.017       0.000    
     781  0.3515      0.4500E-03 NODE           1 -99.9%  0.2894E-04  0.1044E-04  0.2708E-06 -0.1487E-06   0.000       4.017       0.000    
     782  0.3520      0.4500E-03 NODE           1 -99.9%  0.2909E-04  0.1047E-04  0.2713E-06 -0.1492E-06   0.000       4.017       0.000    
     783  0.3524      0.4500E-03 NODE           1 -99.9%  0.2923E-04  0.1050E-04  0.2719E-06 -0.1497E-06   0.000       4.017       0.000    
     784  0.3529      0.4500E-03 NODE           4 -99.9%  0.2938E-04  0.1053E-04  0.2724E-06 -0.1502E-06   0.000       4.017       0.000    
     785  0.3533      0.4500E-03 NODE           4 -99.9%  0.2953E-04  0.1055E-04  0.2729E-06 -0.1507E-06   0.000       4.017       0.000    
     786  0.3538      0.4500E-03 NODE           1 -99.9%  0.2968E-04  0.1058E-04  0.2734E-06 -0.1512E-06   0.000       4.017       0.000    
     787  0.3542      0.4500E-03 NODE           1 -99.9%  0.2983E-04  0.1061E-04  0.2739E-06 -0.1517E-06   0.000       4.017       0.000    
     788  0.3547      0.4500E-03 NODE           1 -99.9%  0.2999E-04  0.1063E-04  0.2744E-06 -0.1522E-06   0.000       4.017       0.000    
     789  0.3551      0.4500E-03 NODE           1 -99.9%  0.3014E-04  0.1066E-04  0.2749E-06 -0.1527E-06   0.000       4.017       0.000    
     790  0.3556      0.4500E-03 NODE           1 -99.9%  0.3029E-04  0.1068E-04  0.2754E-06 -0.1532E-06   0.000       4.017       0.000    
     791  0.3560      0.4500E-03 NODE           1 -99.9%  0.3044E-04  0.1071E-04  0.2758E-06 -0.1537E-06   0.000       4.017       0.000    
     792  0.3565      0.4500E-03 NODE           1 -99.9%  0.3060E-04  0.1073E-04  0.2763E-06 -0.1543E-06   0.000       4.017       0.000    
     793  0.3569      0.4500E-03 NODE           1 -99.9%  0.3075E-04  0.1076E-04  0.2767E-06 -0.1548E-06   0.000       4.017       0.000    
     794  0.3574      0.4500E-03 NODE           1 -99.9%  0.3091E-04  0.1078E-04  0.2772E-06 -0.1553E-06   0.000       4.017       0.000    
     795  0.3578      0.4500E-03 NODE           1 -99.9%  0.3106E-04  0.1080E-04  0.2776E-06 -0.1558E-06   0.000       4.017       0.000    
     796  0.3583      0.4500E-03 NODE           1 -99.9%  0.3122E-04  0.1083E-04  0.2781E-06 -0.1563E-06   0.000       4.017       0.000    
     797  0.3587      0.4500E-03 NODE           1 -99.9%  0.3137E-04  0.1085E-04  0.2785E-06 -0.1568E-06   0.000       4.017       0.000    
     798  0.3592      0.4500E-03 NODE           1 -99.9%  0.3153E-04  0.1087E-04  0.2789E-06 -0.1573E-06   0.000       4.017       0.000    
     799  0.3596      0.4500E-03 NODE           1 -99.9%  0.3169E-04  0.1089E-04  0.2793E-06 -0.1578E-06   0.000       4.017       0.000    
     800  0.3601      0.4500E-03 NODE           1 -99.9%  0.3185E-04  0.1092E-04  0.2797E-06 -0.1584E-06   0.000       4.017       0.000    
     801  0.3605      0.4500E-03 NODE           1 -99.9%  0.3201E-04  0.1094E-04  0.2801E-06 -0.1589E-06   0.000       4.017       0.000    
     802  0.3610      0.4500E-03 NODE           1 -99.9%  0.3217E-04  0.1096E-04  0.2805E-06 -0.1594E-06   0.000       4.017       0.000    
     803  0.3614      0.4500E-03 NODE           1 -99.9%  0.3233E-04  0.1098E-04  0.2809E-06 -0.1599E-06   0.000       4.017       0.000    
     804  0.3619      0.4500E-03 NODE           1 -99.9%  0.3249E-04  0.1100E-04  0.2813E-06 -0.1604E-06   0.000       4.017       0.000    
     805  0.3623      0.4500E-03 NODE           4 -99.9%  0.3265E-04  0.1102E-04  0.2817E-06 -0.1609E-06   0.000       4.017       0.000    
     806  0.3628      0.4500E-03 NODE           1 -99.9%  0.3281E-04  0.1104E-04  0.2821E-06 -0.1615E-06   0.000       4.017       0.000    
     807  0.3632      0.4500E-03 NODE           1 -99.9%  0.3297E-04  0.1106E-04  0.2825E-06 -0.1620E-06   0.000       4.017       0.000    
     808  0.3637      0.4500E-03 NODE           1 -99.9%  0.3314E-04  0.1108E-04  0.2829E-06 -0.1625E-06   0.000       4.017       0.000    
     809  0.3641      0.4500E-03 NODE           4 -99.9%  0.3330E-04  0.1110E-04  0.2832E-06 -0.1630E-06   0.000       4.017       0.000    
     810  0.3646      0.4500E-03 NODE           1 -99.9%  0.3347E-04  0.1112E-04  0.2836E-06 -0.1636E-06   0.000       4.017       0.000    
     811  0.3650      0.4500E-03 NODE           1 -99.9%  0.3363E-04  0.1114E-04  0.2840E-06 -0.1641E-06   0.000       4.017       0.000    
     812  0.3655      0.4500E-03 NODE           4 -99.9%  0.3380E-04  0.1116E-04  0.2844E-06 -0.1646E-06   0.000       4.017       0.000    
     813  0.3659      0.4500E-03 NODE           4 -99.9%  0.3396E-04  0.1118E-04  0.2848E-06 -0.1651E-06   0.000       4.017       0.000    
     814  0.3664      0.4500E-03 NODE           1 -99.9%  0.3413E-04  0.1120E-04  0.2851E-06 -0.1656E-06   0.000       4.017       0.000    
     815  0.3668      0.4500E-03 NODE           1 -99.9%  0.3430E-04  0.1121E-04  0.2855E-06 -0.1662E-06   0.000       4.017       0.000    
     816  0.3673      0.4500E-03 NODE           4 -99.9%  0.3447E-04  0.1123E-04  0.2859E-06 -0.1667E-06   0.000       4.017       0.000    
     817  0.3677      0.4500E-03 NODE           4 -99.9%  0.3464E-04  0.1125E-04  0.2863E-06 -0.1672E-06   0.000       4.017       0.000    
     818  0.3682      0.4500E-03 NODE           4 -99.9%  0.3481E-04  0.1127E-04  0.2866E-06 -0.1678E-06   0.000       4.017       0.000    
     819  0.3686      0.4500E-03 NODE           4 -99.9%  0.3498E-04  0.1129E-04  0.2870E-06 -0.1683E-06   0.000       4.017       0.000    
     820  0.3691      0.4500E-03 NODE           1 -99.9%  0.3515E-04  0.1130E-04  0.2874E-06 -0.1688E-06   0.000       4.017       0.000    
     821  0.3695      0.4500E-03 NODE           1 -99.9%  0.3532E-04  0.1132E-04  0.2878E-06 -0.1693E-06   0.000       4.017       0.000    
     822  0.3700      0.4500E-03 NODE           4 -99.9%  0.3549E-04  0.1134E-04  0.2882E-06 -0.1699E-06   0.000       4.017       0.000    
     823  0.3704      0.4500E-03 NODE           1 -99.9%  0.3566E-04  0.1136E-04  0.2885E-06 -0.1704E-06   0.000       4.017       0.000    
     824  0.3709      0.4500E-03 NODE           1 -99.9%  0.3584E-04  0.1137E-04  0.2889E-06 -0.1709E-06   0.000       4.017       0.000    
   CYCLE    TIME      TIME-STEP  ELEMENT          ERROR  I-ENERGY    K-ENERGY T  K-ENERGY R  EXT-WORK     MAS.ERR     TOTAL MASS  MASS ADDED
     825  0.3713      0.4500E-03 NODE           1 -99.9%  0.3601E-04  0.1139E-04  0.2893E-06 -0.1715E-06   0.000       4.017       0.000    
     826  0.3718      0.4500E-03 NODE           1 -99.9%  0.3619E-04  0.1141E-04  0.2897E-06 -0.1720E-06   0.000       4.017       0.000    
     827  0.3722      0.4500E-03 NODE           1 -99.9%  0.3636E-04  0.1143E-04  0.2900E-06 -0.1725E-06   0.000       4.017       0.000    
     828  0.3727      0.4500E-03 NODE           1 -99.9%  0.3654E-04  0.1144E-04  0.2904E-06 -0.1731E-06   0.000       4.017       0.000    
     829  0.3731      0.4500E-03 NODE           1 -99.9%  0.3671E-04  0.1146E-04  0.2908E-06 -0.1736E-06   0.000       4.017       0.000    
     830  0.3736      0.4500E-03 NODE           1 -99.9%  0.3689E-04  0.1148E-04  0.2912E-06 -0.1742E-06   0.000       4.017       0.000    
     831  0.3740      0.4500E-03 NODE           1 -99.9%  0.3707E-04  0.1149E-04  0.2915E-06 -0.1747E-06   0.000       4.017       0.000    
     832  0.3745      0.4500E-03 NODE           1 -99.9%  0.3725E-04  0.1151E-04  0.2919E-06 -0.1752E-06   0.000       4.017       0.000    
     833  0.3749      0.4500E-03 NODE           4 -99.9%  0.3743E-04  0.1153E-04  0.2923E-06 -0.1758E-06   0.000       4.017       0.000    
     834  0.3754      0.4500E-03 NODE           1 -99.9%  0.3761E-04  0.1154E-04  0.2927E-06 -0.1763E-06   0.000       4.017       0.000    
     835  0.3758      0.4500E-03 NODE           1 -99.9%  0.3779E-04  0.1156E-04  0.2930E-06 -0.1769E-06   0.000       4.017       0.000    
     836  0.3763      0.4500E-03 NODE           1 -99.9%  0.3797E-04  0.1158E-04  0.2934E-06 -0.1774E-06   0.000       4.017       0.000    
     837  0.3767      0.4500E-03 NODE           1 -99.9%  0.3815E-04  0.1160E-04  0.2937E-06 -0.1779E-06   0.000       4.017       0.000    
     838  0.3772      0.4500E-03 NODE           1 -99.9%  0.3833E-04  0.1161E-04  0.2941E-06 -0.1785E-06   0.000       4.017       0.000    
     839  0.3776      0.4500E-03 NODE           1 -99.9%  0.3852E-04  0.1163E-04  0.2945E-06 -0.1790E-06   0.000       4.017       0.000    
     840  0.3781      0.4500E-03 NODE           1 -99.9%  0.3870E-04  0.1165E-04  0.2948E-06 -0.1796E-06   0.000       4.017       0.000    
     841  0.3785      0.4500E-03 NODE           4 -99.9%  0.3889E-04  0.1166E-04  0.2952E-06 -0.1801E-06   0.000       4.017       0.000    
     842  0.3790      0.4500E-03 NODE           4 -99.9%  0.3907E-04  0.1168E-04  0.2955E-06 -0.1807E-06   0.000       4.017       0.000    
     843  0.3794      0.4500E-03 NODE           1 -99.9%  0.3926E-04  0.1170E-04  0.2959E-06 -0.1812E-06   0.000       4.017       0.000    
     844  0.3799      0.4500E-03 NODE           1 -99.9%  0.3944E-04  0.1171E-04  0.2962E-06 -0.1818E-06   0.000       4.017       0.000    
     845  0.3803      0.4500E-03 NODE           1 -99.9%  0.3963E-04  0.1173E-04  0.2965E-06 -0.1824E-06   0.000       4.017       0.000    
     846  0.3808      0.4500E-03 NODE           1 -99.9%  0.3982E-04  0.1175E-04  0.2969E-06 -0.1829E-06   0.000       4.017       0.000    
     847  0.3812      0.4500E-03 NODE           1 -99.9%  0.4001E-04  0.1176E-04  0.2972E-06 -0.1835E-06   0.000       4.017       0.000    
     848  0.3817      0.4500E-03 NODE           1 -99.9%  0.4020E-04  0.1178E-04  0.2975E-06 -0.1840E-06   0.000       4.017       0.000    
     849  0.3821      0.4500E-03 NODE           1 -99.9%  0.4039E-04  0.1180E-04  0.2978E-06 -0.1846E-06   0.000       4.017       0.000    
     850  0.3826      0.4500E-03 NODE           4 -99.9%  0.4058E-04  0.1181E-04  0.2981E-06 -0.1852E-06   0.000       4.017       0.000    
     851  0.3830      0.4500E-03 NODE           1 -99.9%  0.4077E-04  0.1183E-04  0.2984E-06 -0.1857E-06   0.000       4.017       0.000    
     852  0.3835      0.4500E-03 NODE           1 -99.9%  0.4096E-04  0.1185E-04  0.2987E-06 -0.1863E-06   0.000       4.017       0.000    
     853  0.3839      0.4500E-03 NODE           4 -99.9%  0.4115E-04  0.1186E-04  0.2990E-06 -0.1868E-06   0.000       4.017       0.000    
     854  0.3844      0.4500E-03 NODE           4 -99.9%  0.4135E-04  0.1188E-04  0.2993E-06 -0.1874E-06   0.000       4.017       0.000    
     855  0.3848      0.4500E-03 NODE           1 -99.9%  0.4154E-04  0.1190E-04  0.2996E-06 -0.1880E-06   0.000       4.017       0.000    
     856  0.3853      0.4500E-03 NODE           1 -99.9%  0.4174E-04  0.1191E-04  0.2999E-06 -0.1886E-06   0.000       4.017       0.000    
     857  0.3857      0.4500E-03 NODE           1 -99.9%  0.4193E-04  0.1193E-04  0.3001E-06 -0.1891E-06   0.000       4.017       0.000    
     858  0.3862      0.4500E-03 NODE           1 -99.9%  0.4213E-04  0.1195E-04  0.3004E-06 -0.1897E-06   0.000       4.017       0.000    
     859  0.3866      0.4500E-03 NODE           1 -99.9%  0.4232E-04  0.1197E-04  0.3006E-06 -0.1903E-06   0.000       4.017       0.000    
     860  0.3871      0.4500E-03 NODE           1 -99.9%  0.4252E-04  0.1198E-04  0.3009E-06 -0.1908E-06   0.000       4.017       0.000    
     861  0.3875      0.4500E-03 NODE           1 -99.9%  0.4272E-04  0.1200E-04  0.3011E-06 -0.1914E-06   0.000       4.017       0.000    
     862  0.3880      0.4500E-03 NODE           1 -99.9%  0.4292E-04  0.1202E-04  0.3014E-06 -0.1920E-06   0.000       4.017       0.000    
     863  0.3884      0.4500E-03 NODE           1 -99.9%  0.4312E-04  0.1204E-04  0.3016E-06 -0.1926E-06   0.000       4.017       0.000    
     864  0.3889      0.4500E-03 NODE           1 -99.9%  0.4332E-04  0.1205E-04  0.3019E-06 -0.1932E-06   0.000       4.017       0.000    
     865  0.3893      0.4500E-03 NODE           4 -99.9%  0.4352E-04  0.1207E-04  0.3021E-06 -0.1937E-06   0.000       4.017       0.000    
     866  0.3898      0.4500E-03 NODE           1 -99.9%  0.4372E-04  0.1209E-04  0.3023E-06 -0.1943E-06   0.000       4.017       0.000    
     867  0.3902      0.4500E-03 NODE           1 -99.9%  0.4392E-04  0.1211E-04  0.3026E-06 -0.1949E-06   0.000       4.017       0.000    
     868  0.3907      0.4500E-03 NODE           1 -99.9%  0.4413E-04  0.1213E-04  0.3028E-06 -0.1955E-06   0.000       4.017       0.000    
     869  0.3911      0.4500E-03 NODE           1 -99.9%  0.4433E-04  0.1214E-04  0.3030E-06 -0.1961E-06   0.000       4.017       0.000    
     870  0.3916      0.4500E-03 NODE           1 -99.9%  0.4453E-04  0.1216E-04  0.3032E-06 -0.1967E-06   0.000       4.017       0.000    
     871  0.3920      0.4500E-03 NODE           1 -99.9%  0.4474E-04  0.1218E-04  0.3035E-06 -0.1973E-06   0.000       4.017       0.000    
     872  0.3925      0.4500E-03 NODE           1 -99.9%  0.4494E-04  0.1220E-04  0.3037E-06 -0.1979E-06   0.000       4.017       0.000    
     873  0.3929      0.4500E-03 NODE           1 -99.9%  0.4515E-04  0.1222E-04  0.3039E-06 -0.1984E-06   0.000       4.017       0.000    
     874  0.3934      0.4500E-03 NODE           1 -99.9%  0.4536E-04  0.1224E-04  0.3041E-06 -0.1990E-06   0.000       4.017       0.000    
     875  0.3938      0.4500E-03 NODE           1 -99.9%  0.4557E-04  0.1226E-04  0.3044E-06 -0.1996E-06   0.000       4.017       0.000    
     876  0.3943      0.4500E-03 NODE           1 -99.9%  0.4578E-04  0.1228E-04  0.3046E-06 -0.2002E-06   0.000       4.017       0.000    
     877  0.3947      0.4500E-03 NODE           1 -99.9%  0.4598E-04  0.1230E-04  0.3048E-06 -0.2008E-06   0.000       4.017       0.000    
     878  0.3952      0.4500E-03 NODE           1 -99.9%  0.4620E-04  0.1232E-04  0.3050E-06 -0.2014E-06   0.000       4.017       0.000    
     879  0.3956      0.4500E-03 NODE           1 -99.9%  0.4641E-04  0.1234E-04  0.3053E-06 -0.2020E-06   0.000       4.017       0.000    
   CYCLE    TIME      TIME-STEP  ELEMENT          ERROR  I-ENERGY    K-ENERGY T  K-ENERGY R  EXT-WORK     MAS.ERR     TOTAL MASS  MASS ADDED
     880  0.3961      0.4500E-03 NODE           1 -99.9%  0.4662E-04  0.1236E-04  0.3055E-06 -0.2026E-06   0.000       4.017       0.000    
     881  0.3965      0.4500E-03 NODE           1 -99.9%  0.4683E-04  0.1238E-04  0.3058E-06 -0.2032E-06   0.000       4.017       0.000    
     882  0.3970      0.4500E-03 NODE           1 -99.9%  0.4704E-04  0.1241E-04  0.3060E-06 -0.2038E-06   0.000       4.017       0.000    
     883  0.3974      0.4500E-03 NODE           1 -99.9%  0.4726E-04  0.1243E-04  0.3063E-06 -0.2044E-06   0.000       4.017       0.000    
     884  0.3979      0.4500E-03 NODE           1 -99.9%  0.4747E-04  0.1245E-04  0.3065E-06 -0.2051E-06   0.000       4.017       0.000    
     885  0.3983      0.4500E-03 NODE           1 -99.9%  0.4769E-04  0.1247E-04  0.3068E-06 -0.2057E-06   0.000       4.017       0.000    
     886  0.3988      0.4500E-03 NODE           1 -99.9%  0.4790E-04  0.1249E-04  0.3071E-06 -0.2063E-06   0.000       4.017       0.000    
     887  0.3992      0.4500E-03 NODE           1 -99.9%  0.4812E-04  0.1252E-04  0.3074E-06 -0.2069E-06   0.000       4.017       0.000    
     888  0.3997      0.4500E-03 NODE           1 -99.9%  0.4834E-04  0.1254E-04  0.3077E-06 -0.2075E-06   0.000       4.017       0.000    
     889  0.4001      0.4500E-03 NODE           1 -99.9%  0.4856E-04  0.1256E-04  0.3080E-06 -0.2081E-06   0.000       4.017       0.000    
     ANIMATION FILE: FFO25SCBA003 WRITTEN
     OUTPUT FILE: FFO25SCB_0003.sty WRITTEN
     890  0.4006      0.4500E-03 NODE           1 -99.9%  0.4877E-04  0.1259E-04  0.3083E-06 -0.2087E-06   0.000       4.017       0.000    
     891  0.4010      0.4500E-03 NODE           1 -99.9%  0.4899E-04  0.1261E-04  0.3086E-06 -0.2094E-06   0.000       4.017       0.000    
     892  0.4015      0.4500E-03 NODE           1 -99.9%  0.4921E-04  0.1264E-04  0.3089E-06 -0.2100E-06   0.000       4.017       0.000    
     893  0.4019      0.4500E-03 NODE           1 -99.9%  0.4944E-04  0.1266E-04  0.3092E-06 -0.2106E-06   0.000       4.017       0.000    
     894  0.4024      0.4500E-03 NODE           1 -99.9%  0.4966E-04  0.1269E-04  0.3096E-06 -0.2112E-06   0.000       4.017       0.000    
     895  0.4028      0.4500E-03 NODE           1 -99.9%  0.4988E-04  0.1271E-04  0.3099E-06 -0.2119E-06   0.000       4.017       0.000    
     896  0.4033      0.4500E-03 NODE           1 -99.9%  0.5010E-04  0.1274E-04  0.3103E-06 -0.2125E-06   0.000       4.017       0.000    
     897  0.4037      0.4500E-03 NODE           1 -99.9%  0.5033E-04  0.1276E-04  0.3107E-06 -0.2131E-06   0.000       4.017       0.000    
     898  0.4042      0.4500E-03 NODE           1 -99.9%  0.5055E-04  0.1279E-04  0.3111E-06 -0.2137E-06   0.000       4.017       0.000    
     899  0.4046      0.4500E-03 NODE           1 -99.9%  0.5078E-04  0.1282E-04  0.3115E-06 -0.2144E-06   0.000       4.017       0.000    
     900  0.4051      0.4500E-03 NODE           1 -99.9%  0.5101E-04  0.1284E-04  0.3119E-06 -0.2150E-06   0.000       4.017       0.000    
     901  0.4055      0.4500E-03 NODE           1 -99.9%  0.5123E-04  0.1287E-04  0.3123E-06 -0.2156E-06   0.000       4.017       0.000    
     902  0.4060      0.4500E-03 NODE           1 -99.9%  0.5146E-04  0.1290E-04  0.3128E-06 -0.2163E-06   0.000       4.017       0.000    
     903  0.4064      0.4500E-03 NODE           1 -99.9%  0.5169E-04  0.1292E-04  0.3132E-06 -0.2169E-06   0.000       4.017       0.000    
     904  0.4069      0.4500E-03 NODE           1 -99.9%  0.5192E-04  0.1295E-04  0.3137E-06 -0.2176E-06   0.000       4.017       0.000    
     905  0.4073      0.4500E-03 NODE           1 -99.9%  0.5215E-04  0.1298E-04  0.3142E-06 -0.2182E-06   0.000       4.017       0.000    
     906  0.4078      0.4500E-03 NODE           4 -99.9%  0.5238E-04  0.1301E-04  0.3147E-06 -0.2188E-06   0.000       4.017       0.000    
     907  0.4082      0.4500E-03 NODE           1 -99.9%  0.5261E-04  0.1304E-04  0.3152E-06 -0.2195E-06   0.000       4.017       0.000    
     908  0.4087      0.4500E-03 NODE           1 -99.9%  0.5285E-04  0.1307E-04  0.3157E-06 -0.2201E-06   0.000       4.017       0.000    
     909  0.4091      0.4500E-03 NODE           1 -99.9%  0.5308E-04  0.1310E-04  0.3162E-06 -0.2208E-06   0.000       4.017       0.000    
     910  0.4096      0.4500E-03 NODE           1 -99.9%  0.5331E-04  0.1313E-04  0.3168E-06 -0.2214E-06   0.000       4.017       0.000    
     911  0.4100      0.4500E-03 NODE           1 -99.9%  0.5355E-04  0.1316E-04  0.3173E-06 -0.2221E-06   0.000       4.017       0.000    
     912  0.4105      0.4500E-03 NODE           1 -99.9%  0.5379E-04  0.1319E-04  0.3179E-06 -0.2227E-06   0.000       4.017       0.000    
     913  0.4109      0.4500E-03 NODE           1 -99.9%  0.5402E-04  0.1322E-04  0.3185E-06 -0.2234E-06   0.000       4.017       0.000    
     914  0.4114      0.4500E-03 NODE           1 -99.9%  0.5426E-04  0.1325E-04  0.3191E-06 -0.2241E-06   0.000       4.017       0.000    
     915  0.4118      0.4500E-03 NODE           1 -99.9%  0.5450E-04  0.1328E-04  0.3197E-06 -0.2247E-06   0.000       4.017       0.000    
     916  0.4123      0.4500E-03 NODE           1 -99.9%  0.5474E-04  0.1331E-04  0.3203E-06 -0.2254E-06   0.000       4.017       0.000    
     917  0.4127      0.4500E-03 NODE           1 -99.9%  0.5498E-04  0.1334E-04  0.3210E-06 -0.2260E-06   0.000       4.017       0.000    
     918  0.4132      0.4500E-03 NODE           1 -99.9%  0.5522E-04  0.1337E-04  0.3216E-06 -0.2267E-06   0.000       4.017       0.000    
     919  0.4136      0.4500E-03 NODE           1 -99.9%  0.5546E-04  0.1340E-04  0.3223E-06 -0.2274E-06   0.000       4.017       0.000    
     920  0.4141      0.4500E-03 NODE           1 -99.9%  0.5570E-04  0.1343E-04  0.3230E-06 -0.2280E-06   0.000       4.017       0.000    
     921  0.4145      0.4500E-03 NODE           4 -99.9%  0.5594E-04  0.1346E-04  0.3237E-06 -0.2287E-06   0.000       4.017       0.000    
     922  0.4150      0.4500E-03 NODE           1 -99.9%  0.5619E-04  0.1350E-04  0.3244E-06 -0.2294E-06   0.000       4.017       0.000    
     923  0.4154      0.4500E-03 NODE           4 -99.9%  0.5643E-04  0.1353E-04  0.3251E-06 -0.2300E-06   0.000       4.017       0.000    
     924  0.4159      0.4500E-03 NODE           1 -99.9%  0.5668E-04  0.1356E-04  0.3259E-06 -0.2307E-06   0.000       4.017       0.000    
     925  0.4163      0.4500E-03 NODE           1 -99.9%  0.5692E-04  0.1359E-04  0.3266E-06 -0.2314E-06   0.000       4.017       0.000    
     926  0.4168      0.4500E-03 NODE           4 -99.9%  0.5717E-04  0.1362E-04  0.3274E-06 -0.2321E-06   0.000       4.017       0.000    
     927  0.4172      0.4500E-03 NODE           4 -99.9%  0.5742E-04  0.1366E-04  0.3281E-06 -0.2327E-06   0.000       4.017       0.000    
     928  0.4177      0.4500E-03 NODE           1 -99.9%  0.5767E-04  0.1369E-04  0.3289E-06 -0.2334E-06   0.000       4.017       0.000    
     929  0.4181      0.4500E-03 NODE           1 -99.9%  0.5792E-04  0.1372E-04  0.3297E-06 -0.2341E-06   0.000       4.017       0.000    
     930  0.4186      0.4500E-03 NODE           1 -99.9%  0.5817E-04  0.1376E-04  0.3306E-06 -0.2348E-06   0.000       4.017       0.000    
     931  0.4190      0.4500E-03 NODE           1 -99.9%  0.5842E-04  0.1379E-04  0.3314E-06 -0.2355E-06   0.000       4.017       0.000    
     932  0.4195      0.4500E-03 NODE           1 -99.9%  0.5867E-04  0.1382E-04  0.3322E-06 -0.2362E-06   0.000       4.017       0.000    
     933  0.4199      0.4500E-03 NODE           1 -99.9%  0.5892E-04  0.1386E-04  0.3331E-06 -0.2368E-06   0.000       4.017       0.000    
     934  0.4204      0.4500E-03 NODE           4 -99.9%  0.5917E-04  0.1389E-04  0.3340E-06 -0.2375E-06   0.000       4.017       0.000    
   CYCLE    TIME      TIME-STEP  ELEMENT          ERROR  I-ENERGY    K-ENERGY T  K-ENERGY R  EXT-WORK     MAS.ERR     TOTAL MASS  MASS ADDED
     935  0.4208      0.4500E-03 NODE           1 -99.9%  0.5943E-04  0.1392E-04  0.3349E-06 -0.2382E-06   0.000       4.017       0.000    
     936  0.4213      0.4500E-03 NODE           1 -99.9%  0.5968E-04  0.1396E-04  0.3358E-06 -0.2389E-06   0.000       4.017       0.000    
     937  0.4217      0.4500E-03 NODE           1 -99.9%  0.5994E-04  0.1399E-04  0.3367E-06 -0.2396E-06   0.000       4.017       0.000    
     938  0.4222      0.4500E-03 NODE           1 -99.9%  0.6020E-04  0.1402E-04  0.3376E-06 -0.2403E-06   0.000       4.017       0.000    
     939  0.4226      0.4500E-03 NODE           1 -99.9%  0.6045E-04  0.1406E-04  0.3385E-06 -0.2410E-06   0.000       4.017       0.000    
     940  0.4231      0.4500E-03 NODE           1 -99.9%  0.6071E-04  0.1409E-04  0.3395E-06 -0.2417E-06   0.000       4.017       0.000    
     941  0.4235      0.4500E-03 NODE           1 -99.9%  0.6097E-04  0.1413E-04  0.3405E-06 -0.2424E-06   0.000       4.017       0.000    
     942  0.4240      0.4500E-03 NODE           1 -99.9%  0.6123E-04  0.1416E-04  0.3415E-06 -0.2431E-06   0.000       4.017       0.000    
     943  0.4244      0.4500E-03 NODE           1 -99.9%  0.6149E-04  0.1420E-04  0.3425E-06 -0.2438E-06   0.000       4.017       0.000    
     944  0.4249      0.4500E-03 NODE           1 -99.9%  0.6175E-04  0.1423E-04  0.3435E-06 -0.2445E-06   0.000       4.017       0.000    
     945  0.4253      0.4500E-03 NODE           1 -99.9%  0.6202E-04  0.1426E-04  0.3445E-06 -0.2452E-06   0.000       4.017       0.000    
     946  0.4258      0.4500E-03 NODE           1 -99.9%  0.6228E-04  0.1430E-04  0.3455E-06 -0.2459E-06   0.000       4.017       0.000    
     947  0.4262      0.4500E-03 NODE           1 -99.9%  0.6254E-04  0.1433E-04  0.3466E-06 -0.2466E-06   0.000       4.017       0.000    
     948  0.4267      0.4500E-03 NODE           1 -99.9%  0.6281E-04  0.1437E-04  0.3477E-06 -0.2473E-06   0.000       4.017       0.000    
     949  0.4271      0.4500E-03 NODE           1 -99.9%  0.6308E-04  0.1441E-04  0.3488E-06 -0.2480E-06   0.000       4.017       0.000    
     950  0.4276      0.4500E-03 NODE           1 -99.9%  0.6334E-04  0.1444E-04  0.3499E-06 -0.2487E-06   0.000       4.017       0.000    
     951  0.4280      0.4500E-03 NODE           1 -99.9%  0.6361E-04  0.1448E-04  0.3510E-06 -0.2494E-06   0.000       4.017       0.000    
     952  0.4285      0.4500E-03 NODE           1 -99.9%  0.6388E-04  0.1451E-04  0.3521E-06 -0.2501E-06   0.000       4.017       0.000    
     953  0.4289      0.4500E-03 NODE           1 -99.9%  0.6415E-04  0.1455E-04  0.3533E-06 -0.2508E-06   0.000       4.017       0.000    
     954  0.4294      0.4500E-03 NODE           1 -99.9%  0.6442E-04  0.1459E-04  0.3544E-06 -0.2515E-06   0.000       4.017       0.000    
     955  0.4298      0.4500E-03 NODE           1 -99.9%  0.6469E-04  0.1462E-04  0.3556E-06 -0.2523E-06   0.000       4.017       0.000    
     956  0.4303      0.4500E-03 NODE           4 -99.9%  0.6496E-04  0.1466E-04  0.3568E-06 -0.2530E-06   0.000       4.017       0.000    
     957  0.4307      0.4500E-03 NODE           1 -99.9%  0.6523E-04  0.1469E-04  0.3580E-06 -0.2537E-06   0.000       4.017       0.000    
     958  0.4312      0.4500E-03 NODE           1 -99.9%  0.6551E-04  0.1473E-04  0.3592E-06 -0.2544E-06   0.000       4.017       0.000    
     959  0.4316      0.4500E-03 NODE           1 -99.9%  0.6578E-04  0.1477E-04  0.3604E-06 -0.2551E-06   0.000       4.017       0.000    
     960  0.4321      0.4500E-03 NODE           1 -99.9%  0.6606E-04  0.1481E-04  0.3616E-06 -0.2558E-06   0.000       4.017       0.000    
     961  0.4325      0.4500E-03 NODE           1 -99.9%  0.6633E-04  0.1484E-04  0.3629E-06 -0.2566E-06   0.000       4.017       0.000    
     962  0.4330      0.4500E-03 NODE           1 -99.9%  0.6661E-04  0.1488E-04  0.3642E-06 -0.2573E-06   0.000       4.017       0.000    
     963  0.4334      0.4500E-03 NODE           1 -99.9%  0.6689E-04  0.1492E-04  0.3654E-06 -0.2580E-06   0.000       4.017       0.000    
     964  0.4339      0.4500E-03 NODE           1 -99.9%  0.6716E-04  0.1496E-04  0.3667E-06 -0.2587E-06   0.000       4.017       0.000    
     965  0.4343      0.4500E-03 NODE           1 -99.9%  0.6744E-04  0.1500E-04  0.3680E-06 -0.2595E-06   0.000       4.017       0.000    
     966  0.4348      0.4500E-03 NODE           1 -99.9%  0.6772E-04  0.1503E-04  0.3693E-06 -0.2602E-06   0.000       4.017       0.000    
     967  0.4352      0.4500E-03 NODE           4 -99.9%  0.6801E-04  0.1507E-04  0.3707E-06 -0.2609E-06   0.000       4.017       0.000    
     968  0.4357      0.4500E-03 NODE           1 -99.9%  0.6829E-04  0.1511E-04  0.3720E-06 -0.2616E-06   0.000       4.017       0.000    
     969  0.4361      0.4500E-03 NODE           1 -99.9%  0.6857E-04  0.1515E-04  0.3733E-06 -0.2624E-06   0.000       4.017       0.000    
     970  0.4366      0.4500E-03 NODE           1 -99.9%  0.6885E-04  0.1519E-04  0.3747E-06 -0.2631E-06   0.000       4.017       0.000    
     971  0.4370      0.4500E-03 NODE           4 -99.9%  0.6914E-04  0.1523E-04  0.3760E-06 -0.2638E-06   0.000       4.017       0.000    
     972  0.4375      0.4500E-03 NODE           4 -99.9%  0.6942E-04  0.1527E-04  0.3774E-06 -0.2646E-06   0.000       4.017       0.000    
     973  0.4379      0.4500E-03 NODE           1 -99.9%  0.6971E-04  0.1531E-04  0.3788E-06 -0.2653E-06   0.000       4.017       0.000    
     974  0.4384      0.4500E-03 NODE           1 -99.9%  0.7000E-04  0.1535E-04  0.3802E-06 -0.2661E-06   0.000       4.017       0.000    
     975  0.4388      0.4500E-03 NODE           1 -99.9%  0.7029E-04  0.1539E-04  0.3816E-06 -0.2668E-06   0.000       4.017       0.000    
     976  0.4393      0.4500E-03 NODE           4 -99.9%  0.7057E-04  0.1543E-04  0.3830E-06 -0.2675E-06   0.000       4.017       0.000    
     977  0.4397      0.4500E-03 NODE           1 -99.9%  0.7086E-04  0.1547E-04  0.3844E-06 -0.2683E-06   0.000       4.017       0.000    
     978  0.4402      0.4500E-03 NODE           1 -99.9%  0.7115E-04  0.1551E-04  0.3858E-06 -0.2690E-06   0.000       4.017       0.000    
     979  0.4406      0.4500E-03 NODE           1 -99.9%  0.7145E-04  0.1555E-04  0.3872E-06 -0.2698E-06   0.000       4.017       0.000    
     980  0.4411      0.4500E-03 NODE           1 -99.9%  0.7174E-04  0.1559E-04  0.3886E-06 -0.2705E-06   0.000       4.017       0.000    
     981  0.4415      0.4500E-03 NODE           1 -99.9%  0.7203E-04  0.1563E-04  0.3900E-06 -0.2713E-06   0.000       4.017       0.000    
     982  0.4420      0.4500E-03 NODE           1 -99.9%  0.7233E-04  0.1568E-04  0.3915E-06 -0.2720E-06   0.000       4.017       0.000    
     983  0.4424      0.4500E-03 NODE           1 -99.9%  0.7262E-04  0.1572E-04  0.3929E-06 -0.2728E-06   0.000       4.017       0.000    
     984  0.4429      0.4500E-03 NODE           1 -99.9%  0.7292E-04  0.1576E-04  0.3943E-06 -0.2735E-06   0.000       4.017       0.000    
     985  0.4433      0.4500E-03 NODE           4 -99.9%  0.7321E-04  0.1580E-04  0.3958E-06 -0.2743E-06   0.000       4.017       0.000    
     986  0.4438      0.4500E-03 NODE           1 -99.9%  0.7351E-04  0.1584E-04  0.3972E-06 -0.2751E-06   0.000       4.017       0.000    
     987  0.4442      0.4500E-03 NODE           1 -99.9%  0.7381E-04  0.1588E-04  0.3986E-06 -0.2758E-06   0.000       4.017       0.000    
     988  0.4447      0.4500E-03 NODE           1 -99.9%  0.7411E-04  0.1593E-04  0.4001E-06 -0.2766E-06   0.000       4.017       0.000    
     989  0.4451      0.4500E-03 NODE           1 -99.9%  0.7441E-04  0.1597E-04  0.4015E-06 -0.2773E-06   0.000       4.017       0.000    
   CYCLE    TIME      TIME-STEP  ELEMENT          ERROR  I-ENERGY    K-ENERGY T  K-ENERGY R  EXT-WORK     MAS.ERR     TOTAL MASS  MASS ADDED
     990  0.4456      0.4500E-03 NODE           1 -99.9%  0.7471E-04  0.1601E-04  0.4030E-06 -0.2781E-06   0.000       4.017       0.000    
     991  0.4460      0.4500E-03 NODE           1 -99.9%  0.7501E-04  0.1605E-04  0.4044E-06 -0.2789E-06   0.000       4.017       0.000    
     992  0.4465      0.4500E-03 NODE           4 -99.9%  0.7532E-04  0.1610E-04  0.4058E-06 -0.2796E-06   0.000       4.017       0.000    
     993  0.4469      0.4500E-03 NODE           1 -99.9%  0.7562E-04  0.1614E-04  0.4072E-06 -0.2804E-06   0.000       4.017       0.000    
     994  0.4474      0.4500E-03 NODE           1 -99.9%  0.7592E-04  0.1618E-04  0.4087E-06 -0.2812E-06   0.000       4.017       0.000    
     995  0.4478      0.4500E-03 NODE           1 -99.9%  0.7623E-04  0.1622E-04  0.4101E-06 -0.2820E-06   0.000       4.017       0.000    
     996  0.4483      0.4500E-03 NODE           1 -99.9%  0.7654E-04  0.1627E-04  0.4115E-06 -0.2827E-06   0.000       4.017       0.000    
     997  0.4487      0.4500E-03 NODE           1 -99.9%  0.7684E-04  0.1631E-04  0.4129E-06 -0.2835E-06   0.000       4.017       0.000    
     998  0.4492      0.4500E-03 NODE           1 -99.9%  0.7715E-04  0.1635E-04  0.4143E-06 -0.2843E-06   0.000       4.017       0.000    
     999  0.4496      0.4500E-03 NODE           1 -99.9%  0.7746E-04  0.1639E-04  0.4157E-06 -0.2851E-06   0.000       4.017       0.000    
    1000  0.4501      0.4500E-03 NODE           1 -99.9%  0.7777E-04  0.1644E-04  0.4171E-06 -0.2859E-06   0.000       4.017       0.000    
    1001  0.4505      0.4500E-03 NODE           1 -99.9%  0.7808E-04  0.1648E-04  0.4185E-06 -0.2866E-06   0.000       4.017       0.000    
    1002  0.4510      0.4500E-03 NODE           4 -99.9%  0.7840E-04  0.1652E-04  0.4199E-06 -0.2874E-06   0.000       4.017       0.000    
    1003  0.4514      0.4500E-03 NODE           1 -99.9%  0.7871E-04  0.1657E-04  0.4213E-06 -0.2882E-06   0.000       4.017       0.000    
    1004  0.4519      0.4500E-03 NODE           4 -99.9%  0.7902E-04  0.1661E-04  0.4227E-06 -0.2890E-06   0.000       4.017       0.000    
    1005  0.4523      0.4500E-03 NODE           1 -99.9%  0.7934E-04  0.1665E-04  0.4240E-06 -0.2898E-06   0.000       4.017       0.000    
    1006  0.4528      0.4500E-03 NODE           1 -99.9%  0.7965E-04  0.1670E-04  0.4254E-06 -0.2906E-06   0.000       4.017       0.000    
    1007  0.4532      0.4500E-03 NODE           1 -99.9%  0.7997E-04  0.1674E-04  0.4267E-06 -0.2914E-06   0.000       4.017       0.000    
    1008  0.4537      0.4500E-03 NODE           1 -99.9%  0.8029E-04  0.1678E-04  0.4281E-06 -0.2922E-06   0.000       4.017       0.000    
    1009  0.4541      0.4500E-03 NODE           1 -99.9%  0.8061E-04  0.1683E-04  0.4294E-06 -0.2930E-06   0.000       4.017       0.000    
    1010  0.4546      0.4500E-03 NODE           1 -99.9%  0.8093E-04  0.1687E-04  0.4308E-06 -0.2938E-06   0.000       4.017       0.000    
    1011  0.4550      0.4500E-03 NODE           1 -99.9%  0.8125E-04  0.1691E-04  0.4321E-06 -0.2946E-06   0.000       4.017       0.000    
    1012  0.4555      0.4500E-03 NODE           1 -99.9%  0.8157E-04  0.1696E-04  0.4334E-06 -0.2954E-06   0.000       4.017       0.000    
    1013  0.4559      0.4500E-03 NODE           1 -99.9%  0.8189E-04  0.1700E-04  0.4347E-06 -0.2962E-06   0.000       4.017       0.000    
    1014  0.4564      0.4500E-03 NODE           1 -99.9%  0.8221E-04  0.1704E-04  0.4360E-06 -0.2970E-06   0.000       4.017       0.000    
    1015  0.4568      0.4500E-03 NODE           1 -99.9%  0.8254E-04  0.1709E-04  0.4373E-06 -0.2978E-06   0.000       4.017       0.000    
    1016  0.4573      0.4500E-03 NODE           1 -99.9%  0.8286E-04  0.1713E-04  0.4385E-06 -0.2986E-06   0.000       4.017       0.000    
    1017  0.4577      0.4500E-03 NODE           1 -99.9%  0.8319E-04  0.1717E-04  0.4398E-06 -0.2994E-06   0.000       4.017       0.000    
    1018  0.4582      0.4500E-03 NODE           1 -99.9%  0.8352E-04  0.1722E-04  0.4411E-06 -0.3002E-06   0.000       4.017       0.000    
    1019  0.4586      0.4500E-03 NODE           1 -99.9%  0.8384E-04  0.1726E-04  0.4423E-06 -0.3011E-06   0.000       4.017       0.000    
    1020  0.4591      0.4500E-03 NODE           1 -99.9%  0.8417E-04  0.1730E-04  0.4435E-06 -0.3019E-06   0.000       4.017       0.000    
    1021  0.4595      0.4500E-03 NODE           1 -99.9%  0.8450E-04  0.1735E-04  0.4448E-06 -0.3027E-06   0.000       4.017       0.000    
    1022  0.4600      0.4500E-03 NODE           1 -99.9%  0.8483E-04  0.1739E-04  0.4460E-06 -0.3035E-06   0.000       4.017       0.000    
    1023  0.4604      0.4500E-03 NODE           1 -99.9%  0.8516E-04  0.1743E-04  0.4472E-06 -0.3043E-06   0.000       4.017       0.000    
    1024  0.4609      0.4500E-03 NODE           1 -99.9%  0.8550E-04  0.1748E-04  0.4484E-06 -0.3052E-06   0.000       4.017       0.000    
    1025  0.4613      0.4500E-03 NODE           1 -99.9%  0.8583E-04  0.1752E-04  0.4496E-06 -0.3060E-06   0.000       4.017       0.000    
    1026  0.4618      0.4500E-03 NODE           1 -99.9%  0.8617E-04  0.1756E-04  0.4508E-06 -0.3068E-06   0.000       4.017       0.000    
    1027  0.4622      0.4500E-03 NODE           4 -99.9%  0.8650E-04  0.1761E-04  0.4520E-06 -0.3076E-06   0.000       4.017       0.000    
    1028  0.4627      0.4500E-03 NODE           4 -99.9%  0.8684E-04  0.1765E-04  0.4531E-06 -0.3085E-06   0.000       4.017       0.000    
    1029  0.4631      0.4500E-03 NODE           1 -99.9%  0.8718E-04  0.1769E-04  0.4543E-06 -0.3093E-06   0.000       4.017       0.000    
    1030  0.4636      0.4500E-03 NODE           1 -99.9%  0.8751E-04  0.1774E-04  0.4554E-06 -0.3101E-06   0.000       4.017       0.000    
    1031  0.4640      0.4500E-03 NODE           4 -99.9%  0.8785E-04  0.1778E-04  0.4566E-06 -0.3110E-06   0.000       4.017       0.000    
    1032  0.4645      0.4500E-03 NODE           4 -99.9%  0.8819E-04  0.1782E-04  0.4577E-06 -0.3118E-06   0.000       4.017       0.000    
    1033  0.4649      0.4500E-03 NODE           1 -99.9%  0.8854E-04  0.1786E-04  0.4588E-06 -0.3126E-06   0.000       4.017       0.000    
    1034  0.4654      0.4500E-03 NODE           1 -99.9%  0.8888E-04  0.1791E-04  0.4600E-06 -0.3135E-06   0.000       4.017       0.000    
    1035  0.4658      0.4500E-03 NODE           1 -99.9%  0.8922E-04  0.1795E-04  0.4611E-06 -0.3143E-06   0.000       4.017       0.000    
    1036  0.4663      0.4500E-03 NODE           1 -99.9%  0.8957E-04  0.1799E-04  0.4622E-06 -0.3152E-06   0.000       4.017       0.000    
    1037  0.4667      0.4500E-03 NODE           4 -99.9%  0.8991E-04  0.1803E-04  0.4632E-06 -0.3160E-06   0.000       4.017       0.000    
    1038  0.4672      0.4500E-03 NODE           1 -99.9%  0.9026E-04  0.1808E-04  0.4643E-06 -0.3169E-06   0.000       4.017       0.000    
    1039  0.4676      0.4500E-03 NODE           1 -99.9%  0.9061E-04  0.1812E-04  0.4654E-06 -0.3177E-06   0.000       4.017       0.000    
    1040  0.4681      0.4500E-03 NODE           4 -99.9%  0.9095E-04  0.1816E-04  0.4665E-06 -0.3186E-06   0.000       4.017       0.000    
    1041  0.4685      0.4500E-03 NODE           4 -99.9%  0.9130E-04  0.1820E-04  0.4675E-06 -0.3194E-06   0.000       4.017       0.000    
    1042  0.4690      0.4500E-03 NODE           1 -99.9%  0.9166E-04  0.1824E-04  0.4686E-06 -0.3203E-06   0.000       4.017       0.000    
    1043  0.4694      0.4500E-03 NODE           1 -99.9%  0.9201E-04  0.1828E-04  0.4696E-06 -0.3211E-06   0.000       4.017       0.000    
    1044  0.4699      0.4500E-03 NODE           1 -99.9%  0.9236E-04  0.1833E-04  0.4706E-06 -0.3220E-06   0.000       4.017       0.000    
   CYCLE    TIME      TIME-STEP  ELEMENT          ERROR  I-ENERGY    K-ENERGY T  K-ENERGY R  EXT-WORK     MAS.ERR     TOTAL MASS  MASS ADDED
    1045  0.4703      0.4500E-03 NODE           1 -99.9%  0.9271E-04  0.1837E-04  0.4716E-06 -0.3228E-06   0.000       4.017       0.000    
    1046  0.4708      0.4500E-03 NODE           1 -99.9%  0.9307E-04  0.1841E-04  0.4727E-06 -0.3237E-06   0.000       4.017       0.000    
    1047  0.4712      0.4500E-03 NODE           1 -99.9%  0.9342E-04  0.1845E-04  0.4737E-06 -0.3246E-06   0.000       4.017       0.000    
    1048  0.4717      0.4500E-03 NODE           1 -99.9%  0.9378E-04  0.1849E-04  0.4746E-06 -0.3254E-06   0.000       4.017       0.000    
    1049  0.4721      0.4500E-03 NODE           1 -99.9%  0.9414E-04  0.1853E-04  0.4756E-06 -0.3263E-06   0.000       4.017       0.000    
    1050  0.4726      0.4500E-03 NODE           1 -99.9%  0.9450E-04  0.1857E-04  0.4766E-06 -0.3272E-06   0.000       4.017       0.000    
    1051  0.4730      0.4500E-03 NODE           1 -99.9%  0.9486E-04  0.1861E-04  0.4776E-06 -0.3280E-06   0.000       4.017       0.000    
    1052  0.4735      0.4500E-03 NODE           4 -99.9%  0.9522E-04  0.1865E-04  0.4785E-06 -0.3289E-06   0.000       4.017       0.000    
    1053  0.4739      0.4500E-03 NODE           1 -99.9%  0.9558E-04  0.1869E-04  0.4795E-06 -0.3298E-06   0.000       4.017       0.000    
    1054  0.4744      0.4500E-03 NODE           1 -99.9%  0.9594E-04  0.1873E-04  0.4804E-06 -0.3307E-06   0.000       4.017       0.000    
    1055  0.4748      0.4500E-03 NODE           1 -99.9%  0.9631E-04  0.1877E-04  0.4814E-06 -0.3315E-06   0.000       4.017       0.000    
    1056  0.4753      0.4500E-03 NODE           1 -99.9%  0.9667E-04  0.1880E-04  0.4823E-06 -0.3324E-06   0.000       4.017       0.000    
    1057  0.4757      0.4500E-03 NODE           1 -99.9%  0.9704E-04  0.1884E-04  0.4832E-06 -0.3333E-06   0.000       4.017       0.000    
    1058  0.4762      0.4500E-03 NODE           1 -99.9%  0.9740E-04  0.1888E-04  0.4841E-06 -0.3342E-06   0.000       4.017       0.000    
    1059  0.4766      0.4500E-03 NODE          21 -99.9%  0.9777E-04  0.1892E-04  0.4850E-06 -0.3350E-06   0.000       4.017       0.000    
    1060  0.4771      0.4500E-03 NODE          21 -99.9%  0.9814E-04  0.1896E-04  0.4859E-06 -0.3359E-06   0.000       4.017       0.000    
    1061  0.4775      0.4500E-03 NODE           1 -99.9%  0.9851E-04  0.1899E-04  0.4868E-06 -0.3368E-06   0.000       4.017       0.000    
    1062  0.4780      0.4500E-03 NODE          21 -99.9%  0.9888E-04  0.1903E-04  0.4876E-06 -0.3377E-06   0.000       4.017       0.000    
    1063  0.4784      0.4500E-03 NODE          21 -99.9%  0.9925E-04  0.1907E-04  0.4885E-06 -0.3386E-06   0.000       4.017       0.000    
    1064  0.4789      0.4500E-03 NODE           4 -99.9%  0.9963E-04  0.1910E-04  0.4893E-06 -0.3395E-06   0.000       4.017       0.000    
    1065  0.4793      0.4500E-03 NODE          34 -99.9%  0.1000E-03  0.1914E-04  0.4902E-06 -0.3404E-06   0.000       4.017       0.000    
    1066  0.4798      0.4500E-03 NODE          21 -99.9%  0.1004E-03  0.1917E-04  0.4910E-06 -0.3413E-06   0.000       4.017       0.000    
    1067  0.4802      0.4500E-03 NODE          21 -99.9%  0.1008E-03  0.1921E-04  0.4918E-06 -0.3422E-06   0.000       4.017       0.000    
    1068  0.4807      0.4500E-03 NODE           1 -99.9%  0.1011E-03  0.1925E-04  0.4927E-06 -0.3431E-06   0.000       4.017       0.000    
    1069  0.4811      0.4500E-03 NODE          21 -99.9%  0.1015E-03  0.1928E-04  0.4935E-06 -0.3440E-06   0.000       4.017       0.000    
    1070  0.4816      0.4500E-03 NODE          21 -99.9%  0.1019E-03  0.1931E-04  0.4943E-06 -0.3449E-06   0.000       4.017       0.000    
    1071  0.4820      0.4500E-03 NODE          21 -99.9%  0.1023E-03  0.1935E-04  0.4950E-06 -0.3458E-06   0.000       4.017       0.000    
    1072  0.4825      0.4500E-03 NODE          21 -99.9%  0.1027E-03  0.1938E-04  0.4958E-06 -0.3467E-06   0.000       4.017       0.000    
    1073  0.4829      0.4500E-03 NODE          21 -99.9%  0.1030E-03  0.1941E-04  0.4966E-06 -0.3476E-06   0.000       4.017       0.000    
    1074  0.4834      0.4500E-03 NODE          21 -99.9%  0.1034E-03  0.1945E-04  0.4974E-06 -0.3485E-06   0.000       4.017       0.000    
    1075  0.4838      0.4500E-03 NODE          21 -99.9%  0.1038E-03  0.1948E-04  0.4981E-06 -0.3494E-06   0.000       4.017       0.000    
    1076  0.4843      0.4500E-03 NODE          21 -99.9%  0.1042E-03  0.1951E-04  0.4988E-06 -0.3503E-06   0.000       4.017       0.000    
    1077  0.4847      0.4500E-03 NODE          34 -99.9%  0.1046E-03  0.1954E-04  0.4996E-06 -0.3512E-06   0.000       4.017       0.000    
    1078  0.4852      0.4500E-03 NODE          34 -99.9%  0.1050E-03  0.1958E-04  0.5003E-06 -0.3521E-06   0.000       4.017       0.000    
    1079  0.4856      0.4500E-03 NODE          21 -99.9%  0.1054E-03  0.1961E-04  0.5010E-06 -0.3530E-06   0.000       4.017       0.000    
    1080  0.4861      0.4500E-03 NODE          21 -99.9%  0.1057E-03  0.1964E-04  0.5017E-06 -0.3539E-06   0.000       4.017       0.000    
    1081  0.4865      0.4500E-03 NODE          21 -99.9%  0.1061E-03  0.1967E-04  0.5024E-06 -0.3548E-06   0.000       4.017       0.000    
    1082  0.4870      0.4500E-03 NODE          21 -99.9%  0.1065E-03  0.1970E-04  0.5031E-06 -0.3558E-06   0.000       4.017       0.000    
    1083  0.4874      0.4500E-03 NODE          21 -99.9%  0.1069E-03  0.1973E-04  0.5038E-06 -0.3567E-06   0.000       4.017       0.000    
    1084  0.4879      0.4500E-03 NODE          21 -99.9%  0.1073E-03  0.1976E-04  0.5045E-06 -0.3576E-06   0.000       4.017       0.000    
    1085  0.4883      0.4500E-03 NODE          21 -99.9%  0.1077E-03  0.1979E-04  0.5051E-06 -0.3585E-06   0.000       4.017       0.000    
    1086  0.4888      0.4500E-03 NODE          21 -99.9%  0.1081E-03  0.1982E-04  0.5058E-06 -0.3594E-06   0.000       4.017       0.000    
    1087  0.4892      0.4500E-03 NODE          21 -99.9%  0.1085E-03  0.1985E-04  0.5064E-06 -0.3604E-06   0.000       4.017       0.000    
    1088  0.4897      0.4500E-03 NODE          21 -99.9%  0.1089E-03  0.1988E-04  0.5070E-06 -0.3613E-06   0.000       4.017       0.000    
    1089  0.4901      0.4500E-03 NODE          21 -99.9%  0.1093E-03  0.1990E-04  0.5077E-06 -0.3622E-06   0.000       4.017       0.000    
    1090  0.4906      0.4500E-03 NODE          21 -99.9%  0.1097E-03  0.1993E-04  0.5083E-06 -0.3631E-06   0.000       4.017       0.000    
    1091  0.4910      0.4500E-03 NODE          34 -99.9%  0.1101E-03  0.1996E-04  0.5089E-06 -0.3640E-06   0.000       4.017       0.000    
    1092  0.4915      0.4500E-03 NODE          21 -99.9%  0.1105E-03  0.1999E-04  0.5095E-06 -0.3650E-06   0.000       4.017       0.000    
    1093  0.4919      0.4500E-03 NODE          21 -99.9%  0.1109E-03  0.2001E-04  0.5101E-06 -0.3659E-06   0.000       4.017       0.000    
    1094  0.4924      0.4500E-03 NODE          21 -99.9%  0.1113E-03  0.2004E-04  0.5107E-06 -0.3668E-06   0.000       4.017       0.000    
    1095  0.4928      0.4500E-03 NODE          21 -99.9%  0.1117E-03  0.2007E-04  0.5113E-06 -0.3678E-06   0.000       4.017       0.000    
    1096  0.4933      0.4500E-03 NODE          21 -99.9%  0.1121E-03  0.2009E-04  0.5119E-06 -0.3687E-06   0.000       4.017       0.000    
    1097  0.4937      0.4500E-03 NODE          21 -99.9%  0.1126E-03  0.2012E-04  0.5124E-06 -0.3696E-06   0.000       4.017       0.000    
    1098  0.4942      0.4500E-03 NODE          21 -99.9%  0.1130E-03  0.2015E-04  0.5130E-06 -0.3706E-06   0.000       4.017       0.000    
    1099  0.4946      0.4500E-03 NODE          21 -99.9%  0.1134E-03  0.2017E-04  0.5135E-06 -0.3715E-06   0.000       4.017       0.000    
   CYCLE    TIME      TIME-STEP  ELEMENT          ERROR  I-ENERGY    K-ENERGY T  K-ENERGY R  EXT-WORK     MAS.ERR     TOTAL MASS  MASS ADDED
    1100  0.4951      0.4500E-03 NODE          21 -99.9%  0.1138E-03  0.2020E-04  0.5141E-06 -0.3724E-06   0.000       4.017       0.000    
    1101  0.4955      0.4500E-03 NODE          21 -99.9%  0.1142E-03  0.2022E-04  0.5146E-06 -0.3734E-06   0.000       4.017       0.000    
    1102  0.4960      0.4500E-03 NODE          21 -99.9%  0.1146E-03  0.2025E-04  0.5152E-06 -0.3743E-06   0.000       4.017       0.000    
    1103  0.4964      0.4500E-03 NODE          21 -99.9%  0.1150E-03  0.2028E-04  0.5157E-06 -0.3752E-06   0.000       4.017       0.000    
    1104  0.4969      0.4500E-03 NODE          34 -99.9%  0.1155E-03  0.2030E-04  0.5162E-06 -0.3762E-06   0.000       4.017       0.000    
    1105  0.4973      0.4500E-03 NODE          34 -99.9%  0.1159E-03  0.2033E-04  0.5167E-06 -0.3771E-06   0.000       4.017       0.000    
    1106  0.4978      0.4500E-03 NODE          34 -99.9%  0.1163E-03  0.2035E-04  0.5172E-06 -0.3781E-06   0.000       4.017       0.000    
    1107  0.4982      0.4500E-03 NODE          21 -99.9%  0.1167E-03  0.2038E-04  0.5177E-06 -0.3790E-06   0.000       4.017       0.000    
    1108  0.4987      0.4500E-03 NODE          21 -99.9%  0.1171E-03  0.2040E-04  0.5182E-06 -0.3800E-06   0.000       4.017       0.000    
    1109  0.4991      0.4500E-03 NODE          21 -99.9%  0.1176E-03  0.2043E-04  0.5187E-06 -0.3809E-06   0.000       4.017       0.000    
    1110  0.4996      0.4500E-03 NODE          21 -99.9%  0.1180E-03  0.2045E-04  0.5192E-06 -0.3819E-06   0.000       4.017       0.000    
    1111  0.5000      0.4950E-03 NODE          21 -99.9%  0.1184E-03  0.2047E-04  0.5196E-06 -0.3821E-06   0.000       4.017       0.000    
    1112  0.5005      0.5445E-03 NODE          21 -99.9%  0.1189E-03  0.2050E-04  0.5202E-06 -0.3823E-06   0.000       4.017       0.000    
    1113  0.5011      0.5990E-03 NODE          21 -99.9%  0.1194E-03  0.2053E-04  0.5207E-06 -0.3826E-06   0.000       4.017       0.000    
    1114  0.5017      0.6589E-03 NODE          21 -99.9%  0.1200E-03  0.2057E-04  0.5213E-06 -0.3830E-06   0.000       4.017       0.000    
    1115  0.5023      0.7248E-03 NODE          21 -99.9%  0.1206E-03  0.2060E-04  0.5220E-06 -0.3835E-06   0.000       4.017       0.000    
    1116  0.5031      0.7530E-03 NODE          21 -99.9%  0.1213E-03  0.2064E-04  0.5227E-06 -0.3840E-06   0.000       4.017       0.000    
    1117  0.5038      0.7530E-03 NODE          21 -99.9%  0.1220E-03  0.2068E-04  0.5234E-06 -0.3846E-06   0.000       4.017       0.000    
    1118  0.5046      0.7530E-03 NODE          21 -99.9%  0.1228E-03  0.2072E-04  0.5241E-06 -0.3852E-06   0.000       4.017       0.000    
    1119  0.5053      0.7530E-03 NODE          21 -99.9%  0.1235E-03  0.2076E-04  0.5248E-06 -0.3858E-06   0.000       4.017       0.000    
    1120  0.5061      0.7530E-03 NODE          21 -99.9%  0.1242E-03  0.2080E-04  0.5255E-06 -0.3863E-06   0.000       4.017       0.000    
    1121  0.5068      0.7530E-03 NODE          21 -99.9%  0.1250E-03  0.2084E-04  0.5262E-06 -0.3869E-06   0.000       4.017       0.000    
    1122  0.5076      0.7530E-03 NODE          21 -99.9%  0.1257E-03  0.2088E-04  0.5268E-06 -0.3875E-06   0.000       4.017       0.000    
    1123  0.5083      0.7530E-03 NODE          21 -99.9%  0.1265E-03  0.2092E-04  0.5275E-06 -0.3881E-06   0.000       4.017       0.000    
    1124  0.5091      0.7530E-03 NODE          21 -99.9%  0.1272E-03  0.2096E-04  0.5281E-06 -0.3887E-06   0.000       4.017       0.000    
    1125  0.5098      0.7530E-03 NODE          21 -99.9%  0.1280E-03  0.2100E-04  0.5287E-06 -0.3893E-06   0.000       4.017       0.000    
    1126  0.5106      0.7530E-03 NODE          21 -99.9%  0.1287E-03  0.2105E-04  0.5293E-06 -0.3899E-06   0.000       4.017       0.000    
    1127  0.5113      0.7530E-03 NODE          21 -99.9%  0.1295E-03  0.2109E-04  0.5299E-06 -0.3904E-06   0.000       4.017       0.000    
    1128  0.5121      0.7530E-03 NODE          21 -99.9%  0.1303E-03  0.2113E-04  0.5304E-06 -0.3910E-06   0.000       4.017       0.000    
    1129  0.5128      0.7530E-03 NODE          21 -99.9%  0.1310E-03  0.2117E-04  0.5310E-06 -0.3916E-06   0.000       4.017       0.000    
    1130  0.5136      0.7530E-03 NODE          21 -99.9%  0.1318E-03  0.2121E-04  0.5315E-06 -0.3922E-06   0.000       4.017       0.000    
    1131  0.5143      0.7530E-03 NODE          21 -99.9%  0.1326E-03  0.2125E-04  0.5321E-06 -0.3928E-06   0.000       4.017       0.000    
    1132  0.5151      0.7530E-03 NODE          21 -99.9%  0.1333E-03  0.2130E-04  0.5326E-06 -0.3934E-06   0.000       4.017       0.000    
    1133  0.5159      0.7530E-03 NODE          21 -99.9%  0.1341E-03  0.2134E-04  0.5332E-06 -0.3940E-06   0.000       4.017       0.000    
    1134  0.5166      0.7530E-03 NODE          21 -99.9%  0.1349E-03  0.2138E-04  0.5337E-06 -0.3946E-06   0.000       4.017       0.000    
    1135  0.5174      0.7530E-03 NODE          21 -99.9%  0.1357E-03  0.2142E-04  0.5342E-06 -0.3953E-06   0.000       4.017       0.000    
    1136  0.5181      0.7530E-03 NODE          21 -99.9%  0.1365E-03  0.2147E-04  0.5347E-06 -0.3959E-06   0.000       4.017       0.000    
    1137  0.5189      0.7530E-03 NODE          21 -99.9%  0.1373E-03  0.2151E-04  0.5353E-06 -0.3965E-06   0.000       4.017       0.000    
    1138  0.5196      0.7530E-03 NODE          21 -99.9%  0.1381E-03  0.2156E-04  0.5358E-06 -0.3971E-06   0.000       4.017       0.000    
    1139  0.5204      0.7530E-03 NODE          21 -99.9%  0.1389E-03  0.2160E-04  0.5364E-06 -0.3977E-06   0.000       4.017       0.000    
    1140  0.5211      0.7530E-03 NODE          21 -99.9%  0.1397E-03  0.2165E-04  0.5369E-06 -0.3983E-06   0.000       4.017       0.000    
    1141  0.5219      0.7530E-03 NODE          21 -99.9%  0.1405E-03  0.2170E-04  0.5375E-06 -0.3989E-06   0.000       4.017       0.000    
    1142  0.5226      0.7530E-03 NODE          21 -99.9%  0.1413E-03  0.2174E-04  0.5380E-06 -0.3996E-06   0.000       4.017       0.000    
    1143  0.5234      0.7530E-03 NODE          21 -99.9%  0.1421E-03  0.2179E-04  0.5386E-06 -0.4002E-06   0.000       4.017       0.000    
    1144  0.5241      0.7530E-03 NODE          21 -99.9%  0.1430E-03  0.2184E-04  0.5392E-06 -0.4008E-06   0.000       4.017       0.000    
    1145  0.5249      0.7530E-03 NODE          21 -99.9%  0.1438E-03  0.2189E-04  0.5399E-06 -0.4014E-06   0.000       4.017       0.000    
    1146  0.5256      0.7530E-03 NODE          21 -99.9%  0.1446E-03  0.2194E-04  0.5405E-06 -0.4021E-06   0.000       4.017       0.000    
    1147  0.5264      0.7530E-03 NODE          21 -99.9%  0.1454E-03  0.2199E-04  0.5412E-06 -0.4027E-06   0.000       4.017       0.000    
    1148  0.5271      0.7530E-03 NODE          21 -99.9%  0.1463E-03  0.2204E-04  0.5419E-06 -0.4033E-06   0.000       4.017       0.000    
    1149  0.5279      0.7530E-03 NODE          21 -99.9%  0.1471E-03  0.2209E-04  0.5426E-06 -0.4040E-06   0.000       4.017       0.000    
    1150  0.5287      0.7530E-03 NODE          21 -99.9%  0.1479E-03  0.2214E-04  0.5434E-06 -0.4046E-06   0.000       4.017       0.000    
    1151  0.5294      0.7530E-03 NODE          21 -99.9%  0.1488E-03  0.2220E-04  0.5442E-06 -0.4053E-06   0.000       4.017       0.000    
    1152  0.5302      0.7530E-03 NODE          21 -99.9%  0.1496E-03  0.2225E-04  0.5450E-06 -0.4059E-06   0.000       4.017       0.000    
    1153  0.5309      0.7530E-03 NODE          21 -99.9%  0.1505E-03  0.2231E-04  0.5459E-06 -0.4065E-06   0.000       4.017       0.000    
    1154  0.5317      0.7530E-03 NODE          21 -99.9%  0.1514E-03  0.2236E-04  0.5468E-06 -0.4072E-06   0.000       4.017       0.000    
   CYCLE    TIME      TIME-STEP  ELEMENT          ERROR  I-ENERGY    K-ENERGY T  K-ENERGY R  EXT-WORK     MAS.ERR     TOTAL MASS  MASS ADDED
    1155  0.5324      0.7530E-03 NODE          21 -99.9%  0.1522E-03  0.2242E-04  0.5478E-06 -0.4078E-06   0.000       4.017       0.000    
    1156  0.5332      0.7530E-03 NODE          21 -99.9%  0.1531E-03  0.2248E-04  0.5488E-06 -0.4085E-06   0.000       4.017       0.000    
    1157  0.5339      0.7530E-03 NODE          21 -99.9%  0.1539E-03  0.2253E-04  0.5499E-06 -0.4091E-06   0.000       4.017       0.000    
    1158  0.5347      0.7530E-03 NODE          21 -99.9%  0.1548E-03  0.2259E-04  0.5510E-06 -0.4098E-06   0.000       4.017       0.000    
    1159  0.5354      0.7530E-03 NODE          21 -99.9%  0.1557E-03  0.2265E-04  0.5521E-06 -0.4105E-06   0.000       4.017       0.000    
    1160  0.5362      0.7530E-03 NODE          21 -99.9%  0.1566E-03  0.2271E-04  0.5533E-06 -0.4111E-06   0.000       4.017       0.000    
    1161  0.5369      0.7530E-03 NODE          21 -99.9%  0.1574E-03  0.2277E-04  0.5545E-06 -0.4118E-06   0.000       4.017       0.000    
    1162  0.5377      0.7530E-03 NODE          21 -99.9%  0.1583E-03  0.2284E-04  0.5558E-06 -0.4125E-06   0.000       4.017       0.000    
    1163  0.5384      0.7530E-03 NODE          21 -99.9%  0.1592E-03  0.2290E-04  0.5572E-06 -0.4131E-06   0.000       4.017       0.000    
    1164  0.5392      0.7530E-03 NODE          21 -99.9%  0.1601E-03  0.2296E-04  0.5586E-06 -0.4138E-06   0.000       4.017       0.000    
    1165  0.5400      0.7530E-03 NODE          21 -99.9%  0.1610E-03  0.2303E-04  0.5600E-06 -0.4145E-06   0.000       4.017       0.000    
    1166  0.5407      0.7530E-03 NODE          21 -99.9%  0.1619E-03  0.2309E-04  0.5615E-06 -0.4151E-06   0.000       4.017       0.000    
    1167  0.5415      0.7530E-03 NODE          21 -99.9%  0.1628E-03  0.2316E-04  0.5631E-06 -0.4158E-06   0.000       4.017       0.000    
    1168  0.5422      0.7530E-03 NODE          21 -99.9%  0.1637E-03  0.2323E-04  0.5647E-06 -0.4165E-06   0.000       4.017       0.000    
    1169  0.5430      0.7530E-03 NODE          21 -99.9%  0.1646E-03  0.2329E-04  0.5664E-06 -0.4172E-06   0.000       4.017       0.000    
    1170  0.5437      0.7530E-03 NODE          21 -99.9%  0.1656E-03  0.2336E-04  0.5681E-06 -0.4179E-06   0.000       4.017       0.000    
    1171  0.5445      0.7530E-03 NODE          21 -99.9%  0.1665E-03  0.2343E-04  0.5698E-06 -0.4186E-06   0.000       4.017       0.000    
    1172  0.5452      0.7530E-03 NODE          21 -99.9%  0.1674E-03  0.2350E-04  0.5716E-06 -0.4192E-06   0.000       4.017       0.000    
    1173  0.5460      0.7530E-03 NODE          21 -99.9%  0.1683E-03  0.2357E-04  0.5735E-06 -0.4199E-06   0.000       4.017       0.000    
    1174  0.5467      0.7530E-03 NODE          21 -99.9%  0.1693E-03  0.2364E-04  0.5754E-06 -0.4206E-06   0.000       4.017       0.000    
    1175  0.5475      0.7530E-03 NODE          21 -99.9%  0.1702E-03  0.2371E-04  0.5773E-06 -0.4213E-06   0.000       4.017       0.000    
    1176  0.5482      0.7530E-03 NODE          21 -99.9%  0.1711E-03  0.2378E-04  0.5793E-06 -0.4220E-06   0.000       4.017       0.000    
    1177  0.5490      0.7530E-03 NODE          21 -99.9%  0.1721E-03  0.2385E-04  0.5814E-06 -0.4227E-06   0.000       4.017       0.000    
    1178  0.5497      0.7530E-03 NODE          34 -99.9%  0.1730E-03  0.2393E-04  0.5835E-06 -0.4234E-06   0.000       4.017       0.000    
    1179  0.5505      0.7530E-03 NODE          21 -99.9%  0.1740E-03  0.2400E-04  0.5856E-06 -0.4241E-06   0.000       4.017       0.000    
    1180  0.5512      0.7530E-03 NODE          21 -99.9%  0.1749E-03  0.2407E-04  0.5878E-06 -0.4248E-06   0.000       4.017       0.000    
    1181  0.5520      0.7530E-03 NODE          21 -99.9%  0.1759E-03  0.2415E-04  0.5900E-06 -0.4255E-06   0.000       4.017       0.000    
    1182  0.5528      0.7530E-03 NODE          34 -99.9%  0.1768E-03  0.2422E-04  0.5922E-06 -0.4262E-06   0.000       4.017       0.000    
    1183  0.5535      0.7530E-03 NODE          21 -99.9%  0.1778E-03  0.2430E-04  0.5945E-06 -0.4270E-06   0.000       4.017       0.000    
    1184  0.5543      0.7530E-03 NODE          21 -99.9%  0.1788E-03  0.2438E-04  0.5968E-06 -0.4277E-06   0.000       4.017       0.000    
    1185  0.5550      0.7530E-03 NODE          21 -99.9%  0.1798E-03  0.2445E-04  0.5992E-06 -0.4284E-06   0.000       4.017       0.000    
    1186  0.5558      0.7530E-03 NODE          21 -99.9%  0.1807E-03  0.2453E-04  0.6016E-06 -0.4291E-06   0.000       4.017       0.000    
    1187  0.5565      0.7530E-03 NODE          21 -99.9%  0.1817E-03  0.2461E-04  0.6041E-06 -0.4298E-06   0.000       4.017       0.000    
    1188  0.5573      0.7530E-03 NODE          21 -99.9%  0.1827E-03  0.2469E-04  0.6066E-06 -0.4305E-06   0.000       4.017       0.000    
    1189  0.5580      0.7530E-03 NODE          34 -99.9%  0.1837E-03  0.2477E-04  0.6091E-06 -0.4313E-06   0.000       4.017       0.000    
    1190  0.5588      0.7530E-03 NODE          34 -99.9%  0.1847E-03  0.2485E-04  0.6116E-06 -0.4320E-06   0.000       4.017       0.000    
    1191  0.5595      0.7530E-03 NODE          21 -99.9%  0.1857E-03  0.2493E-04  0.6142E-06 -0.4327E-06   0.000       4.017       0.000    
    1192  0.5603      0.7530E-03 NODE          21 -99.9%  0.1867E-03  0.2501E-04  0.6168E-06 -0.4335E-06   0.000       4.017       0.000    
    1193  0.5610      0.7530E-03 NODE          21 -99.9%  0.1877E-03  0.2509E-04  0.6195E-06 -0.4342E-06   0.000       4.017       0.000    
    1194  0.5618      0.7530E-03 NODE          21 -99.9%  0.1887E-03  0.2518E-04  0.6222E-06 -0.4349E-06   0.000       4.017       0.000    
    1195  0.5625      0.7530E-03 NODE          21 -99.9%  0.1897E-03  0.2526E-04  0.6249E-06 -0.4357E-06   0.000       4.017       0.000    
    1196  0.5633      0.7530E-03 NODE          21 -99.9%  0.1907E-03  0.2534E-04  0.6276E-06 -0.4364E-06   0.000       4.017       0.000    
    1197  0.5640      0.7530E-03 NODE          34 -99.9%  0.1918E-03  0.2543E-04  0.6304E-06 -0.4372E-06   0.000       4.017       0.000    
    1198  0.5648      0.7530E-03 NODE          34 -99.9%  0.1928E-03  0.2552E-04  0.6332E-06 -0.4379E-06   0.000       4.017       0.000    
    1199  0.5656      0.7530E-03 NODE          21 -99.9%  0.1938E-03  0.2560E-04  0.6360E-06 -0.4386E-06   0.000       4.017       0.000    
    1200  0.5663      0.7530E-03 NODE          21 -99.9%  0.1949E-03  0.2569E-04  0.6388E-06 -0.4394E-06   0.000       4.017       0.000    
    1201  0.5671      0.7530E-03 NODE          21 -99.9%  0.1959E-03  0.2578E-04  0.6417E-06 -0.4401E-06   0.000       4.017       0.000    
    1202  0.5678      0.7530E-03 NODE          21 -99.9%  0.1969E-03  0.2587E-04  0.6445E-06 -0.4409E-06   0.000       4.017       0.000    
    1203  0.5686      0.7530E-03 NODE          21 -99.9%  0.1980E-03  0.2595E-04  0.6474E-06 -0.4417E-06   0.000       4.017       0.000    
    1204  0.5693      0.7530E-03 NODE          21 -99.9%  0.1990E-03  0.2604E-04  0.6503E-06 -0.4424E-06   0.000       4.017       0.000    
    1205  0.5701      0.7530E-03 NODE          21 -99.9%  0.2001E-03  0.2613E-04  0.6532E-06 -0.4432E-06   0.000       4.017       0.000    
    1206  0.5708      0.7530E-03 NODE          21 -99.9%  0.2011E-03  0.2622E-04  0.6561E-06 -0.4439E-06   0.000       4.017       0.000    
    1207  0.5716      0.7530E-03 NODE          21 -99.9%  0.2022E-03  0.2631E-04  0.6590E-06 -0.4447E-06   0.000       4.017       0.000    
    1208  0.5723      0.7530E-03 NODE          34 -99.9%  0.2033E-03  0.2641E-04  0.6620E-06 -0.4455E-06   0.000       4.017       0.000    
    1209  0.5731      0.7530E-03 NODE          21 -99.9%  0.2044E-03  0.2650E-04  0.6649E-06 -0.4462E-06   0.000       4.017       0.000    
   CYCLE    TIME      TIME-STEP  ELEMENT          ERROR  I-ENERGY    K-ENERGY T  K-ENERGY R  EXT-WORK     MAS.ERR     TOTAL MASS  MASS ADDED
    1210  0.5738      0.7530E-03 NODE          21 -99.9%  0.2054E-03  0.2659E-04  0.6678E-06 -0.4470E-06   0.000       4.017       0.000    
    1211  0.5746      0.7530E-03 NODE          21 -99.9%  0.2065E-03  0.2668E-04  0.6707E-06 -0.4478E-06   0.000       4.017       0.000    
    1212  0.5753      0.7530E-03 NODE          34 -99.9%  0.2076E-03  0.2678E-04  0.6737E-06 -0.4485E-06   0.000       4.017       0.000    
    1213  0.5761      0.7530E-03 NODE          34 -99.9%  0.2087E-03  0.2687E-04  0.6766E-06 -0.4493E-06   0.000       4.017       0.000    
    1214  0.5768      0.7530E-03 NODE          21 -99.9%  0.2098E-03  0.2696E-04  0.6795E-06 -0.4501E-06   0.000       4.017       0.000    
    1215  0.5776      0.7530E-03 NODE          21 -99.9%  0.2109E-03  0.2705E-04  0.6824E-06 -0.4509E-06   0.000       4.017       0.000    
    1216  0.5784      0.7530E-03 NODE          34 -99.9%  0.2120E-03  0.2715E-04  0.6852E-06 -0.4517E-06   0.000       4.017       0.000    
    1217  0.5791      0.7530E-03 NODE          21 -99.9%  0.2131E-03  0.2724E-04  0.6881E-06 -0.4524E-06   0.000       4.017       0.000    
    1218  0.5799      0.7530E-03 NODE          34 -99.9%  0.2142E-03  0.2733E-04  0.6910E-06 -0.4532E-06   0.000       4.017       0.000    
    1219  0.5806      0.7530E-03 NODE          21 -99.9%  0.2153E-03  0.2743E-04  0.6938E-06 -0.4540E-06   0.000       4.017       0.000    
    1220  0.5814      0.7530E-03 NODE          21 -99.9%  0.2164E-03  0.2752E-04  0.6966E-06 -0.4548E-06   0.000       4.017       0.000    
    1221  0.5821      0.7530E-03 NODE          21 -99.9%  0.2175E-03  0.2761E-04  0.6994E-06 -0.4556E-06   0.000       4.017       0.000    
    1222  0.5829      0.7530E-03 NODE          21 -99.9%  0.2187E-03  0.2771E-04  0.7022E-06 -0.4564E-06   0.000       4.017       0.000    
    1223  0.5836      0.7530E-03 NODE          21 -99.9%  0.2198E-03  0.2780E-04  0.7049E-06 -0.4572E-06   0.000       4.017       0.000    
    1224  0.5844      0.7530E-03 NODE          21 -99.9%  0.2209E-03  0.2789E-04  0.7076E-06 -0.4580E-06   0.000       4.017       0.000    
    1225  0.5851      0.7530E-03 NODE          21 -99.9%  0.2221E-03  0.2799E-04  0.7103E-06 -0.4588E-06   0.000       4.017       0.000    
    1226  0.5859      0.7530E-03 NODE           4 -99.9%  0.2232E-03  0.2808E-04  0.7130E-06 -0.4596E-06   0.000       4.017       0.000    
    1227  0.5866      0.7530E-03 NODE          21 -99.9%  0.2244E-03  0.2817E-04  0.7156E-06 -0.4604E-06   0.000       4.017       0.000    
    1228  0.5874      0.7530E-03 NODE          21 -99.9%  0.2255E-03  0.2826E-04  0.7183E-06 -0.4612E-06   0.000       4.017       0.000    
    1229  0.5881      0.7530E-03 NODE          21 -99.9%  0.2267E-03  0.2836E-04  0.7209E-06 -0.4620E-06   0.000       4.017       0.000    
    1230  0.5889      0.7530E-03 NODE           4 -99.9%  0.2278E-03  0.2845E-04  0.7234E-06 -0.4628E-06   0.000       4.017       0.000    
    1231  0.5897      0.7530E-03 NODE          21 -99.9%  0.2290E-03  0.2854E-04  0.7260E-06 -0.4636E-06   0.000       4.017       0.000    
    1232  0.5904      0.7530E-03 NODE           4 -99.9%  0.2302E-03  0.2863E-04  0.7285E-06 -0.4644E-06   0.000       4.017       0.000    
    1233  0.5912      0.7530E-03 NODE          21 -99.9%  0.2314E-03  0.2872E-04  0.7310E-06 -0.4652E-06   0.000       4.017       0.000    
    1234  0.5919      0.7530E-03 NODE           4 -99.9%  0.2325E-03  0.2881E-04  0.7335E-06 -0.4660E-06   0.000       4.017       0.000    
    1235  0.5927      0.7530E-03 NODE          21 -99.9%  0.2337E-03  0.2890E-04  0.7359E-06 -0.4668E-06   0.000       4.017       0.000    
    1236  0.5934      0.7530E-03 NODE          21 -99.9%  0.2349E-03  0.2899E-04  0.7384E-06 -0.4676E-06   0.000       4.017       0.000    
    1237  0.5942      0.7530E-03 NODE          21 -99.9%  0.2361E-03  0.2908E-04  0.7408E-06 -0.4684E-06   0.000       4.017       0.000    
    1238  0.5949      0.7530E-03 NODE          21 -99.9%  0.2373E-03  0.2916E-04  0.7431E-06 -0.4693E-06   0.000       4.017       0.000    
    1239  0.5957      0.7530E-03 NODE           4 -99.9%  0.2385E-03  0.2925E-04  0.7455E-06 -0.4701E-06   0.000       4.017       0.000    
    1240  0.5964      0.7530E-03 NODE           1 -99.9%  0.2397E-03  0.2934E-04  0.7478E-06 -0.4709E-06   0.000       4.017       0.000    
    1241  0.5972      0.7530E-03 NODE           4 -99.9%  0.2409E-03  0.2942E-04  0.7501E-06 -0.4717E-06   0.000       4.017       0.000    
    1242  0.5979      0.7530E-03 NODE           1 -99.9%  0.2421E-03  0.2951E-04  0.7524E-06 -0.4725E-06   0.000       4.017       0.000    
    1243  0.5987      0.7530E-03 NODE           4 -99.9%  0.2434E-03  0.2959E-04  0.7546E-06 -0.4734E-06   0.000       4.017       0.000    
    1244  0.5994      0.7530E-03 NODE           1 -99.9%  0.2446E-03  0.2968E-04  0.7569E-06 -0.4742E-06   0.000       4.017       0.000    
    1245  0.6002      0.7530E-03 NODE           1 -99.9%  0.2458E-03  0.2976E-04  0.7591E-06 -0.4750E-06   0.000       4.017       0.000    
     ANIMATION FILE: FFO25SCBA004 WRITTEN
     OUTPUT FILE: FFO25SCB_0004.sty WRITTEN
    1246  0.6009      0.7530E-03 NODE           1 -99.9%  0.2470E-03  0.2984E-04  0.7612E-06 -0.4758E-06   0.000       4.017       0.000    
    1247  0.6017      0.7530E-03 NODE           1 -99.9%  0.2483E-03  0.2993E-04  0.7634E-06 -0.4767E-06   0.000       4.017       0.000    
    1248  0.6025      0.7530E-03 NODE           1 -99.9%  0.2495E-03  0.3001E-04  0.7655E-06 -0.4775E-06   0.000       4.017       0.000    
    1249  0.6032      0.7530E-03 NODE           1 -99.9%  0.2508E-03  0.3009E-04  0.7676E-06 -0.4783E-06   0.000       4.017       0.000    
    1250  0.6040      0.7530E-03 NODE           4 -99.9%  0.2520E-03  0.3017E-04  0.7696E-06 -0.4792E-06   0.000       4.017       0.000    
    1251  0.6047      0.7530E-03 NODE           1 -99.9%  0.2533E-03  0.3025E-04  0.7716E-06 -0.4800E-06   0.000       4.017       0.000    
    1252  0.6055      0.7530E-03 NODE           1 -99.9%  0.2546E-03  0.3032E-04  0.7736E-06 -0.4808E-06   0.000       4.017       0.000    
    1253  0.6062      0.7530E-03 NODE           4 -99.9%  0.2558E-03  0.3040E-04  0.7756E-06 -0.4817E-06   0.000       4.017       0.000    
    1254  0.6070      0.7530E-03 NODE           4 -99.9%  0.2571E-03  0.3047E-04  0.7775E-06 -0.4825E-06   0.000       4.017       0.000    
    1255  0.6077      0.7530E-03 NODE           1 -99.9%  0.2584E-03  0.3055E-04  0.7794E-06 -0.4834E-06   0.000       4.017       0.000    
    1256  0.6085      0.7530E-03 NODE           1 -99.9%  0.2597E-03  0.3062E-04  0.7813E-06 -0.4842E-06   0.000       4.017       0.000    
    1257  0.6092      0.7530E-03 NODE           4 -99.9%  0.2609E-03  0.3069E-04  0.7831E-06 -0.4850E-06   0.000       4.017       0.000    
    1258  0.6100      0.7530E-03 NODE           4 -99.9%  0.2622E-03  0.3077E-04  0.7848E-06 -0.4859E-06   0.000       4.017       0.000    
    1259  0.6107      0.7530E-03 NODE           1 -99.9%  0.2635E-03  0.3084E-04  0.7866E-06 -0.4867E-06   0.000       4.017       0.000    
    1260  0.6115      0.7530E-03 NODE           4 -99.9%  0.2648E-03  0.3090E-04  0.7883E-06 -0.4876E-06   0.000       4.017       0.000    
    1261  0.6122      0.7530E-03 NODE           1 -99.9%  0.2661E-03  0.3097E-04  0.7899E-06 -0.4884E-06   0.000       4.017       0.000    
    1262  0.6130      0.7530E-03 NODE           1 -99.9%  0.2674E-03  0.3104E-04  0.7916E-06 -0.4893E-06   0.000       4.017       0.000    
    1263  0.6137      0.7530E-03 NODE          21 -99.9%  0.2688E-03  0.3111E-04  0.7931E-06 -0.4901E-06   0.000       4.017       0.000    
    1264  0.6145      0.7530E-03 NODE          21 -99.9%  0.2701E-03  0.3117E-04  0.7947E-06 -0.4910E-06   0.000       4.017       0.000    
   CYCLE    TIME      TIME-STEP  ELEMENT          ERROR  I-ENERGY    K-ENERGY T  K-ENERGY R  EXT-WORK     MAS.ERR     TOTAL MASS  MASS ADDED
    1265  0.6153      0.7530E-03 NODE           1 -99.9%  0.2714E-03  0.3123E-04  0.7962E-06 -0.4918E-06   0.000       4.017       0.000    
    1266  0.6160      0.7530E-03 NODE          21 -99.9%  0.2727E-03  0.3130E-04  0.7976E-06 -0.4927E-06   0.000       4.017       0.000    
    1267  0.6168      0.7530E-03 NODE           1 -99.9%  0.2741E-03  0.3136E-04  0.7990E-06 -0.4935E-06   0.000       4.017       0.000    
    1268  0.6175      0.7530E-03 NODE           4 -99.9%  0.2754E-03  0.3142E-04  0.8004E-06 -0.4944E-06   0.000       4.017       0.000    
    1269  0.6183      0.7530E-03 NODE           1 -99.9%  0.2768E-03  0.3148E-04  0.8017E-06 -0.4953E-06   0.000       4.017       0.000    
    1270  0.6190      0.7530E-03 NODE           1 -99.9%  0.2781E-03  0.3154E-04  0.8030E-06 -0.4961E-06   0.000       4.017       0.000    
    1271  0.6198      0.7530E-03 NODE           1 -99.9%  0.2795E-03  0.3160E-04  0.8042E-06 -0.4970E-06   0.000       4.017       0.000    
    1272  0.6205      0.7530E-03 NODE          21 -99.9%  0.2808E-03  0.3166E-04  0.8054E-06 -0.4978E-06   0.000       4.017       0.000    
    1273  0.6213      0.7530E-03 NODE          21 -99.9%  0.2822E-03  0.3171E-04  0.8066E-06 -0.4987E-06   0.000       4.017       0.000    
    1274  0.6220      0.7530E-03 NODE           4 -99.9%  0.2836E-03  0.3177E-04  0.8077E-06 -0.4996E-06   0.000       4.017       0.000    
    1275  0.6228      0.7530E-03 NODE           4 -99.9%  0.2849E-03  0.3183E-04  0.8088E-06 -0.5004E-06   0.000       4.017       0.000    
    1276  0.6235      0.7530E-03 NODE           1 -99.9%  0.2863E-03  0.3188E-04  0.8098E-06 -0.5013E-06   0.000       4.017       0.000    
    1277  0.6243      0.7530E-03 NODE           1 -99.9%  0.2877E-03  0.3194E-04  0.8109E-06 -0.5022E-06   0.000       4.017       0.000    
    1278  0.6250      0.7530E-03 NODE           1 -99.9%  0.2891E-03  0.3199E-04  0.8119E-06 -0.5030E-06   0.000       4.017       0.000    
    1279  0.6258      0.7530E-03 NODE           4 -99.9%  0.2905E-03  0.3204E-04  0.8128E-06 -0.5039E-06   0.000       4.017       0.000    
    1280  0.6265      0.7530E-03 NODE           4 -99.9%  0.2919E-03  0.3210E-04  0.8137E-06 -0.5048E-06   0.000       4.017       0.000    
    1281  0.6273      0.7530E-03 NODE           1 -99.9%  0.2933E-03  0.3215E-04  0.8146E-06 -0.5057E-06   0.000       4.017       0.000    
    1282  0.6281      0.7530E-03 NODE           4 -99.9%  0.2947E-03  0.3220E-04  0.8155E-06 -0.5065E-06   0.000       4.017       0.000    
    1283  0.6288      0.7530E-03 NODE           1 -99.9%  0.2961E-03  0.3226E-04  0.8164E-06 -0.5074E-06   0.000       4.017       0.000    
    1284  0.6296      0.7530E-03 NODE           1 -99.9%  0.2975E-03  0.3231E-04  0.8172E-06 -0.5083E-06   0.000       4.017       0.000    
    1285  0.6303      0.7530E-03 NODE           1 -99.9%  0.2990E-03  0.3236E-04  0.8180E-06 -0.5092E-06   0.000       4.017       0.000    
    1286  0.6311      0.7530E-03 NODE           1 -99.9%  0.3004E-03  0.3241E-04  0.8188E-06 -0.5101E-06   0.000       4.017       0.000    
    1287  0.6318      0.7530E-03 NODE           1 -99.9%  0.3018E-03  0.3247E-04  0.8195E-06 -0.5110E-06   0.000       4.017       0.000    
    1288  0.6326      0.7530E-03 NODE           1 -99.9%  0.3033E-03  0.3252E-04  0.8203E-06 -0.5119E-06   0.000       4.017       0.000    
    1289  0.6333      0.7530E-03 NODE           1 -99.9%  0.3047E-03  0.3257E-04  0.8210E-06 -0.5128E-06   0.000       4.017       0.000    
    1290  0.6341      0.7530E-03 NODE           1 -99.9%  0.3062E-03  0.3262E-04  0.8217E-06 -0.5137E-06   0.000       4.017       0.000    
    1291  0.6348      0.7530E-03 NODE           1 -99.9%  0.3076E-03  0.3267E-04  0.8224E-06 -0.5146E-06   0.000       4.017       0.000    
    1292  0.6356      0.7530E-03 NODE           1 -99.9%  0.3091E-03  0.3272E-04  0.8231E-06 -0.5154E-06   0.000       4.017       0.000    
    1293  0.6363      0.7530E-03 NODE           1 -99.9%  0.3106E-03  0.3278E-04  0.8238E-06 -0.5164E-06   0.000       4.017       0.000    
    1294  0.6371      0.7530E-03 NODE           1 -99.9%  0.3120E-03  0.3283E-04  0.8244E-06 -0.5173E-06   0.000       4.017       0.000    
    1295  0.6378      0.7530E-03 NODE           4 -99.9%  0.3135E-03  0.3288E-04  0.8251E-06 -0.5182E-06   0.000       4.017       0.000    
    1296  0.6386      0.7530E-03 NODE           1 -99.9%  0.3150E-03  0.3293E-04  0.8257E-06 -0.5191E-06   0.000       4.017       0.000    
    1297  0.6394      0.7530E-03 NODE           1 -99.9%  0.3165E-03  0.3299E-04  0.8264E-06 -0.5200E-06   0.000       4.017       0.000    
    1298  0.6401      0.7530E-03 NODE           1 -99.9%  0.3180E-03  0.3304E-04  0.8270E-06 -0.5209E-06   0.000       4.017       0.000    
    1299  0.6409      0.7530E-03 NODE           1 -99.9%  0.3195E-03  0.3309E-04  0.8276E-06 -0.5218E-06   0.000       4.017       0.000    
    1300  0.6416      0.7530E-03 NODE           1 -99.9%  0.3210E-03  0.3314E-04  0.8283E-06 -0.5227E-06   0.000       4.017       0.000    
    1301  0.6424      0.7530E-03 NODE           1 -99.9%  0.3225E-03  0.3320E-04  0.8289E-06 -0.5236E-06   0.000       4.017       0.000    
    1302  0.6431      0.7530E-03 NODE           1 -99.9%  0.3240E-03  0.3325E-04  0.8295E-06 -0.5246E-06   0.000       4.017       0.000    
    1303  0.6439      0.7530E-03 NODE           1 -99.9%  0.3255E-03  0.3331E-04  0.8301E-06 -0.5255E-06   0.000       4.017       0.000    
    1304  0.6446      0.7530E-03 NODE           1 -99.9%  0.3271E-03  0.3336E-04  0.8308E-06 -0.5264E-06   0.000       4.017       0.000    
    1305  0.6454      0.7530E-03 NODE           1 -99.9%  0.3286E-03  0.3342E-04  0.8314E-06 -0.5273E-06   0.000       4.017       0.000    
    1306  0.6461      0.7530E-03 NODE           1 -99.9%  0.3301E-03  0.3347E-04  0.8321E-06 -0.5283E-06   0.000       4.017       0.000    
    1307  0.6469      0.7530E-03 NODE           1 -99.9%  0.3317E-03  0.3353E-04  0.8328E-06 -0.5292E-06   0.000       4.017       0.000    
    1308  0.6476      0.7530E-03 NODE           1 -99.9%  0.3332E-03  0.3358E-04  0.8335E-06 -0.5301E-06   0.000       4.017       0.000    
    1309  0.6484      0.7530E-03 NODE           1 -99.9%  0.3348E-03  0.3364E-04  0.8342E-06 -0.5311E-06   0.000       4.017       0.000    
    1310  0.6491      0.7530E-03 NODE           1 -99.9%  0.3363E-03  0.3370E-04  0.8349E-06 -0.5320E-06   0.000       4.017       0.000    
    1311  0.6499      0.7530E-03 NODE           1 -99.9%  0.3379E-03  0.3375E-04  0.8356E-06 -0.5329E-06   0.000       4.017       0.000    
    1312  0.6506      0.7530E-03 NODE           1 -99.9%  0.3395E-03  0.3381E-04  0.8364E-06 -0.5339E-06   0.000       4.017       0.000    
    1313  0.6514      0.7530E-03 NODE           1 -99.9%  0.3410E-03  0.3387E-04  0.8372E-06 -0.5348E-06   0.000       4.017       0.000    
    1314  0.6522      0.7530E-03 NODE           4 -99.9%  0.3426E-03  0.3393E-04  0.8380E-06 -0.5358E-06   0.000       4.017       0.000    
    1315  0.6529      0.7530E-03 NODE           4 -99.9%  0.3442E-03  0.3399E-04  0.8389E-06 -0.5367E-06   0.000       4.017       0.000    
    1316  0.6537      0.7530E-03 NODE           1 -99.9%  0.3458E-03  0.3405E-04  0.8398E-06 -0.5377E-06   0.000       4.017       0.000    
    1317  0.6544      0.7530E-03 NODE           1 -99.9%  0.3474E-03  0.3411E-04  0.8407E-06 -0.5386E-06   0.000       4.017       0.000    
    1318  0.6552      0.7530E-03 NODE           1 -99.9%  0.3490E-03  0.3418E-04  0.8417E-06 -0.5396E-06   0.000       4.017       0.000    
    1319  0.6559      0.7530E-03 NODE           1 -99.9%  0.3506E-03  0.3424E-04  0.8428E-06 -0.5406E-06   0.000       4.017       0.000    
   CYCLE    TIME      TIME-STEP  ELEMENT          ERROR  I-ENERGY    K-ENERGY T  K-ENERGY R  EXT-WORK     MAS.ERR     TOTAL MASS  MASS ADDED
    1320  0.6567      0.7530E-03 NODE           1 -99.9%  0.3522E-03  0.3430E-04  0.8438E-06 -0.5415E-06   0.000       4.017       0.000    
    1321  0.6574      0.7530E-03 NODE           1 -99.9%  0.3538E-03  0.3437E-04  0.8449E-06 -0.5425E-06   0.000       4.017       0.000    
    1322  0.6582      0.7530E-03 NODE           1 -99.9%  0.3554E-03  0.3443E-04  0.8461E-06 -0.5435E-06   0.000       4.017       0.000    
    1323  0.6589      0.7530E-03 NODE           1 -99.9%  0.3571E-03  0.3450E-04  0.8473E-06 -0.5444E-06   0.000       4.017       0.000    
    1324  0.6597      0.7530E-03 NODE           1 -99.9%  0.3587E-03  0.3457E-04  0.8486E-06 -0.5454E-06   0.000       4.017       0.000    
    1325  0.6604      0.7530E-03 NODE           1 -99.9%  0.3604E-03  0.3464E-04  0.8500E-06 -0.5464E-06   0.000       4.017       0.000    
    1326  0.6612      0.7530E-03 NODE           1 -99.9%  0.3620E-03  0.3471E-04  0.8514E-06 -0.5474E-06   0.000       4.017       0.000    
    1327  0.6619      0.7530E-03 NODE           1 -99.9%  0.3637E-03  0.3478E-04  0.8528E-06 -0.5484E-06   0.000       4.017       0.000    
    1328  0.6627      0.7530E-03 NODE           1 -99.9%  0.3653E-03  0.3485E-04  0.8543E-06 -0.5493E-06   0.000       4.017       0.000    
    1329  0.6634      0.7530E-03 NODE           1 -99.9%  0.3670E-03  0.3492E-04  0.8559E-06 -0.5503E-06   0.000       4.017       0.000    
    1330  0.6642      0.7530E-03 NODE           4 -99.9%  0.3686E-03  0.3500E-04  0.8575E-06 -0.5513E-06   0.000       4.017       0.000    
    1331  0.6650      0.7530E-03 NODE           1 -99.9%  0.3703E-03  0.3507E-04  0.8592E-06 -0.5523E-06   0.000       4.017       0.000    
    1332  0.6657      0.7530E-03 NODE           1 -99.9%  0.3720E-03  0.3515E-04  0.8610E-06 -0.5533E-06   0.000       4.017       0.000    
    1333  0.6665      0.7530E-03 NODE           1 -99.9%  0.3737E-03  0.3523E-04  0.8628E-06 -0.5543E-06   0.000       4.017       0.000    
    1334  0.6672      0.7530E-03 NODE           1 -99.9%  0.3754E-03  0.3530E-04  0.8647E-06 -0.5553E-06   0.000       4.017       0.000    
    1335  0.6680      0.7530E-03 NODE           1 -99.9%  0.3771E-03  0.3538E-04  0.8666E-06 -0.5563E-06   0.000       4.017       0.000    
    1336  0.6687      0.7530E-03 NODE           1 -99.9%  0.3788E-03  0.3546E-04  0.8686E-06 -0.5573E-06   0.000       4.017       0.000    
    1337  0.6695      0.7530E-03 NODE           1 -99.9%  0.3805E-03  0.3554E-04  0.8707E-06 -0.5583E-06   0.000       4.017       0.000    
    1338  0.6702      0.7530E-03 NODE           1 -99.9%  0.3822E-03  0.3563E-04  0.8728E-06 -0.5593E-06   0.000       4.017       0.000    
    1339  0.6710      0.7530E-03 NODE           4 -99.9%  0.3839E-03  0.3571E-04  0.8750E-06 -0.5604E-06   0.000       4.017       0.000    
    1340  0.6717      0.7530E-03 NODE           1 -99.9%  0.3857E-03  0.3579E-04  0.8772E-06 -0.5614E-06   0.000       4.017       0.000    
    1341  0.6725      0.7530E-03 NODE           4 -99.9%  0.3874E-03  0.3588E-04  0.8795E-06 -0.5624E-06   0.000       4.017       0.000    
    1342  0.6732      0.7530E-03 NODE           1 -99.9%  0.3891E-03  0.3596E-04  0.8818E-06 -0.5634E-06   0.000       4.017       0.000    
    1343  0.6740      0.7530E-03 NODE           1 -99.9%  0.3909E-03  0.3605E-04  0.8842E-06 -0.5644E-06   0.000       4.017       0.000    
    1344  0.6747      0.7530E-03 NODE           1 -99.9%  0.3926E-03  0.3614E-04  0.8866E-06 -0.5655E-06   0.000       4.017       0.000    
    1345  0.6755      0.7530E-03 NODE           1 -99.9%  0.3944E-03  0.3622E-04  0.8891E-06 -0.5665E-06   0.000       4.017       0.000    
    1346  0.6762      0.7530E-03 NODE           1 -99.9%  0.3961E-03  0.3631E-04  0.8916E-06 -0.5675E-06   0.000       4.017       0.000    
    1347  0.6770      0.7530E-03 NODE           1 -99.9%  0.3979E-03  0.3640E-04  0.8941E-06 -0.5686E-06   0.000       4.017       0.000    
    1348  0.6778      0.7530E-03 NODE           1 -99.9%  0.3997E-03  0.3649E-04  0.8967E-06 -0.5696E-06   0.000       4.017       0.000    
    1349  0.6785      0.7530E-03 NODE           1 -99.9%  0.4015E-03  0.3658E-04  0.8994E-06 -0.5707E-06   0.000       4.017       0.000    
    1350  0.6793      0.7530E-03 NODE           1 -99.9%  0.4033E-03  0.3668E-04  0.9021E-06 -0.5717E-06   0.000       4.017       0.000    
    1351  0.6800      0.7530E-03 NODE           4 -99.9%  0.4050E-03  0.3677E-04  0.9048E-06 -0.5728E-06   0.000       4.017       0.000    
    1352  0.6808      0.7530E-03 NODE           4 -99.9%  0.4068E-03  0.3686E-04  0.9075E-06 -0.5738E-06   0.000       4.017       0.000    
    1353  0.6815      0.7530E-03 NODE           1 -99.9%  0.4086E-03  0.3696E-04  0.9103E-06 -0.5749E-06   0.000       4.017       0.000    
    1354  0.6823      0.7530E-03 NODE           1 -99.9%  0.4105E-03  0.3705E-04  0.9132E-06 -0.5759E-06   0.000       4.017       0.000    
    1355  0.6830      0.7530E-03 NODE           1 -99.9%  0.4123E-03  0.3715E-04  0.9160E-06 -0.5770E-06   0.000       4.017       0.000    
    1356  0.6838      0.7530E-03 NODE           1 -99.9%  0.4141E-03  0.3725E-04  0.9189E-06 -0.5780E-06   0.000       4.017       0.000    
    1357  0.6845      0.7530E-03 NODE           1 -99.9%  0.4159E-03  0.3734E-04  0.9219E-06 -0.5791E-06   0.000       4.017       0.000    
    1358  0.6853      0.7530E-03 NODE           1 -99.9%  0.4178E-03  0.3744E-04  0.9248E-06 -0.5802E-06   0.000       4.017       0.000    
    1359  0.6860      0.7530E-03 NODE           1 -99.9%  0.4196E-03  0.3754E-04  0.9278E-06 -0.5812E-06   0.000       4.017       0.000    
    1360  0.6868      0.7530E-03 NODE           1 -99.9%  0.4214E-03  0.3764E-04  0.9309E-06 -0.5823E-06   0.000       4.017       0.000    
    1361  0.6875      0.7530E-03 NODE           1 -99.9%  0.4233E-03  0.3775E-04  0.9340E-06 -0.5834E-06   0.000       4.017       0.000    
    1362  0.6883      0.7530E-03 NODE           1 -99.9%  0.4252E-03  0.3785E-04  0.9371E-06 -0.5844E-06   0.000       4.017       0.000    
    1363  0.6890      0.7530E-03 NODE           1 -99.9%  0.4270E-03  0.3795E-04  0.9402E-06 -0.5855E-06   0.000       4.017       0.000    
    1364  0.6898      0.7530E-03 NODE           4 -99.9%  0.4289E-03  0.3805E-04  0.9433E-06 -0.5866E-06   0.000       4.017       0.000    
    1365  0.6906      0.7530E-03 NODE           4 -99.9%  0.4308E-03  0.3816E-04  0.9465E-06 -0.5877E-06   0.000       4.017       0.000    
    1366  0.6913      0.7530E-03 NODE           1 -99.9%  0.4326E-03  0.3826E-04  0.9498E-06 -0.5888E-06   0.000       4.017       0.000    
    1367  0.6921      0.7530E-03 NODE           1 -99.9%  0.4345E-03  0.3837E-04  0.9530E-06 -0.5899E-06   0.000       4.017       0.000    
    1368  0.6928      0.7530E-03 NODE           1 -99.9%  0.4364E-03  0.3848E-04  0.9563E-06 -0.5910E-06   0.000       4.017       0.000    
    1369  0.6936      0.7530E-03 NODE           1 -99.9%  0.4383E-03  0.3858E-04  0.9596E-06 -0.5920E-06   0.000       4.017       0.000    
    1370  0.6943      0.7530E-03 NODE           1 -99.9%  0.4402E-03  0.3869E-04  0.9629E-06 -0.5931E-06   0.000       4.017       0.000    
    1371  0.6951      0.7530E-03 NODE           1 -99.9%  0.4422E-03  0.3880E-04  0.9663E-06 -0.5942E-06   0.000       4.017       0.000    
    1372  0.6958      0.7530E-03 NODE           1 -99.9%  0.4441E-03  0.3891E-04  0.9697E-06 -0.5953E-06   0.000       4.017       0.000    
    1373  0.6966      0.7530E-03 NODE           1 -99.9%  0.4460E-03  0.3902E-04  0.9731E-06 -0.5964E-06   0.000       4.017       0.000    
    1374  0.6973      0.7530E-03 NODE           4 -99.9%  0.4479E-03  0.3913E-04  0.9765E-06 -0.5976E-06   0.000       4.017       0.000    
   CYCLE    TIME      TIME-STEP  ELEMENT          ERROR  I-ENERGY    K-ENERGY T  K-ENERGY R  EXT-WORK     MAS.ERR     TOTAL MASS  MASS ADDED
    1375  0.6981      0.7530E-03 NODE           1 -99.9%  0.4499E-03  0.3924E-04  0.9799E-06 -0.5987E-06   0.000       4.017       0.000    
    1376  0.6988      0.7530E-03 NODE           1 -99.9%  0.4518E-03  0.3936E-04  0.9834E-06 -0.5998E-06   0.000       4.017       0.000    
    1377  0.6996      0.7530E-03 NODE           1 -99.9%  0.4538E-03  0.3947E-04  0.9868E-06 -0.6009E-06   0.000       4.017       0.000    
    1378  0.7003      0.7530E-03 NODE           4 -99.9%  0.4557E-03  0.3958E-04  0.9903E-06 -0.6020E-06   0.000       4.017       0.000    
    1379  0.7011      0.7530E-03 NODE           1 -99.9%  0.4577E-03  0.3970E-04  0.9938E-06 -0.6031E-06   0.000       4.017       0.000    
    1380  0.7019      0.7530E-03 NODE           1 -99.9%  0.4596E-03  0.3981E-04  0.9973E-06 -0.6042E-06   0.000       4.017       0.000    
    1381  0.7026      0.7530E-03 NODE           1 -99.9%  0.4616E-03  0.3992E-04  0.1001E-05 -0.6054E-06   0.000       4.017       0.000    
    1382  0.7034      0.7530E-03 NODE           1 -99.9%  0.4636E-03  0.4004E-04  0.1004E-05 -0.6065E-06   0.000       4.017       0.000    
    1383  0.7041      0.7530E-03 NODE           1 -99.9%  0.4656E-03  0.4015E-04  0.1008E-05 -0.6076E-06   0.000       4.017       0.000    
    1384  0.7049      0.7530E-03 NODE           1 -99.9%  0.4676E-03  0.4026E-04  0.1011E-05 -0.6088E-06   0.000       4.017       0.000    
    1385  0.7056      0.7530E-03 NODE           1 -99.9%  0.4696E-03  0.4038E-04  0.1015E-05 -0.6099E-06   0.000       4.017       0.000    
    1386  0.7064      0.7530E-03 NODE           1 -99.9%  0.4716E-03  0.4049E-04  0.1018E-05 -0.6110E-06   0.000       4.017       0.000    
    1387  0.7071      0.7530E-03 NODE           1 -99.9%  0.4736E-03  0.4061E-04  0.1022E-05 -0.6122E-06   0.000       4.017       0.000    
    1388  0.7079      0.7530E-03 NODE           1 -99.9%  0.4756E-03  0.4072E-04  0.1025E-05 -0.6133E-06   0.000       4.017       0.000    
    1389  0.7086      0.7530E-03 NODE           1 -99.9%  0.4777E-03  0.4083E-04  0.1029E-05 -0.6144E-06   0.000       4.017       0.000    
    1390  0.7094      0.7530E-03 NODE           1 -99.9%  0.4797E-03  0.4095E-04  0.1032E-05 -0.6156E-06   0.000       4.017       0.000    
    1391  0.7101      0.7530E-03 NODE           1 -99.9%  0.4817E-03  0.4106E-04  0.1036E-05 -0.6167E-06   0.000       4.017       0.000    
    1392  0.7109      0.7530E-03 NODE           1 -99.9%  0.4838E-03  0.4117E-04  0.1039E-05 -0.6179E-06   0.000       4.017       0.000    
    1393  0.7116      0.7530E-03 NODE           1 -99.9%  0.4858E-03  0.4129E-04  0.1042E-05 -0.6190E-06   0.000       4.017       0.000    
    1394  0.7124      0.7530E-03 NODE           1 -99.9%  0.4879E-03  0.4140E-04  0.1046E-05 -0.6202E-06   0.000       4.017       0.000    
    1395  0.7131      0.7530E-03 NODE           4 -99.9%  0.4900E-03  0.4151E-04  0.1049E-05 -0.6213E-06   0.000       4.017       0.000    
    1396  0.7139      0.7530E-03 NODE           1 -99.9%  0.4920E-03  0.4162E-04  0.1052E-05 -0.6225E-06   0.000       4.017       0.000    
    1397  0.7147      0.7530E-03 NODE           1 -99.9%  0.4941E-03  0.4173E-04  0.1056E-05 -0.6236E-06   0.000       4.017       0.000    
    1398  0.7154      0.7530E-03 NODE           1 -99.9%  0.4962E-03  0.4185E-04  0.1059E-05 -0.6248E-06   0.000       4.017       0.000    
    1399  0.7162      0.7530E-03 NODE           1 -99.9%  0.4983E-03  0.4196E-04  0.1062E-05 -0.6260E-06   0.000       4.017       0.000    
    1400  0.7169      0.7530E-03 NODE           1 -99.9%  0.5004E-03  0.4206E-04  0.1065E-05 -0.6271E-06   0.000       4.017       0.000    
    1401  0.7177      0.7530E-03 NODE           1 -99.9%  0.5025E-03  0.4217E-04  0.1069E-05 -0.6283E-06   0.000       4.017       0.000    
    1402  0.7184      0.7530E-03 NODE           1 -99.9%  0.5046E-03  0.4228E-04  0.1072E-05 -0.6294E-06   0.000       4.017       0.000    
    1403  0.7192      0.7530E-03 NODE           1 -99.9%  0.5067E-03  0.4239E-04  0.1075E-05 -0.6306E-06   0.000       4.017       0.000    
    1404  0.7199      0.7530E-03 NODE           1 -99.9%  0.5088E-03  0.4250E-04  0.1078E-05 -0.6318E-06   0.000       4.017       0.000    
    1405  0.7207      0.7530E-03 NODE           4 -99.9%  0.5110E-03  0.4261E-04  0.1081E-05 -0.6330E-06   0.000       4.017       0.000    
    1406  0.7214      0.7530E-03 NODE           1 -99.9%  0.5131E-03  0.4271E-04  0.1084E-05 -0.6341E-06   0.000       4.017       0.000    
    1407  0.7222      0.7530E-03 NODE           1 -99.9%  0.5152E-03  0.4282E-04  0.1087E-05 -0.6353E-06   0.000       4.017       0.000    
    1408  0.7229      0.7530E-03 NODE           1 -99.9%  0.5174E-03  0.4292E-04  0.1090E-05 -0.6365E-06   0.000       4.017       0.000    
    1409  0.7237      0.7530E-03 NODE           1 -99.9%  0.5196E-03  0.4303E-04  0.1093E-05 -0.6377E-06   0.000       4.017       0.000    
    1410  0.7244      0.7530E-03 NODE           1 -99.9%  0.5217E-03  0.4313E-04  0.1096E-05 -0.6388E-06   0.000       4.017       0.000    
    1411  0.7252      0.7530E-03 NODE           1 -99.9%  0.5239E-03  0.4323E-04  0.1099E-05 -0.6400E-06   0.000       4.017       0.000    
    1412  0.7259      0.7530E-03 NODE           1 -99.9%  0.5261E-03  0.4333E-04  0.1102E-05 -0.6412E-06   0.000       4.017       0.000    
    1413  0.7267      0.7530E-03 NODE           1 -99.9%  0.5283E-03  0.4344E-04  0.1105E-05 -0.6424E-06   0.000       4.017       0.000    
    1414  0.7275      0.7530E-03 NODE           1 -99.9%  0.5304E-03  0.4354E-04  0.1108E-05 -0.6436E-06   0.000       4.017       0.000    
    1415  0.7282      0.7530E-03 NODE           1 -99.9%  0.5326E-03  0.4363E-04  0.1110E-05 -0.6448E-06   0.000       4.017       0.000    
    1416  0.7290      0.7530E-03 NODE           1 -99.9%  0.5349E-03  0.4373E-04  0.1113E-05 -0.6460E-06   0.000       4.017       0.000    
    1417  0.7297      0.7530E-03 NODE           1 -99.9%  0.5371E-03  0.4383E-04  0.1116E-05 -0.6472E-06   0.000       4.017       0.000    
    1418  0.7305      0.7530E-03 NODE           1 -99.9%  0.5393E-03  0.4393E-04  0.1118E-05 -0.6484E-06   0.000       4.017       0.000    
    1419  0.7312      0.7530E-03 NODE           1 -99.9%  0.5415E-03  0.4402E-04  0.1121E-05 -0.6496E-06   0.000       4.017       0.000    
    1420  0.7320      0.7530E-03 NODE           1 -99.9%  0.5437E-03  0.4412E-04  0.1124E-05 -0.6508E-06   0.000       4.017       0.000    
    1421  0.7327      0.7530E-03 NODE           1 -99.9%  0.5460E-03  0.4421E-04  0.1126E-05 -0.6520E-06   0.000       4.017       0.000    
    1422  0.7335      0.7530E-03 NODE           1 -99.9%  0.5482E-03  0.4430E-04  0.1129E-05 -0.6532E-06   0.000       4.017       0.000    
    1423  0.7342      0.7530E-03 NODE           1 -99.9%  0.5505E-03  0.4440E-04  0.1131E-05 -0.6544E-06   0.000       4.017       0.000    
    1424  0.7350      0.7530E-03 NODE           4 -99.9%  0.5527E-03  0.4449E-04  0.1133E-05 -0.6556E-06   0.000       4.017       0.000    
    1425  0.7357      0.7530E-03 NODE           4 -99.9%  0.5550E-03  0.4458E-04  0.1136E-05 -0.6568E-06   0.000       4.017       0.000    
    1426  0.7365      0.7530E-03 NODE           1 -99.9%  0.5573E-03  0.4466E-04  0.1138E-05 -0.6580E-06   0.000       4.017       0.000    
    1427  0.7372      0.7530E-03 NODE           1 -99.9%  0.5596E-03  0.4475E-04  0.1140E-05 -0.6592E-06   0.000       4.017       0.000    
    1428  0.7380      0.7530E-03 NODE           1 -99.9%  0.5619E-03  0.4484E-04  0.1142E-05 -0.6604E-06   0.000       4.017       0.000    
    1429  0.7387      0.7530E-03 NODE           1 -99.9%  0.5642E-03  0.4492E-04  0.1145E-05 -0.6616E-06   0.000       4.017       0.000    
   CYCLE    TIME      TIME-STEP  ELEMENT          ERROR  I-ENERGY    K-ENERGY T  K-ENERGY R  EXT-WORK     MAS.ERR     TOTAL MASS  MASS ADDED
    1430  0.7395      0.7530E-03 NODE           1 -99.9%  0.5665E-03  0.4501E-04  0.1147E-05 -0.6629E-06   0.000       4.017       0.000    
    1431  0.7403      0.7530E-03 NODE           1 -99.9%  0.5688E-03  0.4509E-04  0.1149E-05 -0.6641E-06   0.000       4.017       0.000    
    1432  0.7410      0.7530E-03 NODE           1 -99.9%  0.5711E-03  0.4517E-04  0.1150E-05 -0.6653E-06   0.000       4.017       0.000    
    1433  0.7418      0.7530E-03 NODE           1 -99.9%  0.5734E-03  0.4525E-04  0.1152E-05 -0.6665E-06   0.000       4.017       0.000    
    1434  0.7425      0.7530E-03 NODE           1 -99.9%  0.5757E-03  0.4533E-04  0.1154E-05 -0.6678E-06   0.000       4.017       0.000    
    1435  0.7433      0.7530E-03 NODE           1 -99.9%  0.5781E-03  0.4541E-04  0.1156E-05 -0.6690E-06   0.000       4.017       0.000    
    1436  0.7440      0.7530E-03 NODE           1 -99.9%  0.5804E-03  0.4548E-04  0.1157E-05 -0.6702E-06   0.000       4.017       0.000    
    1437  0.7448      0.7530E-03 NODE           4 -99.9%  0.5828E-03  0.4556E-04  0.1159E-05 -0.6714E-06   0.000       4.017       0.000    
    1438  0.7455      0.7530E-03 NODE           1 -99.9%  0.5851E-03  0.4563E-04  0.1161E-05 -0.6727E-06   0.000       4.017       0.000    
    1439  0.7463      0.7530E-03 NODE           1 -99.9%  0.5875E-03  0.4571E-04  0.1162E-05 -0.6739E-06   0.000       4.017       0.000    
    1440  0.7470      0.7530E-03 NODE           1 -99.9%  0.5899E-03  0.4578E-04  0.1163E-05 -0.6751E-06   0.000       4.017       0.000    
    1441  0.7478      0.7530E-03 NODE           1 -99.9%  0.5923E-03  0.4585E-04  0.1165E-05 -0.6764E-06   0.000       4.017       0.000    
    1442  0.7485      0.7530E-03 NODE           1 -99.9%  0.5946E-03  0.4592E-04  0.1166E-05 -0.6776E-06   0.000       4.017       0.000    
    1443  0.7493      0.7530E-03 NODE           1 -99.9%  0.5970E-03  0.4599E-04  0.1167E-05 -0.6789E-06   0.000       4.017       0.000    
    1444  0.7500      0.7530E-03 NODE           1 -99.9%  0.5994E-03  0.4606E-04  0.1169E-05 -0.6801E-06   0.000       4.017       0.000    
    1445  0.7508      0.7530E-03 NODE           1 -99.9%  0.6019E-03  0.4613E-04  0.1170E-05 -0.6813E-06   0.000       4.017       0.000    
    1446  0.7516      0.7530E-03 NODE           1 -99.9%  0.6043E-03  0.4620E-04  0.1171E-05 -0.6826E-06   0.000       4.017       0.000    
    1447  0.7523      0.7530E-03 NODE           1 -99.9%  0.6067E-03  0.4626E-04  0.1172E-05 -0.6838E-06   0.000       4.017       0.000    
    1448  0.7531      0.7530E-03 NODE           1 -99.9%  0.6091E-03  0.4633E-04  0.1173E-05 -0.6851E-06   0.000       4.017       0.000    
    1449  0.7538      0.7530E-03 NODE           1 -99.9%  0.6116E-03  0.4639E-04  0.1174E-05 -0.6863E-06   0.000       4.017       0.000    
    1450  0.7546      0.7530E-03 NODE           1 -99.9%  0.6140E-03  0.4646E-04  0.1175E-05 -0.6876E-06   0.000       4.017       0.000    
    1451  0.7553      0.7530E-03 NODE           1 -99.9%  0.6165E-03  0.4653E-04  0.1176E-05 -0.6889E-06   0.000       4.017       0.000    
    1452  0.7561      0.7530E-03 NODE           1 -99.9%  0.6189E-03  0.4659E-04  0.1177E-05 -0.6901E-06   0.000       4.017       0.000    
    1453  0.7568      0.7530E-03 NODE           4 -99.9%  0.6214E-03  0.4665E-04  0.1177E-05 -0.6914E-06   0.000       4.017       0.000    
    1454  0.7576      0.7530E-03 NODE           4 -99.9%  0.6239E-03  0.4672E-04  0.1178E-05 -0.6927E-06   0.000       4.017       0.000    
    1455  0.7583      0.7530E-03 NODE           1 -99.9%  0.6264E-03  0.4678E-04  0.1179E-05 -0.6939E-06   0.000       4.017       0.000    
    1456  0.7591      0.7530E-03 NODE           1 -99.9%  0.6289E-03  0.4684E-04  0.1180E-05 -0.6952E-06   0.000       4.017       0.000    
    1457  0.7598      0.7530E-03 NODE           1 -99.9%  0.6314E-03  0.4691E-04  0.1181E-05 -0.6965E-06   0.000       4.017       0.000    
    1458  0.7606      0.7530E-03 NODE           1 -99.9%  0.6339E-03  0.4697E-04  0.1181E-05 -0.6977E-06   0.000       4.017       0.000    
    1459  0.7613      0.7530E-03 NODE           1 -99.9%  0.6364E-03  0.4703E-04  0.1182E-05 -0.6990E-06   0.000       4.017       0.000    
    1460  0.7621      0.7530E-03 NODE           4 -99.9%  0.6389E-03  0.4710E-04  0.1183E-05 -0.7003E-06   0.000       4.017       0.000    
    1461  0.7628      0.7530E-03 NODE           1 -99.9%  0.6414E-03  0.4716E-04  0.1184E-05 -0.7016E-06   0.000       4.017       0.000    
    1462  0.7636      0.7530E-03 NODE           1 -99.9%  0.6440E-03  0.4722E-04  0.1184E-05 -0.7029E-06   0.000       4.017       0.000    
    1463  0.7644      0.7530E-03 NODE           1 -99.9%  0.6465E-03  0.4728E-04  0.1185E-05 -0.7041E-06   0.000       4.017       0.000    
    1464  0.7651      0.7530E-03 NODE           1 -99.9%  0.6491E-03  0.4735E-04  0.1186E-05 -0.7054E-06   0.000       4.017       0.000    
    1465  0.7659      0.7530E-03 NODE           1 -99.9%  0.6516E-03  0.4741E-04  0.1187E-05 -0.7067E-06   0.000       4.017       0.000    
    1466  0.7666      0.7530E-03 NODE           1 -99.9%  0.6542E-03  0.4747E-04  0.1187E-05 -0.7080E-06   0.000       4.017       0.000    
    1467  0.7674      0.7530E-03 NODE           4 -99.9%  0.6568E-03  0.4754E-04  0.1188E-05 -0.7093E-06   0.000       4.017       0.000    
    1468  0.7681      0.7530E-03 NODE           1 -99.9%  0.6593E-03  0.4760E-04  0.1189E-05 -0.7106E-06   0.000       4.017       0.000    
    1469  0.7689      0.7530E-03 NODE           1 -99.9%  0.6619E-03  0.4766E-04  0.1190E-05 -0.7119E-06   0.000       4.017       0.000    
    1470  0.7696      0.7530E-03 NODE           1 -99.9%  0.6645E-03  0.4773E-04  0.1190E-05 -0.7132E-06   0.000       4.017       0.000    
    1471  0.7704      0.7530E-03 NODE           1 -99.9%  0.6671E-03  0.4779E-04  0.1191E-05 -0.7145E-06   0.000       4.017       0.000    
    1472  0.7711      0.7530E-03 NODE           1 -99.9%  0.6697E-03  0.4785E-04  0.1192E-05 -0.7158E-06   0.000       4.017       0.000    
    1473  0.7719      0.7530E-03 NODE           1 -99.9%  0.6724E-03  0.4792E-04  0.1193E-05 -0.7171E-06   0.000       4.017       0.000    
    1474  0.7726      0.7530E-03 NODE           1 -99.9%  0.6750E-03  0.4798E-04  0.1194E-05 -0.7185E-06   0.000       4.017       0.000    
    1475  0.7734      0.7530E-03 NODE           1 -99.9%  0.6776E-03  0.4805E-04  0.1194E-05 -0.7198E-06   0.000       4.017       0.000    
    1476  0.7741      0.7530E-03 NODE           1 -99.9%  0.6803E-03  0.4811E-04  0.1195E-05 -0.7211E-06   0.000       4.017       0.000    
    1477  0.7749      0.7530E-03 NODE           1 -99.9%  0.6829E-03  0.4818E-04  0.1196E-05 -0.7224E-06   0.000       4.017       0.000    
    1478  0.7756      0.7530E-03 NODE           1 -99.9%  0.6856E-03  0.4825E-04  0.1197E-05 -0.7237E-06   0.000       4.017       0.000    
    1479  0.7764      0.7530E-03 NODE           1 -99.9%  0.6882E-03  0.4831E-04  0.1198E-05 -0.7251E-06   0.000       4.017       0.000    
    1480  0.7772      0.7530E-03 NODE           1 -99.9%  0.6909E-03  0.4838E-04  0.1199E-05 -0.7264E-06   0.000       4.017       0.000    
    1481  0.7779      0.7530E-03 NODE           1 -99.9%  0.6936E-03  0.4845E-04  0.1200E-05 -0.7277E-06   0.000       4.017       0.000    
    1482  0.7787      0.7530E-03 NODE           1 -99.9%  0.6963E-03  0.4852E-04  0.1201E-05 -0.7291E-06   0.000       4.017       0.000    
    1483  0.7794      0.7530E-03 NODE           1 -99.9%  0.6990E-03  0.4859E-04  0.1202E-05 -0.7304E-06   0.000       4.017       0.000    
    1484  0.7802      0.7530E-03 NODE           1 -99.9%  0.7017E-03  0.4866E-04  0.1203E-05 -0.7318E-06   0.000       4.017       0.000    
   CYCLE    TIME      TIME-STEP  ELEMENT          ERROR  I-ENERGY    K-ENERGY T  K-ENERGY R  EXT-WORK     MAS.ERR     TOTAL MASS  MASS ADDED
    1485  0.7809      0.7530E-03 NODE           1 -99.9%  0.7044E-03  0.4873E-04  0.1204E-05 -0.7331E-06   0.000       4.017       0.000    
    1486  0.7817      0.7530E-03 NODE           1 -99.9%  0.7071E-03  0.4880E-04  0.1206E-05 -0.7344E-06   0.000       4.017       0.000    
    1487  0.7824      0.7530E-03 NODE           1 -99.9%  0.7099E-03  0.4887E-04  0.1207E-05 -0.7358E-06   0.000       4.017       0.000    
    1488  0.7832      0.7530E-03 NODE           1 -99.9%  0.7126E-03  0.4895E-04  0.1208E-05 -0.7371E-06   0.000       4.017       0.000    
    1489  0.7839      0.7530E-03 NODE           1 -99.9%  0.7153E-03  0.4902E-04  0.1210E-05 -0.7385E-06   0.000       4.017       0.000    
    1490  0.7847      0.7530E-03 NODE           1 -99.9%  0.7181E-03  0.4910E-04  0.1211E-05 -0.7399E-06   0.000       4.017       0.000    
    1491  0.7854      0.7530E-03 NODE           1 -99.9%  0.7209E-03  0.4918E-04  0.1213E-05 -0.7412E-06   0.000       4.017       0.000    
    1492  0.7862      0.7530E-03 NODE           1 -99.9%  0.7236E-03  0.4925E-04  0.1214E-05 -0.7426E-06   0.000       4.017       0.000    
    1493  0.7869      0.7530E-03 NODE           1 -99.9%  0.7264E-03  0.4933E-04  0.1216E-05 -0.7440E-06   0.000       4.017       0.000    
    1494  0.7877      0.7530E-03 NODE           1 -99.9%  0.7292E-03  0.4941E-04  0.1217E-05 -0.7453E-06   0.000       4.017       0.000    
    1495  0.7884      0.7530E-03 NODE           4 -99.9%  0.7320E-03  0.4950E-04  0.1219E-05 -0.7467E-06   0.000       4.017       0.000    
    1496  0.7892      0.7530E-03 NODE           4 -99.9%  0.7348E-03  0.4958E-04  0.1221E-05 -0.7481E-06   0.000       4.017       0.000    
    1497  0.7900      0.7530E-03 NODE           1 -99.9%  0.7376E-03  0.4966E-04  0.1223E-05 -0.7495E-06   0.000       4.017       0.000    
    1498  0.7907      0.7530E-03 NODE           1 -99.9%  0.7404E-03  0.4975E-04  0.1225E-05 -0.7509E-06   0.000       4.017       0.000    
    1499  0.7915      0.7530E-03 NODE           1 -99.9%  0.7432E-03  0.4984E-04  0.1227E-05 -0.7522E-06   0.000       4.017       0.000    
    1500  0.7922      0.7530E-03 NODE           1 -99.9%  0.7461E-03  0.4992E-04  0.1229E-05 -0.7536E-06   0.000       4.017       0.000    
    1501  0.7930      0.7530E-03 NODE           4 -99.9%  0.7489E-03  0.5001E-04  0.1231E-05 -0.7550E-06   0.000       4.017       0.000    
    1502  0.7937      0.7530E-03 NODE           1 -99.9%  0.7518E-03  0.5010E-04  0.1233E-05 -0.7564E-06   0.000       4.017       0.000    
    1503  0.7945      0.7530E-03 NODE           1 -99.9%  0.7546E-03  0.5020E-04  0.1235E-05 -0.7578E-06   0.000       4.017       0.000    
    1504  0.7952      0.7530E-03 NODE           1 -99.9%  0.7575E-03  0.5029E-04  0.1238E-05 -0.7592E-06   0.000       4.017       0.000    
    1505  0.7960      0.7530E-03 NODE           1 -99.9%  0.7604E-03  0.5038E-04  0.1240E-05 -0.7606E-06   0.000       4.017       0.000    
    1506  0.7967      0.7530E-03 NODE           1 -99.9%  0.7632E-03  0.5048E-04  0.1243E-05 -0.7621E-06   0.000       4.017       0.000    
    1507  0.7975      0.7530E-03 NODE           4 -99.9%  0.7661E-03  0.5058E-04  0.1245E-05 -0.7635E-06   0.000       4.017       0.000    
    1508  0.7982      0.7530E-03 NODE           1 -99.9%  0.7690E-03  0.5067E-04  0.1248E-05 -0.7649E-06   0.000       4.017       0.000    
    1509  0.7990      0.7530E-03 NODE           1 -99.9%  0.7719E-03  0.5077E-04  0.1250E-05 -0.7663E-06   0.000       4.017       0.000    
    1510  0.7997      0.7530E-03 NODE           4 -99.9%  0.7748E-03  0.5087E-04  0.1253E-05 -0.7677E-06   0.000       4.017       0.000    
    1511  0.8005      0.7530E-03 NODE           1 -99.9%  0.7778E-03  0.5098E-04  0.1256E-05 -0.7692E-06   0.000       4.017       0.000    
     ANIMATION FILE: FFO25SCBA005 WRITTEN
     OUTPUT FILE: FFO25SCB_0005.sty WRITTEN
    1512  0.8013      0.7530E-03 NODE           1 -99.9%  0.7807E-03  0.5108E-04  0.1259E-05 -0.7706E-06   0.000       4.017       0.000    
    1513  0.8020      0.7530E-03 NODE           1 -99.9%  0.7836E-03  0.5118E-04  0.1261E-05 -0.7720E-06   0.000       4.017       0.000    
    1514  0.8028      0.7530E-03 NODE           1 -99.9%  0.7866E-03  0.5129E-04  0.1264E-05 -0.7735E-06   0.000       4.017       0.000    
    1515  0.8035      0.7530E-03 NODE           1 -99.9%  0.7895E-03  0.5139E-04  0.1267E-05 -0.7749E-06   0.000       4.017       0.000    
    1516  0.8043      0.7530E-03 NODE           1 -99.9%  0.7925E-03  0.5150E-04  0.1270E-05 -0.7763E-06   0.000       4.017       0.000    
    1517  0.8050      0.7530E-03 NODE           1 -99.9%  0.7955E-03  0.5161E-04  0.1273E-05 -0.7778E-06   0.000       4.017       0.000    
    1518  0.8058      0.7530E-03 NODE           1 -99.9%  0.7985E-03  0.5172E-04  0.1276E-05 -0.7792E-06   0.000       4.017       0.000    
    1519  0.8065      0.7530E-03 NODE           1 -99.9%  0.8015E-03  0.5183E-04  0.1279E-05 -0.7807E-06   0.000       4.017       0.000    
    1520  0.8073      0.7530E-03 NODE           1 -99.9%  0.8045E-03  0.5194E-04  0.1283E-05 -0.7821E-06   0.000       4.017       0.000    
    1521  0.8080      0.7530E-03 NODE           1 -99.9%  0.8075E-03  0.5205E-04  0.1286E-05 -0.7836E-06   0.000       4.017       0.000    
    1522  0.8088      0.7530E-03 NODE           1 -99.9%  0.8105E-03  0.5217E-04  0.1289E-05 -0.7851E-06   0.000       4.017       0.000    
    1523  0.8095      0.7530E-03 NODE           1 -99.9%  0.8135E-03  0.5228E-04  0.1292E-05 -0.7865E-06   0.000       4.017       0.000    
    1524  0.8103      0.7530E-03 NODE           1 -99.9%  0.8165E-03  0.5240E-04  0.1295E-05 -0.7880E-06   0.000       4.017       0.000    
    1525  0.8110      0.7530E-03 NODE           1 -99.9%  0.8196E-03  0.5251E-04  0.1299E-05 -0.7894E-06   0.000       4.017       0.000    
    1526  0.8118      0.7530E-03 NODE           4 -99.9%  0.8226E-03  0.5263E-04  0.1302E-05 -0.7909E-06   0.000       4.017       0.000    
    1527  0.8125      0.7530E-03 NODE           1 -99.9%  0.8257E-03  0.5275E-04  0.1305E-05 -0.7924E-06   0.000       4.017       0.000    
    1528  0.8133      0.7530E-03 NODE           1 -99.9%  0.8287E-03  0.5286E-04  0.1309E-05 -0.7939E-06   0.000       4.017       0.000    
    1529  0.8141      0.7530E-03 NODE           4 -99.9%  0.8318E-03  0.5298E-04  0.1312E-05 -0.7954E-06   0.000       4.017       0.000    
    1530  0.8148      0.7530E-03 NODE           1 -99.9%  0.8349E-03  0.5311E-04  0.1316E-05 -0.7968E-06   0.000       4.017       0.000    
    1531  0.8156      0.7530E-03 NODE           1 -99.9%  0.8380E-03  0.5323E-04  0.1319E-05 -0.7983E-06   0.000       4.017       0.000    
    1532  0.8163      0.7530E-03 NODE           1 -99.9%  0.8411E-03  0.5335E-04  0.1323E-05 -0.7998E-06   0.000       4.017       0.000    
    1533  0.8171      0.7530E-03 NODE           1 -99.9%  0.8442E-03  0.5347E-04  0.1326E-05 -0.8013E-06   0.000       4.017       0.000    
    1534  0.8178      0.7530E-03 NODE           1 -99.9%  0.8473E-03  0.5360E-04  0.1330E-05 -0.8028E-06   0.000       4.017       0.000    
    1535  0.8186      0.7530E-03 NODE           1 -99.9%  0.8504E-03  0.5372E-04  0.1334E-05 -0.8043E-06   0.000       4.017       0.000    
    1536  0.8193      0.7530E-03 NODE           1 -99.9%  0.8536E-03  0.5385E-04  0.1337E-05 -0.8058E-06   0.000       4.017       0.000    
    1537  0.8201      0.7530E-03 NODE           1 -99.9%  0.8567E-03  0.5397E-04  0.1341E-05 -0.8073E-06   0.000       4.017       0.000    
    1538  0.8208      0.7530E-03 NODE           1 -99.9%  0.8599E-03  0.5410E-04  0.1345E-05 -0.8088E-06   0.000       4.017       0.000    
    1539  0.8216      0.7530E-03 NODE           4 -99.9%  0.8630E-03  0.5423E-04  0.1349E-05 -0.8103E-06   0.000       4.017       0.000    
   CYCLE    TIME      TIME-STEP  ELEMENT          ERROR  I-ENERGY    K-ENERGY T  K-ENERGY R  EXT-WORK     MAS.ERR     TOTAL MASS  MASS ADDED
    1540  0.8223      0.7530E-03 NODE           1 -99.9%  0.8662E-03  0.5436E-04  0.1353E-05 -0.8118E-06   0.000       4.017       0.000    
    1541  0.8231      0.7530E-03 NODE           1 -99.9%  0.8694E-03  0.5449E-04  0.1357E-05 -0.8134E-06   0.000       4.017       0.000    
    1542  0.8238      0.7530E-03 NODE           1 -99.9%  0.8726E-03  0.5462E-04  0.1360E-05 -0.8149E-06   0.000       4.017       0.000    
    1543  0.8246      0.7530E-03 NODE           1 -99.9%  0.8758E-03  0.5475E-04  0.1364E-05 -0.8164E-06   0.000       4.017       0.000    
    1544  0.8253      0.7530E-03 NODE           1 -99.9%  0.8790E-03  0.5488E-04  0.1368E-05 -0.8179E-06   0.000       4.017       0.000    
    1545  0.8261      0.7530E-03 NODE           1 -99.9%  0.8822E-03  0.5501E-04  0.1372E-05 -0.8195E-06   0.000       4.017       0.000    
    1546  0.8269      0.7530E-03 NODE           1 -99.9%  0.8854E-03  0.5514E-04  0.1376E-05 -0.8210E-06   0.000       4.017       0.000    
    1547  0.8276      0.7530E-03 NODE           1 -99.9%  0.8886E-03  0.5528E-04  0.1381E-05 -0.8225E-06   0.000       4.017       0.000    
    1548  0.8284      0.7530E-03 NODE           1 -99.9%  0.8919E-03  0.5541E-04  0.1385E-05 -0.8241E-06   0.000       4.017       0.000    
    1549  0.8291      0.7530E-03 NODE           1 -99.9%  0.8951E-03  0.5554E-04  0.1389E-05 -0.8256E-06   0.000       4.017       0.000    
    1550  0.8299      0.7530E-03 NODE           1 -99.9%  0.8984E-03  0.5568E-04  0.1393E-05 -0.8271E-06   0.000       4.017       0.000    
    1551  0.8306      0.7530E-03 NODE           1 -99.9%  0.9016E-03  0.5581E-04  0.1397E-05 -0.8287E-06   0.000       4.017       0.000    
    1552  0.8314      0.7530E-03 NODE           1 -99.9%  0.9049E-03  0.5594E-04  0.1401E-05 -0.8302E-06   0.000       4.017       0.000    
    1553  0.8321      0.7530E-03 NODE           1 -99.9%  0.9082E-03  0.5608E-04  0.1405E-05 -0.8318E-06   0.000       4.017       0.000    
    1554  0.8329      0.7530E-03 NODE           1 -99.9%  0.9115E-03  0.5621E-04  0.1410E-05 -0.8333E-06   0.000       4.017       0.000    
    1555  0.8336      0.7530E-03 NODE           1 -99.9%  0.9148E-03  0.5635E-04  0.1414E-05 -0.8349E-06   0.000       4.017       0.000    
    1556  0.8344      0.7530E-03 NODE           1 -99.9%  0.9181E-03  0.5648E-04  0.1418E-05 -0.8364E-06   0.000       4.017       0.000    
    1557  0.8351      0.7530E-03 NODE           1 -99.9%  0.9214E-03  0.5661E-04  0.1422E-05 -0.8380E-06   0.000       4.017       0.000    
    1558  0.8359      0.7530E-03 NODE           1 -99.9%  0.9247E-03  0.5675E-04  0.1426E-05 -0.8396E-06   0.000       4.017       0.000    
    1559  0.8366      0.7530E-03 NODE           1 -99.9%  0.9281E-03  0.5688E-04  0.1430E-05 -0.8411E-06   0.000       4.017       0.000    
    1560  0.8374      0.7530E-03 NODE           1 -99.9%  0.9314E-03  0.5701E-04  0.1435E-05 -0.8427E-06   0.000       4.017       0.000    
    1561  0.8381      0.7530E-03 NODE           1 -99.9%  0.9348E-03  0.5715E-04  0.1439E-05 -0.8443E-06   0.000       4.017       0.000    
    1562  0.8389      0.7530E-03 NODE           1 -99.9%  0.9381E-03  0.5728E-04  0.1443E-05 -0.8458E-06   0.000       4.017       0.000    
    1563  0.8397      0.7530E-03 NODE           1 -99.9%  0.9415E-03  0.5741E-04  0.1447E-05 -0.8474E-06   0.000       4.017       0.000    
    1564  0.8404      0.7530E-03 NODE           4 -99.9%  0.9449E-03  0.5754E-04  0.1451E-05 -0.8490E-06   0.000       4.017       0.000    
    1565  0.8412      0.7530E-03 NODE           4 -99.9%  0.9483E-03  0.5767E-04  0.1455E-05 -0.8506E-06   0.000       4.017       0.000    
    1566  0.8419      0.7530E-03 NODE           1 -99.9%  0.9517E-03  0.5780E-04  0.1459E-05 -0.8522E-06   0.000       4.017       0.000    
    1567  0.8427      0.7530E-03 NODE           4 -99.9%  0.9551E-03  0.5793E-04  0.1463E-05 -0.8537E-06   0.000       4.017       0.000    
    1568  0.8434      0.7530E-03 NODE           1 -99.9%  0.9585E-03  0.5806E-04  0.1467E-05 -0.8553E-06   0.000       4.017       0.000    
    1569  0.8442      0.7530E-03 NODE           4 -99.9%  0.9619E-03  0.5819E-04  0.1471E-05 -0.8569E-06   0.000       4.017       0.000    
    1570  0.8449      0.7530E-03 NODE           4 -99.9%  0.9654E-03  0.5832E-04  0.1475E-05 -0.8585E-06   0.000       4.017       0.000    
    1571  0.8457      0.7530E-03 NODE           1 -99.9%  0.9688E-03  0.5845E-04  0.1479E-05 -0.8601E-06   0.000       4.017       0.000    
    1572  0.8464      0.7530E-03 NODE           1 -99.9%  0.9723E-03  0.5857E-04  0.1483E-05 -0.8617E-06   0.000       4.017       0.000    
    1573  0.8472      0.7530E-03 NODE           1 -99.9%  0.9757E-03  0.5870E-04  0.1486E-05 -0.8633E-06   0.000       4.017       0.000    
    1574  0.8479      0.7530E-03 NODE           1 -99.9%  0.9792E-03  0.5883E-04  0.1490E-05 -0.8649E-06   0.000       4.017       0.000    
    1575  0.8487      0.7530E-03 NODE           1 -99.9%  0.9827E-03  0.5895E-04  0.1494E-05 -0.8665E-06   0.000       4.017       0.000    
    1576  0.8494      0.7530E-03 NODE           4 -99.9%  0.9862E-03  0.5907E-04  0.1497E-05 -0.8681E-06   0.000       4.017       0.000    
    1577  0.8502      0.7530E-03 NODE           1 -99.9%  0.9897E-03  0.5920E-04  0.1501E-05 -0.8697E-06   0.000       4.017       0.000    
    1578  0.8510      0.7530E-03 NODE           4 -99.9%  0.9932E-03  0.5932E-04  0.1505E-05 -0.8713E-06   0.000       4.017       0.000    
    1579  0.8517      0.7530E-03 NODE           1 -99.9%  0.9967E-03  0.5944E-04  0.1508E-05 -0.8729E-06   0.000       4.017       0.000    
    1580  0.8525      0.7530E-03 NODE           1 -99.9%  0.1000E-02  0.5956E-04  0.1512E-05 -0.8746E-06   0.000       4.017       0.000    
    1581  0.8532      0.7530E-03 NODE           1 -99.9%  0.1004E-02  0.5968E-04  0.1515E-05 -0.8762E-06   0.000       4.017       0.000    
    1582  0.8540      0.7530E-03 NODE           4 -99.9%  0.1007E-02  0.5980E-04  0.1519E-05 -0.8778E-06   0.000       4.017       0.000    
    1583  0.8547      0.7530E-03 NODE           1 -99.9%  0.1011E-02  0.5992E-04  0.1522E-05 -0.8794E-06   0.000       4.017       0.000    
    1584  0.8555      0.7530E-03 NODE           1 -99.9%  0.1014E-02  0.6004E-04  0.1525E-05 -0.8810E-06   0.000       4.017       0.000    
    1585  0.8562      0.7530E-03 NODE           1 -99.9%  0.1018E-02  0.6015E-04  0.1529E-05 -0.8827E-06   0.000       4.017       0.000    
    1586  0.8570      0.7530E-03 NODE           1 -99.9%  0.1022E-02  0.6027E-04  0.1532E-05 -0.8843E-06   0.000       4.017       0.000    
    1587  0.8577      0.7530E-03 NODE           1 -99.9%  0.1025E-02  0.6038E-04  0.1535E-05 -0.8859E-06   0.000       4.017       0.000    
    1588  0.8585      0.7530E-03 NODE           1 -99.9%  0.1029E-02  0.6050E-04  0.1538E-05 -0.8876E-06   0.000       4.017       0.000    
    1589  0.8592      0.7530E-03 NODE           1 -99.9%  0.1032E-02  0.6061E-04  0.1541E-05 -0.8892E-06   0.000       4.017       0.000    
    1590  0.8600      0.7530E-03 NODE           1 -99.9%  0.1036E-02  0.6072E-04  0.1544E-05 -0.8908E-06   0.000       4.017       0.000    
    1591  0.8607      0.7530E-03 NODE           1 -99.9%  0.1040E-02  0.6083E-04  0.1547E-05 -0.8925E-06   0.000       4.017       0.000    
    1592  0.8615      0.7530E-03 NODE           1 -99.9%  0.1043E-02  0.6094E-04  0.1550E-05 -0.8941E-06   0.000       4.017       0.000    
    1593  0.8622      0.7530E-03 NODE           4 -99.9%  0.1047E-02  0.6105E-04  0.1553E-05 -0.8958E-06   0.000       4.017       0.000    
    1594  0.8630      0.7530E-03 NODE           1 -99.9%  0.1051E-02  0.6115E-04  0.1556E-05 -0.8974E-06   0.000       4.017       0.000    
   CYCLE    TIME      TIME-STEP  ELEMENT          ERROR  I-ENERGY    K-ENERGY T  K-ENERGY R  EXT-WORK     MAS.ERR     TOTAL MASS  MASS ADDED
    1595  0.8638      0.7530E-03 NODE           1 -99.9%  0.1054E-02  0.6126E-04  0.1558E-05 -0.8991E-06   0.000       4.017       0.000    
    1596  0.8645      0.7530E-03 NODE           1 -99.9%  0.1058E-02  0.6136E-04  0.1561E-05 -0.9007E-06   0.000       4.017       0.000    
    1597  0.8653      0.7530E-03 NODE           1 -99.9%  0.1062E-02  0.6147E-04  0.1563E-05 -0.9024E-06   0.000       4.017       0.000    
    1598  0.8660      0.7530E-03 NODE           1 -99.9%  0.1065E-02  0.6157E-04  0.1566E-05 -0.9040E-06   0.000       4.017       0.000    
    1599  0.8668      0.7530E-03 NODE           4 -99.9%  0.1069E-02  0.6167E-04  0.1568E-05 -0.9057E-06   0.000       4.017       0.000    
    1600  0.8675      0.7530E-03 NODE           1 -99.9%  0.1073E-02  0.6177E-04  0.1570E-05 -0.9073E-06   0.000       4.017       0.000    
    1601  0.8683      0.7530E-03 NODE           1 -99.9%  0.1077E-02  0.6186E-04  0.1573E-05 -0.9090E-06   0.000       4.017       0.000    
    1602  0.8690      0.7530E-03 NODE           1 -99.9%  0.1080E-02  0.6196E-04  0.1575E-05 -0.9107E-06   0.000       4.017       0.000    
    1603  0.8698      0.7530E-03 NODE           1 -99.9%  0.1084E-02  0.6205E-04  0.1577E-05 -0.9123E-06   0.000       4.017       0.000    
    1604  0.8705      0.7530E-03 NODE           1 -99.9%  0.1088E-02  0.6215E-04  0.1579E-05 -0.9140E-06   0.000       4.017       0.000    
    1605  0.8713      0.7530E-03 NODE           1 -99.9%  0.1092E-02  0.6224E-04  0.1581E-05 -0.9157E-06   0.000       4.017       0.000    
    1606  0.8720      0.7530E-03 NODE           1 -99.9%  0.1095E-02  0.6233E-04  0.1582E-05 -0.9173E-06   0.000       4.017       0.000    
    1607  0.8728      0.7530E-03 NODE           1 -99.9%  0.1099E-02  0.6242E-04  0.1584E-05 -0.9190E-06   0.000       4.017       0.000    
    1608  0.8735      0.7530E-03 NODE           1 -99.9%  0.1103E-02  0.6251E-04  0.1586E-05 -0.9207E-06   0.000       4.017       0.000    
    1609  0.8743      0.7530E-03 NODE           1 -99.9%  0.1107E-02  0.6259E-04  0.1587E-05 -0.9224E-06   0.000       4.017       0.000    
    1610  0.8750      0.7530E-03 NODE           1 -99.9%  0.1111E-02  0.6268E-04  0.1589E-05 -0.9241E-06   0.000       4.017       0.000    
    1611  0.8758      0.7530E-03 NODE           4 -99.9%  0.1114E-02  0.6276E-04  0.1590E-05 -0.9257E-06   0.000       4.017       0.000    
    1612  0.8766      0.7530E-03 NODE           4 -99.9%  0.1118E-02  0.6285E-04  0.1592E-05 -0.9274E-06   0.000       4.017       0.000    
    1613  0.8773      0.7530E-03 NODE           1 -99.9%  0.1122E-02  0.6293E-04  0.1593E-05 -0.9291E-06   0.000       4.017       0.000    
    1614  0.8781      0.7530E-03 NODE           1 -99.9%  0.1126E-02  0.6301E-04  0.1594E-05 -0.9308E-06   0.000       4.017       0.000    
    1615  0.8788      0.7530E-03 NODE           4 -99.9%  0.1130E-02  0.6309E-04  0.1595E-05 -0.9325E-06   0.000       4.017       0.000    
    1616  0.8796      0.7530E-03 NODE           1 -99.9%  0.1134E-02  0.6317E-04  0.1597E-05 -0.9342E-06   0.000       4.017       0.000    
    1617  0.8803      0.7530E-03 NODE           4 -99.9%  0.1138E-02  0.6325E-04  0.1598E-05 -0.9359E-06   0.000       4.017       0.000    
    1618  0.8811      0.7530E-03 NODE           4 -99.9%  0.1141E-02  0.6332E-04  0.1599E-05 -0.9376E-06   0.000       4.017       0.000    
    1619  0.8818      0.7530E-03 NODE           1 -99.9%  0.1145E-02  0.6340E-04  0.1600E-05 -0.9393E-06   0.000       4.017       0.000    
    1620  0.8826      0.7530E-03 NODE           1 -99.9%  0.1149E-02  0.6348E-04  0.1601E-05 -0.9410E-06   0.000       4.017       0.000    
    1621  0.8833      0.7530E-03 NODE           4 -99.9%  0.1153E-02  0.6355E-04  0.1602E-05 -0.9427E-06   0.000       4.017       0.000    
    1622  0.8841      0.7530E-03 NODE           1 -99.9%  0.1157E-02  0.6363E-04  0.1603E-05 -0.9444E-06   0.000       4.017       0.000    
    1623  0.8848      0.7530E-03 NODE           1 -99.9%  0.1161E-02  0.6370E-04  0.1604E-05 -0.9461E-06   0.000       4.017       0.000    
    1624  0.8856      0.7530E-03 NODE           1 -99.9%  0.1165E-02  0.6378E-04  0.1605E-05 -0.9479E-06   0.000       4.017       0.000    
    1625  0.8863      0.7530E-03 NODE           1 -99.9%  0.1169E-02  0.6385E-04  0.1606E-05 -0.9496E-06   0.000       4.017       0.000    
    1626  0.8871      0.7530E-03 NODE           1 -99.9%  0.1173E-02  0.6392E-04  0.1607E-05 -0.9513E-06   0.000       4.017       0.000    
    1627  0.8878      0.7530E-03 NODE           1 -99.9%  0.1177E-02  0.6400E-04  0.1607E-05 -0.9530E-06   0.000       4.017       0.000    
    1628  0.8886      0.7530E-03 NODE           1 -99.9%  0.1181E-02  0.6407E-04  0.1608E-05 -0.9547E-06   0.000       4.017       0.000    
    1629  0.8894      0.7530E-03 NODE           1 -99.9%  0.1185E-02  0.6414E-04  0.1609E-05 -0.9565E-06   0.000       4.017       0.000    
    1630  0.8901      0.7530E-03 NODE           4 -99.9%  0.1189E-02  0.6421E-04  0.1610E-05 -0.9582E-06   0.000       4.017       0.000    
    1631  0.8909      0.7530E-03 NODE           1 -99.9%  0.1193E-02  0.6429E-04  0.1611E-05 -0.9599E-06   0.000       4.017       0.000    
    1632  0.8916      0.7530E-03 NODE           1 -99.9%  0.1197E-02  0.6436E-04  0.1612E-05 -0.9617E-06   0.000       4.017       0.000    
    1633  0.8924      0.7530E-03 NODE           1 -99.9%  0.1201E-02  0.6443E-04  0.1613E-05 -0.9634E-06   0.000       4.017       0.000    
    1634  0.8931      0.7530E-03 NODE           1 -99.9%  0.1205E-02  0.6450E-04  0.1614E-05 -0.9652E-06   0.000       4.017       0.000    
    1635  0.8939      0.7530E-03 NODE           1 -99.9%  0.1209E-02  0.6458E-04  0.1615E-05 -0.9669E-06   0.000       4.017       0.000    
    1636  0.8946      0.7530E-03 NODE           1 -99.9%  0.1213E-02  0.6465E-04  0.1616E-05 -0.9687E-06   0.000       4.017       0.000    
    1637  0.8954      0.7530E-03 NODE           1 -99.9%  0.1217E-02  0.6472E-04  0.1617E-05 -0.9704E-06   0.000       4.017       0.000    
    1638  0.8961      0.7530E-03 NODE           1 -99.9%  0.1221E-02  0.6479E-04  0.1618E-05 -0.9722E-06   0.000       4.017       0.000    
    1639  0.8969      0.7530E-03 NODE           1 -99.9%  0.1226E-02  0.6487E-04  0.1619E-05 -0.9739E-06   0.000       4.017       0.000    
    1640  0.8976      0.7530E-03 NODE           1 -99.9%  0.1230E-02  0.6494E-04  0.1620E-05 -0.9757E-06   0.000       4.017       0.000    
    1641  0.8984      0.7530E-03 NODE           1 -99.9%  0.1234E-02  0.6501E-04  0.1621E-05 -0.9775E-06   0.000       4.017       0.000    
    1642  0.8991      0.7530E-03 NODE           1 -99.9%  0.1238E-02  0.6509E-04  0.1622E-05 -0.9792E-06   0.000       4.017       0.000    
    1643  0.8999      0.7530E-03 NODE           1 -99.9%  0.1242E-02  0.6516E-04  0.1623E-05 -0.9810E-06   0.000       4.017       0.000    
    1644  0.9006      0.7530E-03 NODE           1 -99.9%  0.1246E-02  0.6524E-04  0.1624E-05 -0.9828E-06   0.000       4.017       0.000    
    1645  0.9014      0.7530E-03 NODE           1 -99.9%  0.1250E-02  0.6531E-04  0.1625E-05 -0.9846E-06   0.000       4.017       0.000    
    1646  0.9022      0.7530E-03 NODE           1 -99.9%  0.1255E-02  0.6539E-04  0.1626E-05 -0.9863E-06   0.000       4.017       0.000    
    1647  0.9029      0.7530E-03 NODE           1 -99.9%  0.1259E-02  0.6547E-04  0.1627E-05 -0.9881E-06   0.000       4.017       0.000    
    1648  0.9037      0.7530E-03 NODE           1 -99.9%  0.1263E-02  0.6554E-04  0.1628E-05 -0.9899E-06   0.000       4.017       0.000    
    1649  0.9044      0.7530E-03 NODE           4 -99.9%  0.1267E-02  0.6562E-04  0.1630E-05 -0.9917E-06   0.000       4.017       0.000    
   CYCLE    TIME      TIME-STEP  ELEMENT          ERROR  I-ENERGY    K-ENERGY T  K-ENERGY R  EXT-WORK     MAS.ERR     TOTAL MASS  MASS ADDED
    1650  0.9052      0.7530E-03 NODE           1 -99.9%  0.1272E-02  0.6570E-04  0.1631E-05 -0.9935E-06   0.000       4.017       0.000    
    1651  0.9059      0.7530E-03 NODE           1 -99.9%  0.1276E-02  0.6578E-04  0.1632E-05 -0.9953E-06   0.000       4.017       0.000    
    1652  0.9067      0.7530E-03 NODE           1 -99.9%  0.1280E-02  0.6586E-04  0.1634E-05 -0.9971E-06   0.000       4.017       0.000    
    1653  0.9074      0.7530E-03 NODE           1 -99.9%  0.1284E-02  0.6594E-04  0.1635E-05 -0.9989E-06   0.000       4.017       0.000    
    1654  0.9082      0.7530E-03 NODE           1 -99.9%  0.1289E-02  0.6602E-04  0.1636E-05 -0.1001E-05   0.000       4.017       0.000    
    1655  0.9089      0.7530E-03 NODE           1 -99.9%  0.1293E-02  0.6610E-04  0.1638E-05 -0.1003E-05   0.000       4.017       0.000    
    1656  0.9097      0.7530E-03 NODE           1 -99.9%  0.1297E-02  0.6619E-04  0.1639E-05 -0.1004E-05   0.000       4.017       0.000    
    1657  0.9104      0.7530E-03 NODE           4 -99.9%  0.1301E-02  0.6627E-04  0.1641E-05 -0.1006E-05   0.000       4.017       0.000    
    1658  0.9112      0.7530E-03 NODE           1 -99.9%  0.1306E-02  0.6636E-04  0.1642E-05 -0.1008E-05   0.000       4.017       0.000    
    1659  0.9119      0.7530E-03 NODE           1 -99.9%  0.1310E-02  0.6645E-04  0.1644E-05 -0.1010E-05   0.000       4.017       0.000    
    1660  0.9127      0.7530E-03 NODE           1 -99.9%  0.1314E-02  0.6653E-04  0.1646E-05 -0.1012E-05   0.000       4.017       0.000    
    1661  0.9135      0.7530E-03 NODE           4 -99.9%  0.1319E-02  0.6662E-04  0.1648E-05 -0.1013E-05   0.000       4.017       0.000    
    1662  0.9142      0.7530E-03 NODE           1 -99.9%  0.1323E-02  0.6672E-04  0.1649E-05 -0.1015E-05   0.000       4.017       0.000    
    1663  0.9150      0.7530E-03 NODE           1 -99.9%  0.1327E-02  0.6681E-04  0.1651E-05 -0.1017E-05   0.000       4.017       0.000    
    1664  0.9157      0.7530E-03 NODE           1 -99.9%  0.1332E-02  0.6690E-04  0.1653E-05 -0.1019E-05   0.000       4.017       0.000    
    1665  0.9165      0.7530E-03 NODE           1 -99.9%  0.1336E-02  0.6700E-04  0.1655E-05 -0.1021E-05   0.000       4.017       0.000    
    1666  0.9172      0.7530E-03 NODE           1 -99.9%  0.1341E-02  0.6710E-04  0.1658E-05 -0.1023E-05   0.000       4.017       0.000    
    1667  0.9180      0.7530E-03 NODE           1 -99.9%  0.1345E-02  0.6719E-04  0.1660E-05 -0.1024E-05   0.000       4.017       0.000    
    1668  0.9187      0.7530E-03 NODE           4 -99.9%  0.1349E-02  0.6729E-04  0.1662E-05 -0.1026E-05   0.000       4.017       0.000    
    1669  0.9195      0.7530E-03 NODE           1 -99.9%  0.1354E-02  0.6740E-04  0.1664E-05 -0.1028E-05   0.000       4.017       0.000    
    1670  0.9202      0.7530E-03 NODE           1 -99.9%  0.1358E-02  0.6750E-04  0.1667E-05 -0.1030E-05   0.000       4.017       0.000    
    1671  0.9210      0.7530E-03 NODE           1 -99.9%  0.1363E-02  0.6760E-04  0.1669E-05 -0.1032E-05   0.000       4.017       0.000    
    1672  0.9217      0.7530E-03 NODE           1 -99.9%  0.1367E-02  0.6771E-04  0.1672E-05 -0.1034E-05   0.000       4.017       0.000    
    1673  0.9225      0.7530E-03 NODE           1 -99.9%  0.1372E-02  0.6782E-04  0.1674E-05 -0.1036E-05   0.000       4.017       0.000    
    1674  0.9232      0.7530E-03 NODE           1 -99.9%  0.1376E-02  0.6793E-04  0.1677E-05 -0.1038E-05   0.000       4.017       0.000    
    1675  0.9240      0.7530E-03 NODE           1 -99.9%  0.1381E-02  0.6804E-04  0.1680E-05 -0.1039E-05   0.000       4.017       0.000    
    1676  0.9247      0.7530E-03 NODE           1 -99.9%  0.1385E-02  0.6815E-04  0.1683E-05 -0.1041E-05   0.000       4.017       0.000    
    1677  0.9255      0.7530E-03 NODE           1 -99.9%  0.1390E-02  0.6827E-04  0.1685E-05 -0.1043E-05   0.000       4.017       0.000    
    1678  0.9263      0.7530E-03 NODE           4 -99.9%  0.1394E-02  0.6838E-04  0.1688E-05 -0.1045E-05   0.000       4.017       0.000    
    1679  0.9270      0.7530E-03 NODE           1 -99.9%  0.1399E-02  0.6850E-04  0.1691E-05 -0.1047E-05   0.000       4.017       0.000    
    1680  0.9278      0.7530E-03 NODE           1 -99.9%  0.1403E-02  0.6862E-04  0.1694E-05 -0.1049E-05   0.000       4.017       0.000    
    1681  0.9285      0.7530E-03 NODE           1 -99.9%  0.1408E-02  0.6874E-04  0.1697E-05 -0.1051E-05   0.000       4.017       0.000    
    1682  0.9293      0.7530E-03 NODE           1 -99.9%  0.1412E-02  0.6886E-04  0.1701E-05 -0.1053E-05   0.000       4.017       0.000    
    1683  0.9300      0.7530E-03 NODE           1 -99.9%  0.1417E-02  0.6898E-04  0.1704E-05 -0.1055E-05   0.000       4.017       0.000    
    1684  0.9308      0.7530E-03 NODE           1 -99.9%  0.1422E-02  0.6910E-04  0.1707E-05 -0.1057E-05   0.000       4.017       0.000    
    1685  0.9315      0.7530E-03 NODE           1 -99.9%  0.1426E-02  0.6923E-04  0.1710E-05 -0.1058E-05   0.000       4.017       0.000    
    1686  0.9323      0.7530E-03 NODE           1 -99.9%  0.1431E-02  0.6935E-04  0.1714E-05 -0.1060E-05   0.000       4.017       0.000    
    1687  0.9330      0.7530E-03 NODE           1 -99.9%  0.1435E-02  0.6948E-04  0.1717E-05 -0.1062E-05   0.000       4.017       0.000    
    1688  0.9338      0.7530E-03 NODE           1 -99.9%  0.1440E-02  0.6961E-04  0.1720E-05 -0.1064E-05   0.000       4.017       0.000    
    1689  0.9345      0.7530E-03 NODE           1 -99.9%  0.1445E-02  0.6974E-04  0.1724E-05 -0.1066E-05   0.000       4.017       0.000    
    1690  0.9353      0.7530E-03 NODE           4 -99.9%  0.1449E-02  0.6987E-04  0.1727E-05 -0.1068E-05   0.000       4.017       0.000    
    1691  0.9360      0.7530E-03 NODE           1 -99.9%  0.1454E-02  0.7000E-04  0.1731E-05 -0.1070E-05   0.000       4.017       0.000    
    1692  0.9368      0.7530E-03 NODE           4 -99.9%  0.1459E-02  0.7013E-04  0.1735E-05 -0.1072E-05   0.000       4.017       0.000    
    1693  0.9375      0.7530E-03 NODE           1 -99.9%  0.1463E-02  0.7027E-04  0.1738E-05 -0.1074E-05   0.000       4.017       0.000    
    1694  0.9383      0.7530E-03 NODE           4 -99.9%  0.1468E-02  0.7040E-04  0.1742E-05 -0.1076E-05   0.000       4.017       0.000    
    1695  0.9391      0.7530E-03 NODE           1 -99.9%  0.1473E-02  0.7054E-04  0.1746E-05 -0.1078E-05   0.000       4.017       0.000    
    1696  0.9398      0.7530E-03 NODE           1 -99.9%  0.1478E-02  0.7067E-04  0.1750E-05 -0.1080E-05   0.000       4.017       0.000    
    1697  0.9406      0.7530E-03 NODE           1 -99.9%  0.1482E-02  0.7081E-04  0.1753E-05 -0.1082E-05   0.000       4.017       0.000    
    1698  0.9413      0.7530E-03 NODE           1 -99.9%  0.1487E-02  0.7095E-04  0.1757E-05 -0.1084E-05   0.000       4.017       0.000    
    1699  0.9421      0.7530E-03 NODE           1 -99.9%  0.1492E-02  0.7109E-04  0.1761E-05 -0.1086E-05   0.000       4.017       0.000    
    1700  0.9428      0.7530E-03 NODE           1 -99.9%  0.1497E-02  0.7123E-04  0.1765E-05 -0.1088E-05   0.000       4.017       0.000    
    1701  0.9436      0.7530E-03 NODE           4 -99.9%  0.1501E-02  0.7137E-04  0.1769E-05 -0.1090E-05   0.000       4.017       0.000    
    1702  0.9443      0.7530E-03 NODE           1 -99.9%  0.1506E-02  0.7151E-04  0.1773E-05 -0.1092E-05   0.000       4.017       0.000    
    1703  0.9451      0.7530E-03 NODE           1 -99.9%  0.1511E-02  0.7165E-04  0.1778E-05 -0.1094E-05   0.000       4.017       0.000    
    1704  0.9458      0.7530E-03 NODE           4 -99.9%  0.1516E-02  0.7179E-04  0.1782E-05 -0.1096E-05   0.000       4.017       0.000    
   CYCLE    TIME      TIME-STEP  ELEMENT          ERROR  I-ENERGY    K-ENERGY T  K-ENERGY R  EXT-WORK     MAS.ERR     TOTAL MASS  MASS ADDED
    1705  0.9466      0.7530E-03 NODE           1 -99.9%  0.1521E-02  0.7194E-04  0.1786E-05 -0.1097E-05   0.000       4.017       0.000    
    1706  0.9473      0.7530E-03 NODE           1 -99.9%  0.1526E-02  0.7208E-04  0.1790E-05 -0.1099E-05   0.000       4.017       0.000    
    1707  0.9481      0.7530E-03 NODE           1 -99.9%  0.1530E-02  0.7223E-04  0.1795E-05 -0.1101E-05   0.000       4.017       0.000    
    1708  0.9488      0.7530E-03 NODE           1 -99.9%  0.1535E-02  0.7238E-04  0.1799E-05 -0.1103E-05   0.000       4.017       0.000    
    1709  0.9496      0.7530E-03 NODE           1 -99.9%  0.1540E-02  0.7252E-04  0.1804E-05 -0.1105E-05   0.000       4.017       0.000    
    1710  0.9503      0.7530E-03 NODE           1 -99.9%  0.1545E-02  0.7267E-04  0.1808E-05 -0.1107E-05   0.000       4.017       0.000    
    1711  0.9511      0.7530E-03 NODE           1 -99.9%  0.1550E-02  0.7282E-04  0.1813E-05 -0.1109E-05   0.000       4.017       0.000    
    1712  0.9519      0.7530E-03 NODE           1 -99.9%  0.1555E-02  0.7297E-04  0.1817E-05 -0.1111E-05   0.000       4.017       0.000    
    1713  0.9526      0.7530E-03 NODE           4 -99.9%  0.1560E-02  0.7312E-04  0.1822E-05 -0.1113E-05   0.000       4.017       0.000    
    1714  0.9534      0.7530E-03 NODE           1 -99.9%  0.1565E-02  0.7327E-04  0.1827E-05 -0.1115E-05   0.000       4.017       0.000    
    1715  0.9541      0.7530E-03 NODE           1 -99.9%  0.1570E-02  0.7342E-04  0.1832E-05 -0.1118E-05   0.000       4.017       0.000    
    1716  0.9549      0.7530E-03 NODE           1 -99.9%  0.1575E-02  0.7357E-04  0.1836E-05 -0.1120E-05   0.000       4.017       0.000    
    1717  0.9556      0.7530E-03 NODE           1 -99.9%  0.1580E-02  0.7373E-04  0.1841E-05 -0.1122E-05   0.000       4.017       0.000    
    1718  0.9564      0.7530E-03 NODE           1 -99.9%  0.1585E-02  0.7388E-04  0.1846E-05 -0.1124E-05   0.000       4.017       0.000    
    1719  0.9571      0.7530E-03 NODE           1 -99.9%  0.1590E-02  0.7403E-04  0.1851E-05 -0.1126E-05   0.000       4.017       0.000    
    1720  0.9579      0.7530E-03 NODE           1 -99.9%  0.1595E-02  0.7419E-04  0.1856E-05 -0.1128E-05   0.000       4.017       0.000    
    1721  0.9586      0.7530E-03 NODE           1 -99.9%  0.1600E-02  0.7434E-04  0.1861E-05 -0.1130E-05   0.000       4.017       0.000    
    1722  0.9594      0.7530E-03 NODE           1 -99.9%  0.1605E-02  0.7449E-04  0.1866E-05 -0.1132E-05   0.000       4.017       0.000    
    1723  0.9601      0.7530E-03 NODE           1 -99.9%  0.1610E-02  0.7465E-04  0.1871E-05 -0.1134E-05   0.000       4.017       0.000    
    1724  0.9609      0.7530E-03 NODE           1 -99.9%  0.1615E-02  0.7480E-04  0.1876E-05 -0.1136E-05   0.000       4.017       0.000    
    1725  0.9616      0.7530E-03 NODE           4 -99.9%  0.1620E-02  0.7495E-04  0.1881E-05 -0.1138E-05   0.000       4.017       0.000    
    1726  0.9624      0.7530E-03 NODE           1 -99.9%  0.1625E-02  0.7511E-04  0.1886E-05 -0.1140E-05   0.000       4.017       0.000    
    1727  0.9632      0.7530E-03 NODE           1 -99.9%  0.1630E-02  0.7526E-04  0.1891E-05 -0.1142E-05   0.000       4.017       0.000    
    1728  0.9639      0.7530E-03 NODE           1 -99.9%  0.1635E-02  0.7541E-04  0.1895E-05 -0.1144E-05   0.000       4.017       0.000    
    1729  0.9647      0.7530E-03 NODE           4 -99.9%  0.1640E-02  0.7557E-04  0.1900E-05 -0.1146E-05   0.000       4.017       0.000    
    1730  0.9654      0.7530E-03 NODE           1 -99.9%  0.1645E-02  0.7572E-04  0.1905E-05 -0.1148E-05   0.000       4.017       0.000    
    1731  0.9662      0.7530E-03 NODE           1 -99.9%  0.1650E-02  0.7587E-04  0.1910E-05 -0.1150E-05   0.000       4.017       0.000    
    1732  0.9669      0.7530E-03 NODE           1 -99.9%  0.1656E-02  0.7602E-04  0.1915E-05 -0.1152E-05   0.000       4.017       0.000    
    1733  0.9677      0.7530E-03 NODE           1 -99.9%  0.1661E-02  0.7618E-04  0.1920E-05 -0.1154E-05   0.000       4.017       0.000    
    1734  0.9684      0.7530E-03 NODE           1 -99.9%  0.1666E-02  0.7633E-04  0.1925E-05 -0.1156E-05   0.000       4.017       0.000    
    1735  0.9692      0.7530E-03 NODE           1 -99.9%  0.1671E-02  0.7648E-04  0.1929E-05 -0.1159E-05   0.000       4.017       0.000    
    1736  0.9699      0.7530E-03 NODE           1 -99.9%  0.1676E-02  0.7663E-04  0.1934E-05 -0.1161E-05   0.000       4.017       0.000    
    1737  0.9707      0.7530E-03 NODE           1 -99.9%  0.1682E-02  0.7678E-04  0.1939E-05 -0.1163E-05   0.000       4.017       0.000    
    1738  0.9714      0.7530E-03 NODE           1 -99.9%  0.1687E-02  0.7692E-04  0.1943E-05 -0.1165E-05   0.000       4.017       0.000    
    1739  0.9722      0.7530E-03 NODE           1 -99.9%  0.1692E-02  0.7707E-04  0.1948E-05 -0.1167E-05   0.000       4.017       0.000    
    1740  0.9729      0.7530E-03 NODE           1 -99.9%  0.1697E-02  0.7722E-04  0.1952E-05 -0.1169E-05   0.000       4.017       0.000    
    1741  0.9737      0.7530E-03 NODE           1 -99.9%  0.1703E-02  0.7737E-04  0.1957E-05 -0.1171E-05   0.000       4.017       0.000    
    1742  0.9744      0.7530E-03 NODE           1 -99.9%  0.1708E-02  0.7751E-04  0.1961E-05 -0.1173E-05   0.000       4.017       0.000    
    1743  0.9752      0.7530E-03 NODE           1 -99.9%  0.1713E-02  0.7766E-04  0.1966E-05 -0.1175E-05   0.000       4.017       0.000    
    1744  0.9760      0.7530E-03 NODE           1 -99.9%  0.1718E-02  0.7780E-04  0.1970E-05 -0.1177E-05   0.000       4.017       0.000    
    1745  0.9767      0.7530E-03 NODE           1 -99.9%  0.1724E-02  0.7794E-04  0.1974E-05 -0.1179E-05   0.000       4.017       0.000    
    1746  0.9775      0.7530E-03 NODE           1 -99.9%  0.1729E-02  0.7809E-04  0.1979E-05 -0.1182E-05   0.000       4.017       0.000    
    1747  0.9782      0.7530E-03 NODE           1 -99.9%  0.1734E-02  0.7823E-04  0.1983E-05 -0.1184E-05   0.000       4.017       0.000    
    1748  0.9790      0.7530E-03 NODE           4 -99.9%  0.1740E-02  0.7837E-04  0.1987E-05 -0.1186E-05   0.000       4.017       0.000    
    1749  0.9797      0.7530E-03 NODE           1 -99.9%  0.1745E-02  0.7851E-04  0.1991E-05 -0.1188E-05   0.000       4.017       0.000    
    1750  0.9805      0.7530E-03 NODE           4 -99.9%  0.1750E-02  0.7865E-04  0.1995E-05 -0.1190E-05   0.000       4.017       0.000    
    1751  0.9812      0.7530E-03 NODE           1 -99.9%  0.1756E-02  0.7879E-04  0.1999E-05 -0.1192E-05   0.000       4.017       0.000    
    1752  0.9820      0.7530E-03 NODE           1 -99.9%  0.1761E-02  0.7892E-04  0.2003E-05 -0.1194E-05   0.000       4.017       0.000    
    1753  0.9827      0.7530E-03 NODE           1 -99.9%  0.1767E-02  0.7906E-04  0.2006E-05 -0.1196E-05   0.000       4.017       0.000    
    1754  0.9835      0.7530E-03 NODE           1 -99.9%  0.1772E-02  0.7920E-04  0.2010E-05 -0.1199E-05   0.000       4.017       0.000    
    1755  0.9842      0.7530E-03 NODE           1 -99.9%  0.1777E-02  0.7933E-04  0.2014E-05 -0.1201E-05   0.000       4.017       0.000    
    1756  0.9850      0.7530E-03 NODE           4 -99.9%  0.1783E-02  0.7946E-04  0.2017E-05 -0.1203E-05   0.000       4.017       0.000    
    1757  0.9857      0.7530E-03 NODE           1 -99.9%  0.1788E-02  0.7959E-04  0.2021E-05 -0.1205E-05   0.000       4.017       0.000    
    1758  0.9865      0.7530E-03 NODE           1 -99.9%  0.1794E-02  0.7972E-04  0.2024E-05 -0.1207E-05   0.000       4.017       0.000    
    1759  0.9872      0.7530E-03 NODE           1 -99.9%  0.1799E-02  0.7985E-04  0.2028E-05 -0.1209E-05   0.000       4.017       0.000    
   CYCLE    TIME      TIME-STEP  ELEMENT          ERROR  I-ENERGY    K-ENERGY T  K-ENERGY R  EXT-WORK     MAS.ERR     TOTAL MASS  MASS ADDED
    1760  0.9880      0.7530E-03 NODE           1 -99.9%  0.1805E-02  0.7998E-04  0.2031E-05 -0.1211E-05   0.000       4.017       0.000    
    1761  0.9888      0.7530E-03 NODE           1 -99.9%  0.1810E-02  0.8011E-04  0.2034E-05 -0.1213E-05   0.000       4.017       0.000    
    1762  0.9895      0.7530E-03 NODE           1 -99.9%  0.1816E-02  0.8024E-04  0.2037E-05 -0.1216E-05   0.000       4.017       0.000    
    1763  0.9903      0.7530E-03 NODE           1 -99.9%  0.1821E-02  0.8036E-04  0.2040E-05 -0.1218E-05   0.000       4.017       0.000    
    1764  0.9910      0.7530E-03 NODE           1 -99.9%  0.1827E-02  0.8048E-04  0.2043E-05 -0.1220E-05   0.000       4.017       0.000    
    1765  0.9918      0.7530E-03 NODE           1 -99.9%  0.1832E-02  0.8060E-04  0.2046E-05 -0.1222E-05   0.000       4.017       0.000    
    1766  0.9925      0.7530E-03 NODE           1 -99.9%  0.1838E-02  0.8072E-04  0.2049E-05 -0.1224E-05   0.000       4.017       0.000    
    1767  0.9933      0.7530E-03 NODE           1 -99.9%  0.1844E-02  0.8084E-04  0.2051E-05 -0.1226E-05   0.000       4.017       0.000    
    1768  0.9940      0.7530E-03 NODE           1 -99.9%  0.1849E-02  0.8096E-04  0.2054E-05 -0.1229E-05   0.000       4.017       0.000    
    1769  0.9948      0.7530E-03 NODE           1 -99.9%  0.1855E-02  0.8107E-04  0.2056E-05 -0.1231E-05   0.000       4.017       0.000    
    1770  0.9955      0.7530E-03 NODE           1 -99.9%  0.1860E-02  0.8119E-04  0.2059E-05 -0.1233E-05   0.000       4.017       0.000    
    1771  0.9963      0.7530E-03 NODE           4 -99.9%  0.1866E-02  0.8130E-04  0.2061E-05 -0.1235E-05   0.000       4.017       0.000    
    1772  0.9970      0.7530E-03 NODE           1 -99.9%  0.1872E-02  0.8141E-04  0.2063E-05 -0.1237E-05   0.000       4.017       0.000    
    1773  0.9978      0.7530E-03 NODE           1 -99.9%  0.1877E-02  0.8152E-04  0.2065E-05 -0.1239E-05   0.000       4.017       0.000    
    1774  0.9985      0.7530E-03 NODE           1 -99.9%  0.1883E-02  0.8162E-04  0.2067E-05 -0.1242E-05   0.000       4.017       0.000    
    1775  0.9993      0.7530E-03 NODE           1 -99.9%  0.1889E-02  0.8173E-04  0.2069E-05 -0.1244E-05   0.000       4.017       0.000    
    1776   1.000      0.7530E-03 NODE           1 -99.9%  0.1894E-02  0.8183E-04  0.2071E-05 -0.1246E-05   0.000       4.017       0.000    
     ANIMATION FILE: FFO25SCBA006 WRITTEN
     OUTPUT FILE: FFO25SCB_0006.sty WRITTEN
    1777   1.001      0.7530E-03 NODE           1 -99.9%  0.1900E-02  0.8194E-04  0.2073E-05 -0.1248E-05   0.000       4.017       0.000    

     RESTART FILES: FFO25SCB_0001_[0001-0004].rst WRITTEN
     -------------

  
                           ** CPU USER TIME **
  
  
                        ** SUMMARY **
  
 #PROC  ELEMENT   KINCOND   INTEG     IO        T0        ASM       RESOL    
   1   .2955E+00 .9330E-01 .2443E-01 .2186E+00 .8289E-01 .1359E-01 .9009E+00
   2   .3007E+00 .9126E-01 .2428E-01 .1013E+00 .1026E+00 .1347E-01 .9334E+00
   3   .2512E+00 .9152E-01 .2336E-01 .1017E+00 .2809E+00 .1300E-01 .9318E+00
   4   .2556E+00 .8925E-01 .2300E-01 .1015E+00 .2787E+00 .1311E-01 .9225E+00
  
                 ** SPMD COM. TIME **
  
 #PROC  FORCES    RBYFOR    RBYVEL    VEL       TOT       %        
   1   .2363E-01 .0000E+00 .0000E+00 .8624E-02 .3225E-01 .3580E+01
   2   .1582E+00 .0000E+00 .0000E+00 .8089E-02 .1663E+00 .1781E+02
   3   .3148E-01 .0000E+00 .0000E+00 .7899E-02 .3938E-01 .4226E+01
   4   .2236E-01 .0000E+00 .0000E+00 .7928E-02 .3029E-01 .3283E+01
  
 
                   ** CUMULATIVE CPU TIME SUMMARY **
  
 CONTACT SORTING.............: .0000E+00     0.00 % 
 CONTACT FORCES..............: .1129E-01     0.31 % 
 ELEMENT FORCES..............: .1103E+01    29.90 % 
 KINEMATIC COND..............: .3653E+00     9.90 % 
 INTEGRATION.................: .9507E-01     2.58 % 
 ASSEMBLING..................: .5317E-01     1.44 % 
 OTHERS (including I/O)......: .2061E+01    55.87 % 
 TOTAL.......................: .3689E+01   100.00 % 
  
  
                           ** ELAPSED TIME **
  
  
                        ** SUMMARY **
  
 #PROC  ELEMENT   KINCOND   INTEG     IO        T0        ASM       RESOL    
   1   .1684E+00 .5422E-01 .1417E-01 .1446E+00 .4750E-01 .7736E-02 .5365E+00
   2   .1690E+00 .5266E-01 .1394E-01 .6314E-01 .5894E-01 .7559E-02 .5365E+00
   3   .1419E+00 .5260E-01 .1343E-01 .6356E-01 .1576E+00 .7376E-02 .5355E+00
   4   .1459E+00 .5225E-01 .1326E-01 .6446E-01 .1574E+00 .7546E-02 .5365E+00
  
        ELEMENT   KINCOND   INTEG     IO        T0        ASM       RESOL    
 MIN   .1419E+00 .5225E-01 .1326E-01 .6314E-01 .4750E-01 .7376E-02 .5355E+00
 MAX   .1690E+00 .5422E-01 .1417E-01 .1446E+00 .1576E+00 .7736E-02 .5365E+00
 AVG   .1563E+00 .5293E-01 .1370E-01 .8393E-01 .1054E+00 .7554E-02 .5362E+00
  
                 ** SPMD COM. TIME **
  
 #PROC  FORCES    RBYFOR    RBYVEL    VEL       TOT       %        
   1   .1363E-01 .0000E+00 .0000E+00 .5080E-02 .1871E-01 .3488E+01
   2   .8790E-01 .0000E+00 .0000E+00 .4781E-02 .9268E-01 .1728E+02
   3   .1797E-01 .0000E+00 .0000E+00 .4768E-02 .2274E-01 .4246E+01
   4   .1318E-01 .0000E+00 .0000E+00 .4720E-02 .1790E-01 .3337E+01
  
        FORCES    RBYFOR    RBYVEL    VEL       TOT       %        
 MIN   .1318E-01 .0000E+00 .0000E+00 .4720E-02 .1790E-01 .3337E+01
 MAX   .8790E-01 .0000E+00 .0000E+00 .5080E-02 .9268E-01 .1728E+02
 AVG   .3317E-01 .0000E+00 .0000E+00 .4837E-02 .3801E-01 .7086E+01
  
                   ** MEMORY USAGE STATISTICS **
  
 TOTAL MEMORY USED .........................:      229 MB
 MAXIMUM MEMORY PER PROCESSOR...............:       58 MB
 MINIMUM MEMORY PER PROCESSOR...............:       57 MB
 AVERAGE MEMORY PER PROCESSOR...............:       57 MB
  
                   ** DISK USAGE STATISTICS **
  
 TOTAL DISK SPACE USED .....................:          1 MB
 ANIMATION/H3D/TH/OUTP SIZE ................:          0 MB
 RESTART FILE SIZE .........................:          1 MB
  
                   ** COMPUTE TIME INFORMATION **
                        ** CURRENT ENGINE **
  
 EXECUTION STARTED .........................:      2022/11/23  16:24:10
 EXECUTION COMPLETED .......................:      2022/11/23  16:24:10
  
 ELAPSED TIME     =          0.62 s
                          0:00:00
 ESTIMATED SPEEDUP=          5.98



     NORMAL TERMINATION      



     TOTAL NUMBER OF CYCLES  :    1778

  
                   ** COMPUTE RUNTIME INFORMATION SUMMARY **
  
        STARTER RUNTIME =          0.64s (00:00:00)
 # 001   ENGINE RUNTIME =          0.62s (00:00:00)
 ------------------------------ 
 STARTER+ENGINE RUNTIME =          1.25s (00:00:01)
  
