 FFO25SCB_0001.out
************************************************************************
**                                                                    **
**                                                                    **
**                      RADIOSS ENGINE MAINLINE                       **
**                                                                    **
**            Non-linear Finite Element Analysis Software             **
**                   from Altair Engineering, Inc.                    **
**                                                                    **
**                                                                    **
**              Linux 64 bits, Intel compiler, Intel MPI              **
**                                                                    **
**                                                                    **
**                                                                    **
** Build tag: 0742056_087sesevot__2070_0032401_10                     **
************************************************************************
**  COPYRIGHT (C) 1986-2014                 Altair Engineering, Inc.  **
** All Rights Reserved.  Copyright notice does not imply publication. **
** Contains trade secrets of Altair Engineering Inc.                  **
** Decompilation or disassembly of this software strictly prohibited. **
************************************************************************
 
 NUMBER OF SPMD DOMAINS           4
 NUMBER OF THREADS PER DOMAIN     1
 NUMBER OF HMPP PROCESSES         4
  
 COMPUTATION HARDWARE DESCRIPTION
  
 CPU#  HOSTNAME     CPU TYPE, FREQUENCY AND MEMORY
   1   fradf-mariner1.europe.altair.com   Intel(R) Xeon(R) CPU E5-4640 0 @ 2.40GHz (x86_64), 2400 MHz,  16080 MB RAM,  16383 MB swap
   2   fradf-mariner1.europe.altair.com   Intel(R) Xeon(R) CPU E5-4640 0 @ 2.40GHz (x86_64), 2400 MHz,  16080 MB RAM,  16383 MB swap
   3   fradf-mariner1.europe.altair.com   Intel(R) Xeon(R) CPU E5-4640 0 @ 2.40GHz (x86_64), 2400 MHz,  16080 MB RAM,  16383 MB swap
   4   fradf-mariner1.europe.altair.com   Intel(R) Xeon(R) CPU E5-4640 0 @ 2.40GHz (x86_64), 2400 MHz,  16080 MB RAM,  16383 MB swap
  
************************************************************************


 FFO25SCBD01Bauteil ohne Haut, RG110, kleine Kugel 10.Kg.                        


 FINAL TIME . . . . . . . . . . . . . . . . . . .   1.001000    

 TIME INTERVAL FOR TIME HISTORY PLOTS . . . . . .  0.1000000    

 TIME STEP SCALE FACTOR . . . . . . . . . . . . .  0.9000000    

 MINIMUM TIME STEP  . . . . . . . . . . . . . . .   0.000000    


 NODAL TIME STEP SCALE FACTOR . . . . . . . . . .  0.9000000    
 NODAL MINIMUM TIME STEP. . . . . . . . . . . . .  0.2000000E-03
 MIN. TIME FLAG (1:STOP 3:INCREASE MASS). . . . .     3


 BRICK TIME STEP SCALE FACTOR . . . . . . . . . .  0.9000000    
 BRICK MINIMUM TIME STEP. . . . . . . . . . . . .   0.000000    
 MIN. TIME STEP FLAG (1:STOP RUN, 2:DELETE BRICK)     0

 QUAD TIME STEP SCALE FACTOR. . . . . . . . . . .  0.9000000    
 QUAD MINIMUM TIME STEP . . . . . . . . . . . . .   0.000000    
 MIN. TIME STEP FLAG (1:STOP RUN, 2:DELETE QUAD).     0

 SHELL TIME STEP SCALE FACTOR . . . . . . . . . .  0.9000000    
 SHELL MINIMUM TIME STEP. . . . . . . . . . . . .   0.000000    
 MIN. TIME FLAG (1:STOP, 2:DELETE, 3:SMALL STRAIN)    0

 TRUSS TIME STEP SCALE FACTOR . . . . . . . . . .  0.9000000    
 TRUSS MINIMUM TIME STEP. . . . . . . . . . . . .   0.000000    
 MIN. TIME FLAG (1:STOP, 2:DELETE). . . . . . . .     0

 BEAM TIME STEP SCALE FACTOR. . . . . . . . . . .  0.9000000    
 BEAM MINIMUM TIME STEP . . . . . . . . . . . . .   0.000000    
 MIN. TIME FLAG (1:STOP, 2:DELETE). . . . . . . .     0

 SPRING TIME STEP SCALE FACTOR. . . . . . . . . .  0.9000000    
 SPRING MINIMUM TIME STEP . . . . . . . . . . . .   0.000000    
 MIN. TIME FLAG (1:STOP, 2:DELETE). . . . . . . .     0

 AIRBAG TIME STEP SCALE FACTOR. . . . . . . . . .  0.9000000    
 AIRBAG MINIMUM TIME STEP . . . . . . . . . . . .   0.000000    
 MIN. TIME FLAG (1:STOP). . . . . . . . . . . . .     0

 INTERFACE TYPE 7 TIME STEP SCALE FACTOR. . . . .  0.9000000    
 INTERFACE TYPE 7 MINIMUM TIME STEP . . . . . . .   0.000000    
 MIN. TIME FLAG(1:STOP, 2:REMOVE NODE FROM INTERF)    0

 FVMBAG TIME STEP SCALE FACTOR. . . . . . . . . .  0.9000000    
 FVMBAG MINIMUM TIME STEP . . . . . . . . . . . .   0.000000    

 PRINTOUT CYCLE FREQUENCY . . . . . . . . . . . .    -1

 RESTART CYCLE FREQUENCY. . . . . . . . . . . . .       5000

 MAXIMUM RESTART WRITE BEFORE OVERWRITE . . . . .     0

 INVERS: INPUT DECK VERSION . . . . . . . . . . .   100
 ITTYP : FLAG FOR TYPE OF T-FILE. . . . . . . . .     4

 TIME FOR FIRST ANIMATION-FILE PLOT . . . . . . .   0.000000    
 TIME INTERVAL FOR ANIMATION-FILE PLOTS . . . . .  0.2000000    
 SENSOR FOR ANIMATION-FILE PLOTS. . . . . . . . .          0
 TIME INTERVAL FOR SENSOR ANIMATION-FILE PLOTS. .   0.000000    

 VARIABLE SAVED ON ANIMATION FILES (1: YES) :
      PLASTIC STRAIN. . . . . .     1
      DENSITY     (SOLID ONLY).     0
      SPECIFIC ENERGY . . . . .     1
      HOURGLASS ENERGY. . . . .     1
      TEMPERATURE (SOLID ONLY).     0
      THICKNESS   (SHELL ONLY).     0
      PRESSURE    (SOLID ONLY).     0
      VON MISES . . . . . . . .     1
      TURBULENT ENERGY (FLUID).     0
      TURBULENT VISCOSITY(FLUID)    0
      VORTICITY (FLUID) . . . .     0
 VECTOR SAVED ON ANIMATION FILES (1: YES) :
      VELOCITY VECTOR . . . . .     1
      DISPLACEMENT VECTOR . . .     0
      ACCELERATION VECTOR . . .     0
      CONTACT FORCES. . . . . .     1
      INTERNAL FORCES . . . . .     0
      EXTERNAL FORCES . . . . .     0
      SECTION RBY RWALL FORCES.     1
      ROTATIONAL VELOCITY VECTOR    0
      CONTACT PRESSURE (VECTORS)    0
 SHELL TENSOR SAVED ON ANIMATION FILES (1: YES) :
      MEMBRANE STRESS . . . . .     0
      BENDING STRESS(MOMENT/T^2)    0
      UPPER LAYER STRESS. . . .     0
      LOWER LAYER STRESS. . . .     0
      MEMBRANE STRAIN . . . . .     0
      CURVATURE . . . . . . . .     0
      UPPER LAYER STRAIN. . . .     0
      LOWER LAYER STRAIN. . . .     0
 NODAL MASS SAVED ON ANIMATION FILES (1: YES) :    1
 KEEP DELETED ELEMENT (1: YES) :    0


 INITIAL TIME STEP. . . . . . . . . . . . . . . .   0.000000    
 MAXIMUM TIME STEP. . . . . . . . . . . . . . . .  0.1000000E+31

 PARALLEL ARITHMETIC ON

 ALE GRID FORMULATION                    
 --------------------                    
 NUMBER OF INTERFACES TO BE ELIMINATED. . . . . .        0

 NUMBER OF SOLID  ELEMENT BLOCKS TO BE ELIMINATED        0

 NUMBER OF QUAD   ELEMENT BLOCKS TO BE ELIMINATED        0

 NUMBER OF SHELL  ELEMENT BLOCKS TO BE ELIMINATED        0

 NUMBER OF TRUSS  ELEMENT BLOCKS TO BE ELIMINATED        0

 NUMBER OF BEAM   ELEMENT BLOCKS TO BE ELIMINATED        0

 NUMBER OF SPRING ELEMENT BLOCKS TO BE ELIMINATED        0

 NUMBER OF SH_3N  ELEMENT BLOCKS TO BE ELIMINATED        0

 NUMBER OF  SPH PARTICLES BLOCKS TO BE ELIMINATED        0

 NUMBER OF RIGID LINKS. . . . . . . . . . . . . .        0

 NUMBER OF ALE LINKS. . . . . . . . . . . . . . .        0

 NUMBER OF NEW BOUNDARY CONDITIONS. . . . . . . .        0

 19/11/2014
 CYCLE    TIME      TIME-STEP  ELEMENT          ERROR  I-ENERGY    K-ENERGY T  K-ENERGY R  EXT-WORK MAS.ERR
     0   0.000      0.7539E-03 NODE          23   0.0%   0.000      0.2854E-11   0.000       0.000       0.000    
     ANIMATION FILE: FFO25SCBA001 WRITTEN
     OUTPUT FILE: FFO25SCB_0001.sty WRITTEN
     1  0.7539E-03  0.3119E-03 NODE          23 -99.9%  0.1434E-12  0.1663E-10  0.3941E-14 -0.8432E-11   0.000    
     2  0.1066E-02  0.3431E-03 NODE          23 -99.9%  0.5543E-12  0.3076E-10  0.2003E-13 -0.1091E-10   0.000    
     3  0.1409E-02  0.3774E-03 NODE          23 -99.9%  0.1637E-11  0.5130E-10  0.8579E-13 -0.1426E-10   0.000    
     4  0.1786E-02  0.4152E-03 NODE          23 -99.9%  0.4064E-11  0.8000E-10  0.3001E-12 -0.1889E-10   0.000    
     5  0.2201E-02  0.4447E-03 NODE          23 -99.9%  0.8913E-11  0.1185E-09  0.9010E-12 -0.2522E-10   0.000    
     6  0.2646E-02  0.4298E-03 NODE          23 -99.9%  0.1749E-10  0.1657E-09  0.2326E-11 -0.3299E-10   0.000    
     7  0.3076E-02  0.4372E-03 NODE          23 -99.9%  0.2988E-10  0.2210E-09  0.4932E-11 -0.4143E-10   0.000    
     8  0.3513E-02  0.4335E-03 NODE          23 -99.9%  0.4728E-10  0.2854E-09  0.9361E-11 -0.5090E-10   0.000    
     9  0.3947E-02  0.4354E-03 NODE          23 -99.9%  0.6973E-10  0.3594E-09  0.1607E-10 -0.6108E-10   0.000    
    10  0.4382E-02  0.4344E-03 NODE          34 -99.9%  0.9779E-10  0.4440E-09  0.2562E-10 -0.7204E-10   0.000    
    11  0.4817E-02  0.4349E-03 NODE          23 -99.9%  0.1314E-09  0.5400E-09  0.3830E-10 -0.8364E-10   0.000    
    12  0.5252E-02  0.4347E-03 NODE          23 -99.9%  0.1706E-09  0.6489E-09  0.5431E-10 -0.9588E-10   0.000    
    13  0.5686E-02  0.4348E-03 NODE          23 -99.9%  0.2154E-09  0.7717E-09  0.7357E-10 -0.1087E-09   0.000    
    14  0.6121E-02  0.4347E-03 NODE          23 -99.9%  0.2657E-09  0.9098E-09  0.9578E-10 -0.1221E-09   0.000    
    15  0.6556E-02  0.4348E-03 NODE          23 -99.9%  0.3214E-09  0.1064E-08  0.1204E-09 -0.1361E-09   0.000    
    16  0.6990E-02  0.4348E-03 NODE          23 -99.9%  0.3826E-09  0.1237E-08  0.1468E-09 -0.1506E-09   0.000    
    17  0.7425E-02  0.4348E-03 NODE          23 -99.9%  0.4493E-09  0.1428E-08  0.1741E-09 -0.1657E-09   0.000    
    18  0.7860E-02  0.4348E-03 NODE          23 -99.9%  0.5218E-09  0.1640E-08  0.2016E-09 -0.1814E-09   0.000    
    19  0.8295E-02  0.4348E-03 NODE          23 -99.9%  0.6002E-09  0.1872E-08  0.2285E-09 -0.1977E-09   0.000    
    20  0.8730E-02  0.4348E-03 NODE          23 -99.9%  0.6849E-09  0.2125E-08  0.2541E-09 -0.2146E-09   0.000    
    21  0.9164E-02  0.4348E-03 NODE          23 -99.9%  0.7762E-09  0.2400E-08  0.2781E-09 -0.2320E-09   0.000    
    22  0.9599E-02  0.4348E-03 NODE          23 -99.9%  0.8744E-09  0.2696E-08  0.3001E-09 -0.2499E-09   0.000    
    23  0.1003E-01  0.4348E-03 NODE          23 -99.9%  0.9801E-09  0.3014E-08  0.3202E-09 -0.2683E-09   0.000    
    24  0.1047E-01  0.4348E-03 NODE          23 -99.9%  0.1093E-08  0.3352E-08  0.3385E-09 -0.2872E-09   0.000    
    25  0.1090E-01  0.4348E-03 NODE          23 -99.9%  0.1215E-08  0.3712E-08  0.3556E-09 -0.3066E-09   0.000    
    26  0.1134E-01  0.4348E-03 NODE          23 -99.9%  0.1345E-08  0.4091E-08  0.3718E-09 -0.3263E-09   0.000    
    27  0.1177E-01  0.4348E-03 NODE          23 -99.9%  0.1483E-08  0.4491E-08  0.3879E-09 -0.3464E-09   0.000    
    28  0.1221E-01  0.4348E-03 NODE          23 -99.9%  0.1630E-08  0.4911E-08  0.4044E-09 -0.3669E-09   0.000    
    29  0.1264E-01  0.4348E-03 NODE          23 -99.9%  0.1787E-08  0.5350E-08  0.4220E-09 -0.3877E-09   0.000    
    30  0.1308E-01  0.4348E-03 NODE          23 -99.9%  0.1952E-08  0.5810E-08  0.4410E-09 -0.4089E-09   0.000    
    31  0.1351E-01  0.4348E-03 NODE          23 -99.9%  0.2127E-08  0.6290E-08  0.4619E-09 -0.4303E-09   0.000    
    32  0.1395E-01  0.4348E-03 NODE          23 -99.9%  0.2311E-08  0.6791E-08  0.4848E-09 -0.4521E-09   0.000    
    33  0.1438E-01  0.4348E-03 NODE          23 -99.9%  0.2505E-08  0.7314E-08  0.5098E-09 -0.4742E-09   0.000    
    34  0.1482E-01  0.4348E-03 NODE          23 -99.9%  0.2708E-08  0.7860E-08  0.5368E-09 -0.4967E-09   0.000    
    35  0.1525E-01  0.4348E-03 NODE          23 -99.9%  0.2921E-08  0.8430E-08  0.5655E-09 -0.5195E-09   0.000    
    36  0.1569E-01  0.4348E-03 NODE          23 -99.9%  0.3143E-08  0.9026E-08  0.5956E-09 -0.5426E-09   0.000    
    37  0.1612E-01  0.4348E-03 NODE          23 -99.9%  0.3375E-08  0.9648E-08  0.6266E-09 -0.5662E-09   0.000    
    38  0.1656E-01  0.4348E-03 NODE          23 -99.9%  0.3617E-08  0.1030E-07  0.6583E-09 -0.5902E-09   0.000    
    39  0.1699E-01  0.4348E-03 NODE          23 -99.9%  0.3870E-08  0.1098E-07  0.6902E-09 -0.6145E-09   0.000    
    40  0.1742E-01  0.4348E-03 NODE          23 -99.9%  0.4132E-08  0.1168E-07  0.7220E-09 -0.6393E-09   0.000    
    41  0.1786E-01  0.4348E-03 NODE          23 -99.9%  0.4405E-08  0.1242E-07  0.7535E-09 -0.6645E-09   0.000    
    42  0.1829E-01  0.4348E-03 NODE          33 -99.9%  0.4689E-08  0.1319E-07  0.7846E-09 -0.6901E-09   0.000    
    43  0.1873E-01  0.4348E-03 NODE          33 -99.9%  0.4983E-08  0.1399E-07  0.8154E-09 -0.7161E-09   0.000    
    44  0.1916E-01  0.4348E-03 NODE          23 -99.9%  0.5289E-08  0.1482E-07  0.8458E-09 -0.7425E-09   0.000    
    45  0.1960E-01  0.4348E-03 NODE          33 -99.9%  0.5605E-08  0.1568E-07  0.8762E-09 -0.7692E-09   0.000    
    46  0.2003E-01  0.4348E-03 NODE          33 -99.9%  0.5932E-08  0.1658E-07  0.9066E-09 -0.7963E-09   0.000    
    47  0.2047E-01  0.4348E-03 NODE          33 -99.9%  0.6270E-08  0.1751E-07  0.9375E-09 -0.8238E-09   0.000    
    48  0.2090E-01  0.4348E-03 NODE          23 -99.9%  0.6619E-08  0.1846E-07  0.9691E-09 -0.8515E-09   0.000    
    49  0.2134E-01  0.4348E-03 NODE          23 -99.9%  0.6980E-08  0.1945E-07  0.1002E-08 -0.8796E-09   0.000    
    50  0.2177E-01  0.4348E-03 NODE          23 -99.9%  0.7351E-08  0.2047E-07  0.1035E-08 -0.9079E-09   0.000    
    51  0.2221E-01  0.4348E-03 NODE          23 -99.9%  0.7734E-08  0.2152E-07  0.1070E-08 -0.9366E-09   0.000    
    52  0.2264E-01  0.4348E-03 NODE          23 -99.9%  0.8128E-08  0.2261E-07  0.1106E-08 -0.9655E-09   0.000    
    53  0.2308E-01  0.4348E-03 NODE          23 -99.9%  0.8534E-08  0.2372E-07  0.1143E-08 -0.9947E-09   0.000    
    54  0.2351E-01  0.4348E-03 NODE          23 -99.9%  0.8950E-08  0.2486E-07  0.1182E-08 -0.1024E-08   0.000    
 CYCLE    TIME      TIME-STEP  ELEMENT          ERROR  I-ENERGY    K-ENERGY T  K-ENERGY R  EXT-WORK MAS.ERR
    55  0.2395E-01  0.4348E-03 NODE          23 -99.9%  0.9378E-08  0.2604E-07  0.1221E-08 -0.1054E-08   0.000    
    56  0.2438E-01  0.4348E-03 NODE          23 -99.9%  0.9817E-08  0.2724E-07  0.1262E-08 -0.1084E-08   0.000    
    57  0.2482E-01  0.4348E-03 NODE          23 -99.9%  0.1027E-07  0.2848E-07  0.1303E-08 -0.1114E-08   0.000    
    58  0.2525E-01  0.4348E-03 NODE          23 -99.9%  0.1073E-07  0.2975E-07  0.1345E-08 -0.1144E-08   0.000    
    59  0.2569E-01  0.4348E-03 NODE          23 -99.9%  0.1120E-07  0.3105E-07  0.1387E-08 -0.1175E-08   0.000    
    60  0.2612E-01  0.4348E-03 NODE          23 -99.9%  0.1169E-07  0.3238E-07  0.1430E-08 -0.1206E-08   0.000    
    61  0.2655E-01  0.4348E-03 NODE          23 -99.9%  0.1218E-07  0.3375E-07  0.1473E-08 -0.1237E-08   0.000    
    62  0.2699E-01  0.4348E-03 NODE          23 -99.9%  0.1269E-07  0.3515E-07  0.1516E-08 -0.1268E-08   0.000    
    63  0.2742E-01  0.4348E-03 NODE          23 -99.9%  0.1321E-07  0.3658E-07  0.1560E-08 -0.1300E-08   0.000    
    64  0.2786E-01  0.4348E-03 NODE          23 -99.9%  0.1374E-07  0.3804E-07  0.1605E-08 -0.1332E-08   0.000    
    65  0.2829E-01  0.4348E-03 NODE          23 -99.9%  0.1428E-07  0.3953E-07  0.1649E-08 -0.1364E-08   0.000    
    66  0.2873E-01  0.4348E-03 NODE          23 -99.9%  0.1484E-07  0.4106E-07  0.1694E-08 -0.1396E-08   0.000    
    67  0.2916E-01  0.4348E-03 NODE          23 -99.9%  0.1541E-07  0.4262E-07  0.1740E-08 -0.1429E-08   0.000    
    68  0.2960E-01  0.4348E-03 NODE          23 -99.9%  0.1599E-07  0.4422E-07  0.1786E-08 -0.1463E-08   0.000    
    69  0.3003E-01  0.4348E-03 NODE          23 -99.9%  0.1659E-07  0.4585E-07  0.1833E-08 -0.1497E-08   0.000    
    70  0.3047E-01  0.4348E-03 NODE          23 -99.9%  0.1720E-07  0.4751E-07  0.1879E-08 -0.1531E-08   0.000    
    71  0.3090E-01  0.4348E-03 NODE          23 -99.9%  0.1782E-07  0.4921E-07  0.1926E-08 -0.1566E-08   0.000    
    72  0.3134E-01  0.4348E-03 NODE          23 -99.9%  0.1847E-07  0.5095E-07  0.1974E-08 -0.1602E-08   0.000    
    73  0.3177E-01  0.4348E-03 NODE          23 -99.9%  0.1912E-07  0.5272E-07  0.2021E-08 -0.1638E-08   0.000    
    74  0.3221E-01  0.4348E-03 NODE          23 -99.9%  0.1980E-07  0.5452E-07  0.2067E-08 -0.1675E-08   0.000    
    75  0.3264E-01  0.4348E-03 NODE          23 -99.9%  0.2049E-07  0.5636E-07  0.2114E-08 -0.1712E-08   0.000    
    76  0.3308E-01  0.4348E-03 NODE          23 -99.9%  0.2120E-07  0.5824E-07  0.2159E-08 -0.1750E-08   0.000    
    77  0.3351E-01  0.4348E-03 NODE          23 -99.9%  0.2193E-07  0.6016E-07  0.2204E-08 -0.1788E-08   0.000    
    78  0.3395E-01  0.4348E-03 NODE          23 -99.9%  0.2268E-07  0.6211E-07  0.2249E-08 -0.1826E-08   0.000    
    79  0.3438E-01  0.4348E-03 NODE          23 -99.9%  0.2345E-07  0.6410E-07  0.2292E-08 -0.1865E-08   0.000    
    80  0.3482E-01  0.4348E-03 NODE          23 -99.9%  0.2424E-07  0.6613E-07  0.2335E-08 -0.1904E-08   0.000    
    81  0.3525E-01  0.4348E-03 NODE          23 -99.9%  0.2504E-07  0.6820E-07  0.2376E-08 -0.1943E-08   0.000    
    82  0.3568E-01  0.4348E-03 NODE          23 -99.9%  0.2587E-07  0.7030E-07  0.2417E-08 -0.1982E-08   0.000    
    83  0.3612E-01  0.4348E-03 NODE          23 -99.9%  0.2672E-07  0.7245E-07  0.2458E-08 -0.2022E-08   0.000    
    84  0.3655E-01  0.4348E-03 NODE          23 -99.9%  0.2758E-07  0.7463E-07  0.2497E-08 -0.2062E-08   0.000    
    85  0.3699E-01  0.4348E-03 NODE          23 -99.9%  0.2847E-07  0.7685E-07  0.2537E-08 -0.2101E-08   0.000    
    86  0.3742E-01  0.4348E-03 NODE          23 -99.9%  0.2937E-07  0.7912E-07  0.2576E-08 -0.2141E-08   0.000    
    87  0.3786E-01  0.4348E-03 NODE          23 -99.9%  0.3029E-07  0.8142E-07  0.2614E-08 -0.2180E-08   0.000    
    88  0.3829E-01  0.4348E-03 NODE          23 -99.9%  0.3122E-07  0.8376E-07  0.2653E-08 -0.2220E-08   0.000    
    89  0.3873E-01  0.4348E-03 NODE          23 -99.9%  0.3218E-07  0.8614E-07  0.2692E-08 -0.2259E-08   0.000    
    90  0.3916E-01  0.4348E-03 NODE          23 -99.9%  0.3314E-07  0.8857E-07  0.2731E-08 -0.2299E-08   0.000    
    91  0.3960E-01  0.4348E-03 NODE          23 -99.9%  0.3413E-07  0.9103E-07  0.2771E-08 -0.2338E-08   0.000    
    92  0.4003E-01  0.4348E-03 NODE          23 -99.9%  0.3513E-07  0.9354E-07  0.2812E-08 -0.2377E-08   0.000    
    93  0.4047E-01  0.4348E-03 NODE          23 -99.9%  0.3614E-07  0.9609E-07  0.2853E-08 -0.2416E-08   0.000    
    94  0.4090E-01  0.4348E-03 NODE          23 -99.9%  0.3717E-07  0.9867E-07  0.2895E-08 -0.2455E-08   0.000    
    95  0.4134E-01  0.4348E-03 NODE          23 -99.9%  0.3821E-07  0.1013E-06  0.2938E-08 -0.2493E-08   0.000    
    96  0.4177E-01  0.4348E-03 NODE          23 -99.9%  0.3926E-07  0.1040E-06  0.2983E-08 -0.2531E-08   0.000    
    97  0.4221E-01  0.4348E-03 NODE          23 -99.9%  0.4032E-07  0.1067E-06  0.3030E-08 -0.2569E-08   0.000    
    98  0.4264E-01  0.4348E-03 NODE          33 -99.9%  0.4139E-07  0.1095E-06  0.3078E-08 -0.2607E-08   0.000    
    99  0.4308E-01  0.4348E-03 NODE          33 -99.9%  0.4248E-07  0.1123E-06  0.3129E-08 -0.2645E-08   0.000    
   100  0.4351E-01  0.4348E-03 NODE          33 -99.9%  0.4357E-07  0.1151E-06  0.3182E-08 -0.2682E-08   0.000    
   101  0.4395E-01  0.4348E-03 NODE          33 -99.9%  0.4467E-07  0.1180E-06  0.3237E-08 -0.2719E-08   0.000    
   102  0.4438E-01  0.4348E-03 NODE          33 -99.9%  0.4577E-07  0.1209E-06  0.3295E-08 -0.2756E-08   0.000    
   103  0.4481E-01  0.4348E-03 NODE          33 -99.9%  0.4689E-07  0.1239E-06  0.3355E-08 -0.2793E-08   0.000    
   104  0.4525E-01  0.4348E-03 NODE          33 -99.9%  0.4800E-07  0.1270E-06  0.3419E-08 -0.2829E-08   0.000    
   105  0.4568E-01  0.4348E-03 NODE          33 -99.9%  0.4913E-07  0.1300E-06  0.3485E-08 -0.2866E-08   0.000    
   106  0.4612E-01  0.4348E-03 NODE          33 -99.9%  0.5026E-07  0.1332E-06  0.3554E-08 -0.2902E-08   0.000    
   107  0.4655E-01  0.4348E-03 NODE          33 -99.9%  0.5139E-07  0.1364E-06  0.3626E-08 -0.2938E-08   0.000    
   108  0.4699E-01  0.4348E-03 NODE          33 -99.9%  0.5253E-07  0.1396E-06  0.3701E-08 -0.2974E-08   0.000    
   109  0.4742E-01  0.4348E-03 NODE          33 -99.9%  0.5367E-07  0.1429E-06  0.3779E-08 -0.3009E-08   0.000    
 CYCLE    TIME      TIME-STEP  ELEMENT          ERROR  I-ENERGY    K-ENERGY T  K-ENERGY R  EXT-WORK MAS.ERR
   110  0.4786E-01  0.4348E-03 NODE          33 -99.9%  0.5481E-07  0.1462E-06  0.3860E-08 -0.3045E-08   0.000    
   111  0.4829E-01  0.4348E-03 NODE          23 -99.9%  0.5595E-07  0.1496E-06  0.3944E-08 -0.3080E-08   0.000    
   112  0.4873E-01  0.4348E-03 NODE          23 -99.9%  0.5709E-07  0.1530E-06  0.4031E-08 -0.3115E-08   0.000    
   113  0.4916E-01  0.4348E-03 NODE          23 -99.9%  0.5824E-07  0.1565E-06  0.4121E-08 -0.3150E-08   0.000    
   114  0.4960E-01  0.4348E-03 NODE          23 -99.9%  0.5939E-07  0.1600E-06  0.4214E-08 -0.3186E-08   0.000    
   115  0.5003E-01  0.4348E-03 NODE          23 -99.9%  0.6053E-07  0.1636E-06  0.4310E-08 -0.3220E-08   0.000    
   116  0.5047E-01  0.4348E-03 NODE          23 -99.9%  0.6168E-07  0.1673E-06  0.4410E-08 -0.3255E-08   0.000    
   117  0.5090E-01  0.4348E-03 NODE          23 -99.9%  0.6282E-07  0.1710E-06  0.4512E-08 -0.3290E-08   0.000    
   118  0.5134E-01  0.4348E-03 NODE          23 -99.9%  0.6396E-07  0.1747E-06  0.4617E-08 -0.3325E-08   0.000    
   119  0.5177E-01  0.4348E-03 NODE          23 -99.9%  0.6511E-07  0.1786E-06  0.4725E-08 -0.3359E-08   0.000    
   120  0.5221E-01  0.4348E-03 NODE          23 -99.9%  0.6625E-07  0.1824E-06  0.4837E-08 -0.3394E-08   0.000    
   121  0.5264E-01  0.4348E-03 NODE          23 -99.9%  0.6738E-07  0.1864E-06  0.4952E-08 -0.3429E-08   0.000    
   122  0.5307E-01  0.4348E-03 NODE          23 -99.9%  0.6852E-07  0.1904E-06  0.5070E-08 -0.3463E-08   0.000    
   123  0.5351E-01  0.4348E-03 NODE          33 -99.9%  0.6965E-07  0.1944E-06  0.5191E-08 -0.3497E-08   0.000    
   124  0.5394E-01  0.4348E-03 NODE          23 -99.9%  0.7078E-07  0.1986E-06  0.5316E-08 -0.3532E-08   0.000    
   125  0.5438E-01  0.4348E-03 NODE          23 -99.9%  0.7190E-07  0.2028E-06  0.5444E-08 -0.3566E-08   0.000    
   126  0.5481E-01  0.4348E-03 NODE          23 -99.9%  0.7302E-07  0.2070E-06  0.5575E-08 -0.3601E-08   0.000    
   127  0.5525E-01  0.4348E-03 NODE          23 -99.9%  0.7414E-07  0.2114E-06  0.5710E-08 -0.3636E-08   0.000    
   128  0.5568E-01  0.4348E-03 NODE          23 -99.9%  0.7525E-07  0.2158E-06  0.5848E-08 -0.3670E-08   0.000    
   129  0.5612E-01  0.4348E-03 NODE          23 -99.9%  0.7636E-07  0.2203E-06  0.5990E-08 -0.3705E-08   0.000    
   130  0.5655E-01  0.4348E-03 NODE          23 -99.9%  0.7747E-07  0.2248E-06  0.6135E-08 -0.3740E-08   0.000    
   131  0.5699E-01  0.4348E-03 NODE          23 -99.9%  0.7857E-07  0.2295E-06  0.6283E-08 -0.3775E-08   0.000    
   132  0.5742E-01  0.4348E-03 NODE          23 -99.9%  0.7966E-07  0.2342E-06  0.6435E-08 -0.3811E-08   0.000    
   133  0.5786E-01  0.4348E-03 NODE          23 -99.9%  0.8075E-07  0.2391E-06  0.6590E-08 -0.3847E-08   0.000    
   134  0.5829E-01  0.4348E-03 NODE          23 -99.9%  0.8184E-07  0.2440E-06  0.6748E-08 -0.3883E-08   0.000    
   135  0.5873E-01  0.4348E-03 NODE          23 -99.9%  0.8292E-07  0.2491E-06  0.6910E-08 -0.3919E-08   0.000    
   136  0.5916E-01  0.4348E-03 NODE          23 -99.9%  0.8399E-07  0.2542E-06  0.7075E-08 -0.3955E-08   0.000    
   137  0.5960E-01  0.4348E-03 NODE          23 -99.9%  0.8507E-07  0.2594E-06  0.7244E-08 -0.3992E-08   0.000    
   138  0.6003E-01  0.4348E-03 NODE          23 -99.9%  0.8613E-07  0.2648E-06  0.7416E-08 -0.4029E-08   0.000    
   139  0.6047E-01  0.4348E-03 NODE          23 -99.9%  0.8720E-07  0.2702E-06  0.7592E-08 -0.4067E-08   0.000    
   140  0.6090E-01  0.4348E-03 NODE          23 -99.9%  0.8825E-07  0.2758E-06  0.7771E-08 -0.4105E-08   0.000    
   141  0.6134E-01  0.4348E-03 NODE          23 -99.9%  0.8930E-07  0.2815E-06  0.7954E-08 -0.4143E-08   0.000    
   142  0.6177E-01  0.4348E-03 NODE          23 -99.9%  0.9035E-07  0.2873E-06  0.8140E-08 -0.4182E-08   0.000    
   143  0.6220E-01  0.4348E-03 NODE          23 -99.9%  0.9139E-07  0.2932E-06  0.8330E-08 -0.4221E-08   0.000    
   144  0.6264E-01  0.4348E-03 NODE          34 -99.9%  0.9243E-07  0.2992E-06  0.8524E-08 -0.4260E-08   0.000    
   145  0.6307E-01  0.4348E-03 NODE          34 -99.9%  0.9346E-07  0.3054E-06  0.8720E-08 -0.4300E-08   0.000    
   146  0.6351E-01  0.4348E-03 NODE          34 -99.9%  0.9449E-07  0.3116E-06  0.8920E-08 -0.4340E-08   0.000    
   147  0.6394E-01  0.4348E-03 NODE          34 -99.9%  0.9550E-07  0.3180E-06  0.9123E-08 -0.4380E-08   0.000    
   148  0.6438E-01  0.4348E-03 NODE          34 -99.9%  0.9652E-07  0.3245E-06  0.9329E-08 -0.4421E-08   0.000    
   149  0.6481E-01  0.4348E-03 NODE          34 -99.9%  0.9752E-07  0.3311E-06  0.9538E-08 -0.4462E-08   0.000    
   150  0.6525E-01  0.4348E-03 NODE          34 -99.9%  0.9852E-07  0.3379E-06  0.9750E-08 -0.4503E-08   0.000    
   151  0.6568E-01  0.4348E-03 NODE          34 -99.9%  0.9952E-07  0.3447E-06  0.9965E-08 -0.4544E-08   0.000    
   152  0.6612E-01  0.4348E-03 NODE          34 -99.9%  0.1005E-06  0.3517E-06  0.1018E-07 -0.4586E-08   0.000    
   153  0.6655E-01  0.4348E-03 NODE          34 -99.9%  0.1015E-06  0.3587E-06  0.1040E-07 -0.4628E-08   0.000    
   154  0.6699E-01  0.4348E-03 NODE          34 -99.9%  0.1025E-06  0.3659E-06  0.1062E-07 -0.4671E-08   0.000    
   155  0.6742E-01  0.4348E-03 NODE          34 -99.9%  0.1034E-06  0.3732E-06  0.1085E-07 -0.4713E-08   0.000    
   156  0.6786E-01  0.4348E-03 NODE          34 -99.9%  0.1044E-06  0.3805E-06  0.1107E-07 -0.4756E-08   0.000    
   157  0.6829E-01  0.4348E-03 NODE          34 -99.9%  0.1053E-06  0.3880E-06  0.1130E-07 -0.4799E-08   0.000    
   158  0.6873E-01  0.4348E-03 NODE          34 -99.9%  0.1063E-06  0.3956E-06  0.1153E-07 -0.4843E-08   0.000    
   159  0.6916E-01  0.4348E-03 NODE          34 -99.9%  0.1072E-06  0.4032E-06  0.1176E-07 -0.4886E-08   0.000    
   160  0.6960E-01  0.4348E-03 NODE          34 -99.9%  0.1081E-06  0.4109E-06  0.1199E-07 -0.4930E-08   0.000    
   161  0.7003E-01  0.4348E-03 NODE          34 -99.9%  0.1090E-06  0.4187E-06  0.1223E-07 -0.4974E-08   0.000    
   162  0.7047E-01  0.4348E-03 NODE          34 -99.9%  0.1099E-06  0.4266E-06  0.1246E-07 -0.5019E-08   0.000    
   163  0.7090E-01  0.4348E-03 NODE          34 -99.9%  0.1108E-06  0.4346E-06  0.1270E-07 -0.5064E-08   0.000    
   164  0.7133E-01  0.4348E-03 NODE          33 -99.9%  0.1117E-06  0.4426E-06  0.1293E-07 -0.5109E-08   0.000    
 CYCLE    TIME      TIME-STEP  ELEMENT          ERROR  I-ENERGY    K-ENERGY T  K-ENERGY R  EXT-WORK MAS.ERR
   165  0.7177E-01  0.4348E-03 NODE          33 -99.9%  0.1126E-06  0.4506E-06  0.1317E-07 -0.5154E-08   0.000    
   166  0.7220E-01  0.4348E-03 NODE          33 -99.9%  0.1135E-06  0.4588E-06  0.1341E-07 -0.5200E-08   0.000    
   167  0.7264E-01  0.4348E-03 NODE          33 -99.9%  0.1144E-06  0.4670E-06  0.1365E-07 -0.5247E-08   0.000    
   168  0.7307E-01  0.4348E-03 NODE          33 -99.9%  0.1152E-06  0.4752E-06  0.1389E-07 -0.5293E-08   0.000    
   169  0.7351E-01  0.4348E-03 NODE          33 -99.9%  0.1161E-06  0.4835E-06  0.1413E-07 -0.5340E-08   0.000    
   170  0.7394E-01  0.4348E-03 NODE          33 -99.9%  0.1170E-06  0.4918E-06  0.1437E-07 -0.5387E-08   0.000    
   171  0.7438E-01  0.4348E-03 NODE          33 -99.9%  0.1178E-06  0.5002E-06  0.1461E-07 -0.5435E-08   0.000    
   172  0.7481E-01  0.4348E-03 NODE          33 -99.9%  0.1187E-06  0.5086E-06  0.1485E-07 -0.5483E-08   0.000    
   173  0.7525E-01  0.4348E-03 NODE          33 -99.9%  0.1196E-06  0.5170E-06  0.1509E-07 -0.5532E-08   0.000    
   174  0.7568E-01  0.4348E-03 NODE          33 -99.9%  0.1204E-06  0.5255E-06  0.1533E-07 -0.5581E-08   0.000    
   175  0.7612E-01  0.4348E-03 NODE          33 -99.9%  0.1213E-06  0.5340E-06  0.1557E-07 -0.5631E-08   0.000    
   176  0.7655E-01  0.4348E-03 NODE          33 -99.9%  0.1222E-06  0.5425E-06  0.1581E-07 -0.5680E-08   0.000    
   177  0.7699E-01  0.4348E-03 NODE          33 -99.9%  0.1230E-06  0.5510E-06  0.1605E-07 -0.5731E-08   0.000    
   178  0.7742E-01  0.4348E-03 NODE          33 -99.9%  0.1239E-06  0.5595E-06  0.1628E-07 -0.5782E-08   0.000    
   179  0.7786E-01  0.4348E-03 NODE          33 -99.9%  0.1248E-06  0.5681E-06  0.1652E-07 -0.5833E-08   0.000    
   180  0.7829E-01  0.4348E-03 NODE          33 -99.9%  0.1257E-06  0.5766E-06  0.1675E-07 -0.5885E-08   0.000    
   181  0.7873E-01  0.4348E-03 NODE          33 -99.9%  0.1266E-06  0.5852E-06  0.1699E-07 -0.5937E-08   0.000    
   182  0.7916E-01  0.4348E-03 NODE          33 -99.9%  0.1275E-06  0.5937E-06  0.1722E-07 -0.5989E-08   0.000    
   183  0.7960E-01  0.4348E-03 NODE          33 -99.9%  0.1284E-06  0.6023E-06  0.1745E-07 -0.6043E-08   0.000    
   184  0.8003E-01  0.4348E-03 NODE          33 -99.9%  0.1294E-06  0.6109E-06  0.1768E-07 -0.6096E-08   0.000    
   185  0.8046E-01  0.4348E-03 NODE          33 -99.9%  0.1303E-06  0.6194E-06  0.1790E-07 -0.6150E-08   0.000    
   186  0.8090E-01  0.4348E-03 NODE          33 -99.9%  0.1313E-06  0.6279E-06  0.1813E-07 -0.6204E-08   0.000    
   187  0.8133E-01  0.4348E-03 NODE          33 -99.9%  0.1323E-06  0.6364E-06  0.1835E-07 -0.6259E-08   0.000    
   188  0.8177E-01  0.4348E-03 NODE          33 -99.9%  0.1333E-06  0.6449E-06  0.1857E-07 -0.6314E-08   0.000    
   189  0.8220E-01  0.4348E-03 NODE          33 -99.9%  0.1343E-06  0.6534E-06  0.1879E-07 -0.6370E-08   0.000    
   190  0.8264E-01  0.4348E-03 NODE          33 -99.9%  0.1354E-06  0.6619E-06  0.1901E-07 -0.6426E-08   0.000    
   191  0.8307E-01  0.4348E-03 NODE          33 -99.9%  0.1364E-06  0.6703E-06  0.1923E-07 -0.6482E-08   0.000    
   192  0.8351E-01  0.4348E-03 NODE          33 -99.9%  0.1375E-06  0.6787E-06  0.1944E-07 -0.6539E-08   0.000    
   193  0.8394E-01  0.4348E-03 NODE          33 -99.9%  0.1387E-06  0.6871E-06  0.1966E-07 -0.6595E-08   0.000    
   194  0.8438E-01  0.4348E-03 NODE          33 -99.9%  0.1398E-06  0.6954E-06  0.1987E-07 -0.6653E-08   0.000    
   195  0.8481E-01  0.4348E-03 NODE          33 -99.9%  0.1410E-06  0.7037E-06  0.2008E-07 -0.6710E-08   0.000    
   196  0.8525E-01  0.4348E-03 NODE          33 -99.9%  0.1422E-06  0.7119E-06  0.2029E-07 -0.6768E-08   0.000    
   197  0.8568E-01  0.4348E-03 NODE          33 -99.9%  0.1434E-06  0.7202E-06  0.2049E-07 -0.6827E-08   0.000    
   198  0.8612E-01  0.4348E-03 NODE          33 -99.9%  0.1447E-06  0.7283E-06  0.2070E-07 -0.6885E-08   0.000    
   199  0.8655E-01  0.4348E-03 NODE          33 -99.9%  0.1460E-06  0.7365E-06  0.2090E-07 -0.6944E-08   0.000    
   200  0.8699E-01  0.4348E-03 NODE          33 -99.9%  0.1473E-06  0.7446E-06  0.2110E-07 -0.7003E-08   0.000    
   201  0.8742E-01  0.4348E-03 NODE          33 -99.9%  0.1487E-06  0.7526E-06  0.2131E-07 -0.7062E-08   0.000    
   202  0.8786E-01  0.4348E-03 NODE          33 -99.9%  0.1501E-06  0.7606E-06  0.2150E-07 -0.7121E-08   0.000    
   203  0.8829E-01  0.4348E-03 NODE          34 -99.9%  0.1515E-06  0.7686E-06  0.2170E-07 -0.7181E-08   0.000    
   204  0.8873E-01  0.4348E-03 NODE          34 -99.9%  0.1530E-06  0.7765E-06  0.2190E-07 -0.7241E-08   0.000    
   205  0.8916E-01  0.4348E-03 NODE          34 -99.9%  0.1546E-06  0.7843E-06  0.2209E-07 -0.7301E-08   0.000    
   206  0.8959E-01  0.4348E-03 NODE          34 -99.9%  0.1561E-06  0.7922E-06  0.2228E-07 -0.7361E-08   0.000    
   207  0.9003E-01  0.4348E-03 NODE          34 -99.9%  0.1577E-06  0.7999E-06  0.2247E-07 -0.7421E-08   0.000    
   208  0.9046E-01  0.4348E-03 NODE          34 -99.9%  0.1594E-06  0.8076E-06  0.2266E-07 -0.7481E-08   0.000    
   209  0.9090E-01  0.4348E-03 NODE          34 -99.9%  0.1611E-06  0.8153E-06  0.2285E-07 -0.7542E-08   0.000    
   210  0.9133E-01  0.4348E-03 NODE          34 -99.9%  0.1628E-06  0.8229E-06  0.2304E-07 -0.7602E-08   0.000    
   211  0.9177E-01  0.4348E-03 NODE          34 -99.9%  0.1646E-06  0.8305E-06  0.2322E-07 -0.7662E-08   0.000    
   212  0.9220E-01  0.4348E-03 NODE          34 -99.9%  0.1664E-06  0.8380E-06  0.2340E-07 -0.7723E-08   0.000    
   213  0.9264E-01  0.4348E-03 NODE          34 -99.9%  0.1683E-06  0.8455E-06  0.2358E-07 -0.7783E-08   0.000    
   214  0.9307E-01  0.4348E-03 NODE          34 -99.9%  0.1702E-06  0.8529E-06  0.2376E-07 -0.7844E-08   0.000    
   215  0.9351E-01  0.4348E-03 NODE          33 -99.9%  0.1721E-06  0.8603E-06  0.2394E-07 -0.7904E-08   0.000    
   216  0.9394E-01  0.4348E-03 NODE          33 -99.9%  0.1741E-06  0.8677E-06  0.2411E-07 -0.7964E-08   0.000    
   217  0.9438E-01  0.4348E-03 NODE          34 -99.9%  0.1762E-06  0.8750E-06  0.2429E-07 -0.8024E-08   0.000    
   218  0.9481E-01  0.4348E-03 NODE          34 -99.9%  0.1783E-06  0.8822E-06  0.2446E-07 -0.8084E-08   0.000    
   219  0.9525E-01  0.4348E-03 NODE          34 -99.9%  0.1804E-06  0.8894E-06  0.2463E-07 -0.8144E-08   0.000    
 CYCLE    TIME      TIME-STEP  ELEMENT          ERROR  I-ENERGY    K-ENERGY T  K-ENERGY R  EXT-WORK MAS.ERR
   220  0.9568E-01  0.4348E-03 NODE          34 -99.9%  0.1826E-06  0.8966E-06  0.2479E-07 -0.8204E-08   0.000    
   221  0.9612E-01  0.4348E-03 NODE          34 -99.9%  0.1848E-06  0.9037E-06  0.2496E-07 -0.8264E-08   0.000    
   222  0.9655E-01  0.4348E-03 NODE          34 -99.9%  0.1871E-06  0.9108E-06  0.2512E-07 -0.8324E-08   0.000    
   223  0.9699E-01  0.4348E-03 NODE          34 -99.9%  0.1895E-06  0.9178E-06  0.2528E-07 -0.8384E-08   0.000    
   224  0.9742E-01  0.4348E-03 NODE          34 -99.9%  0.1919E-06  0.9248E-06  0.2543E-07 -0.8444E-08   0.000    
   225  0.9786E-01  0.4348E-03 NODE          34 -99.9%  0.1943E-06  0.9318E-06  0.2558E-07 -0.8503E-08   0.000    
   226  0.9829E-01  0.4348E-03 NODE          34 -99.9%  0.1968E-06  0.9387E-06  0.2573E-07 -0.8563E-08   0.000    
   227  0.9872E-01  0.4348E-03 NODE          33 -99.9%  0.1993E-06  0.9456E-06  0.2588E-07 -0.8622E-08   0.000    
   228  0.9916E-01  0.4348E-03 NODE          33 -99.9%  0.2019E-06  0.9524E-06  0.2602E-07 -0.8682E-08   0.000    
   229  0.9959E-01  0.4348E-03 NODE          33 -99.9%  0.2045E-06  0.9592E-06  0.2616E-07 -0.8741E-08   0.000    
   230  0.1000      0.4348E-03 NODE          33 -99.9%  0.2072E-06  0.9660E-06  0.2630E-07 -0.8801E-08   0.000    
   231  0.1005      0.4348E-03 NODE          33 -99.9%  0.2099E-06  0.9727E-06  0.2643E-07 -0.8860E-08   0.000    
   232  0.1009      0.4348E-03 NODE          33 -99.9%  0.2127E-06  0.9794E-06  0.2656E-07 -0.8919E-08   0.000    
   233  0.1013      0.4348E-03 NODE          33 -99.9%  0.2155E-06  0.9860E-06  0.2668E-07 -0.8979E-08   0.000    
   234  0.1018      0.4348E-03 NODE          33 -99.9%  0.2184E-06  0.9927E-06  0.2680E-07 -0.9038E-08   0.000    
   235  0.1022      0.4348E-03 NODE          33 -99.9%  0.2214E-06  0.9992E-06  0.2691E-07 -0.9098E-08   0.000    
   236  0.1026      0.4348E-03 NODE          33 -99.9%  0.2244E-06  0.1006E-05  0.2702E-07 -0.9157E-08   0.000    
   237  0.1031      0.4348E-03 NODE          33 -99.9%  0.2274E-06  0.1012E-05  0.2712E-07 -0.9217E-08   0.000    
   238  0.1035      0.4348E-03 NODE          33 -99.9%  0.2305E-06  0.1019E-05  0.2722E-07 -0.9276E-08   0.000    
   239  0.1039      0.4348E-03 NODE          33 -99.9%  0.2336E-06  0.1025E-05  0.2731E-07 -0.9336E-08   0.000    
   240  0.1044      0.4348E-03 NODE          33 -99.9%  0.2368E-06  0.1032E-05  0.2739E-07 -0.9395E-08   0.000    
   241  0.1048      0.4348E-03 NODE          34 -99.9%  0.2401E-06  0.1038E-05  0.2747E-07 -0.9455E-08   0.000    
   242  0.1052      0.4348E-03 NODE          34 -99.9%  0.2434E-06  0.1044E-05  0.2754E-07 -0.9514E-08   0.000    
   243  0.1057      0.4348E-03 NODE          33 -99.9%  0.2468E-06  0.1051E-05  0.2761E-07 -0.9574E-08   0.000    
   244  0.1061      0.4348E-03 NODE          33 -99.9%  0.2502E-06  0.1057E-05  0.2767E-07 -0.9633E-08   0.000    
   245  0.1066      0.4348E-03 NODE          33 -99.9%  0.2537E-06  0.1063E-05  0.2772E-07 -0.9693E-08   0.000    
   246  0.1070      0.4348E-03 NODE          33 -99.9%  0.2572E-06  0.1070E-05  0.2777E-07 -0.9753E-08   0.000    
   247  0.1074      0.4348E-03 NODE          34 -99.9%  0.2608E-06  0.1076E-05  0.2781E-07 -0.9812E-08   0.000    
   248  0.1079      0.4348E-03 NODE          34 -99.9%  0.2644E-06  0.1082E-05  0.2784E-07 -0.9872E-08   0.000    
   249  0.1083      0.4348E-03 NODE          34 -99.9%  0.2681E-06  0.1088E-05  0.2787E-07 -0.9931E-08   0.000    
   250  0.1087      0.4348E-03 NODE          34 -99.9%  0.2718E-06  0.1095E-05  0.2789E-07 -0.9990E-08   0.000    
   251  0.1092      0.4348E-03 NODE          33 -99.9%  0.2756E-06  0.1101E-05  0.2790E-07 -0.1005E-07   0.000    
   252  0.1096      0.4348E-03 NODE          33 -99.9%  0.2795E-06  0.1107E-05  0.2791E-07 -0.1011E-07   0.000    
   253  0.1100      0.4348E-03 NODE          33 -99.9%  0.2834E-06  0.1113E-05  0.2791E-07 -0.1017E-07   0.000    
   254  0.1105      0.4348E-03 NODE          33 -99.9%  0.2873E-06  0.1119E-05  0.2791E-07 -0.1023E-07   0.000    
   255  0.1109      0.4348E-03 NODE          33 -99.9%  0.2914E-06  0.1126E-05  0.2790E-07 -0.1029E-07   0.000    
   256  0.1113      0.4348E-03 NODE          34 -99.9%  0.2954E-06  0.1128E-05  0.2788E-07 -0.1460E-07   0.000    
   257  0.1118      0.4348E-03 NODE          33 -99.9%  0.2998E-06  0.1134E-05  0.2781E-07 -0.1479E-07   0.000    
   258  0.1122      0.4348E-03 NODE          34 -99.9%  0.3042E-06  0.1139E-05  0.2768E-07 -0.1495E-07   0.000    
   259  0.1126      0.4348E-03 NODE          34 -99.9%  0.3088E-06  0.1145E-05  0.2759E-07 -0.1507E-07   0.000    
   260  0.1131      0.4348E-03 NODE          34 -99.9%  0.3135E-06  0.1151E-05  0.2757E-07 -0.1517E-07   0.000    
   261  0.1135      0.4348E-03 NODE          33 -99.9%  0.3181E-06  0.1157E-05  0.2765E-07 -0.1561E-07   0.000    
   262  0.1139      0.4348E-03 NODE          33 -99.9%  0.3229E-06  0.1162E-05  0.2784E-07 -0.1571E-07   0.000    
   263  0.1144      0.4348E-03 NODE          33 -99.9%  0.3278E-06  0.1168E-05  0.2813E-07 -0.1580E-07   0.000    
   264  0.1148      0.4348E-03 NODE          33 -99.9%  0.3327E-06  0.1173E-05  0.2852E-07 -0.1589E-07   0.000    
   265  0.1152      0.4348E-03 NODE          33 -99.9%  0.3376E-06  0.1179E-05  0.2899E-07 -0.1598E-07   0.000    
   266  0.1157      0.4348E-03 NODE          33 -99.9%  0.3426E-06  0.1184E-05  0.2950E-07 -0.1608E-07   0.000    
   267  0.1161      0.4348E-03 NODE          33 -99.9%  0.3476E-06  0.1190E-05  0.3000E-07 -0.1619E-07   0.000    
   268  0.1165      0.4348E-03 NODE          33 -99.9%  0.3527E-06  0.1195E-05  0.3047E-07 -0.1630E-07   0.000    
   269  0.1170      0.4348E-03 NODE          33 -99.9%  0.3579E-06  0.1201E-05  0.3087E-07 -0.1642E-07   0.000    
   270  0.1174      0.4348E-03 NODE          33 -99.9%  0.3631E-06  0.1207E-05  0.3117E-07 -0.1659E-07   0.000    
   271  0.1179      0.4348E-03 NODE          33 -99.9%  0.3684E-06  0.1212E-05  0.3137E-07 -0.1670E-07   0.000    
   272  0.1183      0.4348E-03 NODE          33 -99.9%  0.3739E-06  0.1218E-05  0.3147E-07 -0.1681E-07   0.000    
   273  0.1187      0.4348E-03 NODE          33 -99.9%  0.3794E-06  0.1224E-05  0.3148E-07 -0.1691E-07   0.000    
   274  0.1192      0.4348E-03 NODE          33 -99.9%  0.3850E-06  0.1231E-05  0.3141E-07 -0.1700E-07   0.000    
 CYCLE    TIME      TIME-STEP  ELEMENT          ERROR  I-ENERGY    K-ENERGY T  K-ENERGY R  EXT-WORK MAS.ERR
   275  0.1196      0.4348E-03 NODE          33 -99.9%  0.3906E-06  0.1237E-05  0.3128E-07 -0.1709E-07   0.000    
   276  0.1200      0.4348E-03 NODE          33 -99.9%  0.3963E-06  0.1243E-05  0.3112E-07 -0.1717E-07   0.000    
   277  0.1205      0.4348E-03 NODE          33 -99.9%  0.4020E-06  0.1250E-05  0.3095E-07 -0.1725E-07   0.000    
   278  0.1209      0.4348E-03 NODE          33 -99.9%  0.4078E-06  0.1256E-05  0.3079E-07 -0.1733E-07   0.000    
   279  0.1213      0.4348E-03 NODE          33 -99.9%  0.4135E-06  0.1263E-05  0.3065E-07 -0.1741E-07   0.000    
   280  0.1218      0.4348E-03 NODE          33 -99.9%  0.4194E-06  0.1270E-05  0.3057E-07 -0.1749E-07   0.000    
   281  0.1222      0.4348E-03 NODE          33 -99.9%  0.4252E-06  0.1276E-05  0.3053E-07 -0.1758E-07   0.000    
   282  0.1226      0.4348E-03 NODE          33 -99.9%  0.4311E-06  0.1283E-05  0.3057E-07 -0.1766E-07   0.000    
   283  0.1231      0.4348E-03 NODE          33 -99.9%  0.4371E-06  0.1290E-05  0.3066E-07 -0.1775E-07   0.000    
   284  0.1235      0.4348E-03 NODE          34 -99.9%  0.4431E-06  0.1296E-05  0.3083E-07 -0.1784E-07   0.000    
   285  0.1239      0.4348E-03 NODE          33 -99.9%  0.4492E-06  0.1302E-05  0.3105E-07 -0.1793E-07   0.000    
   286  0.1244      0.4348E-03 NODE          34 -99.9%  0.4554E-06  0.1309E-05  0.3132E-07 -0.1802E-07   0.000    
   287  0.1248      0.4348E-03 NODE          34 -99.9%  0.4616E-06  0.1315E-05  0.3164E-07 -0.1811E-07   0.000    
   288  0.1252      0.4348E-03 NODE          34 -99.9%  0.4679E-06  0.1321E-05  0.3200E-07 -0.1820E-07   0.000    
   289  0.1257      0.4348E-03 NODE          34 -99.9%  0.4743E-06  0.1327E-05  0.3237E-07 -0.1829E-07   0.000    
   290  0.1261      0.4348E-03 NODE          34 -99.9%  0.4807E-06  0.1333E-05  0.3276E-07 -0.1838E-07   0.000    
   291  0.1265      0.4348E-03 NODE          34 -99.9%  0.4872E-06  0.1338E-05  0.3313E-07 -0.1847E-07   0.000    
   292  0.1270      0.4348E-03 NODE          33 -99.9%  0.4937E-06  0.1344E-05  0.3350E-07 -0.1856E-07   0.000    
   293  0.1274      0.4348E-03 NODE          34 -99.9%  0.5004E-06  0.1349E-05  0.3383E-07 -0.1865E-07   0.000    
   294  0.1279      0.4348E-03 NODE          34 -99.9%  0.5071E-06  0.1354E-05  0.3412E-07 -0.1874E-07   0.000    
   295  0.1283      0.4348E-03 NODE          33 -99.9%  0.5138E-06  0.1359E-05  0.3436E-07 -0.1883E-07   0.000    
   296  0.1287      0.4348E-03 NODE          34 -99.9%  0.5207E-06  0.1364E-05  0.3456E-07 -0.1892E-07   0.000    
   297  0.1292      0.4348E-03 NODE          33 -99.9%  0.5276E-06  0.1368E-05  0.3469E-07 -0.1902E-07   0.000    
   298  0.1296      0.4348E-03 NODE          33 -99.9%  0.5347E-06  0.1372E-05  0.3478E-07 -0.1911E-07   0.000    
   299  0.1300      0.4348E-03 NODE          33 -99.9%  0.5418E-06  0.1376E-05  0.3481E-07 -0.1920E-07   0.000    
   300  0.1305      0.4348E-03 NODE          34 -99.9%  0.5490E-06  0.1379E-05  0.3481E-07 -0.1930E-07   0.000    
   301  0.1309      0.4348E-03 NODE          33 -99.9%  0.5563E-06  0.1382E-05  0.3477E-07 -0.1939E-07   0.000    
   302  0.1313      0.4348E-03 NODE          33 -99.9%  0.5637E-06  0.1385E-05  0.3471E-07 -0.1948E-07   0.000    
   303  0.1318      0.4348E-03 NODE          33 -99.9%  0.5712E-06  0.1388E-05  0.3464E-07 -0.1957E-07   0.000    
   304  0.1322      0.4348E-03 NODE          33 -99.9%  0.5788E-06  0.1390E-05  0.3457E-07 -0.1966E-07   0.000    
   305  0.1326      0.4348E-03 NODE          33 -99.9%  0.5865E-06  0.1393E-05  0.3450E-07 -0.1974E-07   0.000    
   306  0.1331      0.4348E-03 NODE          33 -99.9%  0.5942E-06  0.1395E-05  0.3445E-07 -0.1982E-07   0.000    
   307  0.1335      0.4348E-03 NODE          33 -99.9%  0.6021E-06  0.1397E-05  0.3441E-07 -0.1990E-07   0.000    
   308  0.1339      0.4348E-03 NODE          33 -99.9%  0.6100E-06  0.1398E-05  0.3439E-07 -0.1998E-07   0.000    
   309  0.1344      0.4348E-03 NODE          33 -99.9%  0.6180E-06  0.1400E-05  0.3440E-07 -0.2005E-07   0.000    
   310  0.1348      0.4348E-03 NODE          33 -99.9%  0.6261E-06  0.1402E-05  0.3443E-07 -0.2013E-07   0.000    
   311  0.1352      0.4348E-03 NODE          33 -99.9%  0.6342E-06  0.1404E-05  0.3448E-07 -0.2020E-07   0.000    
   312  0.1357      0.4348E-03 NODE          33 -99.9%  0.6425E-06  0.1405E-05  0.3454E-07 -0.2028E-07   0.000    
   313  0.1361      0.4348E-03 NODE          33 -99.9%  0.6508E-06  0.1407E-05  0.3461E-07 -0.2035E-07   0.000    
   314  0.1365      0.4348E-03 NODE          33 -99.9%  0.6592E-06  0.1410E-05  0.3469E-07 -0.2043E-07   0.000    
   315  0.1370      0.4348E-03 NODE          33 -99.9%  0.6677E-06  0.1412E-05  0.3478E-07 -0.2050E-07   0.000    
   316  0.1374      0.4348E-03 NODE          33 -99.9%  0.6762E-06  0.1414E-05  0.3487E-07 -0.2058E-07   0.000    
   317  0.1379      0.4348E-03 NODE          33 -99.9%  0.6848E-06  0.1417E-05  0.3496E-07 -0.2066E-07   0.000    
   318  0.1383      0.4348E-03 NODE          33 -99.9%  0.6936E-06  0.1420E-05  0.3505E-07 -0.2074E-07   0.000    
   319  0.1387      0.4348E-03 NODE          33 -99.9%  0.7024E-06  0.1424E-05  0.3514E-07 -0.2083E-07   0.000    
   320  0.1392      0.4348E-03 NODE          33 -99.9%  0.7113E-06  0.1427E-05  0.3524E-07 -0.2091E-07   0.000    
   321  0.1396      0.4348E-03 NODE          33 -99.9%  0.7202E-06  0.1431E-05  0.3533E-07 -0.2100E-07   0.000    
   322  0.1400      0.4348E-03 NODE          33 -99.9%  0.7293E-06  0.1435E-05  0.3543E-07 -0.2109E-07   0.000    
   323  0.1405      0.4348E-03 NODE          33 -99.9%  0.7385E-06  0.1440E-05  0.3553E-07 -0.2118E-07   0.000    
   324  0.1409      0.4348E-03 NODE          33 -99.9%  0.7477E-06  0.1445E-05  0.3564E-07 -0.2127E-07   0.000    
   325  0.1413      0.4348E-03 NODE          33 -99.9%  0.7571E-06  0.1449E-05  0.3576E-07 -0.2137E-07   0.000    
   326  0.1418      0.4348E-03 NODE          33 -99.9%  0.7666E-06  0.1455E-05  0.3588E-07 -0.2146E-07   0.000    
   327  0.1422      0.4348E-03 NODE          33 -99.9%  0.7762E-06  0.1460E-05  0.3600E-07 -0.2157E-07   0.000    
   328  0.1426      0.4348E-03 NODE          33 -99.9%  0.7858E-06  0.1466E-05  0.3614E-07 -0.2167E-07   0.000    
   329  0.1431      0.4348E-03 NODE          33 -99.9%  0.7956E-06  0.1472E-05  0.3627E-07 -0.2177E-07   0.000    
 CYCLE    TIME      TIME-STEP  ELEMENT          ERROR  I-ENERGY    K-ENERGY T  K-ENERGY R  EXT-WORK MAS.ERR
   330  0.1435      0.4348E-03 NODE          33 -99.9%  0.8056E-06  0.1478E-05  0.3641E-07 -0.2188E-07   0.000    
   331  0.1439      0.4348E-03 NODE          33 -99.9%  0.8156E-06  0.1485E-05  0.3655E-07 -0.2199E-07   0.000    
   332  0.1444      0.4348E-03 NODE          33 -99.9%  0.8257E-06  0.1491E-05  0.3669E-07 -0.2210E-07   0.000    
   333  0.1448      0.4348E-03 NODE          34 -99.9%  0.8360E-06  0.1498E-05  0.3684E-07 -0.2221E-07   0.000    
   334  0.1452      0.4348E-03 NODE          33 -99.9%  0.8464E-06  0.1505E-05  0.3698E-07 -0.2232E-07   0.000    
   335  0.1457      0.4348E-03 NODE          33 -99.9%  0.8569E-06  0.1513E-05  0.3712E-07 -0.2243E-07   0.000    
   336  0.1461      0.4348E-03 NODE          34 -99.9%  0.8675E-06  0.1521E-05  0.3727E-07 -0.2254E-07   0.000    
   337  0.1465      0.4348E-03 NODE          33 -99.9%  0.8783E-06  0.1529E-05  0.3741E-07 -0.2265E-07   0.000    
   338  0.1470      0.4348E-03 NODE          34 -99.9%  0.8891E-06  0.1537E-05  0.3756E-07 -0.2276E-07   0.000    
   339  0.1474      0.4348E-03 NODE          33 -99.9%  0.9001E-06  0.1546E-05  0.3771E-07 -0.2287E-07   0.000    
   340  0.1479      0.4348E-03 NODE          33 -99.9%  0.9112E-06  0.1555E-05  0.3787E-07 -0.2298E-07   0.000    
   341  0.1483      0.4348E-03 NODE          33 -99.9%  0.9223E-06  0.1564E-05  0.3804E-07 -0.2309E-07   0.000    
   342  0.1487      0.4348E-03 NODE          33 -99.9%  0.9336E-06  0.1574E-05  0.3821E-07 -0.2321E-07   0.000    
   343  0.1492      0.4348E-03 NODE          33 -99.9%  0.9451E-06  0.1584E-05  0.3839E-07 -0.2332E-07   0.000    
   344  0.1496      0.4348E-03 NODE          34 -99.9%  0.9566E-06  0.1594E-05  0.3859E-07 -0.2343E-07   0.000    
   345  0.1500      0.4348E-03 NODE          33 -99.9%  0.9682E-06  0.1605E-05  0.3879E-07 -0.2355E-07   0.000    
   346  0.1505      0.4348E-03 NODE          34 -99.9%  0.9799E-06  0.1616E-05  0.3901E-07 -0.2366E-07   0.000    
   347  0.1509      0.4348E-03 NODE          34 -99.9%  0.9918E-06  0.1627E-05  0.3925E-07 -0.2377E-07   0.000    
   348  0.1513      0.4348E-03 NODE          33 -99.9%  0.1004E-05  0.1638E-05  0.3950E-07 -0.2389E-07   0.000    
   349  0.1518      0.4348E-03 NODE          33 -99.9%  0.1016E-05  0.1649E-05  0.3976E-07 -0.2400E-07   0.000    
   350  0.1522      0.4348E-03 NODE          33 -99.9%  0.1028E-05  0.1661E-05  0.4003E-07 -0.2412E-07   0.000    
   351  0.1526      0.4348E-03 NODE          33 -99.9%  0.1040E-05  0.1673E-05  0.4032E-07 -0.2423E-07   0.000    
   352  0.1531      0.4348E-03 NODE          34 -99.9%  0.1052E-05  0.1685E-05  0.4062E-07 -0.2435E-07   0.000    
   353  0.1535      0.4348E-03 NODE          33 -99.9%  0.1065E-05  0.1697E-05  0.4092E-07 -0.2446E-07   0.000    
   354  0.1539      0.4348E-03 NODE          33 -99.9%  0.1077E-05  0.1709E-05  0.4122E-07 -0.2458E-07   0.000    
   355  0.1544      0.4348E-03 NODE          33 -99.9%  0.1090E-05  0.1722E-05  0.4153E-07 -0.2470E-07   0.000    
   356  0.1548      0.4348E-03 NODE          34 -99.9%  0.1103E-05  0.1734E-05  0.4183E-07 -0.2481E-07   0.000    
   357  0.1552      0.4348E-03 NODE          34 -99.9%  0.1115E-05  0.1746E-05  0.4213E-07 -0.2494E-07   0.000    
   358  0.1557      0.4348E-03 NODE          34 -99.9%  0.1128E-05  0.1759E-05  0.4242E-07 -0.2506E-07   0.000    
   359  0.1561      0.4348E-03 NODE          34 -99.9%  0.1141E-05  0.1771E-05  0.4270E-07 -0.2518E-07   0.000    
   360  0.1565      0.4348E-03 NODE          34 -99.9%  0.1155E-05  0.1784E-05  0.4297E-07 -0.2530E-07   0.000    
   361  0.1570      0.4348E-03 NODE          34 -99.9%  0.1168E-05  0.1797E-05  0.4323E-07 -0.2543E-07   0.000    
   362  0.1574      0.4348E-03 NODE          34 -99.9%  0.1181E-05  0.1809E-05  0.4347E-07 -0.2556E-07   0.000    
   363  0.1579      0.4348E-03 NODE          33 -99.9%  0.1195E-05  0.1822E-05  0.4371E-07 -0.2568E-07   0.000    
   364  0.1583      0.4348E-03 NODE          33 -99.9%  0.1208E-05  0.1834E-05  0.4393E-07 -0.2581E-07   0.000    
   365  0.1587      0.4348E-03 NODE          34 -99.9%  0.1222E-05  0.1847E-05  0.4414E-07 -0.2594E-07   0.000    
   366  0.1592      0.4348E-03 NODE          34 -99.9%  0.1236E-05  0.1860E-05  0.4434E-07 -0.2607E-07   0.000    
   367  0.1596      0.4348E-03 NODE          34 -99.9%  0.1249E-05  0.1873E-05  0.4454E-07 -0.2620E-07   0.000    
   368  0.1600      0.4348E-03 NODE          34 -99.9%  0.1263E-05  0.1885E-05  0.4473E-07 -0.2633E-07   0.000    
   369  0.1605      0.4348E-03 NODE          34 -99.9%  0.1278E-05  0.1898E-05  0.4491E-07 -0.2647E-07   0.000    
   370  0.1609      0.4348E-03 NODE          34 -99.9%  0.1292E-05  0.1911E-05  0.4509E-07 -0.2660E-07   0.000    
   371  0.1613      0.4348E-03 NODE          34 -99.9%  0.1306E-05  0.1924E-05  0.4527E-07 -0.2673E-07   0.000    
   372  0.1618      0.4348E-03 NODE          34 -99.9%  0.1321E-05  0.1937E-05  0.4544E-07 -0.2686E-07   0.000    
   373  0.1622      0.4348E-03 NODE          34 -99.9%  0.1335E-05  0.1950E-05  0.4562E-07 -0.2700E-07   0.000    
   374  0.1626      0.4348E-03 NODE          34 -99.9%  0.1350E-05  0.1963E-05  0.4580E-07 -0.2713E-07   0.000    
   375  0.1631      0.4348E-03 NODE          34 -99.9%  0.1365E-05  0.1976E-05  0.4597E-07 -0.2726E-07   0.000    
   376  0.1635      0.4348E-03 NODE          34 -99.9%  0.1380E-05  0.1989E-05  0.4615E-07 -0.2740E-07   0.000    
   377  0.1639      0.4348E-03 NODE          34 -99.9%  0.1395E-05  0.2003E-05  0.4633E-07 -0.2753E-07   0.000    
   378  0.1644      0.4348E-03 NODE          34 -99.9%  0.1410E-05  0.2016E-05  0.4651E-07 -0.2766E-07   0.000    
   379  0.1648      0.4348E-03 NODE          34 -99.9%  0.1426E-05  0.2029E-05  0.4669E-07 -0.2779E-07   0.000    
   380  0.1652      0.4348E-03 NODE          34 -99.9%  0.1441E-05  0.2042E-05  0.4687E-07 -0.2792E-07   0.000    
   381  0.1657      0.4348E-03 NODE          34 -99.9%  0.1457E-05  0.2056E-05  0.4705E-07 -0.2805E-07   0.000    
   382  0.1661      0.4348E-03 NODE          34 -99.9%  0.1472E-05  0.2069E-05  0.4724E-07 -0.2818E-07   0.000    
   383  0.1665      0.4348E-03 NODE          34 -99.9%  0.1488E-05  0.2082E-05  0.4742E-07 -0.2832E-07   0.000    
   384  0.1670      0.4348E-03 NODE          34 -99.9%  0.1504E-05  0.2095E-05  0.4761E-07 -0.2845E-07   0.000    
 CYCLE    TIME      TIME-STEP  ELEMENT          ERROR  I-ENERGY    K-ENERGY T  K-ENERGY R  EXT-WORK MAS.ERR
   385  0.1674      0.4348E-03 NODE          34 -99.9%  0.1520E-05  0.2109E-05  0.4780E-07 -0.2858E-07   0.000    
   386  0.1679      0.4348E-03 NODE          34 -99.9%  0.1536E-05  0.2122E-05  0.4799E-07 -0.2871E-07   0.000    
   387  0.1683      0.4348E-03 NODE          34 -99.9%  0.1553E-05  0.2135E-05  0.4818E-07 -0.2884E-07   0.000    
   388  0.1687      0.4348E-03 NODE          34 -99.9%  0.1569E-05  0.2149E-05  0.4837E-07 -0.2897E-07   0.000    
   389  0.1692      0.4348E-03 NODE          34 -99.9%  0.1586E-05  0.2162E-05  0.4857E-07 -0.2910E-07   0.000    
   390  0.1696      0.4348E-03 NODE          34 -99.9%  0.1602E-05  0.2175E-05  0.4877E-07 -0.2923E-07   0.000    
   391  0.1700      0.4348E-03 NODE          34 -99.9%  0.1619E-05  0.2189E-05  0.4898E-07 -0.2936E-07   0.000    
   392  0.1705      0.4348E-03 NODE          34 -99.9%  0.1636E-05  0.2202E-05  0.4919E-07 -0.2950E-07   0.000    
   393  0.1709      0.4348E-03 NODE          34 -99.9%  0.1653E-05  0.2215E-05  0.4941E-07 -0.2963E-07   0.000    
   394  0.1713      0.4348E-03 NODE          34 -99.9%  0.1670E-05  0.2229E-05  0.4963E-07 -0.2976E-07   0.000    
   395  0.1718      0.4348E-03 NODE          34 -99.9%  0.1687E-05  0.2242E-05  0.4987E-07 -0.2990E-07   0.000    
   396  0.1722      0.4348E-03 NODE          34 -99.9%  0.1704E-05  0.2256E-05  0.5012E-07 -0.3004E-07   0.000    
   397  0.1726      0.4348E-03 NODE          34 -99.9%  0.1722E-05  0.2270E-05  0.5038E-07 -0.3017E-07   0.000    
   398  0.1731      0.4348E-03 NODE          34 -99.9%  0.1739E-05  0.2284E-05  0.5066E-07 -0.3031E-07   0.000    
   399  0.1735      0.4348E-03 NODE          34 -99.9%  0.1757E-05  0.2298E-05  0.5095E-07 -0.3045E-07   0.000    
   400  0.1739      0.4348E-03 NODE          34 -99.9%  0.1775E-05  0.2312E-05  0.5126E-07 -0.3059E-07   0.000    
   401  0.1744      0.4348E-03 NODE          34 -99.9%  0.1793E-05  0.2326E-05  0.5159E-07 -0.3073E-07   0.000    
   402  0.1748      0.4348E-03 NODE          34 -99.9%  0.1811E-05  0.2341E-05  0.5193E-07 -0.3087E-07   0.000    
   403  0.1752      0.4348E-03 NODE          34 -99.9%  0.1829E-05  0.2355E-05  0.5229E-07 -0.3101E-07   0.000    
   404  0.1757      0.4348E-03 NODE          34 -99.9%  0.1848E-05  0.2370E-05  0.5266E-07 -0.3115E-07   0.000    
   405  0.1761      0.4348E-03 NODE          34 -99.9%  0.1866E-05  0.2385E-05  0.5306E-07 -0.3129E-07   0.000    
   406  0.1765      0.4348E-03 NODE          34 -99.9%  0.1885E-05  0.2401E-05  0.5347E-07 -0.3144E-07   0.000    
   407  0.1770      0.4348E-03 NODE          34 -99.9%  0.1903E-05  0.2416E-05  0.5390E-07 -0.3158E-07   0.000    
   408  0.1774      0.4348E-03 NODE          34 -99.9%  0.1922E-05  0.2432E-05  0.5435E-07 -0.3173E-07   0.000    
   409  0.1779      0.4348E-03 NODE          34 -99.9%  0.1941E-05  0.2448E-05  0.5482E-07 -0.3187E-07   0.000    
   410  0.1783      0.4348E-03 NODE          34 -99.9%  0.1961E-05  0.2464E-05  0.5530E-07 -0.3202E-07   0.000    
   411  0.1787      0.4348E-03 NODE          34 -99.9%  0.1980E-05  0.2480E-05  0.5580E-07 -0.3216E-07   0.000    
   412  0.1792      0.4348E-03 NODE          34 -99.9%  0.1999E-05  0.2497E-05  0.5632E-07 -0.3231E-07   0.000    
   413  0.1796      0.4348E-03 NODE          34 -99.9%  0.2019E-05  0.2513E-05  0.5685E-07 -0.3245E-07   0.000    
   414  0.1800      0.4348E-03 NODE          34 -99.9%  0.2039E-05  0.2530E-05  0.5739E-07 -0.3260E-07   0.000    
   415  0.1805      0.4348E-03 NODE          34 -99.9%  0.2058E-05  0.2547E-05  0.5795E-07 -0.3275E-07   0.000    
   416  0.1809      0.4348E-03 NODE          34 -99.9%  0.2078E-05  0.2565E-05  0.5853E-07 -0.3289E-07   0.000    
   417  0.1813      0.4348E-03 NODE          34 -99.9%  0.2098E-05  0.2582E-05  0.5911E-07 -0.3304E-07   0.000    
   418  0.1818      0.4348E-03 NODE          34 -99.9%  0.2119E-05  0.2600E-05  0.5971E-07 -0.3318E-07   0.000    
   419  0.1822      0.4348E-03 NODE          34 -99.9%  0.2139E-05  0.2617E-05  0.6033E-07 -0.3333E-07   0.000    
   420  0.1826      0.4348E-03 NODE          34 -99.9%  0.2159E-05  0.2635E-05  0.6095E-07 -0.3348E-07   0.000    
   421  0.1831      0.4348E-03 NODE          34 -99.9%  0.2180E-05  0.2653E-05  0.6158E-07 -0.3362E-07   0.000    
   422  0.1835      0.4348E-03 NODE          34 -99.9%  0.2201E-05  0.2671E-05  0.6223E-07 -0.3377E-07   0.000    
   423  0.1839      0.4348E-03 NODE          34 -99.9%  0.2221E-05  0.2690E-05  0.6289E-07 -0.3391E-07   0.000    
   424  0.1844      0.4348E-03 NODE          34 -99.9%  0.2242E-05  0.2708E-05  0.6356E-07 -0.3406E-07   0.000    
   425  0.1848      0.4348E-03 NODE          34 -99.9%  0.2263E-05  0.2726E-05  0.6424E-07 -0.3421E-07   0.000    
   426  0.1852      0.4348E-03 NODE          34 -99.9%  0.2285E-05  0.2744E-05  0.6493E-07 -0.3435E-07   0.000    
   427  0.1857      0.4348E-03 NODE          34 -99.9%  0.2306E-05  0.2762E-05  0.6563E-07 -0.3450E-07   0.000    
   428  0.1861      0.4348E-03 NODE          34 -99.9%  0.2327E-05  0.2781E-05  0.6633E-07 -0.3465E-07   0.000    
   429  0.1865      0.4348E-03 NODE          34 -99.9%  0.2349E-05  0.2799E-05  0.6705E-07 -0.3480E-07   0.000    
   430  0.1870      0.4348E-03 NODE          34 -99.9%  0.2370E-05  0.2817E-05  0.6777E-07 -0.3495E-07   0.000    
   431  0.1874      0.4348E-03 NODE          34 -99.9%  0.2392E-05  0.2835E-05  0.6850E-07 -0.3510E-07   0.000    
   432  0.1879      0.4348E-03 NODE          34 -99.9%  0.2414E-05  0.2853E-05  0.6924E-07 -0.3525E-07   0.000    
   433  0.1883      0.4348E-03 NODE          34 -99.9%  0.2436E-05  0.2871E-05  0.6998E-07 -0.3540E-07   0.000    
   434  0.1887      0.4348E-03 NODE          34 -99.9%  0.2458E-05  0.2889E-05  0.7073E-07 -0.3555E-07   0.000    
   435  0.1892      0.4348E-03 NODE          34 -99.9%  0.2480E-05  0.2907E-05  0.7147E-07 -0.3571E-07   0.000    
   436  0.1896      0.4348E-03 NODE          34 -99.9%  0.2503E-05  0.2925E-05  0.7222E-07 -0.3586E-07   0.000    
   437  0.1900      0.4348E-03 NODE          34 -99.9%  0.2525E-05  0.2943E-05  0.7297E-07 -0.3601E-07   0.000    
   438  0.1905      0.4348E-03 NODE          34 -99.9%  0.2548E-05  0.2960E-05  0.7372E-07 -0.3617E-07   0.000    
   439  0.1909      0.4348E-03 NODE          34 -99.9%  0.2571E-05  0.2978E-05  0.7447E-07 -0.3633E-07   0.000    
 CYCLE    TIME      TIME-STEP  ELEMENT          ERROR  I-ENERGY    K-ENERGY T  K-ENERGY R  EXT-WORK MAS.ERR
   440  0.1913      0.4348E-03 NODE          34 -99.9%  0.2594E-05  0.2995E-05  0.7522E-07 -0.3649E-07   0.000    
   441  0.1918      0.4348E-03 NODE          34 -99.9%  0.2617E-05  0.3012E-05  0.7596E-07 -0.3664E-07   0.000    
   442  0.1922      0.4348E-03 NODE          34 -99.9%  0.2640E-05  0.3029E-05  0.7670E-07 -0.3680E-07   0.000    
   443  0.1926      0.4348E-03 NODE          34 -99.9%  0.2663E-05  0.3046E-05  0.7744E-07 -0.3696E-07   0.000    
   444  0.1931      0.4348E-03 NODE          34 -99.9%  0.2687E-05  0.3063E-05  0.7817E-07 -0.3712E-07   0.000    
   445  0.1935      0.4348E-03 NODE          34 -99.9%  0.2710E-05  0.3079E-05  0.7889E-07 -0.3728E-07   0.000    
   446  0.1939      0.4348E-03 NODE          34 -99.9%  0.2734E-05  0.3096E-05  0.7961E-07 -0.3744E-07   0.000    
   447  0.1944      0.4348E-03 NODE          34 -99.9%  0.2758E-05  0.3112E-05  0.8032E-07 -0.3761E-07   0.000    
   448  0.1948      0.4348E-03 NODE          34 -99.9%  0.2782E-05  0.3129E-05  0.8102E-07 -0.3777E-07   0.000    
   449  0.1952      0.4348E-03 NODE          34 -99.9%  0.2806E-05  0.3145E-05  0.8172E-07 -0.3793E-07   0.000    
   450  0.1957      0.4348E-03 NODE          34 -99.9%  0.2830E-05  0.3161E-05  0.8241E-07 -0.3809E-07   0.000    
   451  0.1961      0.4348E-03 NODE          34 -99.9%  0.2855E-05  0.3178E-05  0.8309E-07 -0.3825E-07   0.000    
   452  0.1965      0.4348E-03 NODE          34 -99.9%  0.2879E-05  0.3194E-05  0.8377E-07 -0.3842E-07   0.000    
   453  0.1970      0.4348E-03 NODE          34 -99.9%  0.2904E-05  0.3210E-05  0.8444E-07 -0.3858E-07   0.000    
   454  0.1974      0.4348E-03 NODE          34 -99.9%  0.2929E-05  0.3226E-05  0.8510E-07 -0.3874E-07   0.000    
   455  0.1978      0.4348E-03 NODE          34 -99.9%  0.2954E-05  0.3242E-05  0.8576E-07 -0.3890E-07   0.000    
   456  0.1983      0.4348E-03 NODE          34 -99.9%  0.2979E-05  0.3258E-05  0.8642E-07 -0.3907E-07   0.000    
   457  0.1987      0.4348E-03 NODE          34 -99.9%  0.3005E-05  0.3274E-05  0.8707E-07 -0.3923E-07   0.000    
   458  0.1992      0.4348E-03 NODE          34 -99.9%  0.3030E-05  0.3290E-05  0.8771E-07 -0.3939E-07   0.000    
   459  0.1996      0.4348E-03 NODE          34 -99.9%  0.3056E-05  0.3306E-05  0.8836E-07 -0.3956E-07   0.000    
   460  0.2000      0.4348E-03 NODE          34 -99.9%  0.3082E-05  0.3323E-05  0.8900E-07 -0.3972E-07   0.000    
     ANIMATION FILE: FFO25SCBA002 WRITTEN
     OUTPUT FILE: FFO25SCB_0002.sty WRITTEN
   461  0.2005      0.4348E-03 NODE          34 -99.9%  0.3108E-05  0.3339E-05  0.8963E-07 -0.3989E-07   0.000    
   462  0.2009      0.4348E-03 NODE          34 -99.9%  0.3134E-05  0.3355E-05  0.9027E-07 -0.4005E-07   0.000    
   463  0.2013      0.4348E-03 NODE          34 -99.9%  0.3160E-05  0.3372E-05  0.9090E-07 -0.4022E-07   0.000    
   464  0.2018      0.4348E-03 NODE          34 -99.9%  0.3187E-05  0.3388E-05  0.9153E-07 -0.4039E-07   0.000    
   465  0.2022      0.4348E-03 NODE          34 -99.9%  0.3213E-05  0.3405E-05  0.9216E-07 -0.4056E-07   0.000    
   466  0.2026      0.4348E-03 NODE          34 -99.9%  0.3240E-05  0.3421E-05  0.9278E-07 -0.4073E-07   0.000    
   467  0.2031      0.4348E-03 NODE          34 -99.9%  0.3267E-05  0.3438E-05  0.9341E-07 -0.4090E-07   0.000    
   468  0.2035      0.4348E-03 NODE          34 -99.9%  0.3294E-05  0.3455E-05  0.9403E-07 -0.4107E-07   0.000    
   469  0.2039      0.4348E-03 NODE          34 -99.9%  0.3321E-05  0.3472E-05  0.9466E-07 -0.4124E-07   0.000    
   470  0.2044      0.4348E-03 NODE          34 -99.9%  0.3349E-05  0.3489E-05  0.9528E-07 -0.4142E-07   0.000    
   471  0.2048      0.4348E-03 NODE          34 -99.9%  0.3377E-05  0.3507E-05  0.9589E-07 -0.4159E-07   0.000    
   472  0.2052      0.4348E-03 NODE          34 -99.9%  0.3404E-05  0.3524E-05  0.9651E-07 -0.4177E-07   0.000    
   473  0.2057      0.4348E-03 NODE          34 -99.9%  0.3432E-05  0.3542E-05  0.9713E-07 -0.4195E-07   0.000    
   474  0.2061      0.4348E-03 NODE          34 -99.9%  0.3461E-05  0.3559E-05  0.9774E-07 -0.4213E-07   0.000    
   475  0.2065      0.4348E-03 NODE          34 -99.9%  0.3489E-05  0.3577E-05  0.9834E-07 -0.4231E-07   0.000    
   476  0.2070      0.4348E-03 NODE          34 -99.9%  0.3517E-05  0.3595E-05  0.9895E-07 -0.4249E-07   0.000    
   477  0.2074      0.4348E-03 NODE          34 -99.9%  0.3546E-05  0.3614E-05  0.9955E-07 -0.4267E-07   0.000    
   478  0.2078      0.4348E-03 NODE          34 -99.9%  0.3575E-05  0.3632E-05  0.1001E-06 -0.4286E-07   0.000    
   479  0.2083      0.4348E-03 NODE          34 -99.9%  0.3604E-05  0.3650E-05  0.1007E-06 -0.4304E-07   0.000    
   480  0.2087      0.4348E-03 NODE          34 -99.9%  0.3633E-05  0.3669E-05  0.1013E-06 -0.4323E-07   0.000    
   481  0.2092      0.4348E-03 NODE          34 -99.9%  0.3663E-05  0.3688E-05  0.1019E-06 -0.4342E-07   0.000    
   482  0.2096      0.4348E-03 NODE          34 -99.9%  0.3692E-05  0.3707E-05  0.1025E-06 -0.4361E-07   0.000    
   483  0.2100      0.4348E-03 NODE          34 -99.9%  0.3722E-05  0.3726E-05  0.1031E-06 -0.4379E-07   0.000    
   484  0.2105      0.4348E-03 NODE          34 -99.9%  0.3752E-05  0.3745E-05  0.1037E-06 -0.4398E-07   0.000    
   485  0.2109      0.4348E-03 NODE          34 -99.9%  0.3783E-05  0.3765E-05  0.1042E-06 -0.4418E-07   0.000    
   486  0.2113      0.4348E-03 NODE          34 -99.9%  0.3813E-05  0.3784E-05  0.1048E-06 -0.4437E-07   0.000    
   487  0.2118      0.4348E-03 NODE          34 -99.9%  0.3844E-05  0.3804E-05  0.1054E-06 -0.4456E-07   0.000    
   488  0.2122      0.4348E-03 NODE          34 -99.9%  0.3874E-05  0.3824E-05  0.1059E-06 -0.4475E-07   0.000    
   489  0.2126      0.4348E-03 NODE          34 -99.9%  0.3905E-05  0.3844E-05  0.1065E-06 -0.4495E-07   0.000    
   490  0.2131      0.4348E-03 NODE          34 -99.9%  0.3937E-05  0.3864E-05  0.1070E-06 -0.4514E-07   0.000    
   491  0.2135      0.4348E-03 NODE          34 -99.9%  0.3968E-05  0.3884E-05  0.1076E-06 -0.4534E-07   0.000    
   492  0.2139      0.4348E-03 NODE          34 -99.9%  0.4000E-05  0.3904E-05  0.1081E-06 -0.4553E-07   0.000    
   493  0.2144      0.4348E-03 NODE          34 -99.9%  0.4031E-05  0.3925E-05  0.1086E-06 -0.4573E-07   0.000    
   494  0.2148      0.4348E-03 NODE          34 -99.9%  0.4063E-05  0.3945E-05  0.1092E-06 -0.4592E-07   0.000    
 CYCLE    TIME      TIME-STEP  ELEMENT          ERROR  I-ENERGY    K-ENERGY T  K-ENERGY R  EXT-WORK MAS.ERR
   495  0.2152      0.4348E-03 NODE          34 -99.9%  0.4096E-05  0.3966E-05  0.1097E-06 -0.4612E-07   0.000    
   496  0.2157      0.4348E-03 NODE          34 -99.9%  0.4128E-05  0.3986E-05  0.1102E-06 -0.4632E-07   0.000    
   497  0.2161      0.4348E-03 NODE          34 -99.9%  0.4160E-05  0.4007E-05  0.1107E-06 -0.4652E-07   0.000    
   498  0.2165      0.4348E-03 NODE          34 -99.9%  0.4193E-05  0.4028E-05  0.1112E-06 -0.4671E-07   0.000    
   499  0.2170      0.4348E-03 NODE          34 -99.9%  0.4226E-05  0.4048E-05  0.1117E-06 -0.4691E-07   0.000    
   500  0.2174      0.4348E-03 NODE          34 -99.9%  0.4259E-05  0.4069E-05  0.1122E-06 -0.4712E-07   0.000    
   501  0.2178      0.4348E-03 NODE          34 -99.9%  0.4293E-05  0.4089E-05  0.1127E-06 -0.4732E-07   0.000    
   502  0.2183      0.4348E-03 NODE          34 -99.9%  0.4326E-05  0.4110E-05  0.1131E-06 -0.4752E-07   0.000    
   503  0.2187      0.4348E-03 NODE          34 -99.9%  0.4360E-05  0.4131E-05  0.1136E-06 -0.4772E-07   0.000    
   504  0.2192      0.4348E-03 NODE          34 -99.9%  0.4394E-05  0.4151E-05  0.1140E-06 -0.4793E-07   0.000    
   505  0.2196      0.4348E-03 NODE          34 -99.9%  0.4428E-05  0.4171E-05  0.1145E-06 -0.4813E-07   0.000    
   506  0.2200      0.4348E-03 NODE          34 -99.9%  0.4462E-05  0.4192E-05  0.1149E-06 -0.4834E-07   0.000    
   507  0.2205      0.4348E-03 NODE          34 -99.9%  0.4497E-05  0.4212E-05  0.1153E-06 -0.4854E-07   0.000    
   508  0.2209      0.4348E-03 NODE          34 -99.9%  0.4532E-05  0.4232E-05  0.1157E-06 -0.4875E-07   0.000    
   509  0.2213      0.4348E-03 NODE          34 -99.9%  0.4567E-05  0.4252E-05  0.1161E-06 -0.4896E-07   0.000    
   510  0.2218      0.4348E-03 NODE          34 -99.9%  0.4602E-05  0.4271E-05  0.1164E-06 -0.4917E-07   0.000    
   511  0.2222      0.4348E-03 NODE          34 -99.9%  0.4637E-05  0.4291E-05  0.1168E-06 -0.4938E-07   0.000    
   512  0.2226      0.4348E-03 NODE          34 -99.9%  0.4673E-05  0.4310E-05  0.1171E-06 -0.4959E-07   0.000    
   513  0.2231      0.4348E-03 NODE          34 -99.9%  0.4709E-05  0.4330E-05  0.1174E-06 -0.4980E-07   0.000    
   514  0.2235      0.4348E-03 NODE          33 -99.9%  0.4745E-05  0.4348E-05  0.1177E-06 -0.5002E-07   0.000    
   515  0.2239      0.4348E-03 NODE          33 -99.9%  0.4781E-05  0.4367E-05  0.1180E-06 -0.5023E-07   0.000    
   516  0.2244      0.4348E-03 NODE          33 -99.9%  0.4818E-05  0.4386E-05  0.1183E-06 -0.5044E-07   0.000    
   517  0.2248      0.4348E-03 NODE          34 -99.9%  0.4854E-05  0.4404E-05  0.1186E-06 -0.5066E-07   0.000    
   518  0.2252      0.4348E-03 NODE          34 -99.9%  0.4891E-05  0.4422E-05  0.1188E-06 -0.5087E-07   0.000    
   519  0.2257      0.4348E-03 NODE          34 -99.9%  0.4929E-05  0.4440E-05  0.1191E-06 -0.5109E-07   0.000    
   520  0.2261      0.4348E-03 NODE          34 -99.9%  0.4966E-05  0.4457E-05  0.1193E-06 -0.5130E-07   0.000    
   521  0.2265      0.4348E-03 NODE          34 -99.9%  0.5004E-05  0.4474E-05  0.1195E-06 -0.5152E-07   0.000    
   522  0.2270      0.4348E-03 NODE          34 -99.9%  0.5041E-05  0.4491E-05  0.1197E-06 -0.5174E-07   0.000    
   523  0.2274      0.4348E-03 NODE          34 -99.9%  0.5079E-05  0.4508E-05  0.1199E-06 -0.5195E-07   0.000    
   524  0.2278      0.4348E-03 NODE          34 -99.9%  0.5118E-05  0.4524E-05  0.1201E-06 -0.5217E-07   0.000    
   525  0.2283      0.4348E-03 NODE          34 -99.9%  0.5156E-05  0.4540E-05  0.1203E-06 -0.5239E-07   0.000    
   526  0.2287      0.4348E-03 NODE          34 -99.9%  0.5195E-05  0.4556E-05  0.1204E-06 -0.5260E-07   0.000    
   527  0.2292      0.4348E-03 NODE          34 -99.9%  0.5234E-05  0.4571E-05  0.1206E-06 -0.5282E-07   0.000    
   528  0.2296      0.4348E-03 NODE          34 -99.9%  0.5273E-05  0.4587E-05  0.1207E-06 -0.5304E-07   0.000    
   529  0.2300      0.4348E-03 NODE          34 -99.9%  0.5313E-05  0.4602E-05  0.1209E-06 -0.5325E-07   0.000    
   530  0.2305      0.4348E-03 NODE          34 -99.9%  0.5353E-05  0.4616E-05  0.1210E-06 -0.5347E-07   0.000    
   531  0.2309      0.4348E-03 NODE          34 -99.9%  0.5393E-05  0.4631E-05  0.1211E-06 -0.5369E-07   0.000    
   532  0.2313      0.4348E-03 NODE          34 -99.9%  0.5433E-05  0.4645E-05  0.1212E-06 -0.5391E-07   0.000    
   533  0.2318      0.4348E-03 NODE          34 -99.9%  0.5473E-05  0.4659E-05  0.1214E-06 -0.5412E-07   0.000    
   534  0.2322      0.4348E-03 NODE          34 -99.9%  0.5514E-05  0.4673E-05  0.1215E-06 -0.5434E-07   0.000    
   535  0.2326      0.4348E-03 NODE          35 -99.9%  0.5555E-05  0.4686E-05  0.1216E-06 -0.5456E-07   0.000    
   536  0.2331      0.4348E-03 NODE          35 -99.9%  0.5596E-05  0.4700E-05  0.1217E-06 -0.5478E-07   0.000    
   537  0.2335      0.4348E-03 NODE          35 -99.9%  0.5638E-05  0.4713E-05  0.1218E-06 -0.5499E-07   0.000    
   538  0.2339      0.4348E-03 NODE          35 -99.9%  0.5679E-05  0.4726E-05  0.1219E-06 -0.5521E-07   0.000    
   539  0.2344      0.4348E-03 NODE          35 -99.9%  0.5721E-05  0.4739E-05  0.1220E-06 -0.5543E-07   0.000    
   540  0.2348      0.4348E-03 NODE          35 -99.9%  0.5763E-05  0.4751E-05  0.1221E-06 -0.5565E-07   0.000    
   541  0.2352      0.4348E-03 NODE          35 -99.9%  0.5806E-05  0.4764E-05  0.1222E-06 -0.5587E-07   0.000    
   542  0.2357      0.4348E-03 NODE          35 -99.9%  0.5848E-05  0.4776E-05  0.1223E-06 -0.5609E-07   0.000    
   543  0.2361      0.4348E-03 NODE          35 -99.9%  0.5891E-05  0.4788E-05  0.1224E-06 -0.5630E-07   0.000    
   544  0.2365      0.4348E-03 NODE          35 -99.9%  0.5935E-05  0.4800E-05  0.1225E-06 -0.5652E-07   0.000    
   545  0.2370      0.4348E-03 NODE          35 -99.9%  0.5978E-05  0.4812E-05  0.1227E-06 -0.5675E-07   0.000    
   546  0.2374      0.4348E-03 NODE          35 -99.9%  0.6022E-05  0.4824E-05  0.1228E-06 -0.5697E-07   0.000    
   547  0.2378      0.4348E-03 NODE          35 -99.9%  0.6066E-05  0.4836E-05  0.1229E-06 -0.5719E-07   0.000    
   548  0.2383      0.4348E-03 NODE          35 -99.9%  0.6110E-05  0.4848E-05  0.1231E-06 -0.5741E-07   0.000    
   549  0.2387      0.4348E-03 NODE          35 -99.9%  0.6154E-05  0.4860E-05  0.1232E-06 -0.5763E-07   0.000    
 CYCLE    TIME      TIME-STEP  ELEMENT          ERROR  I-ENERGY    K-ENERGY T  K-ENERGY R  EXT-WORK MAS.ERR
   550  0.2392      0.4348E-03 NODE          35 -99.9%  0.6199E-05  0.4871E-05  0.1233E-06 -0.5785E-07   0.000    
   551  0.2396      0.4348E-03 NODE          35 -99.9%  0.6244E-05  0.4883E-05  0.1235E-06 -0.5808E-07   0.000    
   552  0.2400      0.4348E-03 NODE          35 -99.9%  0.6289E-05  0.4895E-05  0.1237E-06 -0.5830E-07   0.000    
   553  0.2405      0.4348E-03 NODE          35 -99.9%  0.6335E-05  0.4906E-05  0.1238E-06 -0.5853E-07   0.000    
   554  0.2409      0.4348E-03 NODE          35 -99.9%  0.6380E-05  0.4917E-05  0.1240E-06 -0.5875E-07   0.000    
   555  0.2413      0.4348E-03 NODE          35 -99.9%  0.6426E-05  0.4929E-05  0.1242E-06 -0.5898E-07   0.000    
   556  0.2418      0.4348E-03 NODE          35 -99.9%  0.6473E-05  0.4940E-05  0.1244E-06 -0.5920E-07   0.000    
   557  0.2422      0.4348E-03 NODE          35 -99.9%  0.6519E-05  0.4952E-05  0.1246E-06 -0.5943E-07   0.000    
   558  0.2426      0.4348E-03 NODE          35 -99.9%  0.6566E-05  0.4963E-05  0.1248E-06 -0.5965E-07   0.000    
   559  0.2431      0.4348E-03 NODE          35 -99.9%  0.6613E-05  0.4974E-05  0.1250E-06 -0.5988E-07   0.000    
   560  0.2435      0.4348E-03 NODE          35 -99.9%  0.6660E-05  0.4986E-05  0.1252E-06 -0.6010E-07   0.000    
   561  0.2439      0.4348E-03 NODE          35 -99.9%  0.6708E-05  0.4997E-05  0.1255E-06 -0.6033E-07   0.000    
   562  0.2444      0.4348E-03 NODE          35 -99.9%  0.6756E-05  0.5008E-05  0.1257E-06 -0.6056E-07   0.000    
   563  0.2448      0.4348E-03 NODE          35 -99.9%  0.6804E-05  0.5019E-05  0.1259E-06 -0.6079E-07   0.000    
   564  0.2452      0.4348E-03 NODE          35 -99.9%  0.6852E-05  0.5030E-05  0.1262E-06 -0.6101E-07   0.000    
   565  0.2457      0.4348E-03 NODE          35 -99.9%  0.6901E-05  0.5041E-05  0.1264E-06 -0.6124E-07   0.000    
   566  0.2461      0.4348E-03 NODE          35 -99.9%  0.6950E-05  0.5052E-05  0.1267E-06 -0.6147E-07   0.000    
   567  0.2465      0.4348E-03 NODE          34 -99.9%  0.6999E-05  0.5063E-05  0.1270E-06 -0.6170E-07   0.000    
   568  0.2470      0.4348E-03 NODE          34 -99.9%  0.7049E-05  0.5074E-05  0.1272E-06 -0.6193E-07   0.000    
   569  0.2474      0.4348E-03 NODE          35 -99.9%  0.7098E-05  0.5085E-05  0.1275E-06 -0.6216E-07   0.000    
   570  0.2478      0.4348E-03 NODE          35 -99.9%  0.7148E-05  0.5096E-05  0.1278E-06 -0.6238E-07   0.000    
   571  0.2483      0.4348E-03 NODE          35 -99.9%  0.7199E-05  0.5106E-05  0.1281E-06 -0.6261E-07   0.000    
   572  0.2487      0.4348E-03 NODE          35 -99.9%  0.7249E-05  0.5117E-05  0.1284E-06 -0.6285E-07   0.000    
   573  0.2492      0.4348E-03 NODE          35 -99.9%  0.7300E-05  0.5128E-05  0.1287E-06 -0.6308E-07   0.000    
   574  0.2496      0.4348E-03 NODE          35 -99.9%  0.7351E-05  0.5138E-05  0.1290E-06 -0.6331E-07   0.000    
   575  0.2500      0.4348E-03 NODE          35 -99.9%  0.7402E-05  0.5149E-05  0.1293E-06 -0.6354E-07   0.000    
   576  0.2505      0.4348E-03 NODE          35 -99.9%  0.7454E-05  0.5159E-05  0.1295E-06 -0.6377E-07   0.000    
   577  0.2509      0.4348E-03 NODE          35 -99.9%  0.7506E-05  0.5169E-05  0.1298E-06 -0.6401E-07   0.000    
   578  0.2513      0.4348E-03 NODE          35 -99.9%  0.7558E-05  0.5179E-05  0.1301E-06 -0.6424E-07   0.000    
   579  0.2518      0.4348E-03 NODE          35 -99.9%  0.7610E-05  0.5190E-05  0.1304E-06 -0.6447E-07   0.000    
   580  0.2522      0.4348E-03 NODE          35 -99.9%  0.7663E-05  0.5200E-05  0.1307E-06 -0.6471E-07   0.000    
   581  0.2526      0.4348E-03 NODE          35 -99.9%  0.7716E-05  0.5210E-05  0.1310E-06 -0.6495E-07   0.000    
   582  0.2531      0.4348E-03 NODE          35 -99.9%  0.7769E-05  0.5220E-05  0.1313E-06 -0.6518E-07   0.000    
   583  0.2535      0.4348E-03 NODE          35 -99.9%  0.7823E-05  0.5229E-05  0.1316E-06 -0.6542E-07   0.000    
   584  0.2539      0.4348E-03 NODE          35 -99.9%  0.7876E-05  0.5239E-05  0.1318E-06 -0.6566E-07   0.000    
   585  0.2544      0.4348E-03 NODE          35 -99.9%  0.7930E-05  0.5249E-05  0.1321E-06 -0.6590E-07   0.000    
   586  0.2548      0.4348E-03 NODE          35 -99.9%  0.7985E-05  0.5259E-05  0.1324E-06 -0.6614E-07   0.000    
   587  0.2552      0.4348E-03 NODE          35 -99.9%  0.8039E-05  0.5268E-05  0.1326E-06 -0.6639E-07   0.000    
   588  0.2557      0.4348E-03 NODE          35 -99.9%  0.8094E-05  0.5278E-05  0.1329E-06 -0.6663E-07   0.000    
   589  0.2561      0.4348E-03 NODE          35 -99.9%  0.8149E-05  0.5287E-05  0.1331E-06 -0.6687E-07   0.000    
   590  0.2565      0.4348E-03 NODE          35 -99.9%  0.8205E-05  0.5296E-05  0.1334E-06 -0.6712E-07   0.000    
   591  0.2570      0.4348E-03 NODE          35 -99.9%  0.8261E-05  0.5306E-05  0.1336E-06 -0.6736E-07   0.000    
   592  0.2574      0.4348E-03 NODE          35 -99.9%  0.8317E-05  0.5315E-05  0.1338E-06 -0.6761E-07   0.000    
   593  0.2578      0.4348E-03 NODE          35 -99.9%  0.8373E-05  0.5324E-05  0.1341E-06 -0.6786E-07   0.000    
   594  0.2583      0.4348E-03 NODE          35 -99.9%  0.8429E-05  0.5334E-05  0.1343E-06 -0.6811E-07   0.000    
   595  0.2587      0.4348E-03 NODE          35 -99.9%  0.8486E-05  0.5343E-05  0.1345E-06 -0.6835E-07   0.000    
   596  0.2592      0.4348E-03 NODE          35 -99.9%  0.8544E-05  0.5352E-05  0.1347E-06 -0.6860E-07   0.000    
   597  0.2596      0.4348E-03 NODE          34 -99.9%  0.8601E-05  0.5361E-05  0.1349E-06 -0.6885E-07   0.000    
   598  0.2600      0.4348E-03 NODE          35 -99.9%  0.8659E-05  0.5370E-05  0.1351E-06 -0.6911E-07   0.000    
   599  0.2605      0.4348E-03 NODE          35 -99.9%  0.8717E-05  0.5380E-05  0.1352E-06 -0.6936E-07   0.000    
   600  0.2609      0.4348E-03 NODE          35 -99.9%  0.8775E-05  0.5389E-05  0.1354E-06 -0.6961E-07   0.000    
   601  0.2613      0.4348E-03 NODE          34 -99.9%  0.8834E-05  0.5398E-05  0.1356E-06 -0.6986E-07   0.000    
   602  0.2618      0.4348E-03 NODE          34 -99.9%  0.8893E-05  0.5408E-05  0.1357E-06 -0.7012E-07   0.000    
   603  0.2622      0.4348E-03 NODE          34 -99.9%  0.8952E-05  0.5417E-05  0.1359E-06 -0.7037E-07   0.000    
   604  0.2626      0.4348E-03 NODE          34 -99.9%  0.9012E-05  0.5427E-05  0.1360E-06 -0.7063E-07   0.000    
 CYCLE    TIME      TIME-STEP  ELEMENT          ERROR  I-ENERGY    K-ENERGY T  K-ENERGY R  EXT-WORK MAS.ERR
   605  0.2631      0.4348E-03 NODE          34 -99.9%  0.9072E-05  0.5436E-05  0.1362E-06 -0.7089E-07   0.000    
   606  0.2635      0.4348E-03 NODE          34 -99.9%  0.9132E-05  0.5446E-05  0.1363E-06 -0.7114E-07   0.000    
   607  0.2639      0.4348E-03 NODE          34 -99.9%  0.9192E-05  0.5456E-05  0.1365E-06 -0.7140E-07   0.000    
   608  0.2644      0.4348E-03 NODE          34 -99.9%  0.9253E-05  0.5466E-05  0.1366E-06 -0.7166E-07   0.000    
   609  0.2648      0.4348E-03 NODE          34 -99.9%  0.9314E-05  0.5476E-05  0.1368E-06 -0.7192E-07   0.000    
   610  0.2652      0.4348E-03 NODE          34 -99.9%  0.9376E-05  0.5486E-05  0.1369E-06 -0.7218E-07   0.000    
   611  0.2657      0.4348E-03 NODE          34 -99.9%  0.9437E-05  0.5496E-05  0.1370E-06 -0.7245E-07   0.000    
   612  0.2661      0.4348E-03 NODE          34 -99.9%  0.9499E-05  0.5507E-05  0.1372E-06 -0.7271E-07   0.000    
   613  0.2665      0.4348E-03 NODE          34 -99.9%  0.9562E-05  0.5518E-05  0.1373E-06 -0.7297E-07   0.000    
   614  0.2670      0.4348E-03 NODE          34 -99.9%  0.9624E-05  0.5529E-05  0.1374E-06 -0.7324E-07   0.000    
   615  0.2674      0.4348E-03 NODE          34 -99.9%  0.9687E-05  0.5540E-05  0.1376E-06 -0.7350E-07   0.000    
   616  0.2678      0.4348E-03 NODE          34 -99.9%  0.9751E-05  0.5551E-05  0.1377E-06 -0.7377E-07   0.000    
   617  0.2683      0.4348E-03 NODE          34 -99.9%  0.9814E-05  0.5563E-05  0.1379E-06 -0.7404E-07   0.000    
   618  0.2687      0.4348E-03 NODE          34 -99.9%  0.9878E-05  0.5575E-05  0.1380E-06 -0.7431E-07   0.000    
   619  0.2692      0.4348E-03 NODE          34 -99.9%  0.9942E-05  0.5587E-05  0.1382E-06 -0.7458E-07   0.000    
   620  0.2696      0.4348E-03 NODE          34 -99.9%  0.1001E-04  0.5600E-05  0.1383E-06 -0.7485E-07   0.000    
   621  0.2700      0.4348E-03 NODE          34 -99.9%  0.1007E-04  0.5612E-05  0.1385E-06 -0.7513E-07   0.000    
   622  0.2705      0.4348E-03 NODE          34 -99.9%  0.1014E-04  0.5625E-05  0.1386E-06 -0.7540E-07   0.000    
   623  0.2709      0.4348E-03 NODE          34 -99.9%  0.1020E-04  0.5639E-05  0.1388E-06 -0.7568E-07   0.000    
   624  0.2713      0.4348E-03 NODE          34 -99.9%  0.1027E-04  0.5652E-05  0.1390E-06 -0.7595E-07   0.000    
   625  0.2718      0.4348E-03 NODE          34 -99.9%  0.1033E-04  0.5666E-05  0.1392E-06 -0.7623E-07   0.000    
   626  0.2722      0.4348E-03 NODE          34 -99.9%  0.1040E-04  0.5681E-05  0.1394E-06 -0.7651E-07   0.000    
   627  0.2726      0.4348E-03 NODE          34 -99.9%  0.1047E-04  0.5695E-05  0.1396E-06 -0.7679E-07   0.000    
   628  0.2731      0.4348E-03 NODE          34 -99.9%  0.1054E-04  0.5710E-05  0.1398E-06 -0.7707E-07   0.000    
   629  0.2735      0.4348E-03 NODE          34 -99.9%  0.1060E-04  0.5726E-05  0.1400E-06 -0.7735E-07   0.000    
   630  0.2739      0.4348E-03 NODE          34 -99.9%  0.1067E-04  0.5741E-05  0.1402E-06 -0.7764E-07   0.000    
   631  0.2744      0.4348E-03 NODE          34 -99.9%  0.1074E-04  0.5758E-05  0.1405E-06 -0.7792E-07   0.000    
   632  0.2748      0.4348E-03 NODE          34 -99.9%  0.1081E-04  0.5774E-05  0.1407E-06 -0.7821E-07   0.000    
   633  0.2752      0.4348E-03 NODE          34 -99.9%  0.1088E-04  0.5791E-05  0.1409E-06 -0.7849E-07   0.000    
   634  0.2757      0.4348E-03 NODE          34 -99.9%  0.1095E-04  0.5808E-05  0.1412E-06 -0.7878E-07   0.000    
   635  0.2761      0.4348E-03 NODE          34 -99.9%  0.1102E-04  0.5825E-05  0.1415E-06 -0.7907E-07   0.000    
   636  0.2765      0.4348E-03 NODE          34 -99.9%  0.1109E-04  0.5843E-05  0.1417E-06 -0.7936E-07   0.000    
   637  0.2770      0.4348E-03 NODE          34 -99.9%  0.1116E-04  0.5861E-05  0.1420E-06 -0.7965E-07   0.000    
   638  0.2774      0.4348E-03 NODE          34 -99.9%  0.1123E-04  0.5879E-05  0.1423E-06 -0.7995E-07   0.000    
   639  0.2778      0.4348E-03 NODE          34 -99.9%  0.1130E-04  0.5898E-05  0.1426E-06 -0.8024E-07   0.000    
   640  0.2783      0.4348E-03 NODE          34 -99.9%  0.1137E-04  0.5917E-05  0.1429E-06 -0.8054E-07   0.000    
   641  0.2787      0.4348E-03 NODE          34 -99.9%  0.1144E-04  0.5936E-05  0.1432E-06 -0.8083E-07   0.000    
   642  0.2791      0.4348E-03 NODE          34 -99.9%  0.1151E-04  0.5955E-05  0.1436E-06 -0.8113E-07   0.000    
   643  0.2796      0.4348E-03 NODE          34 -99.9%  0.1158E-04  0.5975E-05  0.1439E-06 -0.8143E-07   0.000    
   644  0.2800      0.4348E-03 NODE          34 -99.9%  0.1166E-04  0.5995E-05  0.1442E-06 -0.8173E-07   0.000    
   645  0.2805      0.4348E-03 NODE          34 -99.9%  0.1173E-04  0.6015E-05  0.1446E-06 -0.8203E-07   0.000    
   646  0.2809      0.4348E-03 NODE          34 -99.9%  0.1180E-04  0.6036E-05  0.1449E-06 -0.8233E-07   0.000    
   647  0.2813      0.4348E-03 NODE          34 -99.9%  0.1188E-04  0.6057E-05  0.1453E-06 -0.8263E-07   0.000    
   648  0.2818      0.4348E-03 NODE          34 -99.9%  0.1195E-04  0.6078E-05  0.1457E-06 -0.8294E-07   0.000    
   649  0.2822      0.4348E-03 NODE          34 -99.9%  0.1202E-04  0.6099E-05  0.1461E-06 -0.8324E-07   0.000    
   650  0.2826      0.4348E-03 NODE          34 -99.9%  0.1210E-04  0.6120E-05  0.1464E-06 -0.8355E-07   0.000    
   651  0.2831      0.4348E-03 NODE          34 -99.9%  0.1217E-04  0.6142E-05  0.1468E-06 -0.8386E-07   0.000    
   652  0.2835      0.4348E-03 NODE          34 -99.9%  0.1225E-04  0.6164E-05  0.1472E-06 -0.8417E-07   0.000    
   653  0.2839      0.4348E-03 NODE          34 -99.9%  0.1233E-04  0.6185E-05  0.1476E-06 -0.8448E-07   0.000    
   654  0.2844      0.4348E-03 NODE          34 -99.9%  0.1240E-04  0.6207E-05  0.1480E-06 -0.8479E-07   0.000    
   655  0.2848      0.4348E-03 NODE          34 -99.9%  0.1248E-04  0.6230E-05  0.1484E-06 -0.8510E-07   0.000    
   656  0.2852      0.4348E-03 NODE          34 -99.9%  0.1255E-04  0.6252E-05  0.1488E-06 -0.8541E-07   0.000    
   657  0.2857      0.4348E-03 NODE          34 -99.9%  0.1263E-04  0.6274E-05  0.1493E-06 -0.8573E-07   0.000    
   658  0.2861      0.4348E-03 NODE          34 -99.9%  0.1271E-04  0.6297E-05  0.1497E-06 -0.8605E-07   0.000    
   659  0.2865      0.4348E-03 NODE          34 -99.9%  0.1279E-04  0.6319E-05  0.1501E-06 -0.8636E-07   0.000    
 CYCLE    TIME      TIME-STEP  ELEMENT          ERROR  I-ENERGY    K-ENERGY T  K-ENERGY R  EXT-WORK MAS.ERR
   660  0.2870      0.4348E-03 NODE          34 -99.9%  0.1287E-04  0.6342E-05  0.1505E-06 -0.8668E-07   0.000    
   661  0.2874      0.4348E-03 NODE          34 -99.9%  0.1294E-04  0.6365E-05  0.1510E-06 -0.8700E-07   0.000    
   662  0.2878      0.4348E-03 NODE          34 -99.9%  0.1302E-04  0.6387E-05  0.1514E-06 -0.8732E-07   0.000    
   663  0.2883      0.4348E-03 NODE          34 -99.9%  0.1310E-04  0.6410E-05  0.1519E-06 -0.8765E-07   0.000    
   664  0.2887      0.4348E-03 NODE          34 -99.9%  0.1318E-04  0.6433E-05  0.1523E-06 -0.8797E-07   0.000    
   665  0.2891      0.4348E-03 NODE          34 -99.9%  0.1326E-04  0.6456E-05  0.1528E-06 -0.8829E-07   0.000    
   666  0.2896      0.4348E-03 NODE          34 -99.9%  0.1334E-04  0.6479E-05  0.1532E-06 -0.8862E-07   0.000    
   667  0.2900      0.4348E-03 NODE          34 -99.9%  0.1342E-04  0.6502E-05  0.1537E-06 -0.8895E-07   0.000    
   668  0.2905      0.4348E-03 NODE          34 -99.9%  0.1350E-04  0.6525E-05  0.1541E-06 -0.8927E-07   0.000    
   669  0.2909      0.4348E-03 NODE          34 -99.9%  0.1358E-04  0.6548E-05  0.1546E-06 -0.8960E-07   0.000    
   670  0.2913      0.4348E-03 NODE          34 -99.9%  0.1367E-04  0.6571E-05  0.1551E-06 -0.8993E-07   0.000    
   671  0.2918      0.4348E-03 NODE          34 -99.9%  0.1375E-04  0.6594E-05  0.1556E-06 -0.9026E-07   0.000    
   672  0.2922      0.4348E-03 NODE          34 -99.9%  0.1383E-04  0.6618E-05  0.1561E-06 -0.9059E-07   0.000    
   673  0.2926      0.4348E-03 NODE          34 -99.9%  0.1391E-04  0.6641E-05  0.1565E-06 -0.9092E-07   0.000    
   674  0.2931      0.4348E-03 NODE          34 -99.9%  0.1400E-04  0.6664E-05  0.1570E-06 -0.9125E-07   0.000    
   675  0.2935      0.4348E-03 NODE          34 -99.9%  0.1408E-04  0.6687E-05  0.1575E-06 -0.9158E-07   0.000    
   676  0.2939      0.4348E-03 NODE          34 -99.9%  0.1417E-04  0.6711E-05  0.1581E-06 -0.9192E-07   0.000    
   677  0.2944      0.4348E-03 NODE          34 -99.9%  0.1425E-04  0.6734E-05  0.1586E-06 -0.9225E-07   0.000    
   678  0.2948      0.4348E-03 NODE          34 -99.9%  0.1433E-04  0.6757E-05  0.1591E-06 -0.9259E-07   0.000    
   679  0.2952      0.4348E-03 NODE          34 -99.9%  0.1442E-04  0.6781E-05  0.1596E-06 -0.9292E-07   0.000    
   680  0.2957      0.4348E-03 NODE          34 -99.9%  0.1451E-04  0.6804E-05  0.1602E-06 -0.9326E-07   0.000    
   681  0.2961      0.4348E-03 NODE          34 -99.9%  0.1459E-04  0.6828E-05  0.1607E-06 -0.9359E-07   0.000    
   682  0.2965      0.4348E-03 NODE          34 -99.9%  0.1468E-04  0.6851E-05  0.1613E-06 -0.9393E-07   0.000    
   683  0.2970      0.4348E-03 NODE          34 -99.9%  0.1476E-04  0.6875E-05  0.1619E-06 -0.9427E-07   0.000    
   684  0.2974      0.4348E-03 NODE          34 -99.9%  0.1485E-04  0.6899E-05  0.1625E-06 -0.9460E-07   0.000    
   685  0.2978      0.4348E-03 NODE          34 -99.9%  0.1494E-04  0.6922E-05  0.1631E-06 -0.9494E-07   0.000    
   686  0.2983      0.4348E-03 NODE          34 -99.9%  0.1503E-04  0.6946E-05  0.1637E-06 -0.9528E-07   0.000    
   687  0.2987      0.4348E-03 NODE          34 -99.9%  0.1511E-04  0.6970E-05  0.1643E-06 -0.9562E-07   0.000    
   688  0.2991      0.4348E-03 NODE          34 -99.9%  0.1520E-04  0.6994E-05  0.1649E-06 -0.9596E-07   0.000    
   689  0.2996      0.4348E-03 NODE          34 -99.9%  0.1529E-04  0.7019E-05  0.1656E-06 -0.9630E-07   0.000    
   690  0.3000      0.4348E-03 NODE          34 -99.9%  0.1538E-04  0.7043E-05  0.1662E-06 -0.9664E-07   0.000    
   691  0.3005      0.4348E-03 NODE          34 -99.9%  0.1547E-04  0.7067E-05  0.1669E-06 -0.9699E-07   0.000    
   692  0.3009      0.4348E-03 NODE          34 -99.9%  0.1556E-04  0.7092E-05  0.1676E-06 -0.9733E-07   0.000    
   693  0.3013      0.4348E-03 NODE          34 -99.9%  0.1565E-04  0.7117E-05  0.1683E-06 -0.9767E-07   0.000    
   694  0.3018      0.4348E-03 NODE          34 -99.9%  0.1574E-04  0.7141E-05  0.1690E-06 -0.9802E-07   0.000    
   695  0.3022      0.4348E-03 NODE          34 -99.9%  0.1583E-04  0.7166E-05  0.1698E-06 -0.9836E-07   0.000    
   696  0.3026      0.4348E-03 NODE          34 -99.9%  0.1593E-04  0.7191E-05  0.1705E-06 -0.9871E-07   0.000    
   697  0.3031      0.4348E-03 NODE          34 -99.9%  0.1602E-04  0.7216E-05  0.1713E-06 -0.9906E-07   0.000    
   698  0.3035      0.4348E-03 NODE          34 -99.9%  0.1611E-04  0.7242E-05  0.1721E-06 -0.9940E-07   0.000    
   699  0.3039      0.4348E-03 NODE          34 -99.9%  0.1620E-04  0.7267E-05  0.1729E-06 -0.9975E-07   0.000    
   700  0.3044      0.4348E-03 NODE          34 -99.9%  0.1630E-04  0.7293E-05  0.1737E-06 -0.1001E-06   0.000    
   701  0.3048      0.4348E-03 NODE          34 -99.9%  0.1639E-04  0.7319E-05  0.1745E-06 -0.1004E-06   0.000    
   702  0.3052      0.4348E-03 NODE          34 -99.9%  0.1648E-04  0.7345E-05  0.1754E-06 -0.1008E-06   0.000    
   703  0.3057      0.4348E-03 NODE          34 -99.9%  0.1658E-04  0.7371E-05  0.1762E-06 -0.1011E-06   0.000    
   704  0.3061      0.4348E-03 NODE          34 -99.9%  0.1667E-04  0.7397E-05  0.1771E-06 -0.1015E-06   0.000    
   705  0.3065      0.4348E-03 NODE          34 -99.9%  0.1677E-04  0.7423E-05  0.1780E-06 -0.1019E-06   0.000    
   706  0.3070      0.4348E-03 NODE          34 -99.9%  0.1686E-04  0.7450E-05  0.1789E-06 -0.1022E-06   0.000    
   707  0.3074      0.4348E-03 NODE          34 -99.9%  0.1696E-04  0.7476E-05  0.1798E-06 -0.1026E-06   0.000    
   708  0.3078      0.4348E-03 NODE          34 -99.9%  0.1706E-04  0.7503E-05  0.1808E-06 -0.1029E-06   0.000    
   709  0.3083      0.4348E-03 NODE          34 -99.9%  0.1715E-04  0.7530E-05  0.1817E-06 -0.1033E-06   0.000    
   710  0.3087      0.4348E-03 NODE          34 -99.9%  0.1725E-04  0.7557E-05  0.1827E-06 -0.1036E-06   0.000    
   711  0.3091      0.4348E-03 NODE          34 -99.9%  0.1735E-04  0.7584E-05  0.1837E-06 -0.1040E-06   0.000    
   712  0.3096      0.4348E-03 NODE          34 -99.9%  0.1745E-04  0.7612E-05  0.1847E-06 -0.1043E-06   0.000    
   713  0.3100      0.4348E-03 NODE          34 -99.9%  0.1754E-04  0.7639E-05  0.1857E-06 -0.1047E-06   0.000    
   714  0.3105      0.4348E-03 NODE          34 -99.9%  0.1764E-04  0.7667E-05  0.1867E-06 -0.1051E-06   0.000    
 CYCLE    TIME      TIME-STEP  ELEMENT          ERROR  I-ENERGY    K-ENERGY T  K-ENERGY R  EXT-WORK MAS.ERR
   715  0.3109      0.4348E-03 NODE          34 -99.9%  0.1774E-04  0.7695E-05  0.1877E-06 -0.1054E-06   0.000    
   716  0.3113      0.4348E-03 NODE          34 -99.9%  0.1784E-04  0.7723E-05  0.1888E-06 -0.1058E-06   0.000    
   717  0.3118      0.4348E-03 NODE          34 -99.9%  0.1794E-04  0.7751E-05  0.1898E-06 -0.1061E-06   0.000    
   718  0.3122      0.4348E-03 NODE          34 -99.9%  0.1804E-04  0.7779E-05  0.1909E-06 -0.1065E-06   0.000    
   719  0.3126      0.4348E-03 NODE          34 -99.9%  0.1814E-04  0.7807E-05  0.1919E-06 -0.1069E-06   0.000    
   720  0.3131      0.4348E-03 NODE          34 -99.9%  0.1824E-04  0.7835E-05  0.1930E-06 -0.1072E-06   0.000    
   721  0.3135      0.4348E-03 NODE          34 -99.9%  0.1835E-04  0.7864E-05  0.1941E-06 -0.1076E-06   0.000    
   722  0.3139      0.4348E-03 NODE          34 -99.9%  0.1845E-04  0.7892E-05  0.1952E-06 -0.1080E-06   0.000    
   723  0.3144      0.4348E-03 NODE          34 -99.9%  0.1855E-04  0.7921E-05  0.1963E-06 -0.1083E-06   0.000    
   724  0.3148      0.4348E-03 NODE          34 -99.9%  0.1865E-04  0.7949E-05  0.1974E-06 -0.1087E-06   0.000    
   725  0.3152      0.4348E-03 NODE          34 -99.9%  0.1876E-04  0.7978E-05  0.1985E-06 -0.1091E-06   0.000    
   726  0.3157      0.4348E-03 NODE          34 -99.9%  0.1886E-04  0.8007E-05  0.1996E-06 -0.1094E-06   0.000    
   727  0.3161      0.4348E-03 NODE          34 -99.9%  0.1896E-04  0.8036E-05  0.2007E-06 -0.1098E-06   0.000    
   728  0.3165      0.4348E-03 NODE          34 -99.9%  0.1907E-04  0.8065E-05  0.2018E-06 -0.1102E-06   0.000    
   729  0.3170      0.4348E-03 NODE          34 -99.9%  0.1917E-04  0.8094E-05  0.2029E-06 -0.1106E-06   0.000    
   730  0.3174      0.4348E-03 NODE          34 -99.9%  0.1928E-04  0.8123E-05  0.2040E-06 -0.1109E-06   0.000    
   731  0.3178      0.4348E-03 NODE          34 -99.9%  0.1938E-04  0.8152E-05  0.2051E-06 -0.1113E-06   0.000    
   732  0.3183      0.4348E-03 NODE          34 -99.9%  0.1949E-04  0.8181E-05  0.2062E-06 -0.1117E-06   0.000    
   733  0.3187      0.4348E-03 NODE          34 -99.9%  0.1960E-04  0.8210E-05  0.2073E-06 -0.1121E-06   0.000    
   734  0.3191      0.4348E-03 NODE          34 -99.9%  0.1970E-04  0.8239E-05  0.2084E-06 -0.1125E-06   0.000    
   735  0.3196      0.4348E-03 NODE          34 -99.9%  0.1981E-04  0.8268E-05  0.2096E-06 -0.1128E-06   0.000    
   736  0.3200      0.4348E-03 NODE          34 -99.9%  0.1992E-04  0.8297E-05  0.2107E-06 -0.1132E-06   0.000    
   737  0.3205      0.4348E-03 NODE          34 -99.9%  0.2003E-04  0.8326E-05  0.2118E-06 -0.1136E-06   0.000    
   738  0.3209      0.4348E-03 NODE          34 -99.9%  0.2013E-04  0.8355E-05  0.2128E-06 -0.1140E-06   0.000    
   739  0.3213      0.4348E-03 NODE          34 -99.9%  0.2024E-04  0.8385E-05  0.2139E-06 -0.1144E-06   0.000    
   740  0.3218      0.4348E-03 NODE          34 -99.9%  0.2035E-04  0.8414E-05  0.2150E-06 -0.1148E-06   0.000    
   741  0.3222      0.4348E-03 NODE          34 -99.9%  0.2046E-04  0.8443E-05  0.2161E-06 -0.1152E-06   0.000    
   742  0.3226      0.4348E-03 NODE          34 -99.9%  0.2057E-04  0.8472E-05  0.2172E-06 -0.1156E-06   0.000    
   743  0.3231      0.4348E-03 NODE          34 -99.9%  0.2068E-04  0.8501E-05  0.2182E-06 -0.1159E-06   0.000    
   744  0.3235      0.4348E-03 NODE          29 -99.9%  0.2079E-04  0.8530E-05  0.2193E-06 -0.1163E-06   0.000    
   745  0.3239      0.4348E-03 NODE          29 -99.9%  0.2091E-04  0.8559E-05  0.2203E-06 -0.1167E-06   0.000    
   746  0.3244      0.4348E-03 NODE          29 -99.9%  0.2102E-04  0.8589E-05  0.2214E-06 -0.1171E-06   0.000    
   747  0.3248      0.4348E-03 NODE          29 -99.9%  0.2113E-04  0.8618E-05  0.2224E-06 -0.1175E-06   0.000    
   748  0.3252      0.4348E-03 NODE          29 -99.9%  0.2124E-04  0.8647E-05  0.2234E-06 -0.1179E-06   0.000    
   749  0.3257      0.4348E-03 NODE          29 -99.9%  0.2136E-04  0.8676E-05  0.2244E-06 -0.1183E-06   0.000    
   750  0.3261      0.4348E-03 NODE          29 -99.9%  0.2147E-04  0.8705E-05  0.2254E-06 -0.1187E-06   0.000    
   751  0.3265      0.4348E-03 NODE          29 -99.9%  0.2158E-04  0.8735E-05  0.2264E-06 -0.1191E-06   0.000    
   752  0.3270      0.4348E-03 NODE          29 -99.9%  0.2170E-04  0.8764E-05  0.2274E-06 -0.1195E-06   0.000    
   753  0.3274      0.4348E-03 NODE          29 -99.9%  0.2181E-04  0.8793E-05  0.2284E-06 -0.1199E-06   0.000    
   754  0.3278      0.4348E-03 NODE          29 -99.9%  0.2193E-04  0.8822E-05  0.2294E-06 -0.1203E-06   0.000    
   755  0.3283      0.4348E-03 NODE          29 -99.9%  0.2204E-04  0.8852E-05  0.2303E-06 -0.1207E-06   0.000    
   756  0.3287      0.4348E-03 NODE          29 -99.9%  0.2216E-04  0.8881E-05  0.2313E-06 -0.1211E-06   0.000    
   757  0.3291      0.4348E-03 NODE          29 -99.9%  0.2228E-04  0.8911E-05  0.2322E-06 -0.1215E-06   0.000    
   758  0.3296      0.4348E-03 NODE          29 -99.9%  0.2239E-04  0.8940E-05  0.2332E-06 -0.1220E-06   0.000    
   759  0.3300      0.4348E-03 NODE          29 -99.9%  0.2251E-04  0.8970E-05  0.2341E-06 -0.1224E-06   0.000    
   760  0.3305      0.4348E-03 NODE          29 -99.9%  0.2263E-04  0.8999E-05  0.2350E-06 -0.1228E-06   0.000    
   761  0.3309      0.4348E-03 NODE          29 -99.9%  0.2275E-04  0.9029E-05  0.2360E-06 -0.1232E-06   0.000    
   762  0.3313      0.4348E-03 NODE          29 -99.9%  0.2287E-04  0.9058E-05  0.2369E-06 -0.1236E-06   0.000    
   763  0.3318      0.4348E-03 NODE          29 -99.9%  0.2299E-04  0.9088E-05  0.2378E-06 -0.1240E-06   0.000    
   764  0.3322      0.4348E-03 NODE          29 -99.9%  0.2311E-04  0.9118E-05  0.2387E-06 -0.1244E-06   0.000    
   765  0.3326      0.4348E-03 NODE          29 -99.9%  0.2323E-04  0.9148E-05  0.2396E-06 -0.1248E-06   0.000    
   766  0.3331      0.4348E-03 NODE          29 -99.9%  0.2335E-04  0.9178E-05  0.2404E-06 -0.1253E-06   0.000    
   767  0.3335      0.4348E-03 NODE          29 -99.9%  0.2347E-04  0.9208E-05  0.2413E-06 -0.1257E-06   0.000    
   768  0.3339      0.4348E-03 NODE          29 -99.9%  0.2359E-04  0.9238E-05  0.2422E-06 -0.1261E-06   0.000    
   769  0.3344      0.4348E-03 NODE          29 -99.9%  0.2371E-04  0.9268E-05  0.2430E-06 -0.1265E-06   0.000    
 CYCLE    TIME      TIME-STEP  ELEMENT          ERROR  I-ENERGY    K-ENERGY T  K-ENERGY R  EXT-WORK MAS.ERR
   770  0.3348      0.4348E-03 NODE          29 -99.9%  0.2384E-04  0.9298E-05  0.2439E-06 -0.1269E-06   0.000    
   771  0.3352      0.4348E-03 NODE          29 -99.9%  0.2396E-04  0.9328E-05  0.2447E-06 -0.1273E-06   0.000    
   772  0.3357      0.4348E-03 NODE          29 -99.9%  0.2408E-04  0.9359E-05  0.2456E-06 -0.1278E-06   0.000    
   773  0.3361      0.4348E-03 NODE          29 -99.9%  0.2421E-04  0.9389E-05  0.2464E-06 -0.1282E-06   0.000    
   774  0.3365      0.4348E-03 NODE          29 -99.9%  0.2433E-04  0.9420E-05  0.2472E-06 -0.1286E-06   0.000    
   775  0.3370      0.4348E-03 NODE          29 -99.9%  0.2446E-04  0.9450E-05  0.2480E-06 -0.1291E-06   0.000    
   776  0.3374      0.4348E-03 NODE          29 -99.9%  0.2458E-04  0.9481E-05  0.2489E-06 -0.1295E-06   0.000    
   777  0.3378      0.4348E-03 NODE          29 -99.9%  0.2471E-04  0.9511E-05  0.2497E-06 -0.1299E-06   0.000    
   778  0.3383      0.4348E-03 NODE          29 -99.9%  0.2484E-04  0.9542E-05  0.2505E-06 -0.1303E-06   0.000    
   779  0.3387      0.4348E-03 NODE          29 -99.9%  0.2496E-04  0.9573E-05  0.2512E-06 -0.1308E-06   0.000    
   780  0.3391      0.4348E-03 NODE          29 -99.9%  0.2509E-04  0.9603E-05  0.2520E-06 -0.1312E-06   0.000    
   781  0.3396      0.4348E-03 NODE          29 -99.9%  0.2522E-04  0.9634E-05  0.2528E-06 -0.1316E-06   0.000    
   782  0.3400      0.4348E-03 NODE          29 -99.9%  0.2535E-04  0.9665E-05  0.2536E-06 -0.1321E-06   0.000    
   783  0.3405      0.4348E-03 NODE          29 -99.9%  0.2548E-04  0.9696E-05  0.2543E-06 -0.1325E-06   0.000    
   784  0.3409      0.4348E-03 NODE          29 -99.9%  0.2561E-04  0.9727E-05  0.2551E-06 -0.1329E-06   0.000    
   785  0.3413      0.4348E-03 NODE          29 -99.9%  0.2574E-04  0.9757E-05  0.2558E-06 -0.1334E-06   0.000    
   786  0.3418      0.4348E-03 NODE          29 -99.9%  0.2587E-04  0.9788E-05  0.2566E-06 -0.1338E-06   0.000    
   787  0.3422      0.4348E-03 NODE          29 -99.9%  0.2600E-04  0.9819E-05  0.2573E-06 -0.1343E-06   0.000    
   788  0.3426      0.4348E-03 NODE          29 -99.9%  0.2613E-04  0.9849E-05  0.2580E-06 -0.1347E-06   0.000    
   789  0.3431      0.4348E-03 NODE          29 -99.9%  0.2626E-04  0.9880E-05  0.2588E-06 -0.1352E-06   0.000    
   790  0.3435      0.4348E-03 NODE          29 -99.9%  0.2640E-04  0.9911E-05  0.2595E-06 -0.1356E-06   0.000    
   791  0.3439      0.4348E-03 NODE          29 -99.9%  0.2653E-04  0.9941E-05  0.2602E-06 -0.1360E-06   0.000    
   792  0.3444      0.4348E-03 NODE          29 -99.9%  0.2666E-04  0.9971E-05  0.2609E-06 -0.1365E-06   0.000    
   793  0.3448      0.4348E-03 NODE          29 -99.9%  0.2680E-04  0.1000E-04  0.2615E-06 -0.1369E-06   0.000    
   794  0.3452      0.4348E-03 NODE          29 -99.9%  0.2693E-04  0.1003E-04  0.2622E-06 -0.1374E-06   0.000    
   795  0.3457      0.4348E-03 NODE          29 -99.9%  0.2707E-04  0.1006E-04  0.2629E-06 -0.1378E-06   0.000    
   796  0.3461      0.4348E-03 NODE          29 -99.9%  0.2720E-04  0.1009E-04  0.2635E-06 -0.1383E-06   0.000    
   797  0.3465      0.4348E-03 NODE          29 -99.9%  0.2734E-04  0.1012E-04  0.2642E-06 -0.1387E-06   0.000    
   798  0.3470      0.4348E-03 NODE          29 -99.9%  0.2748E-04  0.1015E-04  0.2648E-06 -0.1392E-06   0.000    
   799  0.3474      0.4348E-03 NODE          29 -99.9%  0.2761E-04  0.1018E-04  0.2655E-06 -0.1397E-06   0.000    
   800  0.3478      0.4348E-03 NODE          29 -99.9%  0.2775E-04  0.1021E-04  0.2661E-06 -0.1401E-06   0.000    
   801  0.3483      0.4348E-03 NODE          29 -99.9%  0.2789E-04  0.1024E-04  0.2667E-06 -0.1406E-06   0.000    
   802  0.3487      0.4348E-03 NODE          29 -99.9%  0.2803E-04  0.1027E-04  0.2673E-06 -0.1410E-06   0.000    
   803  0.3491      0.4348E-03 NODE          29 -99.9%  0.2817E-04  0.1030E-04  0.2679E-06 -0.1415E-06   0.000    
   804  0.3496      0.4348E-03 NODE          29 -99.9%  0.2831E-04  0.1032E-04  0.2685E-06 -0.1420E-06   0.000    
   805  0.3500      0.4348E-03 NODE          29 -99.9%  0.2845E-04  0.1035E-04  0.2690E-06 -0.1424E-06   0.000    
   806  0.3505      0.4348E-03 NODE          29 -99.9%  0.2859E-04  0.1038E-04  0.2696E-06 -0.1429E-06   0.000    
   807  0.3509      0.4348E-03 NODE          29 -99.9%  0.2873E-04  0.1041E-04  0.2702E-06 -0.1433E-06   0.000    
   808  0.3513      0.4348E-03 NODE          29 -99.9%  0.2887E-04  0.1043E-04  0.2707E-06 -0.1438E-06   0.000    
   809  0.3518      0.4348E-03 NODE          29 -99.9%  0.2901E-04  0.1046E-04  0.2712E-06 -0.1443E-06   0.000    
   810  0.3522      0.4348E-03 NODE          29 -99.9%  0.2916E-04  0.1049E-04  0.2718E-06 -0.1448E-06   0.000    
   811  0.3526      0.4348E-03 NODE          29 -99.9%  0.2930E-04  0.1051E-04  0.2723E-06 -0.1452E-06   0.000    
   812  0.3531      0.4348E-03 NODE          29 -99.9%  0.2944E-04  0.1054E-04  0.2728E-06 -0.1457E-06   0.000    
   813  0.3535      0.4348E-03 NODE          29 -99.9%  0.2959E-04  0.1057E-04  0.2733E-06 -0.1462E-06   0.000    
   814  0.3539      0.4348E-03 NODE          29 -99.9%  0.2973E-04  0.1059E-04  0.2738E-06 -0.1466E-06   0.000    
   815  0.3544      0.4348E-03 NODE          29 -99.9%  0.2988E-04  0.1062E-04  0.2742E-06 -0.1471E-06   0.000    
   816  0.3548      0.4348E-03 NODE          29 -99.9%  0.3003E-04  0.1064E-04  0.2747E-06 -0.1476E-06   0.000    
   817  0.3552      0.4348E-03 NODE          29 -99.9%  0.3017E-04  0.1067E-04  0.2752E-06 -0.1481E-06   0.000    
   818  0.3557      0.4348E-03 NODE          29 -99.9%  0.3032E-04  0.1069E-04  0.2756E-06 -0.1485E-06   0.000    
   819  0.3561      0.4348E-03 NODE          29 -99.9%  0.3047E-04  0.1071E-04  0.2761E-06 -0.1490E-06   0.000    
   820  0.3565      0.4348E-03 NODE          29 -99.9%  0.3062E-04  0.1074E-04  0.2765E-06 -0.1495E-06   0.000    
   821  0.3570      0.4348E-03 NODE          29 -99.9%  0.3077E-04  0.1076E-04  0.2769E-06 -0.1500E-06   0.000    
   822  0.3574      0.4348E-03 NODE          29 -99.9%  0.3092E-04  0.1078E-04  0.2774E-06 -0.1504E-06   0.000    
   823  0.3578      0.4348E-03 NODE          29 -99.9%  0.3107E-04  0.1081E-04  0.2778E-06 -0.1509E-06   0.000    
   824  0.3583      0.4348E-03 NODE          29 -99.9%  0.3122E-04  0.1083E-04  0.2782E-06 -0.1514E-06   0.000    
 CYCLE    TIME      TIME-STEP  ELEMENT          ERROR  I-ENERGY    K-ENERGY T  K-ENERGY R  EXT-WORK MAS.ERR
   825  0.3587      0.4348E-03 NODE          29 -99.9%  0.3137E-04  0.1085E-04  0.2786E-06 -0.1519E-06   0.000    
   826  0.3591      0.4348E-03 NODE          29 -99.9%  0.3152E-04  0.1087E-04  0.2790E-06 -0.1524E-06   0.000    
   827  0.3596      0.4348E-03 NODE          29 -99.9%  0.3167E-04  0.1090E-04  0.2794E-06 -0.1528E-06   0.000    
   828  0.3600      0.4348E-03 NODE          29 -99.9%  0.3183E-04  0.1092E-04  0.2798E-06 -0.1533E-06   0.000    
   829  0.3604      0.4348E-03 NODE          29 -99.9%  0.3198E-04  0.1094E-04  0.2802E-06 -0.1538E-06   0.000    
   830  0.3609      0.4348E-03 NODE          29 -99.9%  0.3213E-04  0.1096E-04  0.2805E-06 -0.1543E-06   0.000    
   831  0.3613      0.4348E-03 NODE          29 -99.9%  0.3229E-04  0.1098E-04  0.2809E-06 -0.1548E-06   0.000    
   832  0.3618      0.4348E-03 NODE          35 -99.9%  0.3244E-04  0.1100E-04  0.2813E-06 -0.1552E-06   0.000    
   833  0.3622      0.4348E-03 NODE          29 -99.9%  0.3260E-04  0.1102E-04  0.2817E-06 -0.1557E-06   0.000    
   834  0.3626      0.4348E-03 NODE          29 -99.9%  0.3276E-04  0.1104E-04  0.2820E-06 -0.1562E-06   0.000    
   835  0.3631      0.4348E-03 NODE          35 -99.9%  0.3291E-04  0.1106E-04  0.2824E-06 -0.1567E-06   0.000    
   836  0.3635      0.4348E-03 NODE          29 -99.9%  0.3307E-04  0.1108E-04  0.2828E-06 -0.1572E-06   0.000    
   837  0.3639      0.4348E-03 NODE          29 -99.9%  0.3323E-04  0.1110E-04  0.2831E-06 -0.1577E-06   0.000    
   838  0.3644      0.4348E-03 NODE          29 -99.9%  0.3339E-04  0.1111E-04  0.2835E-06 -0.1582E-06   0.000    
   839  0.3648      0.4348E-03 NODE          29 -99.9%  0.3355E-04  0.1113E-04  0.2839E-06 -0.1587E-06   0.000    
   840  0.3652      0.4348E-03 NODE          29 -99.9%  0.3371E-04  0.1115E-04  0.2842E-06 -0.1591E-06   0.000    
   841  0.3657      0.4348E-03 NODE          29 -99.9%  0.3387E-04  0.1117E-04  0.2846E-06 -0.1596E-06   0.000    
   842  0.3661      0.4348E-03 NODE          29 -99.9%  0.3403E-04  0.1119E-04  0.2849E-06 -0.1601E-06   0.000    
   843  0.3665      0.4348E-03 NODE          29 -99.9%  0.3419E-04  0.1121E-04  0.2853E-06 -0.1606E-06   0.000    
   844  0.3670      0.4348E-03 NODE          29 -99.9%  0.3435E-04  0.1122E-04  0.2857E-06 -0.1611E-06   0.000    
   845  0.3674      0.4348E-03 NODE          29 -99.9%  0.3452E-04  0.1124E-04  0.2860E-06 -0.1616E-06   0.000    
   846  0.3678      0.4348E-03 NODE          29 -99.9%  0.3468E-04  0.1126E-04  0.2864E-06 -0.1621E-06   0.000    
   847  0.3683      0.4348E-03 NODE          29 -99.9%  0.3484E-04  0.1128E-04  0.2867E-06 -0.1626E-06   0.000    
   848  0.3687      0.4348E-03 NODE          29 -99.9%  0.3501E-04  0.1129E-04  0.2871E-06 -0.1631E-06   0.000    
   849  0.3691      0.4348E-03 NODE          29 -99.9%  0.3517E-04  0.1131E-04  0.2875E-06 -0.1636E-06   0.000    
   850  0.3696      0.4348E-03 NODE          29 -99.9%  0.3534E-04  0.1133E-04  0.2878E-06 -0.1641E-06   0.000    
   851  0.3700      0.4348E-03 NODE          29 -99.9%  0.3551E-04  0.1134E-04  0.2882E-06 -0.1646E-06   0.000    
   852  0.3704      0.4348E-03 NODE          29 -99.9%  0.3567E-04  0.1136E-04  0.2886E-06 -0.1651E-06   0.000    
   853  0.3709      0.4348E-03 NODE          29 -99.9%  0.3584E-04  0.1138E-04  0.2889E-06 -0.1656E-06   0.000    
   854  0.3713      0.4348E-03 NODE          29 -99.9%  0.3601E-04  0.1139E-04  0.2893E-06 -0.1660E-06   0.000    
   855  0.3718      0.4348E-03 NODE          35 -99.9%  0.3618E-04  0.1141E-04  0.2896E-06 -0.1665E-06   0.000    
   856  0.3722      0.4348E-03 NODE          29 -99.9%  0.3635E-04  0.1143E-04  0.2900E-06 -0.1670E-06   0.000    
   857  0.3726      0.4348E-03 NODE          35 -99.9%  0.3652E-04  0.1144E-04  0.2904E-06 -0.1675E-06   0.000    
   858  0.3731      0.4348E-03 NODE          29 -99.9%  0.3669E-04  0.1146E-04  0.2907E-06 -0.1681E-06   0.000    
   859  0.3735      0.4348E-03 NODE          29 -99.9%  0.3686E-04  0.1148E-04  0.2911E-06 -0.1686E-06   0.000    
   860  0.3739      0.4348E-03 NODE          35 -99.9%  0.3703E-04  0.1149E-04  0.2915E-06 -0.1691E-06   0.000    
   861  0.3744      0.4348E-03 NODE          29 -99.9%  0.3720E-04  0.1151E-04  0.2918E-06 -0.1696E-06   0.000    
   862  0.3748      0.4348E-03 NODE          29 -99.9%  0.3738E-04  0.1152E-04  0.2922E-06 -0.1701E-06   0.000    
   863  0.3752      0.4348E-03 NODE          29 -99.9%  0.3755E-04  0.1154E-04  0.2925E-06 -0.1706E-06   0.000    
   864  0.3757      0.4348E-03 NODE          29 -99.9%  0.3772E-04  0.1156E-04  0.2929E-06 -0.1711E-06   0.000    
   865  0.3761      0.4348E-03 NODE          29 -99.9%  0.3790E-04  0.1157E-04  0.2933E-06 -0.1716E-06   0.000    
   866  0.3765      0.4348E-03 NODE          29 -99.9%  0.3807E-04  0.1159E-04  0.2936E-06 -0.1721E-06   0.000    
   867  0.3770      0.4348E-03 NODE          29 -99.9%  0.3825E-04  0.1160E-04  0.2940E-06 -0.1726E-06   0.000    
   868  0.3774      0.4348E-03 NODE          29 -99.9%  0.3843E-04  0.1162E-04  0.2943E-06 -0.1731E-06   0.000    
   869  0.3778      0.4348E-03 NODE          29 -99.9%  0.3861E-04  0.1164E-04  0.2947E-06 -0.1736E-06   0.000    
   870  0.3783      0.4348E-03 NODE          29 -99.9%  0.3878E-04  0.1165E-04  0.2950E-06 -0.1741E-06   0.000    
   871  0.3787      0.4348E-03 NODE          29 -99.9%  0.3896E-04  0.1167E-04  0.2953E-06 -0.1747E-06   0.000    
   872  0.3791      0.4348E-03 NODE          29 -99.9%  0.3914E-04  0.1169E-04  0.2957E-06 -0.1752E-06   0.000    
   873  0.3796      0.4348E-03 NODE          29 -99.9%  0.3932E-04  0.1170E-04  0.2960E-06 -0.1757E-06   0.000    
   874  0.3800      0.4348E-03 NODE          29 -99.9%  0.3950E-04  0.1172E-04  0.2963E-06 -0.1762E-06   0.000    
   875  0.3804      0.4348E-03 NODE          29 -99.9%  0.3968E-04  0.1173E-04  0.2967E-06 -0.1767E-06   0.000    
   876  0.3809      0.4348E-03 NODE          29 -99.9%  0.3986E-04  0.1175E-04  0.2970E-06 -0.1772E-06   0.000    
   877  0.3813      0.4348E-03 NODE          29 -99.9%  0.4005E-04  0.1177E-04  0.2973E-06 -0.1778E-06   0.000    
   878  0.3818      0.4348E-03 NODE          29 -99.9%  0.4023E-04  0.1178E-04  0.2976E-06 -0.1783E-06   0.000    
   879  0.3822      0.4348E-03 NODE          35 -99.9%  0.4041E-04  0.1180E-04  0.2979E-06 -0.1788E-06   0.000    
 CYCLE    TIME      TIME-STEP  ELEMENT          ERROR  I-ENERGY    K-ENERGY T  K-ENERGY R  EXT-WORK MAS.ERR
   880  0.3826      0.4348E-03 NODE          29 -99.9%  0.4060E-04  0.1181E-04  0.2982E-06 -0.1793E-06   0.000    
   881  0.3831      0.4348E-03 NODE          29 -99.9%  0.4078E-04  0.1183E-04  0.2985E-06 -0.1799E-06   0.000    
   882  0.3835      0.4348E-03 NODE          29 -99.9%  0.4097E-04  0.1185E-04  0.2988E-06 -0.1804E-06   0.000    
   883  0.3839      0.4348E-03 NODE          35 -99.9%  0.4115E-04  0.1186E-04  0.2991E-06 -0.1809E-06   0.000    
   884  0.3844      0.4348E-03 NODE          29 -99.9%  0.4134E-04  0.1188E-04  0.2993E-06 -0.1815E-06   0.000    
   885  0.3848      0.4348E-03 NODE          29 -99.9%  0.4153E-04  0.1190E-04  0.2996E-06 -0.1820E-06   0.000    
   886  0.3852      0.4348E-03 NODE          29 -99.9%  0.4172E-04  0.1191E-04  0.2999E-06 -0.1825E-06   0.000    
   887  0.3857      0.4348E-03 NODE          29 -99.9%  0.4190E-04  0.1193E-04  0.3001E-06 -0.1830E-06   0.000    
   888  0.3861      0.4348E-03 NODE          29 -99.9%  0.4209E-04  0.1194E-04  0.3004E-06 -0.1836E-06   0.000    
   889  0.3865      0.4348E-03 NODE          29 -99.9%  0.4228E-04  0.1196E-04  0.3007E-06 -0.1841E-06   0.000    
   890  0.3870      0.4348E-03 NODE          29 -99.9%  0.4247E-04  0.1198E-04  0.3009E-06 -0.1847E-06   0.000    
   891  0.3874      0.4348E-03 NODE          29 -99.9%  0.4267E-04  0.1199E-04  0.3011E-06 -0.1852E-06   0.000    
   892  0.3878      0.4348E-03 NODE          29 -99.9%  0.4286E-04  0.1201E-04  0.3014E-06 -0.1857E-06   0.000    
   893  0.3883      0.4348E-03 NODE          29 -99.9%  0.4305E-04  0.1203E-04  0.3016E-06 -0.1863E-06   0.000    
   894  0.3887      0.4348E-03 NODE          29 -99.9%  0.4324E-04  0.1205E-04  0.3018E-06 -0.1868E-06   0.000    
   895  0.3891      0.4348E-03 NODE          29 -99.9%  0.4344E-04  0.1206E-04  0.3021E-06 -0.1874E-06   0.000    
   896  0.3896      0.4348E-03 NODE          29 -99.9%  0.4363E-04  0.1208E-04  0.3023E-06 -0.1879E-06   0.000    
   897  0.3900      0.4348E-03 NODE          29 -99.9%  0.4383E-04  0.1210E-04  0.3025E-06 -0.1885E-06   0.000    
   898  0.3904      0.4348E-03 NODE          29 -99.9%  0.4402E-04  0.1211E-04  0.3027E-06 -0.1890E-06   0.000    
   899  0.3909      0.4348E-03 NODE          29 -99.9%  0.4422E-04  0.1213E-04  0.3029E-06 -0.1895E-06   0.000    
   900  0.3913      0.4348E-03 NODE          29 -99.9%  0.4442E-04  0.1215E-04  0.3031E-06 -0.1901E-06   0.000    
   901  0.3918      0.4348E-03 NODE          29 -99.9%  0.4461E-04  0.1217E-04  0.3034E-06 -0.1906E-06   0.000    
   902  0.3922      0.4348E-03 NODE          29 -99.9%  0.4481E-04  0.1219E-04  0.3036E-06 -0.1912E-06   0.000    
   903  0.3926      0.4348E-03 NODE          29 -99.9%  0.4501E-04  0.1221E-04  0.3038E-06 -0.1917E-06   0.000    
   904  0.3931      0.4348E-03 NODE          29 -99.9%  0.4521E-04  0.1222E-04  0.3040E-06 -0.1923E-06   0.000    
   905  0.3935      0.4348E-03 NODE          29 -99.9%  0.4541E-04  0.1224E-04  0.3042E-06 -0.1929E-06   0.000    
   906  0.3939      0.4348E-03 NODE          29 -99.9%  0.4561E-04  0.1226E-04  0.3044E-06 -0.1934E-06   0.000    
   907  0.3944      0.4348E-03 NODE          29 -99.9%  0.4581E-04  0.1228E-04  0.3046E-06 -0.1940E-06   0.000    
   908  0.3948      0.4348E-03 NODE          29 -99.9%  0.4602E-04  0.1230E-04  0.3048E-06 -0.1945E-06   0.000    
   909  0.3952      0.4348E-03 NODE          29 -99.9%  0.4622E-04  0.1232E-04  0.3051E-06 -0.1951E-06   0.000    
   910  0.3957      0.4348E-03 NODE          29 -99.9%  0.4642E-04  0.1234E-04  0.3053E-06 -0.1957E-06   0.000    
   911  0.3961      0.4348E-03 NODE          29 -99.9%  0.4663E-04  0.1236E-04  0.3055E-06 -0.1962E-06   0.000    
   912  0.3965      0.4348E-03 NODE          29 -99.9%  0.4683E-04  0.1238E-04  0.3057E-06 -0.1968E-06   0.000    
   913  0.3970      0.4348E-03 NODE          29 -99.9%  0.4704E-04  0.1240E-04  0.3060E-06 -0.1973E-06   0.000    
   914  0.3974      0.4348E-03 NODE          29 -99.9%  0.4725E-04  0.1242E-04  0.3062E-06 -0.1979E-06   0.000    
   915  0.3978      0.4348E-03 NODE          29 -99.9%  0.4745E-04  0.1244E-04  0.3064E-06 -0.1985E-06   0.000    
   916  0.3983      0.4348E-03 NODE          29 -99.9%  0.4766E-04  0.1246E-04  0.3067E-06 -0.1991E-06   0.000    
   917  0.3987      0.4348E-03 NODE          29 -99.9%  0.4787E-04  0.1249E-04  0.3070E-06 -0.1996E-06   0.000    
   918  0.3991      0.4348E-03 NODE          29 -99.9%  0.4808E-04  0.1251E-04  0.3072E-06 -0.2002E-06   0.000    
   919  0.3996      0.4348E-03 NODE          29 -99.9%  0.4829E-04  0.1253E-04  0.3075E-06 -0.2008E-06   0.000    
   920  0.4000      0.4348E-03 NODE          29 -99.9%  0.4850E-04  0.1255E-04  0.3078E-06 -0.2013E-06   0.000    
     ANIMATION FILE: FFO25SCBA003 WRITTEN
     OUTPUT FILE: FFO25SCB_0003.sty WRITTEN
   921  0.4004      0.4348E-03 NODE          29 -99.9%  0.4871E-04  0.1258E-04  0.3081E-06 -0.2019E-06   0.000    
   922  0.4009      0.4348E-03 NODE          29 -99.9%  0.4892E-04  0.1260E-04  0.3084E-06 -0.2025E-06   0.000    
   923  0.4013      0.4348E-03 NODE          29 -99.9%  0.4914E-04  0.1262E-04  0.3087E-06 -0.2031E-06   0.000    
   924  0.4018      0.4348E-03 NODE          29 -99.9%  0.4935E-04  0.1265E-04  0.3090E-06 -0.2037E-06   0.000    
   925  0.4022      0.4348E-03 NODE          29 -99.9%  0.4956E-04  0.1267E-04  0.3093E-06 -0.2042E-06   0.000    
   926  0.4026      0.4348E-03 NODE          29 -99.9%  0.4978E-04  0.1270E-04  0.3097E-06 -0.2048E-06   0.000    
   927  0.4031      0.4348E-03 NODE          29 -99.9%  0.4999E-04  0.1272E-04  0.3100E-06 -0.2054E-06   0.000    
   928  0.4035      0.4348E-03 NODE          29 -99.9%  0.5021E-04  0.1274E-04  0.3104E-06 -0.2060E-06   0.000    
   929  0.4039      0.4348E-03 NODE          29 -99.9%  0.5043E-04  0.1277E-04  0.3107E-06 -0.2066E-06   0.000    
   930  0.4044      0.4348E-03 NODE          29 -99.9%  0.5065E-04  0.1280E-04  0.3111E-06 -0.2072E-06   0.000    
   931  0.4048      0.4348E-03 NODE          29 -99.9%  0.5086E-04  0.1282E-04  0.3115E-06 -0.2078E-06   0.000    
   932  0.4052      0.4348E-03 NODE          29 -99.9%  0.5108E-04  0.1285E-04  0.3119E-06 -0.2084E-06   0.000    
   933  0.4057      0.4348E-03 NODE          29 -99.9%  0.5130E-04  0.1287E-04  0.3123E-06 -0.2090E-06   0.000    
   934  0.4061      0.4348E-03 NODE          29 -99.9%  0.5152E-04  0.1290E-04  0.3127E-06 -0.2095E-06   0.000    
 CYCLE    TIME      TIME-STEP  ELEMENT          ERROR  I-ENERGY    K-ENERGY T  K-ENERGY R  EXT-WORK MAS.ERR
   935  0.4065      0.4348E-03 NODE          29 -99.9%  0.5174E-04  0.1293E-04  0.3132E-06 -0.2101E-06   0.000    
   936  0.4070      0.4348E-03 NODE          29 -99.9%  0.5197E-04  0.1295E-04  0.3136E-06 -0.2107E-06   0.000    
   937  0.4074      0.4348E-03 NODE          29 -99.9%  0.5219E-04  0.1298E-04  0.3141E-06 -0.2113E-06   0.000    
   938  0.4078      0.4348E-03 NODE          29 -99.9%  0.5241E-04  0.1301E-04  0.3146E-06 -0.2119E-06   0.000    
   939  0.4083      0.4348E-03 NODE          29 -99.9%  0.5264E-04  0.1304E-04  0.3151E-06 -0.2126E-06   0.000    
   940  0.4087      0.4348E-03 NODE          29 -99.9%  0.5286E-04  0.1307E-04  0.3156E-06 -0.2132E-06   0.000    
   941  0.4091      0.4348E-03 NODE          29 -99.9%  0.5309E-04  0.1309E-04  0.3161E-06 -0.2138E-06   0.000    
   942  0.4096      0.4348E-03 NODE          29 -99.9%  0.5331E-04  0.1312E-04  0.3166E-06 -0.2144E-06   0.000    
   943  0.4100      0.4348E-03 NODE          29 -99.9%  0.5354E-04  0.1315E-04  0.3172E-06 -0.2150E-06   0.000    
   944  0.4104      0.4348E-03 NODE          29 -99.9%  0.5377E-04  0.1318E-04  0.3177E-06 -0.2156E-06   0.000    
   945  0.4109      0.4348E-03 NODE          29 -99.9%  0.5400E-04  0.1321E-04  0.3183E-06 -0.2162E-06   0.000    
   946  0.4113      0.4348E-03 NODE          29 -99.9%  0.5423E-04  0.1324E-04  0.3188E-06 -0.2168E-06   0.000    
   947  0.4118      0.4348E-03 NODE          29 -99.9%  0.5446E-04  0.1327E-04  0.3194E-06 -0.2174E-06   0.000    
   948  0.4122      0.4348E-03 NODE          29 -99.9%  0.5469E-04  0.1330E-04  0.3200E-06 -0.2180E-06   0.000    
   949  0.4126      0.4348E-03 NODE          29 -99.9%  0.5492E-04  0.1333E-04  0.3207E-06 -0.2187E-06   0.000    
   950  0.4131      0.4348E-03 NODE          29 -99.9%  0.5515E-04  0.1336E-04  0.3213E-06 -0.2193E-06   0.000    
   951  0.4135      0.4348E-03 NODE          29 -99.9%  0.5538E-04  0.1339E-04  0.3219E-06 -0.2199E-06   0.000    
   952  0.4139      0.4348E-03 NODE          29 -99.9%  0.5562E-04  0.1342E-04  0.3226E-06 -0.2205E-06   0.000    
   953  0.4144      0.4348E-03 NODE          29 -99.9%  0.5585E-04  0.1345E-04  0.3232E-06 -0.2212E-06   0.000    
   954  0.4148      0.4348E-03 NODE          29 -99.9%  0.5609E-04  0.1348E-04  0.3239E-06 -0.2218E-06   0.000    
   955  0.4152      0.4348E-03 NODE          29 -99.9%  0.5632E-04  0.1351E-04  0.3246E-06 -0.2224E-06   0.000    
   956  0.4157      0.4348E-03 NODE          29 -99.9%  0.5656E-04  0.1354E-04  0.3253E-06 -0.2230E-06   0.000    
   957  0.4161      0.4348E-03 NODE          29 -99.9%  0.5680E-04  0.1357E-04  0.3260E-06 -0.2237E-06   0.000    
   958  0.4165      0.4348E-03 NODE          35 -99.9%  0.5704E-04  0.1360E-04  0.3268E-06 -0.2243E-06   0.000    
   959  0.4170      0.4348E-03 NODE          29 -99.9%  0.5727E-04  0.1364E-04  0.3275E-06 -0.2249E-06   0.000    
   960  0.4174      0.4348E-03 NODE          29 -99.9%  0.5751E-04  0.1367E-04  0.3283E-06 -0.2256E-06   0.000    
   961  0.4178      0.4348E-03 NODE          29 -99.9%  0.5775E-04  0.1370E-04  0.3290E-06 -0.2262E-06   0.000    
   962  0.4183      0.4348E-03 NODE          29 -99.9%  0.5800E-04  0.1373E-04  0.3298E-06 -0.2268E-06   0.000    
   963  0.4187      0.4348E-03 NODE          29 -99.9%  0.5824E-04  0.1376E-04  0.3306E-06 -0.2275E-06   0.000    
   964  0.4191      0.4348E-03 NODE          35 -99.9%  0.5848E-04  0.1380E-04  0.3314E-06 -0.2281E-06   0.000    
   965  0.4196      0.4348E-03 NODE          29 -99.9%  0.5872E-04  0.1383E-04  0.3322E-06 -0.2288E-06   0.000    
   966  0.4200      0.4348E-03 NODE          35 -99.9%  0.5897E-04  0.1386E-04  0.3331E-06 -0.2294E-06   0.000    
   967  0.4204      0.4348E-03 NODE          29 -99.9%  0.5921E-04  0.1389E-04  0.3339E-06 -0.2300E-06   0.000    
   968  0.4209      0.4348E-03 NODE          29 -99.9%  0.5946E-04  0.1392E-04  0.3348E-06 -0.2307E-06   0.000    
   969  0.4213      0.4348E-03 NODE          29 -99.9%  0.5971E-04  0.1396E-04  0.3356E-06 -0.2313E-06   0.000    
   970  0.4218      0.4348E-03 NODE          29 -99.9%  0.5995E-04  0.1399E-04  0.3365E-06 -0.2320E-06   0.000    
   971  0.4222      0.4348E-03 NODE          29 -99.9%  0.6020E-04  0.1402E-04  0.3374E-06 -0.2326E-06   0.000    
   972  0.4226      0.4348E-03 NODE          29 -99.9%  0.6045E-04  0.1406E-04  0.3383E-06 -0.2333E-06   0.000    
   973  0.4231      0.4348E-03 NODE          29 -99.9%  0.6070E-04  0.1409E-04  0.3393E-06 -0.2339E-06   0.000    
   974  0.4235      0.4348E-03 NODE          29 -99.9%  0.6095E-04  0.1412E-04  0.3402E-06 -0.2346E-06   0.000    
   975  0.4239      0.4348E-03 NODE          29 -99.9%  0.6120E-04  0.1415E-04  0.3411E-06 -0.2352E-06   0.000    
   976  0.4244      0.4348E-03 NODE          29 -99.9%  0.6145E-04  0.1419E-04  0.3421E-06 -0.2359E-06   0.000    
   977  0.4248      0.4348E-03 NODE          29 -99.9%  0.6171E-04  0.1422E-04  0.3431E-06 -0.2365E-06   0.000    
   978  0.4252      0.4348E-03 NODE          29 -99.9%  0.6196E-04  0.1426E-04  0.3441E-06 -0.2372E-06   0.000    
   979  0.4257      0.4348E-03 NODE          29 -99.9%  0.6221E-04  0.1429E-04  0.3451E-06 -0.2378E-06   0.000    
   980  0.4261      0.4348E-03 NODE          29 -99.9%  0.6247E-04  0.1432E-04  0.3461E-06 -0.2385E-06   0.000    
   981  0.4265      0.4348E-03 NODE          29 -99.9%  0.6272E-04  0.1436E-04  0.3471E-06 -0.2392E-06   0.000    
   982  0.4270      0.4348E-03 NODE          29 -99.9%  0.6298E-04  0.1439E-04  0.3482E-06 -0.2398E-06   0.000    
   983  0.4274      0.4348E-03 NODE          29 -99.9%  0.6324E-04  0.1443E-04  0.3492E-06 -0.2405E-06   0.000    
   984  0.4278      0.4348E-03 NODE          29 -99.9%  0.6350E-04  0.1446E-04  0.3503E-06 -0.2411E-06   0.000    
   985  0.4283      0.4348E-03 NODE          29 -99.9%  0.6376E-04  0.1449E-04  0.3514E-06 -0.2418E-06   0.000    
   986  0.4287      0.4348E-03 NODE          29 -99.9%  0.6401E-04  0.1453E-04  0.3525E-06 -0.2425E-06   0.000    
   987  0.4291      0.4348E-03 NODE          29 -99.9%  0.6428E-04  0.1456E-04  0.3536E-06 -0.2431E-06   0.000    
   988  0.4296      0.4348E-03 NODE          29 -99.9%  0.6454E-04  0.1460E-04  0.3547E-06 -0.2438E-06   0.000    
   989  0.4300      0.4348E-03 NODE          29 -99.9%  0.6480E-04  0.1463E-04  0.3559E-06 -0.2445E-06   0.000    
 CYCLE    TIME      TIME-STEP  ELEMENT          ERROR  I-ENERGY    K-ENERGY T  K-ENERGY R  EXT-WORK MAS.ERR
   990  0.4304      0.4348E-03 NODE          29 -99.9%  0.6506E-04  0.1467E-04  0.3570E-06 -0.2451E-06   0.000    
   991  0.4309      0.4348E-03 NODE          29 -99.9%  0.6533E-04  0.1471E-04  0.3582E-06 -0.2458E-06   0.000    
   992  0.4313      0.4348E-03 NODE          29 -99.9%  0.6559E-04  0.1474E-04  0.3594E-06 -0.2465E-06   0.000    
   993  0.4318      0.4348E-03 NODE          29 -99.9%  0.6585E-04  0.1478E-04  0.3606E-06 -0.2471E-06   0.000    
   994  0.4322      0.4348E-03 NODE          29 -99.9%  0.6612E-04  0.1481E-04  0.3618E-06 -0.2478E-06   0.000    
   995  0.4326      0.4348E-03 NODE          29 -99.9%  0.6639E-04  0.1485E-04  0.3630E-06 -0.2485E-06   0.000    
   996  0.4331      0.4348E-03 NODE          29 -99.9%  0.6666E-04  0.1489E-04  0.3642E-06 -0.2492E-06   0.000    
   997  0.4335      0.4348E-03 NODE          29 -99.9%  0.6692E-04  0.1492E-04  0.3654E-06 -0.2498E-06   0.000    
   998  0.4339      0.4348E-03 NODE          29 -99.9%  0.6719E-04  0.1496E-04  0.3667E-06 -0.2505E-06   0.000    
   999  0.4344      0.4348E-03 NODE          29 -99.9%  0.6746E-04  0.1500E-04  0.3680E-06 -0.2512E-06   0.000    
  1000  0.4348      0.4348E-03 NODE          29 -99.9%  0.6773E-04  0.1503E-04  0.3692E-06 -0.2519E-06   0.000    
  1001  0.4352      0.4348E-03 NODE          29 -99.9%  0.6801E-04  0.1507E-04  0.3705E-06 -0.2526E-06   0.000    
  1002  0.4357      0.4348E-03 NODE          29 -99.9%  0.6828E-04  0.1511E-04  0.3718E-06 -0.2532E-06   0.000    
  1003  0.4361      0.4348E-03 NODE          29 -99.9%  0.6855E-04  0.1515E-04  0.3731E-06 -0.2539E-06   0.000    
  1004  0.4365      0.4348E-03 NODE          29 -99.9%  0.6882E-04  0.1518E-04  0.3744E-06 -0.2546E-06   0.000    
  1005  0.4370      0.4348E-03 NODE          29 -99.9%  0.6910E-04  0.1522E-04  0.3757E-06 -0.2553E-06   0.000    
  1006  0.4374      0.4348E-03 NODE          29 -99.9%  0.6938E-04  0.1526E-04  0.3771E-06 -0.2560E-06   0.000    
  1007  0.4378      0.4348E-03 NODE          29 -99.9%  0.6965E-04  0.1530E-04  0.3784E-06 -0.2567E-06   0.000    
  1008  0.4383      0.4348E-03 NODE          29 -99.9%  0.6993E-04  0.1534E-04  0.3797E-06 -0.2574E-06   0.000    
  1009  0.4387      0.4348E-03 NODE          29 -99.9%  0.7021E-04  0.1538E-04  0.3811E-06 -0.2581E-06   0.000    
  1010  0.4391      0.4348E-03 NODE          29 -99.9%  0.7049E-04  0.1542E-04  0.3825E-06 -0.2587E-06   0.000    
  1011  0.4396      0.4348E-03 NODE          29 -99.9%  0.7077E-04  0.1545E-04  0.3838E-06 -0.2594E-06   0.000    
  1012  0.4400      0.4348E-03 NODE          29 -99.9%  0.7105E-04  0.1549E-04  0.3852E-06 -0.2601E-06   0.000    
  1013  0.4404      0.4348E-03 NODE          29 -99.9%  0.7133E-04  0.1553E-04  0.3866E-06 -0.2608E-06   0.000    
  1014  0.4409      0.4348E-03 NODE          29 -99.9%  0.7161E-04  0.1557E-04  0.3879E-06 -0.2615E-06   0.000    
  1015  0.4413      0.4348E-03 NODE          29 -99.9%  0.7189E-04  0.1561E-04  0.3893E-06 -0.2622E-06   0.000    
  1016  0.4417      0.4348E-03 NODE          29 -99.9%  0.7218E-04  0.1565E-04  0.3907E-06 -0.2629E-06   0.000    
  1017  0.4422      0.4348E-03 NODE          29 -99.9%  0.7246E-04  0.1569E-04  0.3921E-06 -0.2636E-06   0.000    
  1018  0.4426      0.4348E-03 NODE          29 -99.9%  0.7275E-04  0.1573E-04  0.3935E-06 -0.2643E-06   0.000    
  1019  0.4431      0.4348E-03 NODE          29 -99.9%  0.7303E-04  0.1577E-04  0.3949E-06 -0.2651E-06   0.000    
  1020  0.4435      0.4348E-03 NODE          29 -99.9%  0.7332E-04  0.1581E-04  0.3963E-06 -0.2658E-06   0.000    
  1021  0.4439      0.4348E-03 NODE          29 -99.9%  0.7361E-04  0.1585E-04  0.3977E-06 -0.2665E-06   0.000    
  1022  0.4444      0.4348E-03 NODE          29 -99.9%  0.7390E-04  0.1589E-04  0.3991E-06 -0.2672E-06   0.000    
  1023  0.4448      0.4348E-03 NODE          35 -99.9%  0.7419E-04  0.1594E-04  0.4005E-06 -0.2679E-06   0.000    
  1024  0.4452      0.4348E-03 NODE          29 -99.9%  0.7448E-04  0.1598E-04  0.4019E-06 -0.2686E-06   0.000    
  1025  0.4457      0.4348E-03 NODE          29 -99.9%  0.7477E-04  0.1602E-04  0.4033E-06 -0.2693E-06   0.000    
  1026  0.4461      0.4348E-03 NODE          29 -99.9%  0.7506E-04  0.1606E-04  0.4047E-06 -0.2700E-06   0.000    
  1027  0.4465      0.4348E-03 NODE          29 -99.9%  0.7535E-04  0.1610E-04  0.4061E-06 -0.2708E-06   0.000    
  1028  0.4470      0.4348E-03 NODE          29 -99.9%  0.7565E-04  0.1614E-04  0.4074E-06 -0.2715E-06   0.000    
  1029  0.4474      0.4348E-03 NODE          29 -99.9%  0.7594E-04  0.1618E-04  0.4088E-06 -0.2722E-06   0.000    
  1030  0.4478      0.4348E-03 NODE          29 -99.9%  0.7624E-04  0.1622E-04  0.4102E-06 -0.2729E-06   0.000    
  1031  0.4483      0.4348E-03 NODE          29 -99.9%  0.7653E-04  0.1627E-04  0.4116E-06 -0.2736E-06   0.000    
  1032  0.4487      0.4348E-03 NODE          29 -99.9%  0.7683E-04  0.1631E-04  0.4130E-06 -0.2744E-06   0.000    
  1033  0.4491      0.4348E-03 NODE          29 -99.9%  0.7713E-04  0.1635E-04  0.4143E-06 -0.2751E-06   0.000    
  1034  0.4496      0.4348E-03 NODE          29 -99.9%  0.7743E-04  0.1639E-04  0.4157E-06 -0.2758E-06   0.000    
  1035  0.4500      0.4348E-03 NODE          29 -99.9%  0.7773E-04  0.1643E-04  0.4171E-06 -0.2766E-06   0.000    
  1036  0.4504      0.4348E-03 NODE          29 -99.9%  0.7803E-04  0.1647E-04  0.4184E-06 -0.2773E-06   0.000    
  1037  0.4509      0.4348E-03 NODE          29 -99.9%  0.7833E-04  0.1651E-04  0.4198E-06 -0.2780E-06   0.000    
  1038  0.4513      0.4348E-03 NODE          29 -99.9%  0.7863E-04  0.1656E-04  0.4211E-06 -0.2788E-06   0.000    
  1039  0.4517      0.4348E-03 NODE          29 -99.9%  0.7893E-04  0.1660E-04  0.4224E-06 -0.2795E-06   0.000    
  1040  0.4522      0.4348E-03 NODE          35 -99.9%  0.7924E-04  0.1664E-04  0.4238E-06 -0.2802E-06   0.000    
  1041  0.4526      0.4348E-03 NODE          29 -99.9%  0.7954E-04  0.1668E-04  0.4251E-06 -0.2810E-06   0.000    
  1042  0.4531      0.4348E-03 NODE          29 -99.9%  0.7985E-04  0.1672E-04  0.4264E-06 -0.2817E-06   0.000    
  1043  0.4535      0.4348E-03 NODE          29 -99.9%  0.8015E-04  0.1677E-04  0.4277E-06 -0.2825E-06   0.000    
  1044  0.4539      0.4348E-03 NODE          29 -99.9%  0.8046E-04  0.1681E-04  0.4290E-06 -0.2832E-06   0.000    
 CYCLE    TIME      TIME-STEP  ELEMENT          ERROR  I-ENERGY    K-ENERGY T  K-ENERGY R  EXT-WORK MAS.ERR
  1045  0.4544      0.4348E-03 NODE          29 -99.9%  0.8077E-04  0.1685E-04  0.4303E-06 -0.2840E-06   0.000    
  1046  0.4548      0.4348E-03 NODE          29 -99.9%  0.8108E-04  0.1689E-04  0.4316E-06 -0.2847E-06   0.000    
  1047  0.4552      0.4348E-03 NODE          29 -99.9%  0.8139E-04  0.1693E-04  0.4328E-06 -0.2855E-06   0.000    
  1048  0.4557      0.4348E-03 NODE          35 -99.9%  0.8170E-04  0.1698E-04  0.4341E-06 -0.2862E-06   0.000    
  1049  0.4561      0.4348E-03 NODE          29 -99.9%  0.8201E-04  0.1702E-04  0.4354E-06 -0.2870E-06   0.000    
  1050  0.4565      0.4348E-03 NODE          29 -99.9%  0.8232E-04  0.1706E-04  0.4366E-06 -0.2877E-06   0.000    
  1051  0.4570      0.4348E-03 NODE          35 -99.9%  0.8264E-04  0.1710E-04  0.4379E-06 -0.2885E-06   0.000    
  1052  0.4574      0.4348E-03 NODE          29 -99.9%  0.8295E-04  0.1714E-04  0.4391E-06 -0.2892E-06   0.000    
  1053  0.4578      0.4348E-03 NODE          35 -99.9%  0.8327E-04  0.1719E-04  0.4403E-06 -0.2900E-06   0.000    
  1054  0.4583      0.4348E-03 NODE          29 -99.9%  0.8358E-04  0.1723E-04  0.4415E-06 -0.2907E-06   0.000    
  1055  0.4587      0.4348E-03 NODE          29 -99.9%  0.8390E-04  0.1727E-04  0.4427E-06 -0.2915E-06   0.000    
  1056  0.4591      0.4348E-03 NODE          29 -99.9%  0.8422E-04  0.1731E-04  0.4439E-06 -0.2923E-06   0.000    
  1057  0.4596      0.4348E-03 NODE          35 -99.9%  0.8454E-04  0.1735E-04  0.4451E-06 -0.2930E-06   0.000    
  1058  0.4600      0.4348E-03 NODE          35 -99.9%  0.8486E-04  0.1740E-04  0.4463E-06 -0.2938E-06   0.000    
  1059  0.4604      0.4348E-03 NODE          35 -99.9%  0.8518E-04  0.1744E-04  0.4475E-06 -0.2946E-06   0.000    
  1060  0.4609      0.4348E-03 NODE          35 -99.9%  0.8550E-04  0.1748E-04  0.4486E-06 -0.2953E-06   0.000    
  1061  0.4613      0.4348E-03 NODE          35 -99.9%  0.8582E-04  0.1752E-04  0.4498E-06 -0.2961E-06   0.000    
  1062  0.4617      0.4348E-03 NODE          35 -99.9%  0.8614E-04  0.1756E-04  0.4509E-06 -0.2969E-06   0.000    
  1063  0.4622      0.4348E-03 NODE          29 -99.9%  0.8647E-04  0.1760E-04  0.4521E-06 -0.2977E-06   0.000    
  1064  0.4626      0.4348E-03 NODE          35 -99.9%  0.8679E-04  0.1765E-04  0.4532E-06 -0.2984E-06   0.000    
  1065  0.4631      0.4348E-03 NODE          29 -99.9%  0.8712E-04  0.1769E-04  0.4543E-06 -0.2992E-06   0.000    
  1066  0.4635      0.4348E-03 NODE          35 -99.9%  0.8745E-04  0.1773E-04  0.4554E-06 -0.3000E-06   0.000    
  1067  0.4639      0.4348E-03 NODE          35 -99.9%  0.8777E-04  0.1777E-04  0.4565E-06 -0.3008E-06   0.000    
  1068  0.4644      0.4348E-03 NODE          35 -99.9%  0.8810E-04  0.1781E-04  0.4576E-06 -0.3015E-06   0.000    
  1069  0.4648      0.4348E-03 NODE          35 -99.9%  0.8843E-04  0.1785E-04  0.4587E-06 -0.3023E-06   0.000    
  1070  0.4652      0.4348E-03 NODE          35 -99.9%  0.8876E-04  0.1789E-04  0.4598E-06 -0.3031E-06   0.000    
  1071  0.4657      0.4348E-03 NODE          35 -99.9%  0.8909E-04  0.1794E-04  0.4609E-06 -0.3039E-06   0.000    
  1072  0.4661      0.4348E-03 NODE          35 -99.9%  0.8943E-04  0.1798E-04  0.4619E-06 -0.3047E-06   0.000    
  1073  0.4665      0.4348E-03 NODE          35 -99.9%  0.8976E-04  0.1802E-04  0.4630E-06 -0.3055E-06   0.000    
  1074  0.4670      0.4348E-03 NODE          35 -99.9%  0.9009E-04  0.1806E-04  0.4640E-06 -0.3063E-06   0.000    
  1075  0.4674      0.4348E-03 NODE          35 -99.9%  0.9043E-04  0.1810E-04  0.4651E-06 -0.3071E-06   0.000    
  1076  0.4678      0.4348E-03 NODE          29 -99.9%  0.9077E-04  0.1814E-04  0.4661E-06 -0.3079E-06   0.000    
  1077  0.4683      0.4348E-03 NODE          29 -99.9%  0.9110E-04  0.1818E-04  0.4671E-06 -0.3086E-06   0.000    
  1078  0.4687      0.4348E-03 NODE          29 -99.9%  0.9144E-04  0.1822E-04  0.4681E-06 -0.3094E-06   0.000    
  1079  0.4691      0.4348E-03 NODE          35 -99.9%  0.9178E-04  0.1826E-04  0.4691E-06 -0.3102E-06   0.000    
  1080  0.4696      0.4348E-03 NODE          29 -99.9%  0.9212E-04  0.1830E-04  0.4701E-06 -0.3110E-06   0.000    
  1081  0.4700      0.4348E-03 NODE          29 -99.9%  0.9246E-04  0.1834E-04  0.4711E-06 -0.3118E-06   0.000    
  1082  0.4704      0.4348E-03 NODE          29 -99.9%  0.9280E-04  0.1838E-04  0.4721E-06 -0.3126E-06   0.000    
  1083  0.4709      0.4348E-03 NODE          29 -99.9%  0.9315E-04  0.1842E-04  0.4731E-06 -0.3135E-06   0.000    
  1084  0.4713      0.4348E-03 NODE          29 -99.9%  0.9349E-04  0.1846E-04  0.4740E-06 -0.3143E-06   0.000    
  1085  0.4717      0.4348E-03 NODE          29 -99.9%  0.9383E-04  0.1850E-04  0.4750E-06 -0.3151E-06   0.000    
  1086  0.4722      0.4348E-03 NODE          29 -99.9%  0.9418E-04  0.1854E-04  0.4760E-06 -0.3159E-06   0.000    
  1087  0.4726      0.4348E-03 NODE          29 -99.9%  0.9453E-04  0.1858E-04  0.4769E-06 -0.3167E-06   0.000    
  1088  0.4731      0.4348E-03 NODE          29 -99.9%  0.9487E-04  0.1862E-04  0.4778E-06 -0.3175E-06   0.000    
  1089  0.4735      0.4348E-03 NODE          29 -99.9%  0.9522E-04  0.1865E-04  0.4788E-06 -0.3183E-06   0.000    
  1090  0.4739      0.4348E-03 NODE          29 -99.9%  0.9557E-04  0.1869E-04  0.4797E-06 -0.3191E-06   0.000    
  1091  0.4744      0.4348E-03 NODE          29 -99.9%  0.9592E-04  0.1873E-04  0.4806E-06 -0.3199E-06   0.000    
  1092  0.4748      0.4348E-03 NODE          29 -99.9%  0.9627E-04  0.1877E-04  0.4815E-06 -0.3208E-06   0.000    
  1093  0.4752      0.4348E-03 NODE          29 -99.9%  0.9663E-04  0.1881E-04  0.4824E-06 -0.3216E-06   0.000    
  1094  0.4757      0.4348E-03 NODE          29 -99.9%  0.9698E-04  0.1884E-04  0.4833E-06 -0.3224E-06   0.000    
  1095  0.4761      0.4348E-03 NODE          29 -99.9%  0.9733E-04  0.1888E-04  0.4841E-06 -0.3232E-06   0.000    
  1096  0.4765      0.4348E-03 NODE          29 -99.9%  0.9769E-04  0.1892E-04  0.4850E-06 -0.3241E-06   0.000    
  1097  0.4770      0.4348E-03 NODE          29 -99.9%  0.9805E-04  0.1895E-04  0.4859E-06 -0.3249E-06   0.000    
  1098  0.4774      0.4348E-03 NODE          29 -99.9%  0.9840E-04  0.1899E-04  0.4867E-06 -0.3257E-06   0.000    
  1099  0.4778      0.4348E-03 NODE          29 -99.9%  0.9876E-04  0.1902E-04  0.4876E-06 -0.3265E-06   0.000    
 CYCLE    TIME      TIME-STEP  ELEMENT          ERROR  I-ENERGY    K-ENERGY T  K-ENERGY R  EXT-WORK MAS.ERR
  1100  0.4783      0.4348E-03 NODE          29 -99.9%  0.9912E-04  0.1906E-04  0.4884E-06 -0.3274E-06   0.000    
  1101  0.4787      0.4348E-03 NODE          29 -99.9%  0.9948E-04  0.1910E-04  0.4892E-06 -0.3282E-06   0.000    
  1102  0.4791      0.4348E-03 NODE          29 -99.9%  0.9984E-04  0.1913E-04  0.4900E-06 -0.3290E-06   0.000    
  1103  0.4796      0.4348E-03 NODE          29 -99.9%  0.1002E-03  0.1916E-04  0.4909E-06 -0.3299E-06   0.000    
  1104  0.4800      0.4348E-03 NODE          29 -99.9%  0.1006E-03  0.1920E-04  0.4917E-06 -0.3307E-06   0.000    
  1105  0.4804      0.4348E-03 NODE          29 -99.9%  0.1009E-03  0.1923E-04  0.4924E-06 -0.3315E-06   0.000    
  1106  0.4809      0.4348E-03 NODE          29 -99.9%  0.1013E-03  0.1927E-04  0.4932E-06 -0.3324E-06   0.000    
  1107  0.4813      0.4348E-03 NODE          29 -99.9%  0.1017E-03  0.1930E-04  0.4940E-06 -0.3332E-06   0.000    
  1108  0.4817      0.4348E-03 NODE          29 -99.9%  0.1020E-03  0.1933E-04  0.4948E-06 -0.3341E-06   0.000    
  1109  0.4822      0.4348E-03 NODE          29 -99.9%  0.1024E-03  0.1937E-04  0.4955E-06 -0.3349E-06   0.000    
  1110  0.4826      0.4348E-03 NODE          29 -99.9%  0.1028E-03  0.1940E-04  0.4963E-06 -0.3357E-06   0.000    
  1111  0.4831      0.4348E-03 NODE          29 -99.9%  0.1031E-03  0.1943E-04  0.4970E-06 -0.3366E-06   0.000    
  1112  0.4835      0.4348E-03 NODE          29 -99.9%  0.1035E-03  0.1946E-04  0.4977E-06 -0.3374E-06   0.000    
  1113  0.4839      0.4348E-03 NODE          29 -99.9%  0.1039E-03  0.1949E-04  0.4985E-06 -0.3383E-06   0.000    
  1114  0.4844      0.4348E-03 NODE          29 -99.9%  0.1043E-03  0.1952E-04  0.4992E-06 -0.3391E-06   0.000    
  1115  0.4848      0.4348E-03 NODE          29 -99.9%  0.1046E-03  0.1956E-04  0.4999E-06 -0.3400E-06   0.000    
  1116  0.4852      0.4348E-03 NODE          29 -99.9%  0.1050E-03  0.1959E-04  0.5006E-06 -0.3408E-06   0.000    
  1117  0.4857      0.4348E-03 NODE          29 -99.9%  0.1054E-03  0.1962E-04  0.5013E-06 -0.3417E-06   0.000    
  1118  0.4861      0.4348E-03 NODE          29 -99.9%  0.1058E-03  0.1965E-04  0.5019E-06 -0.3425E-06   0.000    
  1119  0.4865      0.4348E-03 NODE          29 -99.9%  0.1061E-03  0.1968E-04  0.5026E-06 -0.3434E-06   0.000    
  1120  0.4870      0.4348E-03 NODE          29 -99.9%  0.1065E-03  0.1970E-04  0.5033E-06 -0.3442E-06   0.000    
  1121  0.4874      0.4348E-03 NODE          29 -99.9%  0.1069E-03  0.1973E-04  0.5039E-06 -0.3451E-06   0.000    
  1122  0.4878      0.4348E-03 NODE          29 -99.9%  0.1073E-03  0.1976E-04  0.5046E-06 -0.3460E-06   0.000    
  1123  0.4883      0.4348E-03 NODE          29 -99.9%  0.1077E-03  0.1979E-04  0.5052E-06 -0.3468E-06   0.000    
  1124  0.4887      0.4348E-03 NODE          35 -99.9%  0.1080E-03  0.1982E-04  0.5058E-06 -0.3477E-06   0.000    
  1125  0.4891      0.4348E-03 NODE          29 -99.9%  0.1084E-03  0.1985E-04  0.5065E-06 -0.3485E-06   0.000    
  1126  0.4896      0.4348E-03 NODE          29 -99.9%  0.1088E-03  0.1987E-04  0.5071E-06 -0.3494E-06   0.000    
  1127  0.4900      0.4348E-03 NODE          29 -99.9%  0.1092E-03  0.1990E-04  0.5077E-06 -0.3503E-06   0.000    
  1128  0.4904      0.4348E-03 NODE          29 -99.9%  0.1096E-03  0.1993E-04  0.5083E-06 -0.3511E-06   0.000    
  1129  0.4909      0.4348E-03 NODE          29 -99.9%  0.1100E-03  0.1996E-04  0.5089E-06 -0.3520E-06   0.000    
  1130  0.4913      0.4348E-03 NODE          29 -99.9%  0.1104E-03  0.1998E-04  0.5095E-06 -0.3528E-06   0.000    
  1131  0.4917      0.4348E-03 NODE          29 -99.9%  0.1108E-03  0.2001E-04  0.5100E-06 -0.3537E-06   0.000    
  1132  0.4922      0.4348E-03 NODE          35 -99.9%  0.1112E-03  0.2003E-04  0.5106E-06 -0.3546E-06   0.000    
  1133  0.4926      0.4348E-03 NODE          35 -99.9%  0.1115E-03  0.2006E-04  0.5112E-06 -0.3554E-06   0.000    
  1134  0.4931      0.4348E-03 NODE          35 -99.9%  0.1119E-03  0.2009E-04  0.5117E-06 -0.3563E-06   0.000    
  1135  0.4935      0.4348E-03 NODE          29 -99.9%  0.1123E-03  0.2011E-04  0.5123E-06 -0.3572E-06   0.000    
  1136  0.4939      0.4348E-03 NODE          29 -99.9%  0.1127E-03  0.2014E-04  0.5128E-06 -0.3581E-06   0.000    
  1137  0.4944      0.4348E-03 NODE          35 -99.9%  0.1131E-03  0.2016E-04  0.5133E-06 -0.3589E-06   0.000    
  1138  0.4948      0.4348E-03 NODE          29 -99.9%  0.1135E-03  0.2019E-04  0.5139E-06 -0.3598E-06   0.000    
  1139  0.4952      0.4348E-03 NODE          29 -99.9%  0.1139E-03  0.2021E-04  0.5144E-06 -0.3607E-06   0.000    
  1140  0.4957      0.4348E-03 NODE          35 -99.9%  0.1143E-03  0.2024E-04  0.5149E-06 -0.3616E-06   0.000    
  1141  0.4961      0.4348E-03 NODE          29 -99.9%  0.1147E-03  0.2026E-04  0.5154E-06 -0.3624E-06   0.000    
  1142  0.4965      0.4348E-03 NODE          35 -99.9%  0.1151E-03  0.2028E-04  0.5159E-06 -0.3633E-06   0.000    
  1143  0.4970      0.4348E-03 NODE          29 -99.9%  0.1155E-03  0.2031E-04  0.5164E-06 -0.3642E-06   0.000    
  1144  0.4974      0.4348E-03 NODE          29 -99.9%  0.1159E-03  0.2033E-04  0.5169E-06 -0.3651E-06   0.000    
  1145  0.4978      0.4348E-03 NODE          29 -99.9%  0.1163E-03  0.2036E-04  0.5174E-06 -0.3660E-06   0.000    
  1146  0.4983      0.4348E-03 NODE          29 -99.9%  0.1168E-03  0.2038E-04  0.5179E-06 -0.3668E-06   0.000    
  1147  0.4987      0.4348E-03 NODE          29 -99.9%  0.1172E-03  0.2040E-04  0.5183E-06 -0.3677E-06   0.000    
  1148  0.4991      0.4348E-03 NODE          29 -99.9%  0.1176E-03  0.2043E-04  0.5188E-06 -0.3686E-06   0.000    
  1149  0.4996      0.4348E-03 NODE          35 -99.9%  0.1180E-03  0.2045E-04  0.5193E-06 -0.3695E-06   0.000    
  1150  0.5000      0.4782E-03 NODE          29 -99.9%  0.1184E-03  0.2048E-04  0.5197E-06 -0.3697E-06   0.000    
  1151  0.5005      0.5261E-03 NODE          29 -99.9%  0.1188E-03  0.2050E-04  0.5202E-06 -0.3699E-06   0.000    
  1152  0.5010      0.5787E-03 NODE          35 -99.9%  0.1193E-03  0.2053E-04  0.5208E-06 -0.3702E-06   0.000    
  1153  0.5016      0.6365E-03 NODE          35 -99.9%  0.1199E-03  0.2056E-04  0.5214E-06 -0.3706E-06   0.000    
  1154  0.5022      0.7002E-03 NODE          29 -99.9%  0.1205E-03  0.2060E-04  0.5220E-06 -0.3710E-06   0.000    
 CYCLE    TIME      TIME-STEP  ELEMENT          ERROR  I-ENERGY    K-ENERGY T  K-ENERGY R  EXT-WORK MAS.ERR
  1155  0.5029      0.7530E-03 NODE          35 -99.9%  0.1212E-03  0.2064E-04  0.5227E-06 -0.3715E-06   0.000    
  1156  0.5037      0.7530E-03 NODE          35 -99.9%  0.1219E-03  0.2068E-04  0.5234E-06 -0.3721E-06   0.000    
  1157  0.5044      0.7530E-03 NODE          35 -99.9%  0.1226E-03  0.2072E-04  0.5241E-06 -0.3727E-06   0.000    
  1158  0.5052      0.7530E-03 NODE          35 -99.9%  0.1234E-03  0.2076E-04  0.5248E-06 -0.3733E-06   0.000    
  1159  0.5059      0.7530E-03 NODE          35 -99.9%  0.1241E-03  0.2080E-04  0.5255E-06 -0.3738E-06   0.000    
  1160  0.5067      0.7530E-03 NODE          35 -99.9%  0.1248E-03  0.2084E-04  0.5262E-06 -0.3744E-06   0.000    
  1161  0.5074      0.7530E-03 NODE          35 -99.9%  0.1256E-03  0.2088E-04  0.5268E-06 -0.3750E-06   0.000    
  1162  0.5082      0.7530E-03 NODE          35 -99.9%  0.1263E-03  0.2092E-04  0.5274E-06 -0.3756E-06   0.000    
  1163  0.5090      0.7530E-03 NODE          35 -99.9%  0.1271E-03  0.2096E-04  0.5281E-06 -0.3762E-06   0.000    
  1164  0.5097      0.7530E-03 NODE          35 -99.9%  0.1278E-03  0.2100E-04  0.5287E-06 -0.3768E-06   0.000    
  1165  0.5105      0.7530E-03 NODE          35 -99.9%  0.1286E-03  0.2104E-04  0.5293E-06 -0.3773E-06   0.000    
  1166  0.5112      0.7530E-03 NODE          35 -99.9%  0.1294E-03  0.2108E-04  0.5298E-06 -0.3779E-06   0.000    
  1167  0.5120      0.7530E-03 NODE          35 -99.9%  0.1301E-03  0.2112E-04  0.5304E-06 -0.3785E-06   0.000    
  1168  0.5127      0.7530E-03 NODE          35 -99.9%  0.1309E-03  0.2116E-04  0.5310E-06 -0.3791E-06   0.000    
  1169  0.5135      0.7530E-03 NODE          35 -99.9%  0.1317E-03  0.2120E-04  0.5315E-06 -0.3797E-06   0.000    
  1170  0.5142      0.7530E-03 NODE          35 -99.9%  0.1324E-03  0.2124E-04  0.5320E-06 -0.3803E-06   0.000    
  1171  0.5150      0.7530E-03 NODE          35 -99.9%  0.1332E-03  0.2129E-04  0.5326E-06 -0.3809E-06   0.000    
  1172  0.5157      0.7530E-03 NODE          35 -99.9%  0.1340E-03  0.2133E-04  0.5331E-06 -0.3815E-06   0.000    
  1173  0.5165      0.7530E-03 NODE          35 -99.9%  0.1348E-03  0.2137E-04  0.5336E-06 -0.3821E-06   0.000    
  1174  0.5172      0.7530E-03 NODE          35 -99.9%  0.1356E-03  0.2141E-04  0.5341E-06 -0.3827E-06   0.000    
  1175  0.5180      0.7530E-03 NODE          29 -99.9%  0.1364E-03  0.2146E-04  0.5347E-06 -0.3833E-06   0.000    
  1176  0.5187      0.7530E-03 NODE          35 -99.9%  0.1372E-03  0.2150E-04  0.5352E-06 -0.3840E-06   0.000    
  1177  0.5195      0.7530E-03 NODE          35 -99.9%  0.1380E-03  0.2155E-04  0.5357E-06 -0.3846E-06   0.000    
  1178  0.5202      0.7530E-03 NODE          35 -99.9%  0.1388E-03  0.2159E-04  0.5362E-06 -0.3852E-06   0.000    
  1179  0.5210      0.7530E-03 NODE          29 -99.9%  0.1396E-03  0.2164E-04  0.5368E-06 -0.3858E-06   0.000    
  1180  0.5218      0.7530E-03 NODE          29 -99.9%  0.1404E-03  0.2168E-04  0.5373E-06 -0.3864E-06   0.000    
  1181  0.5225      0.7530E-03 NODE          35 -99.9%  0.1412E-03  0.2173E-04  0.5379E-06 -0.3870E-06   0.000    
  1182  0.5233      0.7530E-03 NODE          35 -99.9%  0.1420E-03  0.2178E-04  0.5384E-06 -0.3877E-06   0.000    
  1183  0.5240      0.7530E-03 NODE          35 -99.9%  0.1428E-03  0.2183E-04  0.5390E-06 -0.3883E-06   0.000    
  1184  0.5248      0.7530E-03 NODE          35 -99.9%  0.1436E-03  0.2187E-04  0.5396E-06 -0.3889E-06   0.000    
  1185  0.5255      0.7530E-03 NODE          35 -99.9%  0.1445E-03  0.2192E-04  0.5403E-06 -0.3895E-06   0.000    
  1186  0.5263      0.7530E-03 NODE          29 -99.9%  0.1453E-03  0.2197E-04  0.5409E-06 -0.3902E-06   0.000    
  1187  0.5270      0.7530E-03 NODE          29 -99.9%  0.1461E-03  0.2202E-04  0.5416E-06 -0.3908E-06   0.000    
  1188  0.5278      0.7530E-03 NODE          29 -99.9%  0.1470E-03  0.2208E-04  0.5423E-06 -0.3915E-06   0.000    
  1189  0.5285      0.7530E-03 NODE          29 -99.9%  0.1478E-03  0.2213E-04  0.5431E-06 -0.3921E-06   0.000    
  1190  0.5293      0.7530E-03 NODE          35 -99.9%  0.1487E-03  0.2218E-04  0.5438E-06 -0.3927E-06   0.000    
  1191  0.5300      0.7530E-03 NODE          35 -99.9%  0.1495E-03  0.2224E-04  0.5447E-06 -0.3934E-06   0.000    
  1192  0.5308      0.7530E-03 NODE          29 -99.9%  0.1504E-03  0.2229E-04  0.5455E-06 -0.3940E-06   0.000    
  1193  0.5315      0.7530E-03 NODE          29 -99.9%  0.1512E-03  0.2235E-04  0.5464E-06 -0.3947E-06   0.000    
  1194  0.5323      0.7530E-03 NODE          35 -99.9%  0.1521E-03  0.2240E-04  0.5474E-06 -0.3953E-06   0.000    
  1195  0.5330      0.7530E-03 NODE          35 -99.9%  0.1529E-03  0.2246E-04  0.5484E-06 -0.3960E-06   0.000    
  1196  0.5338      0.7530E-03 NODE          35 -99.9%  0.1538E-03  0.2252E-04  0.5494E-06 -0.3966E-06   0.000    
  1197  0.5346      0.7530E-03 NODE          35 -99.9%  0.1547E-03  0.2258E-04  0.5505E-06 -0.3973E-06   0.000    
  1198  0.5353      0.7530E-03 NODE          35 -99.9%  0.1555E-03  0.2264E-04  0.5516E-06 -0.3979E-06   0.000    
  1199  0.5361      0.7530E-03 NODE          35 -99.9%  0.1564E-03  0.2270E-04  0.5528E-06 -0.3986E-06   0.000    
  1200  0.5368      0.7530E-03 NODE          35 -99.9%  0.1573E-03  0.2276E-04  0.5540E-06 -0.3993E-06   0.000    
  1201  0.5376      0.7530E-03 NODE          29 -99.9%  0.1582E-03  0.2282E-04  0.5553E-06 -0.3999E-06   0.000    
  1202  0.5383      0.7530E-03 NODE          35 -99.9%  0.1591E-03  0.2288E-04  0.5567E-06 -0.4006E-06   0.000    
  1203  0.5391      0.7530E-03 NODE          29 -99.9%  0.1600E-03  0.2295E-04  0.5580E-06 -0.4013E-06   0.000    
  1204  0.5398      0.7530E-03 NODE          29 -99.9%  0.1609E-03  0.2301E-04  0.5595E-06 -0.4019E-06   0.000    
  1205  0.5406      0.7530E-03 NODE          35 -99.9%  0.1618E-03  0.2308E-04  0.5610E-06 -0.4026E-06   0.000    
  1206  0.5413      0.7530E-03 NODE          35 -99.9%  0.1627E-03  0.2314E-04  0.5625E-06 -0.4033E-06   0.000    
  1207  0.5421      0.7530E-03 NODE          35 -99.9%  0.1636E-03  0.2321E-04  0.5641E-06 -0.4040E-06   0.000    
  1208  0.5428      0.7530E-03 NODE          35 -99.9%  0.1645E-03  0.2328E-04  0.5658E-06 -0.4047E-06   0.000    
  1209  0.5436      0.7530E-03 NODE          35 -99.9%  0.1654E-03  0.2335E-04  0.5675E-06 -0.4053E-06   0.000    
 CYCLE    TIME      TIME-STEP  ELEMENT          ERROR  I-ENERGY    K-ENERGY T  K-ENERGY R  EXT-WORK MAS.ERR
  1210  0.5443      0.7530E-03 NODE          35 -99.9%  0.1663E-03  0.2341E-04  0.5692E-06 -0.4060E-06   0.000    
  1211  0.5451      0.7530E-03 NODE          35 -99.9%  0.1672E-03  0.2348E-04  0.5710E-06 -0.4067E-06   0.000    
  1212  0.5458      0.7530E-03 NODE          35 -99.9%  0.1682E-03  0.2355E-04  0.5729E-06 -0.4074E-06   0.000    
  1213  0.5466      0.7530E-03 NODE          35 -99.9%  0.1691E-03  0.2362E-04  0.5748E-06 -0.4081E-06   0.000    
  1214  0.5474      0.7530E-03 NODE          35 -99.9%  0.1700E-03  0.2369E-04  0.5767E-06 -0.4088E-06   0.000    
  1215  0.5481      0.7530E-03 NODE          35 -99.9%  0.1710E-03  0.2377E-04  0.5787E-06 -0.4095E-06   0.000    
  1216  0.5489      0.7530E-03 NODE          35 -99.9%  0.1719E-03  0.2384E-04  0.5807E-06 -0.4102E-06   0.000    
  1217  0.5496      0.7530E-03 NODE          35 -99.9%  0.1729E-03  0.2391E-04  0.5828E-06 -0.4109E-06   0.000    
  1218  0.5504      0.7530E-03 NODE          35 -99.9%  0.1738E-03  0.2398E-04  0.5850E-06 -0.4116E-06   0.000    
  1219  0.5511      0.7530E-03 NODE          35 -99.9%  0.1748E-03  0.2406E-04  0.5871E-06 -0.4123E-06   0.000    
  1220  0.5519      0.7530E-03 NODE          35 -99.9%  0.1757E-03  0.2413E-04  0.5893E-06 -0.4130E-06   0.000    
  1221  0.5526      0.7530E-03 NODE          29 -99.9%  0.1767E-03  0.2421E-04  0.5916E-06 -0.4137E-06   0.000    
  1222  0.5534      0.7530E-03 NODE          35 -99.9%  0.1777E-03  0.2428E-04  0.5939E-06 -0.4144E-06   0.000    
  1223  0.5541      0.7530E-03 NODE          35 -99.9%  0.1786E-03  0.2436E-04  0.5962E-06 -0.4151E-06   0.000    
  1224  0.5549      0.7530E-03 NODE          29 -99.9%  0.1796E-03  0.2444E-04  0.5986E-06 -0.4159E-06   0.000    
  1225  0.5556      0.7530E-03 NODE          29 -99.9%  0.1806E-03  0.2451E-04  0.6010E-06 -0.4166E-06   0.000    
  1226  0.5564      0.7530E-03 NODE          29 -99.9%  0.1816E-03  0.2459E-04  0.6034E-06 -0.4173E-06   0.000    
  1227  0.5571      0.7530E-03 NODE          29 -99.9%  0.1825E-03  0.2467E-04  0.6059E-06 -0.4180E-06   0.000    
  1228  0.5579      0.7530E-03 NODE          29 -99.9%  0.1835E-03  0.2475E-04  0.6084E-06 -0.4187E-06   0.000    
  1229  0.5587      0.7530E-03 NODE          29 -99.9%  0.1845E-03  0.2483E-04  0.6110E-06 -0.4195E-06   0.000    
  1230  0.5594      0.7530E-03 NODE          29 -99.9%  0.1855E-03  0.2491E-04  0.6136E-06 -0.4202E-06   0.000    
  1231  0.5602      0.7530E-03 NODE          29 -99.9%  0.1865E-03  0.2499E-04  0.6162E-06 -0.4209E-06   0.000    
  1232  0.5609      0.7530E-03 NODE          29 -99.9%  0.1875E-03  0.2508E-04  0.6189E-06 -0.4217E-06   0.000    
  1233  0.5617      0.7530E-03 NODE          29 -99.9%  0.1885E-03  0.2516E-04  0.6216E-06 -0.4224E-06   0.000    
  1234  0.5624      0.7530E-03 NODE          29 -99.9%  0.1896E-03  0.2524E-04  0.6243E-06 -0.4231E-06   0.000    
  1235  0.5632      0.7530E-03 NODE          29 -99.9%  0.1906E-03  0.2533E-04  0.6270E-06 -0.4239E-06   0.000    
  1236  0.5639      0.7530E-03 NODE          29 -99.9%  0.1916E-03  0.2541E-04  0.6298E-06 -0.4246E-06   0.000    
  1237  0.5647      0.7530E-03 NODE          29 -99.9%  0.1926E-03  0.2550E-04  0.6326E-06 -0.4254E-06   0.000    
  1238  0.5654      0.7530E-03 NODE          29 -99.9%  0.1936E-03  0.2558E-04  0.6354E-06 -0.4261E-06   0.000    
  1239  0.5662      0.7530E-03 NODE          29 -99.9%  0.1947E-03  0.2567E-04  0.6382E-06 -0.4269E-06   0.000    
  1240  0.5669      0.7530E-03 NODE          29 -99.9%  0.1957E-03  0.2576E-04  0.6411E-06 -0.4276E-06   0.000    
  1241  0.5677      0.7530E-03 NODE          29 -99.9%  0.1968E-03  0.2585E-04  0.6440E-06 -0.4284E-06   0.000    
  1242  0.5684      0.7530E-03 NODE          29 -99.9%  0.1978E-03  0.2594E-04  0.6469E-06 -0.4291E-06   0.000    
  1243  0.5692      0.7530E-03 NODE          29 -99.9%  0.1989E-03  0.2603E-04  0.6498E-06 -0.4299E-06   0.000    
  1244  0.5699      0.7530E-03 NODE          29 -99.9%  0.1999E-03  0.2612E-04  0.6527E-06 -0.4306E-06   0.000    
  1245  0.5707      0.7530E-03 NODE          29 -99.9%  0.2010E-03  0.2621E-04  0.6556E-06 -0.4314E-06   0.000    
  1246  0.5715      0.7530E-03 NODE          29 -99.9%  0.2020E-03  0.2630E-04  0.6586E-06 -0.4322E-06   0.000    
  1247  0.5722      0.7530E-03 NODE          29 -99.9%  0.2031E-03  0.2639E-04  0.6615E-06 -0.4329E-06   0.000    
  1248  0.5730      0.7530E-03 NODE          29 -99.9%  0.2042E-03  0.2648E-04  0.6644E-06 -0.4337E-06   0.000    
  1249  0.5737      0.7530E-03 NODE          29 -99.9%  0.2052E-03  0.2657E-04  0.6674E-06 -0.4345E-06   0.000    
  1250  0.5745      0.7530E-03 NODE          35 -99.9%  0.2063E-03  0.2667E-04  0.6703E-06 -0.4352E-06   0.000    
  1251  0.5752      0.7530E-03 NODE          35 -99.9%  0.2074E-03  0.2676E-04  0.6733E-06 -0.4360E-06   0.000    
  1252  0.5760      0.7530E-03 NODE          29 -99.9%  0.2085E-03  0.2685E-04  0.6762E-06 -0.4368E-06   0.000    
  1253  0.5767      0.7530E-03 NODE          35 -99.9%  0.2096E-03  0.2695E-04  0.6791E-06 -0.4376E-06   0.000    
  1254  0.5775      0.7530E-03 NODE          29 -99.9%  0.2107E-03  0.2704E-04  0.6820E-06 -0.4383E-06   0.000    
  1255  0.5782      0.7530E-03 NODE          29 -99.9%  0.2118E-03  0.2713E-04  0.6849E-06 -0.4391E-06   0.000    
  1256  0.5790      0.7530E-03 NODE          29 -99.9%  0.2129E-03  0.2723E-04  0.6878E-06 -0.4399E-06   0.000    
  1257  0.5797      0.7530E-03 NODE          29 -99.9%  0.2140E-03  0.2732E-04  0.6907E-06 -0.4407E-06   0.000    
  1258  0.5805      0.7530E-03 NODE          29 -99.9%  0.2151E-03  0.2741E-04  0.6935E-06 -0.4415E-06   0.000    
  1259  0.5812      0.7530E-03 NODE          29 -99.9%  0.2162E-03  0.2751E-04  0.6963E-06 -0.4423E-06   0.000    
  1260  0.5820      0.7530E-03 NODE          29 -99.9%  0.2174E-03  0.2760E-04  0.6991E-06 -0.4431E-06   0.000    
  1261  0.5827      0.7530E-03 NODE          29 -99.9%  0.2185E-03  0.2769E-04  0.7019E-06 -0.4438E-06   0.000    
  1262  0.5835      0.7530E-03 NODE          29 -99.9%  0.2196E-03  0.2779E-04  0.7047E-06 -0.4446E-06   0.000    
  1263  0.5843      0.7530E-03 NODE          29 -99.9%  0.2207E-03  0.2788E-04  0.7074E-06 -0.4454E-06   0.000    
  1264  0.5850      0.7530E-03 NODE          29 -99.9%  0.2219E-03  0.2797E-04  0.7101E-06 -0.4462E-06   0.000    
 CYCLE    TIME      TIME-STEP  ELEMENT          ERROR  I-ENERGY    K-ENERGY T  K-ENERGY R  EXT-WORK MAS.ERR
  1265  0.5858      0.7530E-03 NODE          29 -99.9%  0.2230E-03  0.2807E-04  0.7128E-06 -0.4470E-06   0.000    
  1266  0.5865      0.7530E-03 NODE          29 -99.9%  0.2242E-03  0.2816E-04  0.7154E-06 -0.4478E-06   0.000    
  1267  0.5873      0.7530E-03 NODE          29 -99.9%  0.2253E-03  0.2825E-04  0.7181E-06 -0.4486E-06   0.000    
  1268  0.5880      0.7530E-03 NODE          29 -99.9%  0.2265E-03  0.2834E-04  0.7207E-06 -0.4494E-06   0.000    
  1269  0.5888      0.7530E-03 NODE          29 -99.9%  0.2276E-03  0.2844E-04  0.7233E-06 -0.4502E-06   0.000    
  1270  0.5895      0.7530E-03 NODE          29 -99.9%  0.2288E-03  0.2853E-04  0.7258E-06 -0.4510E-06   0.000    
  1271  0.5903      0.7530E-03 NODE          29 -99.9%  0.2300E-03  0.2862E-04  0.7283E-06 -0.4518E-06   0.000    
  1272  0.5910      0.7530E-03 NODE          29 -99.9%  0.2312E-03  0.2871E-04  0.7308E-06 -0.4527E-06   0.000    
  1273  0.5918      0.7530E-03 NODE          29 -99.9%  0.2323E-03  0.2880E-04  0.7333E-06 -0.4535E-06   0.000    
  1274  0.5925      0.7530E-03 NODE          29 -99.9%  0.2335E-03  0.2889E-04  0.7358E-06 -0.4543E-06   0.000    
  1275  0.5933      0.7530E-03 NODE          29 -99.9%  0.2347E-03  0.2898E-04  0.7382E-06 -0.4551E-06   0.000    
  1276  0.5940      0.7530E-03 NODE          29 -99.9%  0.2359E-03  0.2907E-04  0.7406E-06 -0.4559E-06   0.000    
  1277  0.5948      0.7530E-03 NODE          29 -99.9%  0.2371E-03  0.2915E-04  0.7430E-06 -0.4567E-06   0.000    
  1278  0.5955      0.7530E-03 NODE          29 -99.9%  0.2383E-03  0.2924E-04  0.7453E-06 -0.4575E-06   0.000    
  1279  0.5963      0.7530E-03 NODE          29 -99.9%  0.2395E-03  0.2933E-04  0.7477E-06 -0.4584E-06   0.000    
  1280  0.5971      0.7530E-03 NODE          29 -99.9%  0.2407E-03  0.2942E-04  0.7500E-06 -0.4592E-06   0.000    
  1281  0.5978      0.7530E-03 NODE          29 -99.9%  0.2419E-03  0.2950E-04  0.7522E-06 -0.4600E-06   0.000    
  1282  0.5986      0.7530E-03 NODE          29 -99.9%  0.2432E-03  0.2959E-04  0.7545E-06 -0.4608E-06   0.000    
  1283  0.5993      0.7530E-03 NODE          29 -99.9%  0.2444E-03  0.2967E-04  0.7567E-06 -0.4616E-06   0.000    
  1284  0.6001      0.7530E-03 NODE          29 -99.9%  0.2456E-03  0.2975E-04  0.7589E-06 -0.4625E-06   0.000    
     ANIMATION FILE: FFO25SCBA004 WRITTEN
     OUTPUT FILE: FFO25SCB_0004.sty WRITTEN
  1285  0.6008      0.7530E-03 NODE          29 -99.9%  0.2468E-03  0.2984E-04  0.7611E-06 -0.4633E-06   0.000    
  1286  0.6016      0.7530E-03 NODE          29 -99.9%  0.2481E-03  0.2992E-04  0.7633E-06 -0.4641E-06   0.000    
  1287  0.6023      0.7530E-03 NODE          29 -99.9%  0.2493E-03  0.3000E-04  0.7654E-06 -0.4650E-06   0.000    
  1288  0.6031      0.7530E-03 NODE          29 -99.9%  0.2506E-03  0.3008E-04  0.7675E-06 -0.4658E-06   0.000    
  1289  0.6038      0.7530E-03 NODE          29 -99.9%  0.2518E-03  0.3016E-04  0.7695E-06 -0.4666E-06   0.000    
  1290  0.6046      0.7530E-03 NODE          29 -99.9%  0.2531E-03  0.3024E-04  0.7716E-06 -0.4675E-06   0.000    
  1291  0.6053      0.7530E-03 NODE          29 -99.9%  0.2543E-03  0.3032E-04  0.7736E-06 -0.4683E-06   0.000    
  1292  0.6061      0.7530E-03 NODE          29 -99.9%  0.2556E-03  0.3039E-04  0.7755E-06 -0.4691E-06   0.000    
  1293  0.6068      0.7530E-03 NODE          29 -99.9%  0.2569E-03  0.3047E-04  0.7775E-06 -0.4700E-06   0.000    
  1294  0.6076      0.7530E-03 NODE          29 -99.9%  0.2582E-03  0.3054E-04  0.7794E-06 -0.4708E-06   0.000    
  1295  0.6084      0.7530E-03 NODE          29 -99.9%  0.2594E-03  0.3062E-04  0.7812E-06 -0.4717E-06   0.000    
  1296  0.6091      0.7530E-03 NODE          29 -99.9%  0.2607E-03  0.3069E-04  0.7831E-06 -0.4725E-06   0.000    
  1297  0.6099      0.7530E-03 NODE          29 -99.9%  0.2620E-03  0.3076E-04  0.7848E-06 -0.4733E-06   0.000    
  1298  0.6106      0.7530E-03 NODE          29 -99.9%  0.2633E-03  0.3083E-04  0.7866E-06 -0.4742E-06   0.000    
  1299  0.6114      0.7530E-03 NODE          29 -99.9%  0.2646E-03  0.3090E-04  0.7883E-06 -0.4750E-06   0.000    
  1300  0.6121      0.7530E-03 NODE          29 -99.9%  0.2659E-03  0.3097E-04  0.7900E-06 -0.4759E-06   0.000    
  1301  0.6129      0.7530E-03 NODE          29 -99.9%  0.2672E-03  0.3104E-04  0.7916E-06 -0.4767E-06   0.000    
  1302  0.6136      0.7530E-03 NODE          29 -99.9%  0.2685E-03  0.3110E-04  0.7932E-06 -0.4776E-06   0.000    
  1303  0.6144      0.7530E-03 NODE          29 -99.9%  0.2699E-03  0.3117E-04  0.7947E-06 -0.4784E-06   0.000    
  1304  0.6151      0.7530E-03 NODE          29 -99.9%  0.2712E-03  0.3123E-04  0.7962E-06 -0.4793E-06   0.000    
  1305  0.6159      0.7530E-03 NODE          29 -99.9%  0.2725E-03  0.3129E-04  0.7977E-06 -0.4801E-06   0.000    
  1306  0.6166      0.7530E-03 NODE          29 -99.9%  0.2739E-03  0.3136E-04  0.7991E-06 -0.4810E-06   0.000    
  1307  0.6174      0.7530E-03 NODE          29 -99.9%  0.2752E-03  0.3142E-04  0.8004E-06 -0.4818E-06   0.000    
  1308  0.6181      0.7530E-03 NODE          29 -99.9%  0.2765E-03  0.3148E-04  0.8018E-06 -0.4827E-06   0.000    
  1309  0.6189      0.7530E-03 NODE          29 -99.9%  0.2779E-03  0.3154E-04  0.8030E-06 -0.4836E-06   0.000    
  1310  0.6196      0.7530E-03 NODE          29 -99.9%  0.2792E-03  0.3159E-04  0.8043E-06 -0.4844E-06   0.000    
  1311  0.6204      0.7530E-03 NODE          29 -99.9%  0.2806E-03  0.3165E-04  0.8055E-06 -0.4853E-06   0.000    
  1312  0.6212      0.7530E-03 NODE          29 -99.9%  0.2820E-03  0.3171E-04  0.8066E-06 -0.4861E-06   0.000    
  1313  0.6219      0.7530E-03 NODE          29 -99.9%  0.2833E-03  0.3177E-04  0.8078E-06 -0.4870E-06   0.000    
  1314  0.6227      0.7530E-03 NODE          29 -99.9%  0.2847E-03  0.3182E-04  0.8089E-06 -0.4879E-06   0.000    
  1315  0.6234      0.7530E-03 NODE          35 -99.9%  0.2861E-03  0.3188E-04  0.8099E-06 -0.4887E-06   0.000    
  1316  0.6242      0.7530E-03 NODE          29 -99.9%  0.2875E-03  0.3193E-04  0.8109E-06 -0.4896E-06   0.000    
  1317  0.6249      0.7530E-03 NODE          29 -99.9%  0.2889E-03  0.3198E-04  0.8119E-06 -0.4905E-06   0.000    
  1318  0.6257      0.7530E-03 NODE          29 -99.9%  0.2903E-03  0.3204E-04  0.8129E-06 -0.4914E-06   0.000    
  1319  0.6264      0.7530E-03 NODE          29 -99.9%  0.2917E-03  0.3209E-04  0.8138E-06 -0.4922E-06   0.000    
 CYCLE    TIME      TIME-STEP  ELEMENT          ERROR  I-ENERGY    K-ENERGY T  K-ENERGY R  EXT-WORK MAS.ERR
  1320  0.6272      0.7530E-03 NODE          35 -99.9%  0.2931E-03  0.3214E-04  0.8147E-06 -0.4931E-06   0.000    
  1321  0.6279      0.7530E-03 NODE          35 -99.9%  0.2945E-03  0.3220E-04  0.8155E-06 -0.4940E-06   0.000    
  1322  0.6287      0.7530E-03 NODE          35 -99.9%  0.2959E-03  0.3225E-04  0.8164E-06 -0.4949E-06   0.000    
  1323  0.6294      0.7530E-03 NODE          35 -99.9%  0.2973E-03  0.3230E-04  0.8172E-06 -0.4958E-06   0.000    
  1324  0.6302      0.7530E-03 NODE          35 -99.9%  0.2987E-03  0.3235E-04  0.8180E-06 -0.4966E-06   0.000    
  1325  0.6309      0.7530E-03 NODE          35 -99.9%  0.3002E-03  0.3241E-04  0.8188E-06 -0.4975E-06   0.000    
  1326  0.6317      0.7530E-03 NODE          35 -99.9%  0.3016E-03  0.3246E-04  0.8195E-06 -0.4984E-06   0.000    
  1327  0.6324      0.7530E-03 NODE          35 -99.9%  0.3030E-03  0.3251E-04  0.8203E-06 -0.4993E-06   0.000    
  1328  0.6332      0.7530E-03 NODE          35 -99.9%  0.3045E-03  0.3256E-04  0.8210E-06 -0.5002E-06   0.000    
  1329  0.6340      0.7530E-03 NODE          35 -99.9%  0.3059E-03  0.3261E-04  0.8217E-06 -0.5011E-06   0.000    
  1330  0.6347      0.7530E-03 NODE          29 -99.9%  0.3074E-03  0.3266E-04  0.8224E-06 -0.5020E-06   0.000    
  1331  0.6355      0.7530E-03 NODE          29 -99.9%  0.3089E-03  0.3272E-04  0.8231E-06 -0.5029E-06   0.000    
  1332  0.6362      0.7530E-03 NODE          29 -99.9%  0.3103E-03  0.3277E-04  0.8237E-06 -0.5038E-06   0.000    
  1333  0.6370      0.7530E-03 NODE          29 -99.9%  0.3118E-03  0.3282E-04  0.8244E-06 -0.5047E-06   0.000    
  1334  0.6377      0.7530E-03 NODE          29 -99.9%  0.3133E-03  0.3287E-04  0.8250E-06 -0.5056E-06   0.000    
  1335  0.6385      0.7530E-03 NODE          29 -99.9%  0.3148E-03  0.3292E-04  0.8257E-06 -0.5065E-06   0.000    
  1336  0.6392      0.7530E-03 NODE          29 -99.9%  0.3162E-03  0.3298E-04  0.8263E-06 -0.5074E-06   0.000    
  1337  0.6400      0.7530E-03 NODE          35 -99.9%  0.3177E-03  0.3303E-04  0.8269E-06 -0.5083E-06   0.000    
  1338  0.6407      0.7530E-03 NODE          35 -99.9%  0.3192E-03  0.3308E-04  0.8276E-06 -0.5092E-06   0.000    
  1339  0.6415      0.7530E-03 NODE          29 -99.9%  0.3207E-03  0.3313E-04  0.8282E-06 -0.5102E-06   0.000    
  1340  0.6422      0.7530E-03 NODE          29 -99.9%  0.3222E-03  0.3319E-04  0.8288E-06 -0.5111E-06   0.000    
  1341  0.6430      0.7530E-03 NODE          29 -99.9%  0.3238E-03  0.3324E-04  0.8294E-06 -0.5120E-06   0.000    
  1342  0.6437      0.7530E-03 NODE          29 -99.9%  0.3253E-03  0.3330E-04  0.8300E-06 -0.5129E-06   0.000    
  1343  0.6445      0.7530E-03 NODE          29 -99.9%  0.3268E-03  0.3335E-04  0.8307E-06 -0.5138E-06   0.000    
  1344  0.6452      0.7530E-03 NODE          35 -99.9%  0.3283E-03  0.3340E-04  0.8313E-06 -0.5148E-06   0.000    
  1345  0.6460      0.7530E-03 NODE          35 -99.9%  0.3299E-03  0.3346E-04  0.8319E-06 -0.5157E-06   0.000    
  1346  0.6468      0.7530E-03 NODE          29 -99.9%  0.3314E-03  0.3351E-04  0.8326E-06 -0.5166E-06   0.000    
  1347  0.6475      0.7530E-03 NODE          35 -99.9%  0.3330E-03  0.3357E-04  0.8333E-06 -0.5176E-06   0.000    
  1348  0.6483      0.7530E-03 NODE          35 -99.9%  0.3345E-03  0.3363E-04  0.8339E-06 -0.5185E-06   0.000    
  1349  0.6490      0.7530E-03 NODE          35 -99.9%  0.3361E-03  0.3368E-04  0.8347E-06 -0.5194E-06   0.000    
  1350  0.6498      0.7530E-03 NODE          35 -99.9%  0.3376E-03  0.3374E-04  0.8354E-06 -0.5204E-06   0.000    
  1351  0.6505      0.7530E-03 NODE          35 -99.9%  0.3392E-03  0.3380E-04  0.8361E-06 -0.5213E-06   0.000    
  1352  0.6513      0.7530E-03 NODE          35 -99.9%  0.3408E-03  0.3386E-04  0.8369E-06 -0.5223E-06   0.000    
  1353  0.6520      0.7530E-03 NODE          35 -99.9%  0.3423E-03  0.3392E-04  0.8377E-06 -0.5232E-06   0.000    
  1354  0.6528      0.7530E-03 NODE          35 -99.9%  0.3439E-03  0.3398E-04  0.8386E-06 -0.5242E-06   0.000    
  1355  0.6535      0.7530E-03 NODE          35 -99.9%  0.3455E-03  0.3404E-04  0.8394E-06 -0.5251E-06   0.000    
  1356  0.6543      0.7530E-03 NODE          35 -99.9%  0.3471E-03  0.3410E-04  0.8403E-06 -0.5261E-06   0.000    
  1357  0.6550      0.7530E-03 NODE          35 -99.9%  0.3487E-03  0.3416E-04  0.8413E-06 -0.5270E-06   0.000    
  1358  0.6558      0.7530E-03 NODE          35 -99.9%  0.3503E-03  0.3422E-04  0.8423E-06 -0.5280E-06   0.000    
  1359  0.6565      0.7530E-03 NODE          35 -99.9%  0.3519E-03  0.3429E-04  0.8433E-06 -0.5290E-06   0.000    
  1360  0.6573      0.7530E-03 NODE          35 -99.9%  0.3536E-03  0.3435E-04  0.8444E-06 -0.5299E-06   0.000    
  1361  0.6580      0.7530E-03 NODE          29 -99.9%  0.3552E-03  0.3442E-04  0.8456E-06 -0.5309E-06   0.000    
  1362  0.6588      0.7530E-03 NODE          29 -99.9%  0.3568E-03  0.3448E-04  0.8468E-06 -0.5319E-06   0.000    
  1363  0.6596      0.7530E-03 NODE          35 -99.9%  0.3584E-03  0.3455E-04  0.8481E-06 -0.5328E-06   0.000    
  1364  0.6603      0.7530E-03 NODE          35 -99.9%  0.3601E-03  0.3462E-04  0.8494E-06 -0.5338E-06   0.000    
  1365  0.6611      0.7530E-03 NODE          35 -99.9%  0.3617E-03  0.3469E-04  0.8508E-06 -0.5348E-06   0.000    
  1366  0.6618      0.7530E-03 NODE          35 -99.9%  0.3634E-03  0.3476E-04  0.8522E-06 -0.5358E-06   0.000    
  1367  0.6626      0.7530E-03 NODE          35 -99.9%  0.3650E-03  0.3483E-04  0.8537E-06 -0.5368E-06   0.000    
  1368  0.6633      0.7530E-03 NODE          35 -99.9%  0.3667E-03  0.3491E-04  0.8552E-06 -0.5377E-06   0.000    
  1369  0.6641      0.7530E-03 NODE          35 -99.9%  0.3684E-03  0.3498E-04  0.8569E-06 -0.5387E-06   0.000    
  1370  0.6648      0.7530E-03 NODE          35 -99.9%  0.3700E-03  0.3505E-04  0.8586E-06 -0.5397E-06   0.000    
  1371  0.6656      0.7530E-03 NODE          35 -99.9%  0.3717E-03  0.3513E-04  0.8603E-06 -0.5407E-06   0.000    
  1372  0.6663      0.7530E-03 NODE          35 -99.9%  0.3734E-03  0.3521E-04  0.8621E-06 -0.5417E-06   0.000    
  1373  0.6671      0.7530E-03 NODE          35 -99.9%  0.3751E-03  0.3529E-04  0.8640E-06 -0.5427E-06   0.000    
  1374  0.6678      0.7530E-03 NODE          35 -99.9%  0.3768E-03  0.3536E-04  0.8659E-06 -0.5437E-06   0.000    
 CYCLE    TIME      TIME-STEP  ELEMENT          ERROR  I-ENERGY    K-ENERGY T  K-ENERGY R  EXT-WORK MAS.ERR
  1375  0.6686      0.7530E-03 NODE          35 -99.9%  0.3785E-03  0.3544E-04  0.8679E-06 -0.5447E-06   0.000    
  1376  0.6693      0.7530E-03 NODE          35 -99.9%  0.3802E-03  0.3552E-04  0.8700E-06 -0.5457E-06   0.000    
  1377  0.6701      0.7530E-03 NODE          35 -99.9%  0.3819E-03  0.3561E-04  0.8721E-06 -0.5468E-06   0.000    
  1378  0.6709      0.7530E-03 NODE          35 -99.9%  0.3836E-03  0.3569E-04  0.8742E-06 -0.5478E-06   0.000    
  1379  0.6716      0.7530E-03 NODE          35 -99.9%  0.3854E-03  0.3577E-04  0.8765E-06 -0.5488E-06   0.000    
  1380  0.6724      0.7530E-03 NODE          35 -99.9%  0.3871E-03  0.3586E-04  0.8787E-06 -0.5498E-06   0.000    
  1381  0.6731      0.7530E-03 NODE          35 -99.9%  0.3888E-03  0.3594E-04  0.8811E-06 -0.5508E-06   0.000    
  1382  0.6739      0.7530E-03 NODE          35 -99.9%  0.3906E-03  0.3603E-04  0.8834E-06 -0.5519E-06   0.000    
  1383  0.6746      0.7530E-03 NODE          35 -99.9%  0.3923E-03  0.3612E-04  0.8859E-06 -0.5529E-06   0.000    
  1384  0.6754      0.7530E-03 NODE          35 -99.9%  0.3941E-03  0.3620E-04  0.8883E-06 -0.5539E-06   0.000    
  1385  0.6761      0.7530E-03 NODE          35 -99.9%  0.3958E-03  0.3629E-04  0.8909E-06 -0.5550E-06   0.000    
  1386  0.6769      0.7530E-03 NODE          35 -99.9%  0.3976E-03  0.3638E-04  0.8934E-06 -0.5560E-06   0.000    
  1387  0.6776      0.7530E-03 NODE          35 -99.9%  0.3994E-03  0.3647E-04  0.8960E-06 -0.5570E-06   0.000    
  1388  0.6784      0.7530E-03 NODE          35 -99.9%  0.4012E-03  0.3656E-04  0.8987E-06 -0.5581E-06   0.000    
  1389  0.6791      0.7530E-03 NODE          35 -99.9%  0.4030E-03  0.3666E-04  0.9013E-06 -0.5591E-06   0.000    
  1390  0.6799      0.7530E-03 NODE          35 -99.9%  0.4047E-03  0.3675E-04  0.9041E-06 -0.5602E-06   0.000    
  1391  0.6806      0.7530E-03 NODE          35 -99.9%  0.4065E-03  0.3684E-04  0.9068E-06 -0.5612E-06   0.000    
  1392  0.6814      0.7530E-03 NODE          35 -99.9%  0.4083E-03  0.3694E-04  0.9096E-06 -0.5623E-06   0.000    
  1393  0.6821      0.7530E-03 NODE          35 -99.9%  0.4102E-03  0.3703E-04  0.9125E-06 -0.5633E-06   0.000    
  1394  0.6829      0.7530E-03 NODE          35 -99.9%  0.4120E-03  0.3713E-04  0.9153E-06 -0.5644E-06   0.000    
  1395  0.6837      0.7530E-03 NODE          29 -99.9%  0.4138E-03  0.3723E-04  0.9182E-06 -0.5654E-06   0.000    
  1396  0.6844      0.7530E-03 NODE          35 -99.9%  0.4156E-03  0.3732E-04  0.9212E-06 -0.5665E-06   0.000    
  1397  0.6852      0.7530E-03 NODE          35 -99.9%  0.4174E-03  0.3742E-04  0.9241E-06 -0.5676E-06   0.000    
  1398  0.6859      0.7530E-03 NODE          35 -99.9%  0.4193E-03  0.3752E-04  0.9271E-06 -0.5686E-06   0.000    
  1399  0.6867      0.7530E-03 NODE          35 -99.9%  0.4211E-03  0.3762E-04  0.9302E-06 -0.5697E-06   0.000    
  1400  0.6874      0.7530E-03 NODE          35 -99.9%  0.4230E-03  0.3772E-04  0.9333E-06 -0.5708E-06   0.000    
  1401  0.6882      0.7530E-03 NODE          35 -99.9%  0.4248E-03  0.3783E-04  0.9364E-06 -0.5718E-06   0.000    
  1402  0.6889      0.7530E-03 NODE          35 -99.9%  0.4267E-03  0.3793E-04  0.9395E-06 -0.5729E-06   0.000    
  1403  0.6897      0.7530E-03 NODE          35 -99.9%  0.4286E-03  0.3803E-04  0.9426E-06 -0.5740E-06   0.000    
  1404  0.6904      0.7530E-03 NODE          35 -99.9%  0.4304E-03  0.3814E-04  0.9458E-06 -0.5751E-06   0.000    
  1405  0.6912      0.7530E-03 NODE          35 -99.9%  0.4323E-03  0.3824E-04  0.9491E-06 -0.5762E-06   0.000    
  1406  0.6919      0.7530E-03 NODE          35 -99.9%  0.4342E-03  0.3835E-04  0.9523E-06 -0.5773E-06   0.000    
  1407  0.6927      0.7530E-03 NODE          35 -99.9%  0.4361E-03  0.3846E-04  0.9556E-06 -0.5784E-06   0.000    
  1408  0.6934      0.7530E-03 NODE          35 -99.9%  0.4380E-03  0.3856E-04  0.9589E-06 -0.5795E-06   0.000    
  1409  0.6942      0.7530E-03 NODE          35 -99.9%  0.4399E-03  0.3867E-04  0.9623E-06 -0.5805E-06   0.000    
  1410  0.6949      0.7530E-03 NODE          35 -99.9%  0.4418E-03  0.3878E-04  0.9656E-06 -0.5816E-06   0.000    
  1411  0.6957      0.7530E-03 NODE          35 -99.9%  0.4437E-03  0.3889E-04  0.9690E-06 -0.5827E-06   0.000    
  1412  0.6965      0.7530E-03 NODE          35 -99.9%  0.4457E-03  0.3900E-04  0.9724E-06 -0.5839E-06   0.000    
  1413  0.6972      0.7530E-03 NODE          35 -99.9%  0.4476E-03  0.3911E-04  0.9758E-06 -0.5850E-06   0.000    
  1414  0.6980      0.7530E-03 NODE          35 -99.9%  0.4495E-03  0.3922E-04  0.9793E-06 -0.5861E-06   0.000    
  1415  0.6987      0.7530E-03 NODE          35 -99.9%  0.4515E-03  0.3934E-04  0.9828E-06 -0.5872E-06   0.000    
  1416  0.6995      0.7530E-03 NODE          35 -99.9%  0.4534E-03  0.3945E-04  0.9862E-06 -0.5883E-06   0.000    
  1417  0.7002      0.7530E-03 NODE          35 -99.9%  0.4554E-03  0.3956E-04  0.9897E-06 -0.5894E-06   0.000    
  1418  0.7010      0.7530E-03 NODE          35 -99.9%  0.4574E-03  0.3968E-04  0.9932E-06 -0.5905E-06   0.000    
  1419  0.7017      0.7530E-03 NODE          35 -99.9%  0.4593E-03  0.3979E-04  0.9967E-06 -0.5916E-06   0.000    
  1420  0.7025      0.7530E-03 NODE          35 -99.9%  0.4613E-03  0.3990E-04  0.1000E-05 -0.5928E-06   0.000    
  1421  0.7032      0.7530E-03 NODE          35 -99.9%  0.4633E-03  0.4002E-04  0.1004E-05 -0.5939E-06   0.000    
  1422  0.7040      0.7530E-03 NODE          35 -99.9%  0.4653E-03  0.4013E-04  0.1007E-05 -0.5950E-06   0.000    
  1423  0.7047      0.7530E-03 NODE          35 -99.9%  0.4673E-03  0.4025E-04  0.1011E-05 -0.5962E-06   0.000    
  1424  0.7055      0.7530E-03 NODE          35 -99.9%  0.4693E-03  0.4036E-04  0.1014E-05 -0.5973E-06   0.000    
  1425  0.7062      0.7530E-03 NODE          35 -99.9%  0.4713E-03  0.4047E-04  0.1018E-05 -0.5984E-06   0.000    
  1426  0.7070      0.7530E-03 NODE          35 -99.9%  0.4733E-03  0.4059E-04  0.1021E-05 -0.5996E-06   0.000    
  1427  0.7077      0.7530E-03 NODE          35 -99.9%  0.4753E-03  0.4070E-04  0.1025E-05 -0.6007E-06   0.000    
  1428  0.7085      0.7530E-03 NODE          35 -99.9%  0.4773E-03  0.4082E-04  0.1028E-05 -0.6018E-06   0.000    
  1429  0.7093      0.7530E-03 NODE          35 -99.9%  0.4793E-03  0.4093E-04  0.1032E-05 -0.6030E-06   0.000    
 CYCLE    TIME      TIME-STEP  ELEMENT          ERROR  I-ENERGY    K-ENERGY T  K-ENERGY R  EXT-WORK MAS.ERR
  1430  0.7100      0.7530E-03 NODE          35 -99.9%  0.4814E-03  0.4105E-04  0.1035E-05 -0.6041E-06   0.000    
  1431  0.7108      0.7530E-03 NODE          35 -99.9%  0.4834E-03  0.4116E-04  0.1039E-05 -0.6053E-06   0.000    
  1432  0.7115      0.7530E-03 NODE          35 -99.9%  0.4855E-03  0.4127E-04  0.1042E-05 -0.6064E-06   0.000    
  1433  0.7123      0.7530E-03 NODE          35 -99.9%  0.4875E-03  0.4138E-04  0.1045E-05 -0.6076E-06   0.000    
  1434  0.7130      0.7530E-03 NODE          35 -99.9%  0.4896E-03  0.4150E-04  0.1049E-05 -0.6087E-06   0.000    
  1435  0.7138      0.7530E-03 NODE          35 -99.9%  0.4917E-03  0.4161E-04  0.1052E-05 -0.6099E-06   0.000    
  1436  0.7145      0.7530E-03 NODE          35 -99.9%  0.4938E-03  0.4172E-04  0.1055E-05 -0.6110E-06   0.000    
  1437  0.7153      0.7530E-03 NODE          35 -99.9%  0.4958E-03  0.4183E-04  0.1059E-05 -0.6122E-06   0.000    
  1438  0.7160      0.7530E-03 NODE          35 -99.9%  0.4979E-03  0.4194E-04  0.1062E-05 -0.6133E-06   0.000    
  1439  0.7168      0.7530E-03 NODE          35 -99.9%  0.5000E-03  0.4205E-04  0.1065E-05 -0.6145E-06   0.000    
  1440  0.7175      0.7530E-03 NODE          35 -99.9%  0.5021E-03  0.4216E-04  0.1068E-05 -0.6157E-06   0.000    
  1441  0.7183      0.7530E-03 NODE          35 -99.9%  0.5042E-03  0.4227E-04  0.1071E-05 -0.6168E-06   0.000    
  1442  0.7190      0.7530E-03 NODE          35 -99.9%  0.5064E-03  0.4238E-04  0.1075E-05 -0.6180E-06   0.000    
  1443  0.7198      0.7530E-03 NODE          35 -99.9%  0.5085E-03  0.4249E-04  0.1078E-05 -0.6192E-06   0.000    
  1444  0.7206      0.7530E-03 NODE          35 -99.9%  0.5106E-03  0.4259E-04  0.1081E-05 -0.6204E-06   0.000    
  1445  0.7213      0.7530E-03 NODE          35 -99.9%  0.5127E-03  0.4270E-04  0.1084E-05 -0.6215E-06   0.000    
  1446  0.7221      0.7530E-03 NODE          35 -99.9%  0.5149E-03  0.4280E-04  0.1087E-05 -0.6227E-06   0.000    
  1447  0.7228      0.7530E-03 NODE          35 -99.9%  0.5170E-03  0.4291E-04  0.1090E-05 -0.6239E-06   0.000    
  1448  0.7236      0.7530E-03 NODE          35 -99.9%  0.5192E-03  0.4301E-04  0.1093E-05 -0.6251E-06   0.000    
  1449  0.7243      0.7530E-03 NODE          35 -99.9%  0.5214E-03  0.4312E-04  0.1096E-05 -0.6262E-06   0.000    
  1450  0.7251      0.7530E-03 NODE          35 -99.9%  0.5235E-03  0.4322E-04  0.1099E-05 -0.6274E-06   0.000    
  1451  0.7258      0.7530E-03 NODE          35 -99.9%  0.5257E-03  0.4332E-04  0.1102E-05 -0.6286E-06   0.000    
  1452  0.7266      0.7530E-03 NODE          35 -99.9%  0.5279E-03  0.4342E-04  0.1105E-05 -0.6298E-06   0.000    
  1453  0.7273      0.7530E-03 NODE          35 -99.9%  0.5301E-03  0.4353E-04  0.1107E-05 -0.6310E-06   0.000    
  1454  0.7281      0.7530E-03 NODE          35 -99.9%  0.5323E-03  0.4362E-04  0.1110E-05 -0.6322E-06   0.000    
  1455  0.7288      0.7530E-03 NODE          35 -99.9%  0.5345E-03  0.4372E-04  0.1113E-05 -0.6334E-06   0.000    
  1456  0.7296      0.7530E-03 NODE          35 -99.9%  0.5367E-03  0.4382E-04  0.1116E-05 -0.6346E-06   0.000    
  1457  0.7303      0.7530E-03 NODE          35 -99.9%  0.5389E-03  0.4392E-04  0.1118E-05 -0.6358E-06   0.000    
  1458  0.7311      0.7530E-03 NODE          35 -99.9%  0.5411E-03  0.4401E-04  0.1121E-05 -0.6370E-06   0.000    
  1459  0.7318      0.7530E-03 NODE          35 -99.9%  0.5434E-03  0.4411E-04  0.1124E-05 -0.6382E-06   0.000    
  1460  0.7326      0.7530E-03 NODE          35 -99.9%  0.5456E-03  0.4420E-04  0.1126E-05 -0.6394E-06   0.000    
  1461  0.7334      0.7530E-03 NODE          35 -99.9%  0.5479E-03  0.4430E-04  0.1129E-05 -0.6406E-06   0.000    
  1462  0.7341      0.7530E-03 NODE          35 -99.9%  0.5501E-03  0.4439E-04  0.1131E-05 -0.6418E-06   0.000    
  1463  0.7349      0.7530E-03 NODE          35 -99.9%  0.5524E-03  0.4448E-04  0.1133E-05 -0.6430E-06   0.000    
  1464  0.7356      0.7530E-03 NODE          35 -99.9%  0.5546E-03  0.4457E-04  0.1136E-05 -0.6442E-06   0.000    
  1465  0.7364      0.7530E-03 NODE          35 -99.9%  0.5569E-03  0.4466E-04  0.1138E-05 -0.6454E-06   0.000    
  1466  0.7371      0.7530E-03 NODE          35 -99.9%  0.5592E-03  0.4475E-04  0.1140E-05 -0.6466E-06   0.000    
  1467  0.7379      0.7530E-03 NODE          35 -99.9%  0.5615E-03  0.4483E-04  0.1142E-05 -0.6478E-06   0.000    
  1468  0.7386      0.7530E-03 NODE          35 -99.9%  0.5638E-03  0.4492E-04  0.1145E-05 -0.6490E-06   0.000    
  1469  0.7394      0.7530E-03 NODE          35 -99.9%  0.5661E-03  0.4500E-04  0.1147E-05 -0.6503E-06   0.000    
  1470  0.7401      0.7530E-03 NODE          35 -99.9%  0.5684E-03  0.4508E-04  0.1149E-05 -0.6515E-06   0.000    
  1471  0.7409      0.7530E-03 NODE          35 -99.9%  0.5707E-03  0.4516E-04  0.1151E-05 -0.6527E-06   0.000    
  1472  0.7416      0.7530E-03 NODE          35 -99.9%  0.5730E-03  0.4524E-04  0.1152E-05 -0.6539E-06   0.000    
  1473  0.7424      0.7530E-03 NODE          35 -99.9%  0.5753E-03  0.4532E-04  0.1154E-05 -0.6551E-06   0.000    
  1474  0.7431      0.7530E-03 NODE          35 -99.9%  0.5777E-03  0.4540E-04  0.1156E-05 -0.6564E-06   0.000    
  1475  0.7439      0.7530E-03 NODE          35 -99.9%  0.5800E-03  0.4548E-04  0.1158E-05 -0.6576E-06   0.000    
  1476  0.7446      0.7530E-03 NODE          35 -99.9%  0.5824E-03  0.4555E-04  0.1159E-05 -0.6588E-06   0.000    
  1477  0.7454      0.7530E-03 NODE          35 -99.9%  0.5847E-03  0.4563E-04  0.1161E-05 -0.6601E-06   0.000    
  1478  0.7462      0.7530E-03 NODE          35 -99.9%  0.5871E-03  0.4570E-04  0.1162E-05 -0.6613E-06   0.000    
  1479  0.7469      0.7530E-03 NODE          35 -99.9%  0.5895E-03  0.4577E-04  0.1164E-05 -0.6625E-06   0.000    
  1480  0.7477      0.7530E-03 NODE          35 -99.9%  0.5919E-03  0.4585E-04  0.1165E-05 -0.6638E-06   0.000    
  1481  0.7484      0.7530E-03 NODE          35 -99.9%  0.5942E-03  0.4592E-04  0.1166E-05 -0.6650E-06   0.000    
  1482  0.7492      0.7530E-03 NODE          35 -99.9%  0.5966E-03  0.4599E-04  0.1168E-05 -0.6662E-06   0.000    
  1483  0.7499      0.7530E-03 NODE          35 -99.9%  0.5990E-03  0.4605E-04  0.1169E-05 -0.6675E-06   0.000    
  1484  0.7507      0.7530E-03 NODE          35 -99.9%  0.6015E-03  0.4612E-04  0.1170E-05 -0.6687E-06   0.000    
 CYCLE    TIME      TIME-STEP  ELEMENT          ERROR  I-ENERGY    K-ENERGY T  K-ENERGY R  EXT-WORK MAS.ERR
  1485  0.7514      0.7530E-03 NODE          35 -99.9%  0.6039E-03  0.4619E-04  0.1171E-05 -0.6700E-06   0.000    
  1486  0.7522      0.7530E-03 NODE          35 -99.9%  0.6063E-03  0.4626E-04  0.1172E-05 -0.6712E-06   0.000    
  1487  0.7529      0.7530E-03 NODE          35 -99.9%  0.6087E-03  0.4632E-04  0.1173E-05 -0.6725E-06   0.000    
  1488  0.7537      0.7530E-03 NODE          35 -99.9%  0.6112E-03  0.4639E-04  0.1174E-05 -0.6737E-06   0.000    
  1489  0.7544      0.7530E-03 NODE          35 -99.9%  0.6136E-03  0.4645E-04  0.1175E-05 -0.6750E-06   0.000    
  1490  0.7552      0.7530E-03 NODE          35 -99.9%  0.6161E-03  0.4652E-04  0.1176E-05 -0.6762E-06   0.000    
  1491  0.7559      0.7530E-03 NODE          35 -99.9%  0.6185E-03  0.4658E-04  0.1177E-05 -0.6775E-06   0.000    
  1492  0.7567      0.7530E-03 NODE          35 -99.9%  0.6210E-03  0.4665E-04  0.1178E-05 -0.6788E-06   0.000    
  1493  0.7574      0.7530E-03 NODE          35 -99.9%  0.6235E-03  0.4671E-04  0.1178E-05 -0.6800E-06   0.000    
  1494  0.7582      0.7530E-03 NODE          35 -99.9%  0.6260E-03  0.4677E-04  0.1179E-05 -0.6813E-06   0.000    
  1495  0.7590      0.7530E-03 NODE          35 -99.9%  0.6284E-03  0.4684E-04  0.1180E-05 -0.6826E-06   0.000    
  1496  0.7597      0.7530E-03 NODE          35 -99.9%  0.6309E-03  0.4690E-04  0.1181E-05 -0.6838E-06   0.000    
  1497  0.7605      0.7530E-03 NODE          35 -99.9%  0.6334E-03  0.4696E-04  0.1181E-05 -0.6851E-06   0.000    
  1498  0.7612      0.7530E-03 NODE          35 -99.9%  0.6360E-03  0.4702E-04  0.1182E-05 -0.6864E-06   0.000    
  1499  0.7620      0.7530E-03 NODE          35 -99.9%  0.6385E-03  0.4709E-04  0.1183E-05 -0.6877E-06   0.000    
  1500  0.7627      0.7530E-03 NODE          35 -99.9%  0.6410E-03  0.4715E-04  0.1184E-05 -0.6889E-06   0.000    
  1501  0.7635      0.7530E-03 NODE          35 -99.9%  0.6435E-03  0.4721E-04  0.1184E-05 -0.6902E-06   0.000    
  1502  0.7642      0.7530E-03 NODE          35 -99.9%  0.6461E-03  0.4727E-04  0.1185E-05 -0.6915E-06   0.000    
  1503  0.7650      0.7530E-03 NODE          35 -99.9%  0.6486E-03  0.4734E-04  0.1186E-05 -0.6928E-06   0.000    
  1504  0.7657      0.7530E-03 NODE          35 -99.9%  0.6512E-03  0.4740E-04  0.1187E-05 -0.6941E-06   0.000    
  1505  0.7665      0.7530E-03 NODE          35 -99.9%  0.6538E-03  0.4746E-04  0.1187E-05 -0.6954E-06   0.000    
  1506  0.7672      0.7530E-03 NODE          35 -99.9%  0.6563E-03  0.4752E-04  0.1188E-05 -0.6967E-06   0.000    
  1507  0.7680      0.7530E-03 NODE          35 -99.9%  0.6589E-03  0.4759E-04  0.1189E-05 -0.6980E-06   0.000    
  1508  0.7687      0.7530E-03 NODE          35 -99.9%  0.6615E-03  0.4765E-04  0.1189E-05 -0.6993E-06   0.000    
  1509  0.7695      0.7530E-03 NODE          35 -99.9%  0.6641E-03  0.4771E-04  0.1190E-05 -0.7006E-06   0.000    
  1510  0.7703      0.7530E-03 NODE          35 -99.9%  0.6667E-03  0.4778E-04  0.1191E-05 -0.7019E-06   0.000    
  1511  0.7710      0.7530E-03 NODE          35 -99.9%  0.6693E-03  0.4784E-04  0.1192E-05 -0.7032E-06   0.000    
  1512  0.7718      0.7530E-03 NODE          35 -99.9%  0.6719E-03  0.4791E-04  0.1193E-05 -0.7045E-06   0.000    
  1513  0.7725      0.7530E-03 NODE          35 -99.9%  0.6746E-03  0.4797E-04  0.1193E-05 -0.7058E-06   0.000    
  1514  0.7733      0.7530E-03 NODE          35 -99.9%  0.6772E-03  0.4803E-04  0.1194E-05 -0.7071E-06   0.000    
  1515  0.7740      0.7530E-03 NODE          35 -99.9%  0.6798E-03  0.4810E-04  0.1195E-05 -0.7085E-06   0.000    
  1516  0.7748      0.7530E-03 NODE          35 -99.9%  0.6825E-03  0.4817E-04  0.1196E-05 -0.7098E-06   0.000    
  1517  0.7755      0.7530E-03 NODE          35 -99.9%  0.6851E-03  0.4823E-04  0.1197E-05 -0.7111E-06   0.000    
  1518  0.7763      0.7530E-03 NODE          35 -99.9%  0.6878E-03  0.4830E-04  0.1198E-05 -0.7124E-06   0.000    
  1519  0.7770      0.7530E-03 NODE          35 -99.9%  0.6905E-03  0.4837E-04  0.1199E-05 -0.7138E-06   0.000    
  1520  0.7778      0.7530E-03 NODE          35 -99.9%  0.6932E-03  0.4843E-04  0.1200E-05 -0.7151E-06   0.000    
  1521  0.7785      0.7530E-03 NODE          35 -99.9%  0.6958E-03  0.4850E-04  0.1201E-05 -0.7164E-06   0.000    
  1522  0.7793      0.7530E-03 NODE          35 -99.9%  0.6985E-03  0.4857E-04  0.1202E-05 -0.7178E-06   0.000    
  1523  0.7800      0.7530E-03 NODE          35 -99.9%  0.7012E-03  0.4864E-04  0.1203E-05 -0.7191E-06   0.000    
  1524  0.7808      0.7530E-03 NODE          35 -99.9%  0.7040E-03  0.4871E-04  0.1204E-05 -0.7205E-06   0.000    
  1525  0.7815      0.7530E-03 NODE          35 -99.9%  0.7067E-03  0.4878E-04  0.1205E-05 -0.7218E-06   0.000    
  1526  0.7823      0.7530E-03 NODE          35 -99.9%  0.7094E-03  0.4886E-04  0.1206E-05 -0.7232E-06   0.000    
  1527  0.7831      0.7530E-03 NODE          35 -99.9%  0.7121E-03  0.4893E-04  0.1208E-05 -0.7245E-06   0.000    
  1528  0.7838      0.7530E-03 NODE          35 -99.9%  0.7149E-03  0.4900E-04  0.1209E-05 -0.7259E-06   0.000    
  1529  0.7846      0.7530E-03 NODE          35 -99.9%  0.7176E-03  0.4908E-04  0.1210E-05 -0.7272E-06   0.000    
  1530  0.7853      0.7530E-03 NODE          35 -99.9%  0.7204E-03  0.4916E-04  0.1212E-05 -0.7286E-06   0.000    
  1531  0.7861      0.7530E-03 NODE          35 -99.9%  0.7232E-03  0.4923E-04  0.1213E-05 -0.7300E-06   0.000    
  1532  0.7868      0.7530E-03 NODE          35 -99.9%  0.7259E-03  0.4931E-04  0.1215E-05 -0.7313E-06   0.000    
  1533  0.7876      0.7530E-03 NODE          35 -99.9%  0.7287E-03  0.4939E-04  0.1217E-05 -0.7327E-06   0.000    
  1534  0.7883      0.7530E-03 NODE          35 -99.9%  0.7315E-03  0.4947E-04  0.1218E-05 -0.7341E-06   0.000    
  1535  0.7891      0.7530E-03 NODE          35 -99.9%  0.7343E-03  0.4956E-04  0.1220E-05 -0.7354E-06   0.000    
  1536  0.7898      0.7530E-03 NODE          35 -99.9%  0.7371E-03  0.4964E-04  0.1222E-05 -0.7368E-06   0.000    
  1537  0.7906      0.7530E-03 NODE          35 -99.9%  0.7399E-03  0.4973E-04  0.1224E-05 -0.7382E-06   0.000    
  1538  0.7913      0.7530E-03 NODE          29 -99.9%  0.7428E-03  0.4981E-04  0.1226E-05 -0.7396E-06   0.000    
  1539  0.7921      0.7530E-03 NODE          35 -99.9%  0.7456E-03  0.4990E-04  0.1228E-05 -0.7410E-06   0.000    
 CYCLE    TIME      TIME-STEP  ELEMENT          ERROR  I-ENERGY    K-ENERGY T  K-ENERGY R  EXT-WORK MAS.ERR
  1540  0.7928      0.7530E-03 NODE          35 -99.9%  0.7484E-03  0.4999E-04  0.1230E-05 -0.7424E-06   0.000    
  1541  0.7936      0.7530E-03 NODE          35 -99.9%  0.7513E-03  0.5008E-04  0.1232E-05 -0.7438E-06   0.000    
  1542  0.7943      0.7530E-03 NODE          35 -99.9%  0.7541E-03  0.5017E-04  0.1235E-05 -0.7452E-06   0.000    
  1543  0.7951      0.7530E-03 NODE          35 -99.9%  0.7570E-03  0.5026E-04  0.1237E-05 -0.7466E-06   0.000    
  1544  0.7959      0.7530E-03 NODE          35 -99.9%  0.7599E-03  0.5036E-04  0.1239E-05 -0.7480E-06   0.000    
  1545  0.7966      0.7530E-03 NODE          29 -99.9%  0.7628E-03  0.5046E-04  0.1242E-05 -0.7494E-06   0.000    
  1546  0.7974      0.7530E-03 NODE          29 -99.9%  0.7656E-03  0.5055E-04  0.1244E-05 -0.7508E-06   0.000    
  1547  0.7981      0.7530E-03 NODE          29 -99.9%  0.7685E-03  0.5065E-04  0.1247E-05 -0.7522E-06   0.000    
  1548  0.7989      0.7530E-03 NODE          29 -99.9%  0.7714E-03  0.5075E-04  0.1250E-05 -0.7537E-06   0.000    
  1549  0.7996      0.7530E-03 NODE          29 -99.9%  0.7744E-03  0.5085E-04  0.1252E-05 -0.7551E-06   0.000    
  1550  0.8004      0.7530E-03 NODE          29 -99.9%  0.7773E-03  0.5095E-04  0.1255E-05 -0.7565E-06   0.000    
     ANIMATION FILE: FFO25SCBA005 WRITTEN
     OUTPUT FILE: FFO25SCB_0005.sty WRITTEN
  1551  0.8011      0.7530E-03 NODE          29 -99.9%  0.7802E-03  0.5105E-04  0.1258E-05 -0.7579E-06   0.000    
  1552  0.8019      0.7530E-03 NODE          29 -99.9%  0.7831E-03  0.5116E-04  0.1261E-05 -0.7594E-06   0.000    
  1553  0.8026      0.7530E-03 NODE          29 -99.9%  0.7861E-03  0.5126E-04  0.1264E-05 -0.7608E-06   0.000    
  1554  0.8034      0.7530E-03 NODE          29 -99.9%  0.7891E-03  0.5137E-04  0.1266E-05 -0.7622E-06   0.000    
  1555  0.8041      0.7530E-03 NODE          29 -99.9%  0.7920E-03  0.5148E-04  0.1269E-05 -0.7637E-06   0.000    
  1556  0.8049      0.7530E-03 NODE          29 -99.9%  0.7950E-03  0.5159E-04  0.1272E-05 -0.7651E-06   0.000    
  1557  0.8056      0.7530E-03 NODE          29 -99.9%  0.7980E-03  0.5169E-04  0.1276E-05 -0.7666E-06   0.000    
  1558  0.8064      0.7530E-03 NODE          29 -99.9%  0.8010E-03  0.5180E-04  0.1279E-05 -0.7680E-06   0.000    
  1559  0.8071      0.7530E-03 NODE          29 -99.9%  0.8040E-03  0.5192E-04  0.1282E-05 -0.7695E-06   0.000    
  1560  0.8079      0.7530E-03 NODE          29 -99.9%  0.8070E-03  0.5203E-04  0.1285E-05 -0.7709E-06   0.000    
  1561  0.8087      0.7530E-03 NODE          29 -99.9%  0.8100E-03  0.5214E-04  0.1288E-05 -0.7724E-06   0.000    
  1562  0.8094      0.7530E-03 NODE          29 -99.9%  0.8130E-03  0.5226E-04  0.1291E-05 -0.7739E-06   0.000    
  1563  0.8102      0.7530E-03 NODE          29 -99.9%  0.8160E-03  0.5237E-04  0.1295E-05 -0.7753E-06   0.000    
  1564  0.8109      0.7530E-03 NODE          29 -99.9%  0.8191E-03  0.5249E-04  0.1298E-05 -0.7768E-06   0.000    
  1565  0.8117      0.7530E-03 NODE          29 -99.9%  0.8221E-03  0.5260E-04  0.1301E-05 -0.7783E-06   0.000    
  1566  0.8124      0.7530E-03 NODE          29 -99.9%  0.8252E-03  0.5272E-04  0.1305E-05 -0.7797E-06   0.000    
  1567  0.8132      0.7530E-03 NODE          29 -99.9%  0.8282E-03  0.5284E-04  0.1308E-05 -0.7812E-06   0.000    
  1568  0.8139      0.7530E-03 NODE          29 -99.9%  0.8313E-03  0.5296E-04  0.1311E-05 -0.7827E-06   0.000    
  1569  0.8147      0.7530E-03 NODE          29 -99.9%  0.8344E-03  0.5308E-04  0.1315E-05 -0.7842E-06   0.000    
  1570  0.8154      0.7530E-03 NODE          29 -99.9%  0.8375E-03  0.5320E-04  0.1318E-05 -0.7857E-06   0.000    
  1571  0.8162      0.7530E-03 NODE          29 -99.9%  0.8406E-03  0.5332E-04  0.1322E-05 -0.7872E-06   0.000    
  1572  0.8169      0.7530E-03 NODE          29 -99.9%  0.8437E-03  0.5345E-04  0.1326E-05 -0.7886E-06   0.000    
  1573  0.8177      0.7530E-03 NODE          29 -99.9%  0.8468E-03  0.5357E-04  0.1329E-05 -0.7901E-06   0.000    
  1574  0.8184      0.7530E-03 NODE          29 -99.9%  0.8499E-03  0.5370E-04  0.1333E-05 -0.7916E-06   0.000    
  1575  0.8192      0.7530E-03 NODE          29 -99.9%  0.8531E-03  0.5382E-04  0.1337E-05 -0.7931E-06   0.000    
  1576  0.8200      0.7530E-03 NODE          29 -99.9%  0.8562E-03  0.5395E-04  0.1340E-05 -0.7946E-06   0.000    
  1577  0.8207      0.7530E-03 NODE          29 -99.9%  0.8593E-03  0.5408E-04  0.1344E-05 -0.7962E-06   0.000    
  1578  0.8215      0.7530E-03 NODE          29 -99.9%  0.8625E-03  0.5420E-04  0.1348E-05 -0.7977E-06   0.000    
  1579  0.8222      0.7530E-03 NODE          29 -99.9%  0.8657E-03  0.5433E-04  0.1352E-05 -0.7992E-06   0.000    
  1580  0.8230      0.7530E-03 NODE          29 -99.9%  0.8688E-03  0.5446E-04  0.1356E-05 -0.8007E-06   0.000    
  1581  0.8237      0.7530E-03 NODE          29 -99.9%  0.8720E-03  0.5459E-04  0.1360E-05 -0.8022E-06   0.000    
  1582  0.8245      0.7530E-03 NODE          29 -99.9%  0.8752E-03  0.5472E-04  0.1364E-05 -0.8037E-06   0.000    
  1583  0.8252      0.7530E-03 NODE          29 -99.9%  0.8784E-03  0.5486E-04  0.1368E-05 -0.8053E-06   0.000    
  1584  0.8260      0.7530E-03 NODE          29 -99.9%  0.8816E-03  0.5499E-04  0.1372E-05 -0.8068E-06   0.000    
  1585  0.8267      0.7530E-03 NODE          29 -99.9%  0.8849E-03  0.5512E-04  0.1376E-05 -0.8083E-06   0.000    
  1586  0.8275      0.7530E-03 NODE          29 -99.9%  0.8881E-03  0.5525E-04  0.1380E-05 -0.8099E-06   0.000    
  1587  0.8282      0.7530E-03 NODE          29 -99.9%  0.8913E-03  0.5539E-04  0.1384E-05 -0.8114E-06   0.000    
  1588  0.8290      0.7530E-03 NODE          29 -99.9%  0.8946E-03  0.5552E-04  0.1388E-05 -0.8129E-06   0.000    
  1589  0.8297      0.7530E-03 NODE          29 -99.9%  0.8978E-03  0.5565E-04  0.1392E-05 -0.8145E-06   0.000    
  1590  0.8305      0.7530E-03 NODE          29 -99.9%  0.9011E-03  0.5579E-04  0.1396E-05 -0.8160E-06   0.000    
  1591  0.8312      0.7530E-03 NODE          29 -99.9%  0.9044E-03  0.5592E-04  0.1401E-05 -0.8176E-06   0.000    
  1592  0.8320      0.7530E-03 NODE          29 -99.9%  0.9076E-03  0.5606E-04  0.1405E-05 -0.8191E-06   0.000    
  1593  0.8328      0.7530E-03 NODE          29 -99.9%  0.9109E-03  0.5619E-04  0.1409E-05 -0.8207E-06   0.000    
  1594  0.8335      0.7530E-03 NODE          29 -99.9%  0.9142E-03  0.5633E-04  0.1413E-05 -0.8222E-06   0.000    
 CYCLE    TIME      TIME-STEP  ELEMENT          ERROR  I-ENERGY    K-ENERGY T  K-ENERGY R  EXT-WORK MAS.ERR
  1595  0.8343      0.7530E-03 NODE          29 -99.9%  0.9175E-03  0.5646E-04  0.1417E-05 -0.8238E-06   0.000    
  1596  0.8350      0.7530E-03 NODE          29 -99.9%  0.9209E-03  0.5659E-04  0.1422E-05 -0.8253E-06   0.000    
  1597  0.8358      0.7530E-03 NODE          29 -99.9%  0.9242E-03  0.5673E-04  0.1426E-05 -0.8269E-06   0.000    
  1598  0.8365      0.7530E-03 NODE          29 -99.9%  0.9275E-03  0.5686E-04  0.1430E-05 -0.8285E-06   0.000    
  1599  0.8373      0.7530E-03 NODE          29 -99.9%  0.9309E-03  0.5700E-04  0.1434E-05 -0.8300E-06   0.000    
  1600  0.8380      0.7530E-03 NODE          29 -99.9%  0.9342E-03  0.5713E-04  0.1438E-05 -0.8316E-06   0.000    
  1601  0.8388      0.7530E-03 NODE          29 -99.9%  0.9376E-03  0.5726E-04  0.1442E-05 -0.8332E-06   0.000    
  1602  0.8395      0.7530E-03 NODE          29 -99.9%  0.9409E-03  0.5739E-04  0.1446E-05 -0.8347E-06   0.000    
  1603  0.8403      0.7530E-03 NODE          29 -99.9%  0.9443E-03  0.5753E-04  0.1451E-05 -0.8363E-06   0.000    
  1604  0.8410      0.7530E-03 NODE          29 -99.9%  0.9477E-03  0.5766E-04  0.1455E-05 -0.8379E-06   0.000    
  1605  0.8418      0.7530E-03 NODE          29 -99.9%  0.9511E-03  0.5779E-04  0.1459E-05 -0.8395E-06   0.000    
  1606  0.8425      0.7530E-03 NODE          29 -99.9%  0.9545E-03  0.5792E-04  0.1463E-05 -0.8411E-06   0.000    
  1607  0.8433      0.7530E-03 NODE          29 -99.9%  0.9579E-03  0.5805E-04  0.1467E-05 -0.8427E-06   0.000    
  1608  0.8440      0.7530E-03 NODE          29 -99.9%  0.9614E-03  0.5818E-04  0.1471E-05 -0.8442E-06   0.000    
  1609  0.8448      0.7530E-03 NODE          29 -99.9%  0.9648E-03  0.5830E-04  0.1474E-05 -0.8458E-06   0.000    
  1610  0.8456      0.7530E-03 NODE          29 -99.9%  0.9682E-03  0.5843E-04  0.1478E-05 -0.8474E-06   0.000    
  1611  0.8463      0.7530E-03 NODE          29 -99.9%  0.9717E-03  0.5856E-04  0.1482E-05 -0.8490E-06   0.000    
  1612  0.8471      0.7530E-03 NODE          29 -99.9%  0.9751E-03  0.5869E-04  0.1486E-05 -0.8506E-06   0.000    
  1613  0.8478      0.7530E-03 NODE          29 -99.9%  0.9786E-03  0.5881E-04  0.1490E-05 -0.8522E-06   0.000    
  1614  0.8486      0.7530E-03 NODE          29 -99.9%  0.9821E-03  0.5894E-04  0.1493E-05 -0.8538E-06   0.000    
  1615  0.8493      0.7530E-03 NODE          29 -99.9%  0.9856E-03  0.5906E-04  0.1497E-05 -0.8554E-06   0.000    
  1616  0.8501      0.7530E-03 NODE          29 -99.9%  0.9891E-03  0.5918E-04  0.1501E-05 -0.8570E-06   0.000    
  1617  0.8508      0.7530E-03 NODE          29 -99.9%  0.9926E-03  0.5931E-04  0.1504E-05 -0.8587E-06   0.000    
  1618  0.8516      0.7530E-03 NODE          29 -99.9%  0.9961E-03  0.5943E-04  0.1508E-05 -0.8603E-06   0.000    
  1619  0.8523      0.7530E-03 NODE          29 -99.9%  0.9996E-03  0.5955E-04  0.1512E-05 -0.8619E-06   0.000    
  1620  0.8531      0.7530E-03 NODE          29 -99.9%  0.1003E-02  0.5967E-04  0.1515E-05 -0.8635E-06   0.000    
  1621  0.8538      0.7530E-03 NODE          29 -99.9%  0.1007E-02  0.5979E-04  0.1518E-05 -0.8651E-06   0.000    
  1622  0.8546      0.7530E-03 NODE          29 -99.9%  0.1010E-02  0.5991E-04  0.1522E-05 -0.8667E-06   0.000    
  1623  0.8553      0.7530E-03 NODE          29 -99.9%  0.1014E-02  0.6003E-04  0.1525E-05 -0.8684E-06   0.000    
  1624  0.8561      0.7530E-03 NODE          29 -99.9%  0.1017E-02  0.6014E-04  0.1529E-05 -0.8700E-06   0.000    
  1625  0.8568      0.7530E-03 NODE          29 -99.9%  0.1021E-02  0.6026E-04  0.1532E-05 -0.8716E-06   0.000    
  1626  0.8576      0.7530E-03 NODE          29 -99.9%  0.1025E-02  0.6037E-04  0.1535E-05 -0.8732E-06   0.000    
  1627  0.8584      0.7530E-03 NODE          29 -99.9%  0.1028E-02  0.6049E-04  0.1538E-05 -0.8749E-06   0.000    
  1628  0.8591      0.7530E-03 NODE          29 -99.9%  0.1032E-02  0.6060E-04  0.1541E-05 -0.8765E-06   0.000    
  1629  0.8599      0.7530E-03 NODE          29 -99.9%  0.1035E-02  0.6071E-04  0.1544E-05 -0.8782E-06   0.000    
  1630  0.8606      0.7530E-03 NODE          29 -99.9%  0.1039E-02  0.6082E-04  0.1547E-05 -0.8798E-06   0.000    
  1631  0.8614      0.7530E-03 NODE          29 -99.9%  0.1043E-02  0.6093E-04  0.1550E-05 -0.8814E-06   0.000    
  1632  0.8621      0.7530E-03 NODE          29 -99.9%  0.1046E-02  0.6104E-04  0.1553E-05 -0.8831E-06   0.000    
  1633  0.8629      0.7530E-03 NODE          29 -99.9%  0.1050E-02  0.6115E-04  0.1556E-05 -0.8847E-06   0.000    
  1634  0.8636      0.7530E-03 NODE          29 -99.9%  0.1054E-02  0.6125E-04  0.1558E-05 -0.8864E-06   0.000    
  1635  0.8644      0.7530E-03 NODE          29 -99.9%  0.1057E-02  0.6136E-04  0.1561E-05 -0.8880E-06   0.000    
  1636  0.8651      0.7530E-03 NODE          29 -99.9%  0.1061E-02  0.6146E-04  0.1563E-05 -0.8897E-06   0.000    
  1637  0.8659      0.7530E-03 NODE          29 -99.9%  0.1065E-02  0.6156E-04  0.1566E-05 -0.8913E-06   0.000    
  1638  0.8666      0.7530E-03 NODE          29 -99.9%  0.1068E-02  0.6166E-04  0.1568E-05 -0.8930E-06   0.000    
  1639  0.8674      0.7530E-03 NODE          29 -99.9%  0.1072E-02  0.6176E-04  0.1571E-05 -0.8947E-06   0.000    
  1640  0.8681      0.7530E-03 NODE          29 -99.9%  0.1076E-02  0.6186E-04  0.1573E-05 -0.8963E-06   0.000    
  1641  0.8689      0.7530E-03 NODE          29 -99.9%  0.1080E-02  0.6195E-04  0.1575E-05 -0.8980E-06   0.000    
  1642  0.8696      0.7530E-03 NODE          29 -99.9%  0.1083E-02  0.6205E-04  0.1577E-05 -0.8996E-06   0.000    
  1643  0.8704      0.7530E-03 NODE          29 -99.9%  0.1087E-02  0.6214E-04  0.1579E-05 -0.9013E-06   0.000    
  1644  0.8712      0.7530E-03 NODE          29 -99.9%  0.1091E-02  0.6223E-04  0.1581E-05 -0.9030E-06   0.000    
  1645  0.8719      0.7530E-03 NODE          29 -99.9%  0.1095E-02  0.6232E-04  0.1583E-05 -0.9047E-06   0.000    
  1646  0.8727      0.7530E-03 NODE          29 -99.9%  0.1098E-02  0.6241E-04  0.1584E-05 -0.9063E-06   0.000    
  1647  0.8734      0.7530E-03 NODE          29 -99.9%  0.1102E-02  0.6250E-04  0.1586E-05 -0.9080E-06   0.000    
  1648  0.8742      0.7530E-03 NODE          29 -99.9%  0.1106E-02  0.6259E-04  0.1588E-05 -0.9097E-06   0.000    
  1649  0.8749      0.7530E-03 NODE          29 -99.9%  0.1110E-02  0.6267E-04  0.1589E-05 -0.9114E-06   0.000    
 CYCLE    TIME      TIME-STEP  ELEMENT          ERROR  I-ENERGY    K-ENERGY T  K-ENERGY R  EXT-WORK MAS.ERR
  1650  0.8757      0.7530E-03 NODE          29 -99.9%  0.1114E-02  0.6276E-04  0.1590E-05 -0.9130E-06   0.000    
  1651  0.8764      0.7530E-03 NODE          29 -99.9%  0.1118E-02  0.6284E-04  0.1592E-05 -0.9147E-06   0.000    
  1652  0.8772      0.7530E-03 NODE          29 -99.9%  0.1121E-02  0.6292E-04  0.1593E-05 -0.9164E-06   0.000    
  1653  0.8779      0.7530E-03 NODE          29 -99.9%  0.1125E-02  0.6300E-04  0.1594E-05 -0.9181E-06   0.000    
  1654  0.8787      0.7530E-03 NODE          29 -99.9%  0.1129E-02  0.6308E-04  0.1596E-05 -0.9198E-06   0.000    
  1655  0.8794      0.7530E-03 NODE          29 -99.9%  0.1133E-02  0.6316E-04  0.1597E-05 -0.9215E-06   0.000    
  1656  0.8802      0.7530E-03 NODE          29 -99.9%  0.1137E-02  0.6324E-04  0.1598E-05 -0.9232E-06   0.000    
  1657  0.8809      0.7530E-03 NODE          29 -99.9%  0.1141E-02  0.6332E-04  0.1599E-05 -0.9249E-06   0.000    
  1658  0.8817      0.7530E-03 NODE          29 -99.9%  0.1145E-02  0.6339E-04  0.1600E-05 -0.9266E-06   0.000    
  1659  0.8825      0.7530E-03 NODE          29 -99.9%  0.1149E-02  0.6347E-04  0.1601E-05 -0.9283E-06   0.000    
  1660  0.8832      0.7530E-03 NODE          29 -99.9%  0.1153E-02  0.6354E-04  0.1602E-05 -0.9300E-06   0.000    
  1661  0.8840      0.7530E-03 NODE          29 -99.9%  0.1156E-02  0.6362E-04  0.1603E-05 -0.9317E-06   0.000    
  1662  0.8847      0.7530E-03 NODE          29 -99.9%  0.1160E-02  0.6369E-04  0.1604E-05 -0.9334E-06   0.000    
  1663  0.8855      0.7530E-03 NODE          29 -99.9%  0.1164E-02  0.6377E-04  0.1605E-05 -0.9352E-06   0.000    
  1664  0.8862      0.7530E-03 NODE          29 -99.9%  0.1168E-02  0.6384E-04  0.1606E-05 -0.9369E-06   0.000    
  1665  0.8870      0.7530E-03 NODE          29 -99.9%  0.1172E-02  0.6391E-04  0.1606E-05 -0.9386E-06   0.000    
  1666  0.8877      0.7530E-03 NODE          29 -99.9%  0.1176E-02  0.6399E-04  0.1607E-05 -0.9403E-06   0.000    
  1667  0.8885      0.7530E-03 NODE          29 -99.9%  0.1180E-02  0.6406E-04  0.1608E-05 -0.9420E-06   0.000    
  1668  0.8892      0.7530E-03 NODE          29 -99.9%  0.1184E-02  0.6413E-04  0.1609E-05 -0.9438E-06   0.000    
  1669  0.8900      0.7530E-03 NODE          29 -99.9%  0.1188E-02  0.6420E-04  0.1610E-05 -0.9455E-06   0.000    
  1670  0.8907      0.7530E-03 NODE          29 -99.9%  0.1192E-02  0.6428E-04  0.1611E-05 -0.9472E-06   0.000    
  1671  0.8915      0.7530E-03 NODE          29 -99.9%  0.1196E-02  0.6435E-04  0.1612E-05 -0.9490E-06   0.000    
  1672  0.8922      0.7530E-03 NODE          29 -99.9%  0.1200E-02  0.6442E-04  0.1613E-05 -0.9507E-06   0.000    
  1673  0.8930      0.7530E-03 NODE         129 -99.9%  0.1204E-02  0.6449E-04  0.1614E-05 -0.9525E-06   0.000    
  1674  0.8937      0.7530E-03 NODE          29 -99.9%  0.1209E-02  0.6456E-04  0.1615E-05 -0.9542E-06   0.000    
  1675  0.8945      0.7530E-03 NODE          29 -99.9%  0.1213E-02  0.6464E-04  0.1615E-05 -0.9560E-06   0.000    
  1676  0.8953      0.7530E-03 NODE          29 -99.9%  0.1217E-02  0.6471E-04  0.1616E-05 -0.9577E-06   0.000    
  1677  0.8960      0.7530E-03 NODE          29 -99.9%  0.1221E-02  0.6478E-04  0.1617E-05 -0.9595E-06   0.000    
  1678  0.8968      0.7530E-03 NODE          29 -99.9%  0.1225E-02  0.6485E-04  0.1618E-05 -0.9612E-06   0.000    
  1679  0.8975      0.7530E-03 NODE          29 -99.9%  0.1229E-02  0.6493E-04  0.1619E-05 -0.9630E-06   0.000    
  1680  0.8983      0.7530E-03 NODE          29 -99.9%  0.1233E-02  0.6500E-04  0.1620E-05 -0.9648E-06   0.000    
  1681  0.8990      0.7530E-03 NODE          29 -99.9%  0.1237E-02  0.6507E-04  0.1621E-05 -0.9665E-06   0.000    
  1682  0.8998      0.7530E-03 NODE          29 -99.9%  0.1241E-02  0.6515E-04  0.1622E-05 -0.9683E-06   0.000    
  1683  0.9005      0.7530E-03 NODE          29 -99.9%  0.1246E-02  0.6522E-04  0.1623E-05 -0.9701E-06   0.000    
  1684  0.9013      0.7530E-03 NODE          29 -99.9%  0.1250E-02  0.6530E-04  0.1625E-05 -0.9718E-06   0.000    
  1685  0.9020      0.7530E-03 NODE          29 -99.9%  0.1254E-02  0.6537E-04  0.1626E-05 -0.9736E-06   0.000    
  1686  0.9028      0.7530E-03 NODE          29 -99.9%  0.1258E-02  0.6545E-04  0.1627E-05 -0.9754E-06   0.000    
  1687  0.9035      0.7530E-03 NODE          29 -99.9%  0.1262E-02  0.6553E-04  0.1628E-05 -0.9772E-06   0.000    
  1688  0.9043      0.7530E-03 NODE          29 -99.9%  0.1267E-02  0.6560E-04  0.1629E-05 -0.9790E-06   0.000    
  1689  0.9050      0.7530E-03 NODE          29 -99.9%  0.1271E-02  0.6568E-04  0.1630E-05 -0.9808E-06   0.000    
  1690  0.9058      0.7530E-03 NODE          29 -99.9%  0.1275E-02  0.6576E-04  0.1632E-05 -0.9826E-06   0.000    
  1691  0.9065      0.7530E-03 NODE          29 -99.9%  0.1279E-02  0.6584E-04  0.1633E-05 -0.9844E-06   0.000    
  1692  0.9073      0.7530E-03 NODE          29 -99.9%  0.1284E-02  0.6592E-04  0.1634E-05 -0.9862E-06   0.000    
  1693  0.9081      0.7530E-03 NODE          29 -99.9%  0.1288E-02  0.6600E-04  0.1636E-05 -0.9880E-06   0.000    
  1694  0.9088      0.7530E-03 NODE          29 -99.9%  0.1292E-02  0.6608E-04  0.1637E-05 -0.9898E-06   0.000    
  1695  0.9096      0.7530E-03 NODE          29 -99.9%  0.1296E-02  0.6617E-04  0.1639E-05 -0.9916E-06   0.000    
  1696  0.9103      0.7530E-03 NODE          29 -99.9%  0.1301E-02  0.6625E-04  0.1640E-05 -0.9934E-06   0.000    
  1697  0.9111      0.7530E-03 NODE          29 -99.9%  0.1305E-02  0.6634E-04  0.1642E-05 -0.9952E-06   0.000    
  1698  0.9118      0.7530E-03 NODE          29 -99.9%  0.1309E-02  0.6642E-04  0.1643E-05 -0.9971E-06   0.000    
  1699  0.9126      0.7530E-03 NODE          29 -99.9%  0.1314E-02  0.6651E-04  0.1645E-05 -0.9989E-06   0.000    
  1700  0.9133      0.7530E-03 NODE          29 -99.9%  0.1318E-02  0.6660E-04  0.1647E-05 -0.1001E-05   0.000    
  1701  0.9141      0.7530E-03 NODE          29 -99.9%  0.1322E-02  0.6669E-04  0.1649E-05 -0.1003E-05   0.000    
  1702  0.9148      0.7530E-03 NODE          29 -99.9%  0.1327E-02  0.6678E-04  0.1651E-05 -0.1004E-05   0.000    
  1703  0.9156      0.7530E-03 NODE          29 -99.9%  0.1331E-02  0.6688E-04  0.1653E-05 -0.1006E-05   0.000    
  1704  0.9163      0.7530E-03 NODE          29 -99.9%  0.1335E-02  0.6697E-04  0.1655E-05 -0.1008E-05   0.000    
 CYCLE    TIME      TIME-STEP  ELEMENT          ERROR  I-ENERGY    K-ENERGY T  K-ENERGY R  EXT-WORK MAS.ERR
  1705  0.9171      0.7530E-03 NODE          29 -99.9%  0.1340E-02  0.6707E-04  0.1657E-05 -0.1010E-05   0.000    
  1706  0.9178      0.7530E-03 NODE          29 -99.9%  0.1344E-02  0.6717E-04  0.1659E-05 -0.1012E-05   0.000    
  1707  0.9186      0.7530E-03 NODE          29 -99.9%  0.1349E-02  0.6727E-04  0.1661E-05 -0.1014E-05   0.000    
  1708  0.9193      0.7530E-03 NODE          29 -99.9%  0.1353E-02  0.6737E-04  0.1663E-05 -0.1015E-05   0.000    
  1709  0.9201      0.7530E-03 NODE          29 -99.9%  0.1358E-02  0.6747E-04  0.1666E-05 -0.1017E-05   0.000    
  1710  0.9209      0.7530E-03 NODE          29 -99.9%  0.1362E-02  0.6758E-04  0.1668E-05 -0.1019E-05   0.000    
  1711  0.9216      0.7530E-03 NODE          29 -99.9%  0.1366E-02  0.6768E-04  0.1671E-05 -0.1021E-05   0.000    
  1712  0.9224      0.7530E-03 NODE          29 -99.9%  0.1371E-02  0.6779E-04  0.1673E-05 -0.1023E-05   0.000    
  1713  0.9231      0.7530E-03 NODE          29 -99.9%  0.1375E-02  0.6790E-04  0.1676E-05 -0.1025E-05   0.000    
  1714  0.9239      0.7530E-03 NODE          29 -99.9%  0.1380E-02  0.6801E-04  0.1679E-05 -0.1027E-05   0.000    
  1715  0.9246      0.7530E-03 NODE          29 -99.9%  0.1384E-02  0.6812E-04  0.1682E-05 -0.1029E-05   0.000    
  1716  0.9254      0.7530E-03 NODE          29 -99.9%  0.1389E-02  0.6824E-04  0.1685E-05 -0.1030E-05   0.000    
  1717  0.9261      0.7530E-03 NODE          29 -99.9%  0.1393E-02  0.6835E-04  0.1687E-05 -0.1032E-05   0.000    
  1718  0.9269      0.7530E-03 NODE          29 -99.9%  0.1398E-02  0.6847E-04  0.1690E-05 -0.1034E-05   0.000    
  1719  0.9276      0.7530E-03 NODE          29 -99.9%  0.1403E-02  0.6859E-04  0.1693E-05 -0.1036E-05   0.000    
  1720  0.9284      0.7530E-03 NODE          29 -99.9%  0.1407E-02  0.6871E-04  0.1697E-05 -0.1038E-05   0.000    
  1721  0.9291      0.7530E-03 NODE          29 -99.9%  0.1412E-02  0.6883E-04  0.1700E-05 -0.1040E-05   0.000    
  1722  0.9299      0.7530E-03 NODE          29 -99.9%  0.1416E-02  0.6895E-04  0.1703E-05 -0.1042E-05   0.000    
  1723  0.9306      0.7530E-03 NODE          29 -99.9%  0.1421E-02  0.6908E-04  0.1706E-05 -0.1044E-05   0.000    
  1724  0.9314      0.7530E-03 NODE          29 -99.9%  0.1425E-02  0.6920E-04  0.1709E-05 -0.1046E-05   0.000    
  1725  0.9322      0.7530E-03 NODE          29 -99.9%  0.1430E-02  0.6933E-04  0.1713E-05 -0.1048E-05   0.000    
  1726  0.9329      0.7530E-03 NODE          29 -99.9%  0.1435E-02  0.6945E-04  0.1716E-05 -0.1050E-05   0.000    
  1727  0.9337      0.7530E-03 NODE          29 -99.9%  0.1439E-02  0.6958E-04  0.1720E-05 -0.1051E-05   0.000    
  1728  0.9344      0.7530E-03 NODE          29 -99.9%  0.1444E-02  0.6971E-04  0.1723E-05 -0.1053E-05   0.000    
  1729  0.9352      0.7530E-03 NODE          29 -99.9%  0.1449E-02  0.6984E-04  0.1727E-05 -0.1055E-05   0.000    
  1730  0.9359      0.7530E-03 NODE          29 -99.9%  0.1453E-02  0.6997E-04  0.1730E-05 -0.1057E-05   0.000    
  1731  0.9367      0.7530E-03 NODE          29 -99.9%  0.1458E-02  0.7010E-04  0.1734E-05 -0.1059E-05   0.000    
  1732  0.9374      0.7530E-03 NODE          29 -99.9%  0.1463E-02  0.7024E-04  0.1737E-05 -0.1061E-05   0.000    
  1733  0.9382      0.7530E-03 NODE          29 -99.9%  0.1467E-02  0.7037E-04  0.1741E-05 -0.1063E-05   0.000    
  1734  0.9389      0.7530E-03 NODE          29 -99.9%  0.1472E-02  0.7051E-04  0.1745E-05 -0.1065E-05   0.000    
  1735  0.9397      0.7530E-03 NODE          29 -99.9%  0.1477E-02  0.7064E-04  0.1749E-05 -0.1067E-05   0.000    
  1736  0.9404      0.7530E-03 NODE          29 -99.9%  0.1482E-02  0.7078E-04  0.1752E-05 -0.1069E-05   0.000    
  1737  0.9412      0.7530E-03 NODE          29 -99.9%  0.1486E-02  0.7092E-04  0.1756E-05 -0.1071E-05   0.000    
  1738  0.9419      0.7530E-03 NODE          29 -99.9%  0.1491E-02  0.7106E-04  0.1760E-05 -0.1073E-05   0.000    
  1739  0.9427      0.7530E-03 NODE          29 -99.9%  0.1496E-02  0.7120E-04  0.1764E-05 -0.1075E-05   0.000    
  1740  0.9434      0.7530E-03 NODE          29 -99.9%  0.1501E-02  0.7134E-04  0.1768E-05 -0.1077E-05   0.000    
  1741  0.9442      0.7530E-03 NODE          29 -99.9%  0.1505E-02  0.7148E-04  0.1772E-05 -0.1079E-05   0.000    
  1742  0.9450      0.7530E-03 NODE          29 -99.9%  0.1510E-02  0.7162E-04  0.1777E-05 -0.1081E-05   0.000    
  1743  0.9457      0.7530E-03 NODE          29 -99.9%  0.1515E-02  0.7177E-04  0.1781E-05 -0.1083E-05   0.000    
  1744  0.9465      0.7530E-03 NODE          29 -99.9%  0.1520E-02  0.7191E-04  0.1785E-05 -0.1085E-05   0.000    
  1745  0.9472      0.7530E-03 NODE          29 -99.9%  0.1525E-02  0.7206E-04  0.1789E-05 -0.1087E-05   0.000    
  1746  0.9480      0.7530E-03 NODE          29 -99.9%  0.1530E-02  0.7220E-04  0.1794E-05 -0.1089E-05   0.000    
  1747  0.9487      0.7530E-03 NODE          29 -99.9%  0.1534E-02  0.7235E-04  0.1798E-05 -0.1091E-05   0.000    
  1748  0.9495      0.7530E-03 NODE          29 -99.9%  0.1539E-02  0.7250E-04  0.1803E-05 -0.1093E-05   0.000    
  1749  0.9502      0.7530E-03 NODE          29 -99.9%  0.1544E-02  0.7264E-04  0.1807E-05 -0.1095E-05   0.000    
  1750  0.9510      0.7530E-03 NODE          29 -99.9%  0.1549E-02  0.7279E-04  0.1812E-05 -0.1097E-05   0.000    
  1751  0.9517      0.7530E-03 NODE          29 -99.9%  0.1554E-02  0.7294E-04  0.1816E-05 -0.1099E-05   0.000    
  1752  0.9525      0.7530E-03 NODE          29 -99.9%  0.1559E-02  0.7309E-04  0.1821E-05 -0.1101E-05   0.000    
  1753  0.9532      0.7530E-03 NODE          29 -99.9%  0.1564E-02  0.7324E-04  0.1826E-05 -0.1103E-05   0.000    
  1754  0.9540      0.7530E-03 NODE          29 -99.9%  0.1569E-02  0.7340E-04  0.1831E-05 -0.1105E-05   0.000    
  1755  0.9547      0.7530E-03 NODE          29 -99.9%  0.1574E-02  0.7355E-04  0.1835E-05 -0.1107E-05   0.000    
  1756  0.9555      0.7530E-03 NODE          29 -99.9%  0.1579E-02  0.7370E-04  0.1840E-05 -0.1109E-05   0.000    
  1757  0.9562      0.7530E-03 NODE          29 -99.9%  0.1584E-02  0.7385E-04  0.1845E-05 -0.1111E-05   0.000    
  1758  0.9570      0.7530E-03 NODE          29 -99.9%  0.1589E-02  0.7401E-04  0.1850E-05 -0.1113E-05   0.000    
  1759  0.9578      0.7530E-03 NODE          29 -99.9%  0.1594E-02  0.7416E-04  0.1855E-05 -0.1115E-05   0.000    
 CYCLE    TIME      TIME-STEP  ELEMENT          ERROR  I-ENERGY    K-ENERGY T  K-ENERGY R  EXT-WORK MAS.ERR
  1760  0.9585      0.7530E-03 NODE          29 -99.9%  0.1599E-02  0.7431E-04  0.1860E-05 -0.1117E-05   0.000    
  1761  0.9593      0.7530E-03 NODE          29 -99.9%  0.1604E-02  0.7447E-04  0.1865E-05 -0.1119E-05   0.000    
  1762  0.9600      0.7530E-03 NODE          29 -99.9%  0.1609E-02  0.7462E-04  0.1870E-05 -0.1121E-05   0.000    
  1763  0.9608      0.7530E-03 NODE          29 -99.9%  0.1614E-02  0.7478E-04  0.1875E-05 -0.1123E-05   0.000    
  1764  0.9615      0.7530E-03 NODE          29 -99.9%  0.1619E-02  0.7493E-04  0.1880E-05 -0.1125E-05   0.000    
  1765  0.9623      0.7530E-03 NODE          29 -99.9%  0.1624E-02  0.7508E-04  0.1885E-05 -0.1127E-05   0.000    
  1766  0.9630      0.7530E-03 NODE          29 -99.9%  0.1629E-02  0.7524E-04  0.1890E-05 -0.1129E-05   0.000    
  1767  0.9638      0.7530E-03 NODE          29 -99.9%  0.1634E-02  0.7539E-04  0.1895E-05 -0.1131E-05   0.000    
  1768  0.9645      0.7530E-03 NODE          29 -99.9%  0.1639E-02  0.7555E-04  0.1900E-05 -0.1133E-05   0.000    
  1769  0.9653      0.7530E-03 NODE          29 -99.9%  0.1644E-02  0.7570E-04  0.1905E-05 -0.1135E-05   0.000    
  1770  0.9660      0.7530E-03 NODE          29 -99.9%  0.1650E-02  0.7585E-04  0.1910E-05 -0.1137E-05   0.000    
  1771  0.9668      0.7530E-03 NODE          29 -99.9%  0.1655E-02  0.7600E-04  0.1914E-05 -0.1140E-05   0.000    
  1772  0.9675      0.7530E-03 NODE          29 -99.9%  0.1660E-02  0.7616E-04  0.1919E-05 -0.1142E-05   0.000    
  1773  0.9683      0.7530E-03 NODE          29 -99.9%  0.1665E-02  0.7631E-04  0.1924E-05 -0.1144E-05   0.000    
  1774  0.9690      0.7530E-03 NODE          29 -99.9%  0.1670E-02  0.7646E-04  0.1929E-05 -0.1146E-05   0.000    
  1775  0.9698      0.7530E-03 NODE          29 -99.9%  0.1675E-02  0.7661E-04  0.1934E-05 -0.1148E-05   0.000    
  1776  0.9706      0.7530E-03 NODE          29 -99.9%  0.1681E-02  0.7676E-04  0.1938E-05 -0.1150E-05   0.000    
  1777  0.9713      0.7530E-03 NODE          29 -99.9%  0.1686E-02  0.7691E-04  0.1943E-05 -0.1152E-05   0.000    
  1778  0.9721      0.7530E-03 NODE          29 -99.9%  0.1691E-02  0.7705E-04  0.1948E-05 -0.1154E-05   0.000    
  1779  0.9728      0.7530E-03 NODE          29 -99.9%  0.1696E-02  0.7720E-04  0.1952E-05 -0.1156E-05   0.000    
  1780  0.9736      0.7530E-03 NODE          29 -99.9%  0.1702E-02  0.7735E-04  0.1957E-05 -0.1158E-05   0.000    
  1781  0.9743      0.7530E-03 NODE          29 -99.9%  0.1707E-02  0.7749E-04  0.1961E-05 -0.1160E-05   0.000    
  1782  0.9751      0.7530E-03 NODE          29 -99.9%  0.1712E-02  0.7764E-04  0.1965E-05 -0.1162E-05   0.000    
  1783  0.9758      0.7530E-03 NODE          29 -99.9%  0.1718E-02  0.7778E-04  0.1970E-05 -0.1165E-05   0.000    
  1784  0.9766      0.7530E-03 NODE          29 -99.9%  0.1723E-02  0.7793E-04  0.1974E-05 -0.1167E-05   0.000    
  1785  0.9773      0.7530E-03 NODE          29 -99.9%  0.1728E-02  0.7807E-04  0.1978E-05 -0.1169E-05   0.000    
  1786  0.9781      0.7530E-03 NODE          29 -99.9%  0.1733E-02  0.7821E-04  0.1982E-05 -0.1171E-05   0.000    
  1787  0.9788      0.7530E-03 NODE          29 -99.9%  0.1739E-02  0.7835E-04  0.1987E-05 -0.1173E-05   0.000    
  1788  0.9796      0.7530E-03 NODE          29 -99.9%  0.1744E-02  0.7849E-04  0.1991E-05 -0.1175E-05   0.000    
  1789  0.9803      0.7530E-03 NODE          29 -99.9%  0.1750E-02  0.7863E-04  0.1995E-05 -0.1177E-05   0.000    
  1790  0.9811      0.7530E-03 NODE          29 -99.9%  0.1755E-02  0.7877E-04  0.1999E-05 -0.1179E-05   0.000    
  1791  0.9819      0.7530E-03 NODE          29 -99.9%  0.1760E-02  0.7891E-04  0.2002E-05 -0.1181E-05   0.000    
  1792  0.9826      0.7530E-03 NODE          29 -99.9%  0.1766E-02  0.7905E-04  0.2006E-05 -0.1184E-05   0.000    
  1793  0.9834      0.7530E-03 NODE          29 -99.9%  0.1771E-02  0.7918E-04  0.2010E-05 -0.1186E-05   0.000    
  1794  0.9841      0.7530E-03 NODE          29 -99.9%  0.1777E-02  0.7932E-04  0.2014E-05 -0.1188E-05   0.000    
  1795  0.9849      0.7530E-03 NODE          29 -99.9%  0.1782E-02  0.7945E-04  0.2017E-05 -0.1190E-05   0.000    
  1796  0.9856      0.7530E-03 NODE          29 -99.9%  0.1787E-02  0.7958E-04  0.2021E-05 -0.1192E-05   0.000    
  1797  0.9864      0.7530E-03 NODE          29 -99.9%  0.1793E-02  0.7971E-04  0.2024E-05 -0.1194E-05   0.000    
  1798  0.9871      0.7530E-03 NODE          29 -99.9%  0.1798E-02  0.7984E-04  0.2028E-05 -0.1196E-05   0.000    
  1799  0.9879      0.7530E-03 NODE          29 -99.9%  0.1804E-02  0.7997E-04  0.2031E-05 -0.1199E-05   0.000    
  1800  0.9886      0.7530E-03 NODE          29 -99.9%  0.1809E-02  0.8010E-04  0.2034E-05 -0.1201E-05   0.000    
  1801  0.9894      0.7530E-03 NODE          29 -99.9%  0.1815E-02  0.8022E-04  0.2037E-05 -0.1203E-05   0.000    
  1802  0.9901      0.7530E-03 NODE          29 -99.9%  0.1820E-02  0.8035E-04  0.2040E-05 -0.1205E-05   0.000    
  1803  0.9909      0.7530E-03 NODE          29 -99.9%  0.1826E-02  0.8047E-04  0.2043E-05 -0.1207E-05   0.000    
  1804  0.9916      0.7530E-03 NODE          29 -99.9%  0.1832E-02  0.8059E-04  0.2046E-05 -0.1209E-05   0.000    
  1805  0.9924      0.7530E-03 NODE          29 -99.9%  0.1837E-02  0.8071E-04  0.2049E-05 -0.1212E-05   0.000    
  1806  0.9931      0.7530E-03 NODE          29 -99.9%  0.1843E-02  0.8083E-04  0.2051E-05 -0.1214E-05   0.000    
  1807  0.9939      0.7530E-03 NODE          29 -99.9%  0.1848E-02  0.8095E-04  0.2054E-05 -0.1216E-05   0.000    
  1808  0.9947      0.7530E-03 NODE          29 -99.9%  0.1854E-02  0.8107E-04  0.2057E-05 -0.1218E-05   0.000    
  1809  0.9954      0.7530E-03 NODE          29 -99.9%  0.1860E-02  0.8118E-04  0.2059E-05 -0.1220E-05   0.000    
  1810  0.9962      0.7530E-03 NODE          29 -99.9%  0.1865E-02  0.8129E-04  0.2061E-05 -0.1222E-05   0.000    
  1811  0.9969      0.7530E-03 NODE          29 -99.9%  0.1871E-02  0.8140E-04  0.2064E-05 -0.1225E-05   0.000    
  1812  0.9977      0.7530E-03 NODE          29 -99.9%  0.1876E-02  0.8151E-04  0.2066E-05 -0.1227E-05   0.000    
  1813  0.9984      0.7530E-03 NODE          29 -99.9%  0.1882E-02  0.8162E-04  0.2068E-05 -0.1229E-05   0.000    
  1814  0.9992      0.7530E-03 NODE          29 -99.9%  0.1888E-02  0.8172E-04  0.2070E-05 -0.1231E-05   0.000    
 CYCLE    TIME      TIME-STEP  ELEMENT          ERROR  I-ENERGY    K-ENERGY T  K-ENERGY R  EXT-WORK MAS.ERR
  1815  0.9999      0.7530E-03 NODE          29 -99.9%  0.1894E-02  0.8183E-04  0.2072E-05 -0.1233E-05   0.000    
  1816   1.001      0.7530E-03 NODE          29 -99.9%  0.1899E-02  0.8193E-04  0.2073E-05 -0.1235E-05   0.000    
     ANIMATION FILE: FFO25SCBA006 WRITTEN
     OUTPUT FILE: FFO25SCB_0006.sty WRITTEN

     RESTART FILES: FFO25SCB_0001_[0001-0004].rst WRITTEN
     -------------

  
                           ** CPU USER TIME **
  
 #PROC  CONT.SORT  CONT. F   ELEMENT  KIN.COND.  INTEGR.    I/O     TASK0     ASSEMB.   RESOL  
   1   .0000E+00 .0000E+00 .1240E+00 .3000E-02 .4000E-02 .9099E-01 .3889E+00 .7000E-02 .6459E+00
   2   .0000E+00 .0000E+00 .1200E-01 .9999E-02 .1000E-02 .1280E+00 .5799E-01 .0000E+00 .7739E+00
   3   .0000E+00 .0000E+00 .3000E-02 .6998E-02 .0000E+00 .4299E-01 .5549E+00 .0000E+00 .8289E+00
   4   .0000E+00 .0000E+00 .2600E-01 .9998E-02 .0000E+00 .4399E-01 .4509E+00 .9990E-03 .7819E+00
  
                          ** SPMD COMM. TIME **
  
 #PROC  FORCES    RBY.FOR.  RBY.VEL.  VELOCITIES   TOTAL   % CPU
   1   .3999E-02 .0000E+00 .0000E+00 .9990E-03 .4998E-02    0.77
   2   .4509E+00 .0000E+00 .0000E+00 .0000E+00 .4509E+00   58.27
   3   .1060E+00 .0000E+00 .0000E+00 .0000E+00 .1060E+00   12.79
   4   .1390E+00 .0000E+00 .0000E+00 .0000E+00 .1390E+00   17.77
  
                   ** CUMULATIVE CPU TIME SUMMARY **
  
 CONTACT SORTING.............: .0000E+00     0.00 % 
 CONTACT FORCES..............: .0000E+00     0.00 % 
 ELEMENT FORCES..............: .1650E+00     5.44 % 
 KINEMATIC COND..............: .2999E-01     0.99 % 
 INTEGRATION.................: .5000E-02     0.16 % 
 ASSEMBLING..................: .7999E-02     0.26 % 
 OTHERS (including I/O)......: .2823E+01    93.14 % 
 TOTAL.......................: .3031E+01   100.00 % 
  
  
                   ** MEMORY USAGE STATISTICS **
  
 TOTAL MEMORY USED .........................:      561 MB
 MAXIMUM MEMORY PER PROCESSOR...............:      141 MB
 MINIMUM MEMORY PER PROCESSOR...............:      140 MB
 AVERAGE MEMORY PER PROCESSOR...............:      140 MB
  
                   ** DISK USAGE STATISTICS **
  
 TOTAL DISK SPACE USED .....................:      611 KB
 ANIMATION/TH/OUTP SIZE ....................:       33 KB
 RESTART FILE SIZE .........................:      578 KB
  
 ELAPSED TIME     =          0.99 s
                          0:00:00
 ESTIMATED SPEEDUP=          3.07
  



     NORMAL TERMINATION      



     TOTAL NUMBER OF CYCLES  :    1817

