 CT3AV4_0001.out
************************************************************************
**                                                                    **
**                                                                    **
**                         OpenRadioss Engine                         **
**                                                                    **
**            Non-linear Finite Element Analysis Software             **
**                                                                    **
**                                                                    **
**                                                                    **
**                Linux 64 bits, GNU compiler, OpenMPI                **
**                                                                    **
**                                                                    **
**                                                                    **
** CommitID: 440deeba848d606665f88afb8302e85b1ecf72bf                 **
************************************************************************
** OpenRadioss Software                                               **
** COPYRIGHT (C) 1986-2022 Altair Engineering, Inc.                   **
** Licensed under GNU Affero General Public License.                  **
** See License file.                                                  **
************************************************************************
 
 NUMBER OF SPMD DOMAINS           4
 NUMBER OF THREADS PER DOMAIN     2
 NUMBER OF HMPP PROCESSES         8
  
 COMPUTATION HARDWARE DESCRIPTION
  
 CPU#  HOSTNAME     CPU TYPE, FREQUENCY AND MEMORY
   1   fr-shady.europe.altair.com   Intel(R) Xeon(R) CPU           X5680  @ 3.33GHz (x86_64), 1596 MHz,  20012 MB RAM,  49126 MB swap
   2   fr-shady.europe.altair.com   Intel(R) Xeon(R) CPU           X5680  @ 3.33GHz (x86_64), 1596 MHz,  20012 MB RAM,  49126 MB swap
   3   fr-shady.europe.altair.com   Intel(R) Xeon(R) CPU           X5680  @ 3.33GHz (x86_64), 1596 MHz,  20012 MB RAM,  49126 MB swap
   4   fr-shady.europe.altair.com   Intel(R) Xeon(R) CPU           X5680  @ 3.33GHz (x86_64), 1596 MHz,  20012 MB RAM,  49126 MB swap
  
************************************************************************


 CT3AV4D01                                                                       


 FINAL TIME . . . . . . . . . . . . . . . . . . .   2000.000    

 TIME INTERVAL FOR TIME HISTORY PLOTS . . . . . .   20.00000    

 TIME STEP SCALE FACTOR . . . . . . . . . . . . .  0.5000000    

 MINIMUM TIME STEP  . . . . . . . . . . . . . . .   0.000000    


 BRICK TIME STEP SCALE FACTOR . . . . . . . . . .  0.5000000    
 BRICK MINIMUM TIME STEP. . . . . . . . . . . . .   0.000000    
 MIN. TIME STEP FLAG (1:STOP RUN, 2:DELETE BRICK)     1

 QUAD TIME STEP SCALE FACTOR. . . . . . . . . . .  0.5000000    
 QUAD MINIMUM TIME STEP . . . . . . . . . . . . .   0.000000    
 MIN. TIME STEP FLAG (1:STOP RUN, 2:DELETE QUAD).     1

 SHELL TIME STEP SCALE FACTOR . . . . . . . . . .  0.5000000    
 SHELL MINIMUM TIME STEP. . . . . . . . . . . . .   0.000000    
 MIN. TIME FLAG (1:STOP, 2:DELETE, 3:SMALL STRAIN)    2

 TRUSS TIME STEP SCALE FACTOR . . . . . . . . . .  0.5000000    
 TRUSS MINIMUM TIME STEP. . . . . . . . . . . . .   0.000000    
 MIN. TIME FLAG (1:STOP, 2:DELETE). . . . . . . .     0

 BEAM TIME STEP SCALE FACTOR. . . . . . . . . . .  0.5000000    
 BEAM MINIMUM TIME STEP . . . . . . . . . . . . .   0.000000    
 MIN. TIME FLAG (1:STOP, 2:DELETE). . . . . . . .     0

 SPRING TIME STEP SCALE FACTOR. . . . . . . . . .  0.5000000    
 SPRING MINIMUM TIME STEP . . . . . . . . . . . .   0.000000    
 MIN. TIME FLAG (1:STOP, 2:DELETE). . . . . . . .     0

 AIRBAG TIME STEP SCALE FACTOR. . . . . . . . . .  0.5000000    
 AIRBAG MINIMUM TIME STEP . . . . . . . . . . . .   0.000000    
 MIN. TIME FLAG (1:STOP). . . . . . . . . . . . .     0

 CONTACT TIME STEP SCALE FACTOR . . . . . . . . .  0.5000000    
 CONTACT MINIMUM TIME STEP. . . . . . . . . . . .   0.000000    
 MIN. TIME FLAG(1:STOP, 2:REMOVE NODE FROM INTERF)    0

 PRINTOUT CYCLE FREQUENCY . . . . . . . . . . . .   -10

 RESTART CYCLE FREQUENCY. . . . . . . . . . . . .   10000000

 MAXIMUM RESTART WRITE BEFORE OVERWRITE . . . . .     0

 INVERS: INPUT DECK VERSION . . . . . . . . . . .  2019
 ITTYP : FLAG FOR TYPE OF T-FILE. . . . . . . . .     4


 TIME FOR FIRST ANIMATION-FILE PLOT . . . . . . .   0.000000    
 TIME INTERVAL FOR ANIMATION-FILE PLOTS . . . . .   200.0000    
 SENSOR FOR ANIMATION-FILE PLOTS. . . . . . . . .          0
 TIME INTERVAL FOR SENSOR ANIMATION-FILE PLOTS. .   0.000000    

 VARIABLE SAVED ON ANIMATION FILES (1: YES) :
      PLASTIC STRAIN. . . . . .     0
      DENSITY     (SOLID ONLY).     0
      SPECIFIC ENERGY . . . . .     0
      HOURGLASS ENERGY. . . . .     0
      TEMPERATURE (SOLID ONLY).     0
      THICKNESS   (SHELL ONLY).     0
      PRESSURE    (SOLID ONLY).     0
      VON MISES . . . . . . . .     0
      TURBULENT ENERGY (FLUID).     0
      TURBULENT VISCOSITY(FLUID)    0
      VORTICITY (FLUID) . . . .     0
 NODAL VALUES SAVED ON ANIMATION FILES (1: YES) :
      PRESSURE. . . . . . . . .     0
      DENSITY . . . . . . . . .     0
      TEMPERATURE . . . . . . .     0
 VECTOR SAVED ON ANIMATION FILES (1: YES) :
      VELOCITY VECTOR . . . . .     0
      DISPLACEMENT VECTOR . . .     0
      ACCELERATION VECTOR . . .     0
      CONTACT FORCES. . . . . .     0
      INTERNAL FORCES . . . . .     0
      EXTERNAL FORCES . . . . .     0
      SECTION RBY RWALL FORCES.     0
      ROTATIONAL VELOCITY VECTOR    0
      CONTACT PRESSURE (VECTORS)    0
 SHELL TENSOR SAVED ON ANIMATION FILES (1: YES) :
      MEMBRANE STRESS . . . . .     0
      BENDING STRESS(MOMENT/T^2)    0
      UPPER LAYER STRESS. . . .     0
      LOWER LAYER STRESS. . . .     0
      MEMBRANE STRAIN . . . . .     0
      CURVATURE . . . . . . . .     0
      UPPER LAYER STRAIN. . . .     0
      LOWER LAYER STRAIN. . . .     0
 NODAL MASS SAVED ON ANIMATION FILES (1: YES) :    0
 KEEP DELETED ELEMENT (1: YES) :    0


 INITIAL TIME STEP. . . . . . . . . . . . . . . .   0.000000    
 MAXIMUM TIME STEP. . . . . . . . . . . . . . . .  0.1000000E+31

 PARALLEL ARITHMETIC ON
 NUMBER OF INTERFACES TO BE ELIMINATED. . . . . .        0

 NUMBER OF SOLID  ELEMENT BLOCKS TO BE ELIMINATED        0

 NUMBER OF QUAD   ELEMENT BLOCKS TO BE ELIMINATED        0

 NUMBER OF SHELL  ELEMENT BLOCKS TO BE ELIMINATED        0

 NUMBER OF TRUSS  ELEMENT BLOCKS TO BE ELIMINATED        0

 NUMBER OF BEAM   ELEMENT BLOCKS TO BE ELIMINATED        0

 NUMBER OF SPRING ELEMENT BLOCKS TO BE ELIMINATED        0

 NUMBER OF SH_3N  ELEMENT BLOCKS TO BE ELIMINATED        0

 NUMBER OF  SPH PARTICLES BLOCKS TO BE ELIMINATED        0

 NUMBER OF RIGID LINKS. . . . . . . . . . . . . .        0

 NUMBER OF NEW BOUNDARY CONDITIONS. . . . . . . .        0

 23/11/2022
   CYCLE    TIME      TIME-STEP  ELEMENT          ERROR  I-ENERGY    K-ENERGY T  K-ENERGY R  EXT-WORK     MAS.ERR     TOTAL MASS  MASS ADDED
       0   0.000      0.5942     SH_3N         26   0.0%   0.000      0.2475E-03   0.000       0.000       0.000       16.01       0.000    
     ANIMATION FILE: CT3AV4A001 WRITTEN
      10   5.942      0.5942     SH_3N          4   0.3%  0.1924E-04  0.2270E-03  0.2058E-05   0.000       0.000       16.01       0.000    
      20   11.88      0.5942     SH_3N          4   0.2%  0.2171E-04  0.2212E-03  0.5166E-05   0.000       0.000       16.01       0.000    
      30   17.82      0.5942     SH_3N          4   0.1%  0.2301E-04  0.2148E-03  0.1005E-04   0.000       0.000       16.01       0.000    
      40   23.77      0.5944     SH_3N         10   0.2%  0.3019E-04  0.2063E-03  0.1159E-04   0.000       0.000       16.01       0.000    
      50   29.71      0.5946     SH_3N          2   0.1%  0.3221E-04  0.2028E-03  0.1283E-04   0.000       0.000       16.01       0.000    
      60   35.66      0.5949     SH_3N          8   0.2%  0.4105E-04  0.1996E-03  0.7371E-05   0.000       0.000       16.01       0.000    
      70   41.61      0.5951     SH_3N         20   0.3%  0.4971E-04  0.1956E-03  0.2847E-05   0.000       0.000       16.01       0.000    
      80   47.56      0.5953     SH_3N         30   0.2%  0.5454E-04  0.1911E-03  0.2258E-05   0.000       0.000       16.01       0.000    
      90   53.52      0.5956     SH_3N          4   0.1%  0.6272E-04  0.1822E-03  0.2923E-05   0.000       0.000       16.01       0.000    
     100   59.47      0.5958     SH_3N         16   0.2%  0.7556E-04  0.1717E-03  0.8341E-06   0.000       0.000       16.01       0.000    
     110   65.43      0.5959     SH_3N         14   0.2%  0.8259E-04  0.1617E-03  0.3705E-05   0.000       0.000       16.01       0.000    
     120   71.39      0.5960     SH_3N          2   0.2%  0.9136E-04  0.1518E-03  0.4704E-05   0.000       0.000       16.01       0.000    
     130   77.35      0.5961     SH_3N          2   0.2%  0.1005E-03  0.1421E-03  0.5233E-05   0.000       0.000       16.01       0.000    
     140   83.31      0.5962     SH_3N          2   0.2%  0.1095E-03  0.1333E-03  0.5148E-05   0.000       0.000       16.01       0.000    
     150   89.28      0.5963     SH_3N          2   0.1%  0.1144E-03  0.1288E-03  0.4633E-05   0.000       0.000       16.01       0.000    
     160   95.24      0.5965     SH_3N          2   0.2%  0.1218E-03  0.1223E-03  0.3883E-05   0.000       0.000       16.01       0.000    
     170   101.2      0.5966     SH_3N          2   0.2%  0.1259E-03  0.1188E-03  0.3279E-05   0.000       0.000       16.01       0.000    
     180   107.2      0.5966     SH_3N          2   0.1%  0.1272E-03  0.1170E-03  0.3475E-05   0.000       0.000       16.01       0.000    
     190   113.1      0.5966     SH_3N          2   0.2%  0.1339E-03  0.1120E-03  0.2048E-05   0.000       0.000       16.01       0.000    
     200   119.1      0.5966     SH_3N          2   0.1%  0.1338E-03  0.1126E-03  0.1405E-05   0.000       0.000       16.01       0.000    
     210   125.1      0.5966     SH_3N          2   0.1%  0.1365E-03  0.1104E-03  0.9458E-06   0.000       0.000       16.01       0.000    
     220   131.0      0.5963     SH_3N          2   0.2%  0.1386E-03  0.1073E-03  0.1973E-05   0.000       0.000       16.01       0.000    
     230   137.0      0.5961     SH_3N          2   0.1%  0.1397E-03  0.1053E-03  0.2838E-05   0.000       0.000       16.01       0.000    
     240   143.0      0.5961     SH_3N          2   0.1%  0.1413E-03  0.1022E-03  0.4315E-05   0.000       0.000       16.01       0.000    
     250   148.9      0.5961     SH_3N          2   0.2%  0.1443E-03  0.9882E-04  0.4792E-05   0.000       0.000       16.01       0.000    
     260   154.9      0.5960     SH_3N          2   0.1%  0.1453E-03  0.9796E-04  0.4544E-05   0.000       0.000       16.01       0.000    
     270   160.8      0.5959     SH_3N          2   0.1%  0.1467E-03  0.9669E-04  0.4439E-05   0.000       0.000       16.01       0.000    
     280   166.8      0.5959     SH_3N          2   0.2%  0.1499E-03  0.9503E-04  0.3015E-05   0.000       0.000       16.01       0.000    
     290   172.8      0.5958     SH_3N          2   0.1%  0.1488E-03  0.9660E-04  0.2302E-05   0.000       0.000       16.01       0.000    
     300   178.7      0.5956     SH_3N          2   0.1%  0.1521E-03  0.9456E-04  0.1193E-05   0.000       0.000       16.01       0.000    
     310   184.7      0.5955     SH_3N          2   0.1%  0.1525E-03  0.9426E-04  0.1125E-05   0.000       0.000       16.01       0.000    
     320   190.6      0.5954     SH_3N          2   0.1%  0.1526E-03  0.9413E-04  0.1057E-05   0.000       0.000       16.01       0.000    
     330   196.6      0.5953     SH_3N          2   0.1%  0.1530E-03  0.9294E-04  0.1892E-05   0.000       0.000       16.01       0.000    
     ANIMATION FILE: CT3AV4A002 WRITTEN
     340   202.5      0.5954     SH_3N          2   0.1%  0.1542E-03  0.9146E-04  0.2195E-05   0.000       0.000       16.01       0.000    
     350   208.5      0.5954     SH_3N          2   0.1%  0.1535E-03  0.9151E-04  0.2773E-05   0.000       0.000       16.01       0.000    
     360   214.4      0.5953     SH_3N          2   0.1%  0.1542E-03  0.8991E-04  0.3698E-05   0.000       0.000       16.01       0.000    
     370   220.4      0.5954     SH_3N          2   0.1%  0.1552E-03  0.8919E-04  0.3431E-05   0.000       0.000       16.01       0.000    
     380   226.3      0.5954     SH_3N          2   0.1%  0.1540E-03  0.9079E-04  0.2915E-05   0.000       0.000       16.01       0.000    
     390   232.3      0.5954     SH_3N          2   0.2%  0.1576E-03  0.8855E-04  0.1751E-05   0.000       0.000       16.01       0.000    
     400   238.3      0.5954     SH_3N          2   0.1%  0.1567E-03  0.8966E-04  0.1434E-05   0.000       0.000       16.01       0.000    
     410   244.2      0.5955     SH_3N          2   0.1%  0.1577E-03  0.8900E-04  0.1029E-05   0.000       0.000       16.01       0.000    
     420   250.2      0.5957     SH_3N          2   0.1%  0.1605E-03  0.8600E-04  0.1396E-05   0.000       0.000       16.01       0.000    
     430   256.1      0.5960     SH_3N          2   0.1%  0.1618E-03  0.8445E-04  0.1534E-05   0.000       0.000       16.01       0.000    
     440   262.1      0.5961     SH_3N          8   0.1%  0.1633E-03  0.8141E-04  0.3043E-05   0.000       0.000       16.01       0.000    
     450   268.0      0.5962     SH_3N          8   0.1%  0.1655E-03  0.7765E-04  0.4610E-05   0.000       0.000       16.01       0.000    
     460   274.0      0.5962     SH_3N          8   0.1%  0.1679E-03  0.7614E-04  0.3771E-05   0.000       0.000       16.01       0.000    
     470   280.0      0.5962     SH_3N          8   0.1%  0.1713E-03  0.7444E-04  0.2113E-05   0.000       0.000       16.01       0.000    
     480   285.9      0.5962     SH_3N          8   0.1%  0.1740E-03  0.7198E-04  0.1797E-05   0.000       0.000       16.01       0.000    
     490   291.9      0.5963     SH_3N          8   0.1%  0.1758E-03  0.7035E-04  0.1613E-05   0.000       0.000       16.01       0.000    
     500   297.8      0.5962     SH_3N          8   0.1%  0.1792E-03  0.6770E-04  0.8445E-06   0.000       0.000       16.01       0.000    
     510   303.8      0.5963     SH_3N          8   0.1%  0.1831E-03  0.6341E-04  0.1287E-05   0.000       0.000       16.01       0.000    
     520   309.8      0.5964     SH_3N          8   0.2%  0.1875E-03  0.5925E-04  0.1155E-05   0.000       0.000       16.01       0.000    
     530   315.7      0.5965     SH_3N          8   0.1%  0.1874E-03  0.5757E-04  0.2674E-05   0.000       0.000       16.01       0.000    
     540   321.7      0.5966     SH_3N          8   0.1%  0.1932E-03  0.5132E-04  0.3343E-05   0.000       0.000       16.01       0.000    
   CYCLE    TIME      TIME-STEP  ELEMENT          ERROR  I-ENERGY    K-ENERGY T  K-ENERGY R  EXT-WORK     MAS.ERR     TOTAL MASS  MASS ADDED
     550   327.7      0.5967     SH_3N          8   0.1%  0.1953E-03  0.4991E-04  0.2522E-05   0.000       0.000       16.01       0.000    
     560   333.6      0.5967     SH_3N          8   0.1%  0.1984E-03  0.4805E-04  0.1341E-05   0.000       0.000       16.01       0.000    
     570   339.6      0.5967     SH_3N          8   0.2%  0.2045E-03  0.4274E-04  0.6799E-06   0.000       0.000       16.01       0.000    
     580   345.6      0.5967     SH_3N          8   0.0%  0.2018E-03  0.4402E-04  0.1795E-05   0.000       0.000       16.01       0.000    
     590   351.5      0.5967     SH_3N          8   0.1%  0.2081E-03  0.3872E-04  0.9755E-06   0.000       0.000       16.01       0.000    
     600   357.5      0.5968     SH_3N          8   0.1%  0.2115E-03  0.3545E-04  0.8522E-06   0.000       0.000       16.01       0.000    
     610   363.5      0.5969     SH_3N          8   0.1%  0.2118E-03  0.3477E-04  0.1136E-05   0.000       0.000       16.01       0.000    
     620   369.4      0.5970     SH_3N          8   0.1%  0.2166E-03  0.2954E-04  0.1706E-05   0.000       0.000       16.01       0.000    
     630   375.4      0.5971     SH_3N          8   0.1%  0.2170E-03  0.2832E-04  0.2332E-05   0.000       0.000       16.01       0.000    
     640   381.4      0.5971     SH_3N          8   0.1%  0.2187E-03  0.2699E-04  0.1927E-05   0.000       0.000       16.01       0.000    
     650   387.4      0.5971     SH_3N          8   0.1%  0.2235E-03  0.2318E-04  0.1211E-05   0.000       0.000       16.01       0.000    
     660   393.3      0.5969     SH_3N          8   0.1%  0.2243E-03  0.2256E-04  0.8790E-06   0.000       0.000       16.01       0.000    
     670   399.3      0.5970     SH_3N          8   0.1%  0.2256E-03  0.2077E-04  0.1380E-05   0.000       0.000       16.01       0.000    
     ANIMATION FILE: CT3AV4A003 WRITTEN
     680   405.3      0.5971     SH_3N          8   0.1%  0.2279E-03  0.1817E-04  0.1622E-05   0.000       0.000       16.01       0.000    
     690   411.2      0.5972     SH_3N          8   0.1%  0.2291E-03  0.1746E-04  0.1152E-05   0.000       0.000       16.01       0.000    
     700   417.2      0.5973     SH_3N          8   0.1%  0.2325E-03  0.1490E-04  0.4435E-06   0.000       0.000       16.01       0.000    
     710   423.2      0.5972     SH_3N          8   0.1%  0.2325E-03  0.1376E-04  0.1403E-05   0.000       0.000       16.01       0.000    
     720   429.2      0.5972     SH_3N          8   0.1%  0.2350E-03  0.1119E-04  0.1544E-05   0.000       0.000       16.01       0.000    
     730   435.1      0.5971     SH_3N          8   0.1%  0.2356E-03  0.1005E-04  0.2083E-05   0.000       0.000       16.01       0.000    
     740   441.1      0.5972     SH_3N          8   0.1%  0.2365E-03  0.8893E-05  0.2274E-05   0.000       0.000       16.01       0.000    
     750   447.1      0.5973     SH_3N          8   0.1%  0.2398E-03  0.6794E-05  0.1255E-05   0.000       0.000       16.01       0.000    
     760   453.0      0.5972     SH_3N          8   0.1%  0.2393E-03  0.7309E-05  0.1121E-05   0.000       0.000       16.01       0.000    
     770   459.0      0.5972     SH_3N          8   0.1%  0.2405E-03  0.6065E-05  0.1125E-05   0.000       0.000       16.01       0.000    
     780   465.0      0.5973     SH_3N          8   0.1%  0.2412E-03  0.5056E-05  0.1452E-05   0.000       0.000       16.01       0.000    
     790   471.0      0.5973     SH_3N          8   0.1%  0.2414E-03  0.5169E-05  0.1148E-05   0.000       0.000       16.01       0.000    
     800   476.9      0.5973     SH_3N          8   0.1%  0.2422E-03  0.4520E-05  0.1056E-05   0.000       0.000       16.01       0.000    
     810   482.9      0.5973     SH_3N          8   0.1%  0.2436E-03  0.3580E-05  0.5862E-06   0.000       0.000       16.01       0.000    
     820   488.9      0.5973     SH_3N          8   0.1%  0.2416E-03  0.5098E-05  0.9920E-06   0.000       0.000       16.01       0.000    
     830   494.9      0.5972     SH_3N          8   0.1%  0.2420E-03  0.4312E-05  0.1436E-05   0.000       0.000       16.01       0.000    
     840   500.8      0.5972     SH_3N          8   0.1%  0.2420E-03  0.4453E-05  0.1256E-05   0.000       0.000       16.01       0.000    
     850   506.8      0.5972     SH_3N          8   0.1%  0.2404E-03  0.6302E-05  0.9683E-06   0.000       0.000       16.01       0.000    
     860   512.8      0.5971     SH_3N          8   0.1%  0.2420E-03  0.5096E-05  0.7244E-06   0.000       0.000       16.01       0.000    
     870   518.7      0.5971     SH_3N          8   0.1%  0.2392E-03  0.6689E-05  0.1813E-05   0.000       0.000       16.01       0.000    
     880   524.7      0.5971     SH_3N          8   0.1%  0.2380E-03  0.7598E-05  0.2077E-05   0.000       0.000       16.01       0.000    
     890   530.7      0.5972     SH_3N          8   0.1%  0.2381E-03  0.7833E-05  0.1800E-05   0.000       0.000       16.01       0.000    
     900   536.7      0.5971     SH_3N          8   0.1%  0.2377E-03  0.9332E-05  0.7505E-06   0.000       0.000       16.01       0.000    
     910   542.6      0.5971     SH_3N          8   0.1%  0.2361E-03  0.1101E-04  0.6322E-06   0.000       0.000       16.01       0.000    
     920   548.6      0.5970     SH_3N          8   0.1%  0.2356E-03  0.1098E-04  0.1134E-05   0.000       0.000       16.01       0.000    
     930   554.6      0.5970     SH_3N          8   0.1%  0.2345E-03  0.1215E-04  0.1038E-05   0.000       0.000       16.01       0.000    
     940   560.5      0.5969     SH_3N          8   0.1%  0.2331E-03  0.1336E-04  0.1186E-05   0.000       0.000       16.01       0.000    
     950   566.5      0.5969     SH_3N          8   0.1%  0.2347E-03  0.1197E-04  0.1133E-05   0.000       0.000       16.01       0.000    
     960   572.5      0.5968     SH_3N          8   0.1%  0.2324E-03  0.1354E-04  0.1760E-05   0.000       0.000       16.01       0.000    
     970   578.4      0.5967     SH_3N          8   0.1%  0.2316E-03  0.1411E-04  0.1956E-05   0.000       0.000       16.01       0.000    
     980   584.4      0.5965     SH_3N          8   0.1%  0.2319E-03  0.1398E-04  0.1852E-05   0.000       0.000       16.01       0.000    
     990   590.4      0.5965     SH_3N          8   0.1%  0.2309E-03  0.1567E-04  0.1168E-05   0.000       0.000       16.01       0.000    
    1000   596.3      0.5965     SH_3N          8   0.1%  0.2303E-03  0.1646E-04  0.9817E-06   0.000       0.000       16.01       0.000    
     ANIMATION FILE: CT3AV4A004 WRITTEN
    1010   602.3      0.5965     SH_3N          8   0.1%  0.2304E-03  0.1644E-04  0.9362E-06   0.000       0.000       16.01       0.000    
    1020   608.3      0.5964     SH_3N          8   0.1%  0.2286E-03  0.1795E-04  0.1144E-05   0.000       0.000       16.01       0.000    
    1030   614.2      0.5963     SH_3N          8   0.1%  0.2290E-03  0.1780E-04  0.9791E-06   0.000       0.000       16.01       0.000    
    1040   620.2      0.5962     SH_3N          8   0.1%  0.2288E-03  0.1811E-04  0.8150E-06   0.000       0.000       16.01       0.000    
    1050   626.2      0.5961     SH_3N          8   0.1%  0.2273E-03  0.1915E-04  0.1269E-05   0.000       0.000       16.01       0.000    
    1060   632.1      0.5961     SH_3N          8   0.1%  0.2280E-03  0.1867E-04  0.1111E-05   0.000       0.000       16.01       0.000    
    1070   638.1      0.5959     SH_3N          8   0.1%  0.2269E-03  0.1947E-04  0.1339E-05   0.000       0.000       16.01       0.000    
    1080   644.0      0.5958     SH_3N          8   0.1%  0.2281E-03  0.1870E-04  0.9862E-06   0.000       0.000       16.01       0.000    
    1090   650.0      0.5957     SH_3N          8   0.1%  0.2262E-03  0.1978E-04  0.1699E-05   0.000       0.000       16.01       0.000    
   CYCLE    TIME      TIME-STEP  ELEMENT          ERROR  I-ENERGY    K-ENERGY T  K-ENERGY R  EXT-WORK     MAS.ERR     TOTAL MASS  MASS ADDED
    1100   656.0      0.5956     SH_3N          8   0.1%  0.2278E-03  0.1851E-04  0.1482E-05   0.000       0.000       16.01       0.000    
    1110   661.9      0.5956     SH_3N          8   0.1%  0.2273E-03  0.1898E-04  0.1450E-05   0.000       0.000       16.01       0.000    
    1120   667.9      0.5956     SH_3N          8   0.1%  0.2271E-03  0.1934E-04  0.1248E-05   0.000       0.000       16.01       0.000    
    1130   673.8      0.5955     SH_3N          8   0.1%  0.2300E-03  0.1739E-04  0.4550E-06   0.000       0.000       16.01       0.000    
    1140   679.8      0.5954     SH_3N          8   0.0%  0.2268E-03  0.1916E-04  0.1673E-05   0.000       0.000       16.01       0.000    
    1150   685.7      0.5953     SH_3N          8   0.1%  0.2295E-03  0.1694E-04  0.1310E-05   0.000       0.000       16.01       0.000    
    1160   691.7      0.5952     SH_3N          8   0.1%  0.2302E-03  0.1668E-04  0.9177E-06   0.000       0.000       16.01       0.000    
    1170   697.6      0.5951     SH_3N          8   0.1%  0.2300E-03  0.1660E-04  0.1057E-05   0.000       0.000       16.01       0.000    
    1180   703.6      0.5951     SH_3N          8   0.1%  0.2317E-03  0.1457E-04  0.1506E-05   0.000       0.000       16.01       0.000    
    1190   709.5      0.5949     SH_3N          8   0.1%  0.2310E-03  0.1495E-04  0.1683E-05   0.000       0.000       16.01       0.000    
    1200   715.5      0.5949     SH_3N          8   0.1%  0.2323E-03  0.1400E-04  0.1387E-05   0.000       0.000       16.01       0.000    
    1210   721.4      0.5949     SH_3N          8   0.1%  0.2340E-03  0.1304E-04  0.7256E-06   0.000       0.000       16.01       0.000    
    1220   727.4      0.5949     SH_3N          8   0.1%  0.2337E-03  0.1325E-04  0.7890E-06   0.000       0.000       16.01       0.000    
    1230   733.3      0.5948     SH_3N          8   0.1%  0.2351E-03  0.1155E-04  0.1089E-05   0.000       0.000       16.01       0.000    
    1240   739.3      0.5947     SH_3N          8   0.1%  0.2346E-03  0.1168E-04  0.1329E-05   0.000       0.000       16.01       0.000    
    1250   745.2      0.5947     SH_3N          8   0.1%  0.2361E-03  0.1053E-04  0.1102E-05   0.000       0.000       16.01       0.000    
    1260   751.2      0.5946     SH_3N          8   0.1%  0.2380E-03  0.9361E-05  0.4748E-06   0.000       0.000       16.01       0.000    
    1270   757.1      0.5946     SH_3N          8   0.1%  0.2364E-03  0.9990E-05  0.1269E-05   0.000       0.000       16.01       0.000    
    1280   763.1      0.5945     SH_3N          8   0.1%  0.2392E-03  0.7309E-05  0.1283E-05   0.000       0.000       16.01       0.000    
    1290   769.0      0.5944     SH_3N          8   0.1%  0.2376E-03  0.8567E-05  0.1496E-05   0.000       0.000       16.01       0.000    
    1300   775.0      0.5944     SH_3N          8   0.1%  0.2397E-03  0.6942E-05  0.1064E-05   0.000       0.000       16.01       0.000    
    1310   780.9      0.5944     SH_3N          8   0.1%  0.2406E-03  0.6078E-05  0.1102E-05   0.000       0.000       16.01       0.000    
    1320   786.8      0.5944     SH_3N          8   0.1%  0.2396E-03  0.6897E-05  0.1166E-05   0.000       0.000       16.01       0.000    
    1330   792.8      0.5944     SH_3N          8   0.1%  0.2414E-03  0.4887E-05  0.1476E-05   0.000       0.000       16.01       0.000    
    1340   798.7      0.5945     SH_3N          8   0.1%  0.2404E-03  0.5621E-05  0.1642E-05   0.000       0.000       16.01       0.000    
     ANIMATION FILE: CT3AV4A005 WRITTEN
    1350   804.7      0.5945     SH_3N          8   0.1%  0.2416E-03  0.5347E-05  0.7654E-06   0.000       0.000       16.01       0.000    
    1360   810.6      0.5944     SH_3N          8   0.1%  0.2429E-03  0.4084E-05  0.8053E-06   0.000       0.000       16.01       0.000    
    1370   816.6      0.5944     SH_3N          8   0.1%  0.2418E-03  0.4825E-05  0.1074E-05   0.000       0.000       16.01       0.000    
    1380   822.5      0.5944     SH_3N          8   0.1%  0.2416E-03  0.4316E-05  0.1745E-05   0.000       0.000       16.01       0.000    
    1390   828.5      0.5944     SH_3N          8   0.1%  0.2435E-03  0.2879E-05  0.1375E-05   0.000       0.000       16.01       0.000    
    1400   834.4      0.5944     SH_3N          8   0.1%  0.2420E-03  0.4682E-05  0.1022E-05   0.000       0.000       16.01       0.000    
    1410   840.3      0.5945     SH_3N          8   0.1%  0.2442E-03  0.2923E-05  0.6331E-06   0.000       0.000       16.01       0.000    
    1420   846.3      0.5945     SH_3N          8   0.1%  0.2428E-03  0.3372E-05  0.1466E-05   0.000       0.000       16.01       0.000    
    1430   852.2      0.5946     SH_3N          8   0.0%  0.2420E-03  0.4113E-05  0.1547E-05   0.000       0.000       16.01       0.000    
    1440   858.2      0.5946     SH_3N          8   0.1%  0.2442E-03  0.2792E-05  0.7465E-06   0.000       0.000       16.01       0.000    
    1450   864.1      0.5947     SH_3N          8   0.1%  0.2436E-03  0.3651E-05  0.5117E-06   0.000       0.000       16.01       0.000    
    1460   870.1      0.5947     SH_3N          8   0.1%  0.2438E-03  0.3231E-05  0.7148E-06   0.000       0.000       16.01       0.000    
    1470   876.0      0.5947     SH_3N          8   0.1%  0.2430E-03  0.3009E-05  0.1664E-05   0.000       0.000       16.01       0.000    
    1480   882.0      0.5948     SH_3N          8   0.1%  0.2434E-03  0.2986E-05  0.1288E-05   0.000       0.000       16.01       0.000    
    1490   887.9      0.5948     SH_3N          8   0.1%  0.2435E-03  0.3283E-05  0.8779E-06   0.000       0.000       16.01       0.000    
    1500   893.9      0.5948     SH_3N          8   0.1%  0.2446E-03  0.2600E-05  0.5487E-06   0.000       0.000       16.01       0.000    
    1510   899.8      0.5948     SH_3N          8   0.1%  0.2430E-03  0.3255E-05  0.1373E-05   0.000       0.000       16.01       0.000    
    1520   905.8      0.5948     SH_3N          8   0.1%  0.2428E-03  0.3102E-05  0.1722E-05   0.000       0.000       16.01       0.000    
    1530   911.7      0.5948     SH_3N          8   0.1%  0.2435E-03  0.2947E-05  0.1258E-05   0.000       0.000       16.01       0.000    
    1540   917.7      0.5949     SH_3N          8   0.1%  0.2434E-03  0.3651E-05  0.7034E-06   0.000       0.000       16.01       0.000    
    1550   923.6      0.5951     SH_3N          8   0.1%  0.2431E-03  0.3809E-05  0.8142E-06   0.000       0.000       16.01       0.000    
    1560   929.6      0.5951     SH_3N          8   0.1%  0.2423E-03  0.4081E-05  0.1279E-05   0.000       0.000       16.01       0.000    
    1570   935.5      0.5950     SH_3N          8   0.1%  0.2417E-03  0.4778E-05  0.1139E-05   0.000       0.000       16.01       0.000    
    1580   941.5      0.5950     SH_3N          8   0.1%  0.2418E-03  0.5011E-05  0.8686E-06   0.000       0.000       16.01       0.000    
    1590   947.4      0.5950     SH_3N          8   0.1%  0.2422E-03  0.4900E-05  0.6242E-06   0.000       0.000       16.01       0.000    
    1600   953.4      0.5950     SH_3N          8   0.1%  0.2404E-03  0.5918E-05  0.1366E-05   0.000       0.000       16.01       0.000    
    1610   959.3      0.5950     SH_3N          8   0.1%  0.2405E-03  0.5767E-05  0.1410E-05   0.000       0.000       16.01       0.000    
    1620   965.3      0.5951     SH_3N          8   0.1%  0.2398E-03  0.6497E-05  0.1395E-05   0.000       0.000       16.01       0.000    
    1630   971.2      0.5951     SH_3N          8   0.1%  0.2403E-03  0.6691E-05  0.7649E-06   0.000       0.000       16.01       0.000    
    1640   977.2      0.5951     SH_3N          8   0.1%  0.2388E-03  0.7817E-05  0.1027E-05   0.000       0.000       16.01       0.000    
   CYCLE    TIME      TIME-STEP  ELEMENT          ERROR  I-ENERGY    K-ENERGY T  K-ENERGY R  EXT-WORK     MAS.ERR     TOTAL MASS  MASS ADDED
    1650   983.1      0.5951     SH_3N          8   0.1%  0.2393E-03  0.7348E-05  0.1032E-05   0.000       0.000       16.01       0.000    
    1660   989.1      0.5952     SH_3N          8   0.1%  0.2386E-03  0.8202E-05  0.8975E-06   0.000       0.000       16.01       0.000    
    1670   995.0      0.5952     SH_3N          8   0.1%  0.2378E-03  0.8646E-05  0.1220E-05   0.000       0.000       16.01       0.000    
     ANIMATION FILE: CT3AV4A006 WRITTEN
    1680   1001.      0.5952     SH_3N          8   0.1%  0.2398E-03  0.7157E-05  0.8363E-06   0.000       0.000       16.01       0.000    
    1690   1007.      0.5952     SH_3N          8   0.0%  0.2366E-03  0.9519E-05  0.1435E-05   0.000       0.000       16.01       0.000    
    1700   1013.      0.5953     SH_3N          8   0.1%  0.2390E-03  0.7673E-05  0.1049E-05   0.000       0.000       16.01       0.000    
    1710   1019.      0.5953     SH_3N          8   0.1%  0.2382E-03  0.8386E-05  0.1099E-05   0.000       0.000       16.01       0.000    
    1720   1025.      0.5953     SH_3N          8   0.1%  0.2374E-03  0.9179E-05  0.1074E-05   0.000       0.000       16.01       0.000    
    1730   1031.      0.5953     SH_3N          8   0.1%  0.2390E-03  0.7557E-05  0.1214E-05   0.000       0.000       16.01       0.000    
    1740   1037.      0.5954     SH_3N          8   0.1%  0.2375E-03  0.8921E-05  0.1261E-05   0.000       0.000       16.01       0.000    
    1750   1043.      0.5955     SH_3N          8   0.1%  0.2386E-03  0.8384E-05  0.7615E-06   0.000       0.000       16.01       0.000    
    1760   1049.      0.5955     SH_3N          8   0.1%  0.2386E-03  0.8081E-05  0.1036E-05   0.000       0.000       16.01       0.000    
    1770   1055.      0.5956     SH_3N          8   0.1%  0.2376E-03  0.8970E-05  0.1101E-05   0.000       0.000       16.01       0.000    
    1780   1061.      0.5956     SH_3N          8   0.1%  0.2385E-03  0.8355E-05  0.8971E-06   0.000       0.000       16.01       0.000    
    1790   1066.      0.5956     SH_3N          8   0.1%  0.2383E-03  0.8424E-05  0.9874E-06   0.000       0.000       16.01       0.000    
    1800   1072.      0.5957     SH_3N          8   0.1%  0.2380E-03  0.8610E-05  0.1100E-05   0.000       0.000       16.01       0.000    
    1810   1078.      0.5957     SH_3N          8   0.1%  0.2384E-03  0.8262E-05  0.1065E-05   0.000       0.000       16.01       0.000    
    1820   1084.      0.5958     SH_3N          8   0.1%  0.2374E-03  0.8535E-05  0.1777E-05   0.000       0.000       16.01       0.000    
    1830   1090.      0.5958     SH_3N          8   0.1%  0.2383E-03  0.8166E-05  0.1225E-05   0.000       0.000       16.01       0.000    
    1840   1096.      0.5959     SH_3N          8   0.1%  0.2370E-03  0.9665E-05  0.1028E-05   0.000       0.000       16.01       0.000    
    1850   1102.      0.5960     SH_3N          8   0.1%  0.2385E-03  0.8440E-05  0.8411E-06   0.000       0.000       16.01       0.000    
    1860   1108.      0.5961     SH_3N          8   0.1%  0.2376E-03  0.9252E-05  0.8190E-06   0.000       0.000       16.01       0.000    
    1870   1114.      0.5961     SH_3N          8   0.0%  0.2364E-03  0.1013E-04  0.1111E-05   0.000       0.000       16.01       0.000    
    1880   1120.      0.5961     SH_3N          8   0.1%  0.2392E-03  0.7759E-05  0.8606E-06   0.000       0.000       16.01       0.000    
    1890   1126.      0.5961     SH_3N          8   0.0%  0.2364E-03  0.1004E-04  0.1156E-05   0.000       0.000       16.01       0.000    
    1900   1132.      0.5962     SH_3N          8   0.1%  0.2383E-03  0.8674E-05  0.7329E-06   0.000       0.000       16.01       0.000    
    1910   1138.      0.5962     SH_3N          8   0.1%  0.2391E-03  0.7510E-05  0.1147E-05   0.000       0.000       16.01       0.000    
    1920   1144.      0.5962     SH_3N          8   0.0%  0.2371E-03  0.9128E-05  0.1419E-05   0.000       0.000       16.01       0.000    
    1930   1150.      0.5963     SH_3N          8   0.1%  0.2388E-03  0.7566E-05  0.1359E-05   0.000       0.000       16.01       0.000    
    1940   1156.      0.5964     SH_3N          8   0.1%  0.2397E-03  0.7136E-05  0.9588E-06   0.000       0.000       16.01       0.000    
    1950   1162.      0.5964     SH_3N          8   0.1%  0.2385E-03  0.8434E-05  0.7277E-06   0.000       0.000       16.01       0.000    
    1960   1168.      0.5963     SH_3N          8   0.1%  0.2402E-03  0.6573E-05  0.9400E-06   0.000       0.000       16.01       0.000    
    1970   1174.      0.5963     SH_3N          8   0.1%  0.2397E-03  0.6812E-05  0.1160E-05   0.000       0.000       16.01       0.000    
    1980   1180.      0.5964     SH_3N          8   0.0%  0.2384E-03  0.7872E-05  0.1328E-05   0.000       0.000       16.01       0.000    
    1990   1186.      0.5964     SH_3N          8   0.1%  0.2414E-03  0.5730E-05  0.6891E-06   0.000       0.000       16.01       0.000    
    2000   1192.      0.5964     SH_3N          8   0.1%  0.2400E-03  0.6929E-05  0.7822E-06   0.000       0.000       16.01       0.000    
    2010   1198.      0.5965     SH_3N          8   0.1%  0.2401E-03  0.6396E-05  0.1159E-05   0.000       0.000       16.01       0.000    
     ANIMATION FILE: CT3AV4A007 WRITTEN
    2020   1204.      0.5964     SH_3N          8   0.1%  0.2401E-03  0.5451E-05  0.2146E-05   0.000       0.000       16.01       0.000    
    2030   1210.      0.5963     SH_3N          8   0.1%  0.2396E-03  0.6180E-05  0.1863E-05   0.000       0.000       16.01       0.000    
    2040   1216.      0.5963     SH_3N          8   0.1%  0.2407E-03  0.6165E-05  0.8617E-06   0.000       0.000       16.01       0.000    
    2050   1221.      0.5964     SH_3N          8   0.1%  0.2410E-03  0.5958E-05  0.7447E-06   0.000       0.000       16.01       0.000    
    2060   1227.      0.5964     SH_3N          8   0.1%  0.2405E-03  0.6320E-05  0.8920E-06   0.000       0.000       16.01       0.000    
    2070   1233.      0.5964     SH_3N          8   0.0%  0.2396E-03  0.6794E-05  0.1269E-05   0.000       0.000       16.01       0.000    
    2080   1239.      0.5963     SH_3N          8   0.1%  0.2412E-03  0.5645E-05  0.9066E-06   0.000       0.000       16.01       0.000    
    2090   1245.      0.5963     SH_3N          8   0.1%  0.2416E-03  0.5638E-05  0.5044E-06   0.000       0.000       16.01       0.000    
    2100   1251.      0.5964     SH_3N          8   0.1%  0.2415E-03  0.5434E-05  0.7384E-06   0.000       0.000       16.01       0.000    
    2110   1257.      0.5964     SH_3N          8   0.1%  0.2415E-03  0.4280E-05  0.1881E-05   0.000       0.000       16.01       0.000    
    2120   1263.      0.5964     SH_3N          8   0.1%  0.2416E-03  0.4303E-05  0.1778E-05   0.000       0.000       16.01       0.000    
    2130   1269.      0.5963     SH_3N          8   0.1%  0.2417E-03  0.4924E-05  0.1074E-05   0.000       0.000       16.01       0.000    
    2140   1275.      0.5962     SH_3N          8   0.1%  0.2438E-03  0.3519E-05  0.4646E-06   0.000       0.000       16.01       0.000    
    2150   1281.      0.5963     SH_3N          8   0.1%  0.2427E-03  0.4309E-05  0.6573E-06   0.000       0.000       16.01       0.000    
    2160   1287.      0.5962     SH_3N          8   0.0%  0.2419E-03  0.4452E-05  0.1308E-05   0.000       0.000       16.01       0.000    
    2170   1293.      0.5962     SH_3N          8   0.1%  0.2434E-03  0.2958E-05  0.1336E-05   0.000       0.000       16.01       0.000    
    2180   1299.      0.5962     SH_3N          8   0.1%  0.2427E-03  0.4105E-05  0.8873E-06   0.000       0.000       16.01       0.000    
    2190   1305.      0.5962     SH_3N          8   0.1%  0.2436E-03  0.3709E-05  0.4654E-06   0.000       0.000       16.01       0.000    
   CYCLE    TIME      TIME-STEP  ELEMENT          ERROR  I-ENERGY    K-ENERGY T  K-ENERGY R  EXT-WORK     MAS.ERR     TOTAL MASS  MASS ADDED
    2200   1311.      0.5962     SH_3N          8   0.1%  0.2429E-03  0.3468E-05  0.1375E-05   0.000       0.000       16.01       0.000    
    2210   1317.      0.5962     SH_3N          8   0.1%  0.2425E-03  0.4157E-05  0.1043E-05   0.000       0.000       16.01       0.000    
    2220   1323.      0.5962     SH_3N          8   0.1%  0.2417E-03  0.4834E-05  0.1099E-05   0.000       0.000       16.01       0.000    
    2230   1329.      0.5961     SH_3N          8   0.1%  0.2432E-03  0.3574E-05  0.1014E-05   0.000       0.000       16.01       0.000    
    2240   1335.      0.5960     SH_3N          8   0.1%  0.2418E-03  0.4977E-05  0.8802E-06   0.000       0.000       16.01       0.000    
    2250   1341.      0.5960     SH_3N          8   0.1%  0.2408E-03  0.5300E-05  0.1534E-05   0.000       0.000       16.01       0.000    
    2260   1347.      0.5960     SH_3N          8   0.1%  0.2426E-03  0.3747E-05  0.1460E-05   0.000       0.000       16.01       0.000    
    2270   1353.      0.5960     SH_3N          8   0.0%  0.2393E-03  0.6854E-05  0.1415E-05   0.000       0.000       16.01       0.000    
    2280   1359.      0.5959     SH_3N          8   0.1%  0.2414E-03  0.5635E-05  0.7363E-06   0.000       0.000       16.01       0.000    
    2290   1365.      0.5958     SH_3N          8   0.1%  0.2412E-03  0.5856E-05  0.6577E-06   0.000       0.000       16.01       0.000    
    2300   1371.      0.5958     SH_3N          8   0.0%  0.2387E-03  0.8105E-05  0.7566E-06   0.000       0.000       16.01       0.000    
    2310   1376.      0.5958     SH_3N          8   0.1%  0.2408E-03  0.6048E-05  0.8579E-06   0.000       0.000       16.01       0.000    
    2320   1382.      0.5958     SH_3N          8   0.1%  0.2397E-03  0.6952E-05  0.1035E-05   0.000       0.000       16.01       0.000    
    2330   1388.      0.5958     SH_3N          8   0.1%  0.2386E-03  0.7883E-05  0.1109E-05   0.000       0.000       16.01       0.000    
    2340   1394.      0.5957     SH_3N          8   0.1%  0.2408E-03  0.5896E-05  0.1076E-05   0.000       0.000       16.01       0.000    
    2350   1400.      0.5956     SH_3N          8   0.1%  0.2389E-03  0.7483E-05  0.1301E-05   0.000       0.000       16.01       0.000    
     ANIMATION FILE: CT3AV4A008 WRITTEN
    2360   1406.      0.5956     SH_3N          8   0.1%  0.2387E-03  0.7583E-05  0.1328E-05   0.000       0.000       16.01       0.000    
    2370   1412.      0.5956     SH_3N          8   0.1%  0.2396E-03  0.6906E-05  0.1194E-05   0.000       0.000       16.01       0.000    
    2380   1418.      0.5955     SH_3N          8   0.1%  0.2387E-03  0.8015E-05  0.9126E-06   0.000       0.000       16.01       0.000    
    2390   1424.      0.5955     SH_3N          8   0.1%  0.2393E-03  0.7850E-05  0.6075E-06   0.000       0.000       16.01       0.000    
    2400   1430.      0.5954     SH_3N          8   0.1%  0.2384E-03  0.8098E-05  0.1173E-05   0.000       0.000       16.01       0.000    
    2410   1436.      0.5954     SH_3N          8   0.1%  0.2395E-03  0.7486E-05  0.7777E-06   0.000       0.000       16.01       0.000    
    2420   1442.      0.5954     SH_3N          8   0.0%  0.2375E-03  0.8769E-05  0.1348E-05   0.000       0.000       16.01       0.000    
    2430   1448.      0.5955     SH_3N          8   0.1%  0.2393E-03  0.7219E-05  0.1249E-05   0.000       0.000       16.01       0.000    
    2440   1454.      0.5954     SH_3N          8   0.1%  0.2389E-03  0.7644E-05  0.1146E-05   0.000       0.000       16.01       0.000    
    2450   1460.      0.5953     SH_3N          8   0.0%  0.2371E-03  0.8854E-05  0.1664E-05   0.000       0.000       16.01       0.000    
    2460   1466.      0.5952     SH_3N          8   0.1%  0.2399E-03  0.6871E-05  0.1038E-05   0.000       0.000       16.01       0.000    
    2470   1472.      0.5951     SH_3N          8   0.1%  0.2375E-03  0.9228E-05  0.8967E-06   0.000       0.000       16.01       0.000    
    2480   1478.      0.5951     SH_3N          8   0.1%  0.2384E-03  0.8640E-05  0.6713E-06   0.000       0.000       16.01       0.000    
    2490   1484.      0.5951     SH_3N          8   0.1%  0.2394E-03  0.7621E-05  0.7402E-06   0.000       0.000       16.01       0.000    
    2500   1490.      0.5951     SH_3N          8   0.1%  0.2377E-03  0.9239E-05  0.7141E-06   0.000       0.000       16.01       0.000    
    2510   1496.      0.5951     SH_3N          8   0.1%  0.2391E-03  0.7628E-05  0.1025E-05   0.000       0.000       16.01       0.000    
    2520   1502.      0.5951     SH_3N          8   0.1%  0.2398E-03  0.6785E-05  0.1200E-05   0.000       0.000       16.01       0.000    
    2530   1507.      0.5951     SH_3N          8   0.0%  0.2375E-03  0.8449E-05  0.1601E-05   0.000       0.000       16.01       0.000    
    2540   1513.      0.5951     SH_3N          8   0.1%  0.2403E-03  0.6154E-05  0.1320E-05   0.000       0.000       16.01       0.000    
    2550   1519.      0.5951     SH_3N          8   0.1%  0.2398E-03  0.6773E-05  0.1097E-05   0.000       0.000       16.01       0.000    
    2560   1525.      0.5950     SH_3N          8   0.1%  0.2388E-03  0.7842E-05  0.9471E-06   0.000       0.000       16.01       0.000    
    2570   1531.      0.5950     SH_3N          8   0.1%  0.2411E-03  0.5888E-05  0.7838E-06   0.000       0.000       16.01       0.000    
    2580   1537.      0.5950     SH_3N          8   0.0%  0.2391E-03  0.7290E-05  0.1223E-05   0.000       0.000       16.01       0.000    
    2590   1543.      0.5951     SH_3N          8   0.1%  0.2406E-03  0.6468E-05  0.6155E-06   0.000       0.000       16.01       0.000    
    2600   1549.      0.5951     SH_3N          8   0.1%  0.2415E-03  0.5435E-05  0.8489E-06   0.000       0.000       16.01       0.000    
    2610   1555.      0.5951     SH_3N          8   0.1%  0.2406E-03  0.5595E-05  0.1473E-05   0.000       0.000       16.01       0.000    
    2620   1561.      0.5951     SH_3N          8   0.1%  0.2402E-03  0.5372E-05  0.2065E-05   0.000       0.000       16.01       0.000    
    2630   1567.      0.5950     SH_3N          8   0.1%  0.2416E-03  0.4663E-05  0.1480E-05   0.000       0.000       16.01       0.000    
    2640   1573.      0.5951     SH_3N          8   0.1%  0.2416E-03  0.5369E-05  0.7068E-06   0.000       0.000       16.01       0.000    
    2650   1579.      0.5952     SH_3N          8   0.1%  0.2416E-03  0.5448E-05  0.6379E-06   0.000       0.000       16.01       0.000    
    2660   1585.      0.5953     SH_3N          8   0.1%  0.2418E-03  0.4788E-05  0.1075E-05   0.000       0.000       16.01       0.000    
    2670   1591.      0.5953     SH_3N          8   0.1%  0.2410E-03  0.5423E-05  0.1181E-05   0.000       0.000       16.01       0.000    
    2680   1597.      0.5952     SH_3N          8   0.1%  0.2421E-03  0.5047E-05  0.5852E-06   0.000       0.000       16.01       0.000    
     ANIMATION FILE: CT3AV4A009 WRITTEN
    2690   1603.      0.5953     SH_3N          8   0.1%  0.2433E-03  0.4013E-05  0.4752E-06   0.000       0.000       16.01       0.000    
    2700   1609.      0.5953     SH_3N          8   0.1%  0.2423E-03  0.4456E-05  0.9020E-06   0.000       0.000       16.01       0.000    
    2710   1615.      0.5953     SH_3N          8   0.0%  0.2415E-03  0.4252E-05  0.1896E-05   0.000       0.000       16.01       0.000    
    2720   1621.      0.5954     SH_3N          8   0.1%  0.2439E-03  0.2607E-05  0.1288E-05   0.000       0.000       16.01       0.000    
    2730   1626.      0.5954     SH_3N          8   0.1%  0.2423E-03  0.4436E-05  0.9425E-06   0.000       0.000       16.01       0.000    
    2740   1632.      0.5955     SH_3N          8   0.1%  0.2443E-03  0.2885E-05  0.5800E-06   0.000       0.000       16.01       0.000    
   CYCLE    TIME      TIME-STEP  ELEMENT          ERROR  I-ENERGY    K-ENERGY T  K-ENERGY R  EXT-WORK     MAS.ERR     TOTAL MASS  MASS ADDED
    2750   1638.      0.5956     SH_3N          8   0.1%  0.2440E-03  0.2731E-05  0.1019E-05   0.000       0.000       16.01       0.000    
    2760   1644.      0.5956     SH_3N          8   0.0%  0.2421E-03  0.3990E-05  0.1440E-05   0.000       0.000       16.01       0.000    
    2770   1650.      0.5956     SH_3N          8   0.1%  0.2449E-03  0.2085E-05  0.7968E-06   0.000       0.000       16.01       0.000    
    2780   1656.      0.5955     SH_3N          8   0.1%  0.2445E-03  0.2573E-05  0.6171E-06   0.000       0.000       16.01       0.000    
    2790   1662.      0.5956     SH_3N          8   0.1%  0.2443E-03  0.2744E-05  0.6477E-06   0.000       0.000       16.01       0.000    
    2800   1668.      0.5956     SH_3N          8   0.1%  0.2442E-03  0.2060E-05  0.1449E-05   0.000       0.000       16.01       0.000    
    2810   1674.      0.5957     SH_3N          8   0.1%  0.2448E-03  0.1754E-05  0.1113E-05   0.000       0.000       16.01       0.000    
    2820   1680.      0.5957     SH_3N          8   0.0%  0.2433E-03  0.3200E-05  0.1072E-05   0.000       0.000       16.01       0.000    
    2830   1686.      0.5956     SH_3N          8   0.1%  0.2454E-03  0.1710E-05  0.6458E-06   0.000       0.000       16.01       0.000    
    2840   1692.      0.5956     SH_3N          8   0.1%  0.2448E-03  0.2238E-05  0.6891E-06   0.000       0.000       16.01       0.000    
    2850   1698.      0.5956     SH_3N          8   0.0%  0.2425E-03  0.3654E-05  0.1458E-05   0.000       0.000       16.01       0.000    
    2860   1704.      0.5957     SH_3N          8   0.1%  0.2448E-03  0.1526E-05  0.1408E-05   0.000       0.000       16.01       0.000    
    2870   1710.      0.5957     SH_3N          8   0.1%  0.2432E-03  0.3376E-05  0.1138E-05   0.000       0.000       16.01       0.000    
    2880   1716.      0.5956     SH_3N          8   0.1%  0.2430E-03  0.3908E-05  0.8074E-06   0.000       0.000       16.01       0.000    
    2890   1722.      0.5955     SH_3N          8   0.1%  0.2442E-03  0.2728E-05  0.8252E-06   0.000       0.000       16.01       0.000    
    2900   1728.      0.5955     SH_3N          8   0.0%  0.2416E-03  0.5027E-05  0.9928E-06   0.000       0.000       16.01       0.000    
    2910   1734.      0.5954     SH_3N          8   0.1%  0.2419E-03  0.4674E-05  0.1093E-05   0.000       0.000       16.01       0.000    
    2920   1740.      0.5955     SH_3N          8   0.1%  0.2432E-03  0.3876E-05  0.7310E-06   0.000       0.000       16.01       0.000    
    2930   1746.      0.5955     SH_3N          8   0.1%  0.2408E-03  0.5870E-05  0.1006E-05   0.000       0.000       16.01       0.000    
    2940   1752.      0.5954     SH_3N          8   0.1%  0.2425E-03  0.4174E-05  0.1046E-05   0.000       0.000       16.01       0.000    
    2950   1758.      0.5953     SH_3N          8   0.1%  0.2407E-03  0.5181E-05  0.1780E-05   0.000       0.000       16.01       0.000    
    2960   1763.      0.5954     SH_3N          8   0.1%  0.2404E-03  0.5796E-05  0.1489E-05   0.000       0.000       16.01       0.000    
    2970   1769.      0.5954     SH_3N          8   0.1%  0.2415E-03  0.5547E-05  0.7085E-06   0.000       0.000       16.01       0.000    
    2980   1775.      0.5953     SH_3N          8   0.1%  0.2405E-03  0.6597E-05  0.6345E-06   0.000       0.000       16.01       0.000    
    2990   1781.      0.5953     SH_3N          8   0.1%  0.2407E-03  0.6515E-05  0.4524E-06   0.000       0.000       16.01       0.000    
    3000   1787.      0.5952     SH_3N          8   0.0%  0.2390E-03  0.7435E-05  0.1158E-05   0.000       0.000       16.01       0.000    
    3010   1793.      0.5952     SH_3N          8   0.1%  0.2409E-03  0.6057E-05  0.7917E-06   0.000       0.000       16.01       0.000    
    3020   1799.      0.5952     SH_3N          8   0.1%  0.2390E-03  0.7585E-05  0.1050E-05   0.000       0.000       16.01       0.000    
     ANIMATION FILE: CT3AV4A010 WRITTEN
    3030   1805.      0.5953     SH_3N          8   0.1%  0.2400E-03  0.6659E-05  0.1059E-05   0.000       0.000       16.01       0.000    
    3040   1811.      0.5953     SH_3N          8   0.1%  0.2400E-03  0.6222E-05  0.1485E-05   0.000       0.000       16.01       0.000    
    3050   1817.      0.5953     SH_3N          8   0.0%  0.2374E-03  0.8412E-05  0.1797E-05   0.000       0.000       16.01       0.000    
    3060   1823.      0.5952     SH_3N          8   0.1%  0.2401E-03  0.6713E-05  0.9313E-06   0.000       0.000       16.01       0.000    
    3070   1829.      0.5953     SH_3N          8   0.1%  0.2392E-03  0.7765E-05  0.7495E-06   0.000       0.000       16.01       0.000    
    3080   1835.      0.5953     SH_3N          8   0.0%  0.2375E-03  0.8997E-05  0.1097E-05   0.000       0.000       16.01       0.000    
    3090   1841.      0.5954     SH_3N          8   0.1%  0.2394E-03  0.7155E-05  0.1160E-05   0.000       0.000       16.01       0.000    
    3100   1847.      0.5954     SH_3N          8   0.1%  0.2382E-03  0.8599E-05  0.8354E-06   0.000       0.000       16.01       0.000    
    3110   1853.      0.5954     SH_3N          8   0.1%  0.2375E-03  0.8974E-05  0.1148E-05   0.000       0.000       16.01       0.000    
    3120   1859.      0.5954     SH_3N          8   0.1%  0.2400E-03  0.6811E-05  0.9880E-06   0.000       0.000       16.01       0.000    
    3130   1865.      0.5954     SH_3N          8   0.0%  0.2370E-03  0.9259E-05  0.1384E-05   0.000       0.000       16.01       0.000    
    3140   1871.      0.5954     SH_3N          8   0.1%  0.2386E-03  0.7973E-05  0.1152E-05   0.000       0.000       16.01       0.000    
    3150   1877.      0.5955     SH_3N          8   0.1%  0.2395E-03  0.7332E-05  0.9414E-06   0.000       0.000       16.01       0.000    
    3160   1883.      0.5955     SH_3N          8   0.0%  0.2376E-03  0.9030E-05  0.1011E-05   0.000       0.000       16.01       0.000    
    3170   1888.      0.5955     SH_3N          8   0.1%  0.2392E-03  0.7424E-05  0.1058E-05   0.000       0.000       16.01       0.000    
    3180   1894.      0.5956     SH_3N          8   0.1%  0.2390E-03  0.7672E-05  0.1019E-05   0.000       0.000       16.01       0.000    
    3190   1900.      0.5956     SH_3N          8   0.1%  0.2391E-03  0.8082E-05  0.4783E-06   0.000       0.000       16.01       0.000    
    3200   1906.      0.5956     SH_3N          8   0.1%  0.2398E-03  0.7041E-05  0.8832E-06   0.000       0.000       16.01       0.000    
    3210   1912.      0.5957     SH_3N          8   0.1%  0.2398E-03  0.6607E-05  0.1244E-05   0.000       0.000       16.01       0.000    
    3220   1918.      0.5957     SH_3N          8   0.1%  0.2391E-03  0.7011E-05  0.1473E-05   0.000       0.000       16.01       0.000    
    3230   1924.      0.5956     SH_3N          8   0.1%  0.2409E-03  0.5859E-05  0.9921E-06   0.000       0.000       16.01       0.000    
    3240   1930.      0.5957     SH_3N          8   0.1%  0.2409E-03  0.6007E-05  0.7909E-06   0.000       0.000       16.01       0.000    
    3250   1936.      0.5959     SH_3N          8   0.1%  0.2405E-03  0.6229E-05  0.9022E-06   0.000       0.000       16.01       0.000    
    3260   1942.      0.5959     SH_3N          8   0.1%  0.2406E-03  0.5779E-05  0.1255E-05   0.000       0.000       16.01       0.000    
    3270   1948.      0.5958     SH_3N          8   0.1%  0.2415E-03  0.5352E-05  0.8336E-06   0.000       0.000       16.01       0.000    
    3280   1954.      0.5958     SH_3N          8   0.1%  0.2415E-03  0.5625E-05  0.5781E-06   0.000       0.000       16.01       0.000    
    3290   1960.      0.5958     SH_3N          8   0.1%  0.2420E-03  0.4695E-05  0.1056E-05   0.000       0.000       16.01       0.000    
   CYCLE    TIME      TIME-STEP  ELEMENT          ERROR  I-ENERGY    K-ENERGY T  K-ENERGY R  EXT-WORK     MAS.ERR     TOTAL MASS  MASS ADDED
    3300   1966.      0.5959     SH_3N          8   0.1%  0.2425E-03  0.3901E-05  0.1324E-05   0.000       0.000       16.01       0.000    
    3310   1972.      0.5960     SH_3N          8   0.0%  0.2405E-03  0.5089E-05  0.2025E-05   0.000       0.000       16.01       0.000    
    3320   1978.      0.5961     SH_3N          8   0.1%  0.2435E-03  0.3233E-05  0.1046E-05   0.000       0.000       16.01       0.000    
    3330   1984.      0.5960     SH_3N          8   0.1%  0.2427E-03  0.4329E-05  0.6576E-06   0.000       0.000       16.01       0.000    
    3340   1990.      0.5960     SH_3N          8   0.1%  0.2425E-03  0.4483E-05  0.7110E-06   0.000       0.000       16.01       0.000    
    3350   1996.      0.5960     SH_3N          8   0.1%  0.2433E-03  0.3393E-05  0.9993E-06   0.000       0.000       16.01       0.000    

     RESTART FILES: CT3AV4_0001_[0001-0004].rst WRITTEN
     -------------

     ANIMATION FILE: CT3AV4A011 WRITTEN
  
                           ** CPU USER TIME **
  
  
                        ** SUMMARY **
  
 #PROC  ELEMENT   KINCOND   INTEG     IO        T0        ASM       RESOL    
   1   .1490E+00 .5363E-01 .4531E-01 .2264E+00 .1196E+00 .2539E-01 .9294E+00
   2   .1450E+00 .5013E-01 .4207E-01 .1900E+00 .1151E+00 .2461E-01 .9279E+00
   3   .1446E+00 .5205E-01 .4354E-01 .1861E+00 .1486E+00 .2404E-01 .9084E+00
   4   .1425E+00 .4907E-01 .4161E-01 .1920E+00 .1640E+00 .2299E-01 .9216E+00
  
                 ** SPMD COM. TIME **
  
 #PROC  FORCES    RBYFOR    RBYVEL    VEL       TOT       %        
   1   .4560E-01 .0000E+00 .0000E+00 .1523E-01 .6083E-01 .6545E+01
   2   .1075E+00 .0000E+00 .0000E+00 .1487E-01 .1224E+00 .1319E+02
   3   .5706E-01 .0000E+00 .0000E+00 .1451E-01 .7156E-01 .7878E+01
   4   .6426E-01 .0000E+00 .0000E+00 .1371E-01 .7797E-01 .8460E+01
  
 
                   ** CUMULATIVE CPU TIME SUMMARY **
  
 CONTACT SORTING.............: .0000E+00     0.00 % 
 CONTACT FORCES..............: .2051E-01     0.56 % 
 ELEMENT FORCES..............: .5811E+00    15.76 % 
 KINEMATIC COND..............: .2049E+00     5.56 % 
 INTEGRATION.................: .1725E+00     4.68 % 
 ASSEMBLING..................: .9701E-01     2.63 % 
 OTHERS (including I/O)......: .2611E+01    70.82 % 
 TOTAL.......................: .3687E+01   100.00 % 
  
  
                           ** ELAPSED TIME **
  
  
                        ** SUMMARY **
  
 #PROC  ELEMENT   KINCOND   INTEG     IO        T0        ASM       RESOL    
   1   .9136E-01 .3292E-01 .2770E-01 .1372E+00 .7340E-01 .1558E-01 .5667E+00
   2   .8945E-01 .3108E-01 .2594E-01 .1129E+00 .7153E-01 .1521E-01 .5678E+00
   3   .9070E-01 .3323E-01 .2778E-01 .1124E+00 .9280E-01 .1524E-01 .5672E+00
   4   .8876E-01 .3092E-01 .2597E-01 .1131E+00 .1012E+00 .1431E-01 .5677E+00
  
        ELEMENT   KINCOND   INTEG     IO        T0        ASM       RESOL    
 MIN   .8876E-01 .3092E-01 .2594E-01 .1124E+00 .7153E-01 .1431E-01 .5667E+00
 MAX   .9136E-01 .3323E-01 .2778E-01 .1372E+00 .1012E+00 .1558E-01 .5678E+00
 AVG   .9007E-01 .3204E-01 .2685E-01 .1189E+00 .8472E-01 .1509E-01 .5673E+00
  
                 ** SPMD COM. TIME **
  
 #PROC  FORCES    RBYFOR    RBYVEL    VEL       TOT       %        
   1   .2844E-01 .0000E+00 .0000E+00 .9383E-02 .3782E-01 .6674E+01
   2   .6617E-01 .0000E+00 .0000E+00 .9349E-02 .7552E-01 .1330E+02
   3   .3604E-01 .0000E+00 .0000E+00 .9304E-02 .4534E-01 .7994E+01
   4   .4078E-01 .0000E+00 .0000E+00 .8705E-02 .4948E-01 .8716E+01
  
        FORCES    RBYFOR    RBYVEL    VEL       TOT       %        
 MIN   .2844E-01 .0000E+00 .0000E+00 .8705E-02 .3782E-01 .6674E+01
 MAX   .6617E-01 .0000E+00 .0000E+00 .9383E-02 .7552E-01 .1330E+02
 AVG   .4286E-01 .0000E+00 .0000E+00 .9185E-02 .5204E-01 .9171E+01
  
                   ** MEMORY USAGE STATISTICS **
  
 TOTAL MEMORY USED .........................:      228 MB
 MAXIMUM MEMORY PER PROCESSOR...............:       57 MB
 MINIMUM MEMORY PER PROCESSOR...............:       57 MB
 AVERAGE MEMORY PER PROCESSOR...............:       57 MB
  
                   ** DISK USAGE STATISTICS **
  
 TOTAL DISK SPACE USED .....................:          1 MB
 ANIMATION/H3D/TH/OUTP SIZE ................:          0 MB
 RESTART FILE SIZE .........................:          1 MB
  
                   ** COMPUTE TIME INFORMATION **
                        ** CURRENT ENGINE **
  
 EXECUTION STARTED .........................:      2022/11/23  16:20:57
 EXECUTION COMPLETED .......................:      2022/11/23  16:20:57
  
 ELAPSED TIME     =          0.65 s
                          0:00:00
 ESTIMATED SPEEDUP=          5.69



     NORMAL TERMINATION      



     TOTAL NUMBER OF CYCLES  :    3359

  
                   ** COMPUTE RUNTIME INFORMATION SUMMARY **
  
        STARTER RUNTIME =          0.62s (00:00:00)
 # 001   ENGINE RUNTIME =          0.65s (00:00:00)
 ------------------------------ 
 STARTER+ENGINE RUNTIME =          1.27s (00:00:01)
  
