 BLOCK_0001.out
************************************************************************
**                                                                    **
**                                                                    **
**                         OpenRadioss Engine                         **
**                                                                    **
**            Non-linear Finite Element Analysis Software             **
**                                                                    **
**                                                                    **
**                                                                    **
**                Linux 64 bits, GNU compiler, OpenMPI                **
**                                                                    **
**                                                                    **
**                                                                    **
** CommitID: 440deeba848d606665f88afb8302e85b1ecf72bf                 **
************************************************************************
** OpenRadioss Software                                               **
** COPYRIGHT (C) 1986-2022 Altair Engineering, Inc.                   **
** Licensed under GNU Affero General Public License.                  **
** See License file.                                                  **
************************************************************************
 
 NUMBER OF SPMD DOMAINS           4
 NUMBER OF THREADS PER DOMAIN     2
 NUMBER OF HMPP PROCESSES         8
  
 COMPUTATION HARDWARE DESCRIPTION
  
 CPU#  HOSTNAME     CPU TYPE, FREQUENCY AND MEMORY
   1   fr-shady.europe.altair.com   Intel(R) Xeon(R) CPU           X5680  @ 3.33GHz (x86_64), 1596 MHz,  20012 MB RAM,  49126 MB swap
   2   fr-shady.europe.altair.com   Intel(R) Xeon(R) CPU           X5680  @ 3.33GHz (x86_64), 1596 MHz,  20012 MB RAM,  49126 MB swap
   3   fr-shady.europe.altair.com   Intel(R) Xeon(R) CPU           X5680  @ 3.33GHz (x86_64), 1596 MHz,  20012 MB RAM,  49126 MB swap
   4   fr-shady.europe.altair.com   Intel(R) Xeon(R) CPU           X5680  @ 3.33GHz (x86_64), 1596 MHz,  20012 MB RAM,  49126 MB swap
  
************************************************************************


 BLOCKD01                                                                        


 FINAL TIME . . . . . . . . . . . . . . . . . . .   10.00000    

 TIME INTERVAL FOR TIME HISTORY PLOTS . . . . . .  0.1000000E-01

 TIME STEP SCALE FACTOR . . . . . . . . . . . . .  0.5000000    

 MINIMUM TIME STEP  . . . . . . . . . . . . . . .   0.000000    


 BRICK TIME STEP SCALE FACTOR . . . . . . . . . .  0.5000000    
 BRICK MINIMUM TIME STEP. . . . . . . . . . . . .   0.000000    
 MIN. TIME STEP FLAG (1:STOP RUN, 2:DELETE BRICK)     1

 QUAD TIME STEP SCALE FACTOR. . . . . . . . . . .  0.5000000    
 QUAD MINIMUM TIME STEP . . . . . . . . . . . . .   0.000000    
 MIN. TIME STEP FLAG (1:STOP RUN, 2:DELETE QUAD).     1

 SHELL TIME STEP SCALE FACTOR . . . . . . . . . .  0.5000000    
 SHELL MINIMUM TIME STEP. . . . . . . . . . . . .   0.000000    
 MIN. TIME FLAG (1:STOP, 2:DELETE, 3:SMALL STRAIN)    2

 TRUSS TIME STEP SCALE FACTOR . . . . . . . . . .  0.5000000    
 TRUSS MINIMUM TIME STEP. . . . . . . . . . . . .   0.000000    
 MIN. TIME FLAG (1:STOP, 2:DELETE). . . . . . . .     0

 BEAM TIME STEP SCALE FACTOR. . . . . . . . . . .  0.5000000    
 BEAM MINIMUM TIME STEP . . . . . . . . . . . . .   0.000000    
 MIN. TIME FLAG (1:STOP, 2:DELETE). . . . . . . .     0

 SPRING TIME STEP SCALE FACTOR. . . . . . . . . .  0.5000000    
 SPRING MINIMUM TIME STEP . . . . . . . . . . . .   0.000000    
 MIN. TIME FLAG (1:STOP, 2:DELETE). . . . . . . .     0

 AIRBAG TIME STEP SCALE FACTOR. . . . . . . . . .  0.5000000    
 AIRBAG MINIMUM TIME STEP . . . . . . . . . . . .   0.000000    
 MIN. TIME FLAG (1:STOP). . . . . . . . . . . . .     0

 CONTACT TIME STEP SCALE FACTOR . . . . . . . . .  0.5000000    
 CONTACT MINIMUM TIME STEP. . . . . . . . . . . .   0.000000    
 MIN. TIME FLAG(1:STOP, 2:REMOVE NODE FROM INTERF)    0

 PRINTOUT CYCLE FREQUENCY . . . . . . . . . . . .    -1

 RESTART CYCLE FREQUENCY. . . . . . . . . . . . .   10000000

 MAXIMUM RESTART WRITE BEFORE OVERWRITE . . . . .     0

 INVERS: INPUT DECK VERSION . . . . . . . . . . .  2019
 ITTYP : FLAG FOR TYPE OF T-FILE. . . . . . . . .     4


 TIME FOR FIRST ANIMATION-FILE PLOT . . . . . . .   0.000000    
 TIME INTERVAL FOR ANIMATION-FILE PLOTS . . . . .   1.000000    
 SENSOR FOR ANIMATION-FILE PLOTS. . . . . . . . .          0
 TIME INTERVAL FOR SENSOR ANIMATION-FILE PLOTS. .   0.000000    

 VARIABLE SAVED ON ANIMATION FILES (1: YES) :
      PLASTIC STRAIN. . . . . .     0
      DENSITY     (SOLID ONLY).     0
      SPECIFIC ENERGY . . . . .     0
      HOURGLASS ENERGY. . . . .     0
      TEMPERATURE (SOLID ONLY).     0
      THICKNESS   (SHELL ONLY).     0
      PRESSURE    (SOLID ONLY).     0
      VON MISES . . . . . . . .     0
      TURBULENT ENERGY (FLUID).     0
      TURBULENT VISCOSITY(FLUID)    0
      VORTICITY (FLUID) . . . .     0
 NODAL VALUES SAVED ON ANIMATION FILES (1: YES) :
      PRESSURE. . . . . . . . .     0
      DENSITY . . . . . . . . .     0
      TEMPERATURE . . . . . . .     0
 VECTOR SAVED ON ANIMATION FILES (1: YES) :
      VELOCITY VECTOR . . . . .     1
      DISPLACEMENT VECTOR . . .     0
      ACCELERATION VECTOR . . .     1
      CONTACT FORCES. . . . . .     0
      INTERNAL FORCES . . . . .     0
      EXTERNAL FORCES . . . . .     0
      SECTION RBY RWALL FORCES.     1
      ROTATIONAL VELOCITY VECTOR    0
      CONTACT PRESSURE (VECTORS)    0
 SHELL TENSOR SAVED ON ANIMATION FILES (1: YES) :
      MEMBRANE STRESS . . . . .     0
      BENDING STRESS(MOMENT/T^2)    0
      UPPER LAYER STRESS. . . .     0
      LOWER LAYER STRESS. . . .     0
      MEMBRANE STRAIN . . . . .     0
      CURVATURE . . . . . . . .     0
      UPPER LAYER STRAIN. . . .     0
      LOWER LAYER STRAIN. . . .     0
 NODAL MASS SAVED ON ANIMATION FILES (1: YES) :    0
 KEEP DELETED ELEMENT (1: YES) :    0


 INITIAL TIME STEP. . . . . . . . . . . . . . . .   0.000000    
 MAXIMUM TIME STEP. . . . . . . . . . . . . . . .  0.1000000E-02

 PARALLEL ARITHMETIC ON
 NUMBER OF INTERFACES TO BE ELIMINATED. . . . . .        0

 NUMBER OF SOLID  ELEMENT BLOCKS TO BE ELIMINATED        0

 NUMBER OF QUAD   ELEMENT BLOCKS TO BE ELIMINATED        0

 NUMBER OF SHELL  ELEMENT BLOCKS TO BE ELIMINATED        0

 NUMBER OF TRUSS  ELEMENT BLOCKS TO BE ELIMINATED        0

 NUMBER OF BEAM   ELEMENT BLOCKS TO BE ELIMINATED        0

 NUMBER OF SPRING ELEMENT BLOCKS TO BE ELIMINATED        0

 NUMBER OF SH_3N  ELEMENT BLOCKS TO BE ELIMINATED        0

 NUMBER OF  SPH PARTICLES BLOCKS TO BE ELIMINATED        0

 NUMBER OF RIGID LINKS. . . . . . . . . . . . . .        0

 NUMBER OF NEW BOUNDARY CONDITIONS. . . . . . . .        0

 23/11/2022
   CYCLE    TIME      TIME-STEP  ELEMENT          ERROR  I-ENERGY    K-ENERGY T  K-ENERGY R  EXT-WORK     MAS.ERR     TOTAL MASS  MASS ADDED
       0   0.000      0.1000E-02 FIXED          0   0.0%   0.000       0.000       0.000       0.000       0.000      0.1000E-19   0.000    
     ANIMATION FILE: BLOCKA001 WRITTEN
       1  0.1000E-02  0.1000E-02 FIXED          0   0.0%   0.000       0.000       2.000       2.000       0.000      0.1000E-19   0.000    
       2  0.2000E-02  0.1000E-02 FIXED          0   0.0%   0.000       0.000       2.000       2.000       0.000      0.1000E-19   0.000    
       3  0.3000E-02  0.1000E-02 FIXED          0   0.0%   0.000       0.000       2.000       2.000       0.000      0.1000E-19   0.000    
       4  0.4000E-02  0.1000E-02 FIXED          0   0.0%   0.000       0.000       2.000       2.000       0.000      0.1000E-19   0.000    
       5  0.5000E-02  0.1000E-02 FIXED          0   0.0%   0.000       0.000       2.000       2.000       0.000      0.1000E-19   0.000    
       6  0.6000E-02  0.1000E-02 FIXED          0  -0.0%   0.000       0.000       2.000       2.000       0.000      0.1000E-19   0.000    
       7  0.7000E-02  0.1000E-02 FIXED          0   0.0%   0.000       0.000       2.000       2.000       0.000      0.1000E-19   0.000    
       8  0.8000E-02  0.1000E-02 FIXED          0  -0.0%   0.000       0.000       2.000       2.000       0.000      0.1000E-19   0.000    
       9  0.9000E-02  0.1000E-02 FIXED          0   0.0%   0.000       0.000       2.000       2.000       0.000      0.1000E-19   0.000    
      10  0.1000E-01  0.1000E-02 FIXED          0   0.0%   0.000       0.000       2.000       2.000       0.000      0.1000E-19   0.000    
      11  0.1100E-01  0.1000E-02 FIXED          0   0.0%   0.000       0.000       2.000       2.000       0.000      0.1000E-19   0.000    
      12  0.1200E-01  0.1000E-02 FIXED          0  -0.0%   0.000       0.000       2.000       2.000       0.000      0.1000E-19   0.000    
      13  0.1300E-01  0.1000E-02 FIXED          0   0.0%   0.000       0.000       2.000       2.000       0.000      0.1000E-19   0.000    
      14  0.1400E-01  0.1000E-02 FIXED          0  -0.0%   0.000       0.000       2.000       2.000       0.000      0.1000E-19   0.000    
      15  0.1500E-01  0.1000E-02 FIXED          0  -0.0%   0.000       0.000       2.000       2.000       0.000      0.1000E-19   0.000    
      16  0.1600E-01  0.1000E-02 FIXED          0  -0.0%   0.000       0.000       2.000       2.000       0.000      0.1000E-19   0.000    
      17  0.1700E-01  0.1000E-02 FIXED          0  -0.0%   0.000       0.000       2.000       2.000       0.000      0.1000E-19   0.000    
      18  0.1800E-01  0.1000E-02 FIXED          0  -0.0%   0.000       0.000       2.000       2.000       0.000      0.1000E-19   0.000    
      19  0.1900E-01  0.1000E-02 FIXED          0   0.0%   0.000       0.000       2.000       2.000       0.000      0.1000E-19   0.000    
      20  0.2000E-01  0.1000E-02 FIXED          0  -0.0%   0.000       0.000       2.000       2.000       0.000      0.1000E-19   0.000    
      21  0.2100E-01  0.1000E-02 FIXED          0  -0.0%   0.000       0.000       2.000       2.000       0.000      0.1000E-19   0.000    
      22  0.2200E-01  0.1000E-02 FIXED          0   0.0%   0.000       0.000       2.000       2.000       0.000      0.1000E-19   0.000    
      23  0.2300E-01  0.1000E-02 FIXED          0   0.0%   0.000       0.000       2.000       2.000       0.000      0.1000E-19   0.000    
      24  0.2400E-01  0.1000E-02 FIXED          0   0.0%   0.000       0.000       2.000       2.000       0.000      0.1000E-19   0.000    
      25  0.2500E-01  0.1000E-02 FIXED          0   0.0%   0.000       0.000       2.000       2.000       0.000      0.1000E-19   0.000    
      26  0.2600E-01  0.1000E-02 FIXED          0  -0.0%   0.000       0.000       2.000       2.000       0.000      0.1000E-19   0.000    
      27  0.2700E-01  0.1000E-02 FIXED          0   0.0%   0.000       0.000       2.000       2.000       0.000      0.1000E-19   0.000    
      28  0.2800E-01  0.1000E-02 FIXED          0   0.0%   0.000       0.000       2.000       2.000       0.000      0.1000E-19   0.000    
      29  0.2900E-01  0.1000E-02 FIXED          0  -0.0%   0.000       0.000       2.000       2.000       0.000      0.1000E-19   0.000    
      30  0.3000E-01  0.1000E-02 FIXED          0   0.0%   0.000       0.000       2.000       2.000       0.000      0.1000E-19   0.000    
      31  0.3100E-01  0.1000E-02 FIXED          0   0.0%   0.000       0.000       2.000       2.000       0.000      0.1000E-19   0.000    
      32  0.3200E-01  0.1000E-02 FIXED          0   0.0%   0.000       0.000       2.000       2.000       0.000      0.1000E-19   0.000    
      33  0.3300E-01  0.1000E-02 FIXED          0   0.0%   0.000       0.000       2.000       2.000       0.000      0.1000E-19   0.000    
      34  0.3400E-01  0.1000E-02 FIXED          0   0.0%   0.000       0.000       2.000       2.000       0.000      0.1000E-19   0.000    
      35  0.3500E-01  0.1000E-02 FIXED          0  -0.0%   0.000       0.000       2.000       2.000       0.000      0.1000E-19   0.000    
      36  0.3600E-01  0.1000E-02 FIXED          0  -0.0%   0.000       0.000       2.000       2.000       0.000      0.1000E-19   0.000    
      37  0.3700E-01  0.1000E-02 FIXED          0   0.0%   0.000       0.000       2.000       2.000       0.000      0.1000E-19   0.000    
      38  0.3800E-01  0.1000E-02 FIXED          0   0.0%   0.000       0.000       2.000       2.000       0.000      0.1000E-19   0.000    
      39  0.3900E-01  0.1000E-02 FIXED          0  -0.0%   0.000       0.000       2.000       2.000       0.000      0.1000E-19   0.000    
      40  0.4000E-01  0.1000E-02 FIXED          0   0.0%   0.000       0.000       2.000       2.000       0.000      0.1000E-19   0.000    
      41  0.4100E-01  0.1000E-02 FIXED          0   0.0%   0.000       0.000       2.000       2.000       0.000      0.1000E-19   0.000    
      42  0.4200E-01  0.1000E-02 FIXED          0  -0.0%   0.000       0.000       2.000       2.000       0.000      0.1000E-19   0.000    
      43  0.4300E-01  0.1000E-02 FIXED          0   0.0%   0.000       0.000       2.000       2.000       0.000      0.1000E-19   0.000    
      44  0.4400E-01  0.1000E-02 FIXED          0   0.0%   0.000       0.000       2.000       2.000       0.000      0.1000E-19   0.000    
      45  0.4500E-01  0.1000E-02 FIXED          0   0.0%   0.000       0.000       2.000       2.000       0.000      0.1000E-19   0.000    
      46  0.4600E-01  0.1000E-02 FIXED          0   0.0%   0.000       0.000       2.000       2.000       0.000      0.1000E-19   0.000    
      47  0.4700E-01  0.1000E-02 FIXED          0  -0.0%   0.000       0.000       2.000       2.000       0.000      0.1000E-19   0.000    
      48  0.4800E-01  0.1000E-02 FIXED          0   0.0%   0.000       0.000       2.000       2.000       0.000      0.1000E-19   0.000    
      49  0.4900E-01  0.1000E-02 FIXED          0  -0.0%   0.000       0.000       2.000       2.000       0.000      0.1000E-19   0.000    
      50  0.5000E-01  0.1000E-02 FIXED          0  -0.0%   0.000       0.000       2.000       2.000       0.000      0.1000E-19   0.000    
      51  0.5100E-01  0.1000E-02 FIXED          0  -0.0%   0.000       0.000       2.000       2.000       0.000      0.1000E-19   0.000    
      52  0.5200E-01  0.1000E-02 FIXED          0   0.0%   0.000       0.000       2.000       2.000       0.000      0.1000E-19   0.000    
      53  0.5300E-01  0.1000E-02 FIXED          0   0.0%   0.000       0.000       2.000       2.000       0.000      0.1000E-19   0.000    
      54  0.5400E-01  0.1000E-02 FIXED          0  -0.0%   0.000       0.000       2.000       2.000       0.000      0.1000E-19   0.000    
   CYCLE    TIME      TIME-STEP  ELEMENT          ERROR  I-ENERGY    K-ENERGY T  K-ENERGY R  EXT-WORK     MAS.ERR     TOTAL MASS  MASS ADDED
      55  0.5500E-01  0.1000E-02 FIXED          0   0.0%   0.000       0.000       2.000       2.000       0.000      0.1000E-19   0.000    
      56  0.5600E-01  0.1000E-02 FIXED          0  -0.0%   0.000       0.000       2.000       2.000       0.000      0.1000E-19   0.000    
      57  0.5700E-01  0.1000E-02 FIXED          0   0.0%   0.000       0.000       2.000       2.000       0.000      0.1000E-19   0.000    
      58  0.5800E-01  0.1000E-02 FIXED          0   0.0%   0.000       0.000       2.000       2.000       0.000      0.1000E-19   0.000    
      59  0.5900E-01  0.1000E-02 FIXED          0   0.0%   0.000       0.000       2.000       2.000       0.000      0.1000E-19   0.000    
      60  0.6000E-01  0.1000E-02 FIXED          0  -0.0%   0.000       0.000       2.000       2.000       0.000      0.1000E-19   0.000    
      61  0.6100E-01  0.1000E-02 FIXED          0   0.0%   0.000       0.000       2.000       2.000       0.000      0.1000E-19   0.000    
      62  0.6200E-01  0.1000E-02 FIXED          0  -0.0%   0.000       0.000       2.000       2.000       0.000      0.1000E-19   0.000    
      63  0.6300E-01  0.1000E-02 FIXED          0   0.0%   0.000       0.000       2.000       2.000       0.000      0.1000E-19   0.000    
      64  0.6400E-01  0.1000E-02 FIXED          0   0.0%   0.000       0.000       2.000       2.000       0.000      0.1000E-19   0.000    
      65  0.6500E-01  0.1000E-02 FIXED          0  -0.0%   0.000       0.000       2.000       2.000       0.000      0.1000E-19   0.000    
      66  0.6600E-01  0.1000E-02 FIXED          0   0.0%   0.000       0.000       2.000       2.000       0.000      0.1000E-19   0.000    
      67  0.6700E-01  0.1000E-02 FIXED          0  -0.0%   0.000       0.000       2.000       2.000       0.000      0.1000E-19   0.000    
      68  0.6800E-01  0.1000E-02 FIXED          0   0.0%   0.000       0.000       2.000       2.000       0.000      0.1000E-19   0.000    
      69  0.6900E-01  0.1000E-02 FIXED          0  -0.0%   0.000       0.000       2.000       2.000       0.000      0.1000E-19   0.000    
      70  0.7000E-01  0.1000E-02 FIXED          0   0.0%   0.000       0.000       2.000       2.000       0.000      0.1000E-19   0.000    
      71  0.7100E-01  0.1000E-02 FIXED          0   0.0%   0.000       0.000       2.000       2.000       0.000      0.1000E-19   0.000    
      72  0.7200E-01  0.1000E-02 FIXED          0  -0.0%   0.000       0.000       2.000       2.000       0.000      0.1000E-19   0.000    
      73  0.7300E-01  0.1000E-02 FIXED          0  -0.0%   0.000       0.000       2.000       2.000       0.000      0.1000E-19   0.000    
      74  0.7400E-01  0.1000E-02 FIXED          0   0.0%   0.000       0.000       2.000       2.000       0.000      0.1000E-19   0.000    
      75  0.7500E-01  0.1000E-02 FIXED          0  -0.0%   0.000       0.000       2.000       2.000       0.000      0.1000E-19   0.000    
      76  0.7600E-01  0.1000E-02 FIXED          0   0.0%   0.000       0.000       2.000       2.000       0.000      0.1000E-19   0.000    
      77  0.7700E-01  0.1000E-02 FIXED          0   0.0%   0.000       0.000       2.000       2.000       0.000      0.1000E-19   0.000    
      78  0.7800E-01  0.1000E-02 FIXED          0  -0.0%   0.000       0.000       2.000       2.000       0.000      0.1000E-19   0.000    
      79  0.7900E-01  0.1000E-02 FIXED          0   0.0%   0.000       0.000       2.000       2.000       0.000      0.1000E-19   0.000    
      80  0.8000E-01  0.1000E-02 FIXED          0   0.0%   0.000       0.000       2.000       2.000       0.000      0.1000E-19   0.000    
      81  0.8100E-01  0.1000E-02 FIXED          0   0.0%   0.000       0.000       2.000       2.000       0.000      0.1000E-19   0.000    
      82  0.8200E-01  0.1000E-02 FIXED          0   0.0%   0.000       0.000       2.000       2.000       0.000      0.1000E-19   0.000    
      83  0.8300E-01  0.1000E-02 FIXED          0  -0.0%   0.000       0.000       2.000       2.000       0.000      0.1000E-19   0.000    
      84  0.8400E-01  0.1000E-02 FIXED          0  -0.0%   0.000       0.000       2.000       2.000       0.000      0.1000E-19   0.000    
      85  0.8500E-01  0.1000E-02 FIXED          0  -0.0%   0.000       0.000       2.000       2.000       0.000      0.1000E-19   0.000    
      86  0.8600E-01  0.1000E-02 FIXED          0   0.0%   0.000       0.000       2.000       2.000       0.000      0.1000E-19   0.000    
      87  0.8700E-01  0.1000E-02 FIXED          0  -0.0%   0.000       0.000       2.000       2.000       0.000      0.1000E-19   0.000    
      88  0.8800E-01  0.1000E-02 FIXED          0   0.0%   0.000       0.000       2.000       2.000       0.000      0.1000E-19   0.000    
      89  0.8900E-01  0.1000E-02 FIXED          0   0.0%   0.000       0.000       2.000       2.000       0.000      0.1000E-19   0.000    
      90  0.9000E-01  0.1000E-02 FIXED          0  -0.0%   0.000       0.000       2.000       2.000       0.000      0.1000E-19   0.000    
      91  0.9100E-01  0.1000E-02 FIXED          0   0.0%   0.000       0.000       2.000       2.000       0.000      0.1000E-19   0.000    
      92  0.9200E-01  0.1000E-02 FIXED          0   0.0%   0.000       0.000       2.000       2.000       0.000      0.1000E-19   0.000    
      93  0.9300E-01  0.1000E-02 FIXED          0   0.0%   0.000       0.000       2.000       2.000       0.000      0.1000E-19   0.000    
      94  0.9400E-01  0.1000E-02 FIXED          0  -0.0%   0.000       0.000       2.000       2.000       0.000      0.1000E-19   0.000    
      95  0.9500E-01  0.1000E-02 FIXED          0   0.0%   0.000       0.000       2.000       2.000       0.000      0.1000E-19   0.000    
      96  0.9600E-01  0.1000E-02 FIXED          0  -0.0%   0.000       0.000       2.000       2.000       0.000      0.1000E-19   0.000    
      97  0.9700E-01  0.1000E-02 FIXED          0   0.0%   0.000       0.000       2.000       2.000       0.000      0.1000E-19   0.000    
      98  0.9800E-01  0.1000E-02 FIXED          0   0.0%   0.000       0.000       2.000       2.000       0.000      0.1000E-19   0.000    
      99  0.9900E-01  0.1000E-02 FIXED          0   0.0%   0.000       0.000       2.000       2.000       0.000      0.1000E-19   0.000    
     100  0.1000      0.1000E-02 FIXED          0   0.0%   0.000       0.000       2.000       2.000       0.000      0.1000E-19   0.000    
     101  0.1010      0.1000E-02 FIXED          0  -0.0%   0.000       0.000       2.000       2.000       0.000      0.1000E-19   0.000    
     102  0.1020      0.1000E-02 FIXED          0   0.0%   0.000       0.000       2.000       2.000       0.000      0.1000E-19   0.000    
     103  0.1030      0.1000E-02 FIXED          0  -0.0%   0.000       0.000       2.000       2.000       0.000      0.1000E-19   0.000    
     104  0.1040      0.1000E-02 FIXED          0  -0.0%   0.000       0.000       2.000       2.000       0.000      0.1000E-19   0.000    
     105  0.1050      0.1000E-02 FIXED          0   0.0%   0.000       0.000       2.000       2.000       0.000      0.1000E-19   0.000    
     106  0.1060      0.1000E-02 FIXED          0  -0.0%   0.000       0.000       2.000       2.000       0.000      0.1000E-19   0.000    
     107  0.1070      0.1000E-02 FIXED          0   0.0%   0.000       0.000       2.000       2.000       0.000      0.1000E-19   0.000    
     108  0.1080      0.1000E-02 FIXED          0   0.0%   0.000       0.000       2.000       2.000       0.000      0.1000E-19   0.000    
     109  0.1090      0.1000E-02 FIXED          0  -0.0%   0.000       0.000       2.000       2.000       0.000      0.1000E-19   0.000    
   CYCLE    TIME      TIME-STEP  ELEMENT          ERROR  I-ENERGY    K-ENERGY T  K-ENERGY R  EXT-WORK     MAS.ERR     TOTAL MASS  MASS ADDED
     110  0.1100      0.1000E-02 FIXED          0   0.0%   0.000       0.000       2.000       2.000       0.000      0.1000E-19   0.000    
     111  0.1110      0.1000E-02 FIXED          0  -0.0%   0.000       0.000       2.000       2.000       0.000      0.1000E-19   0.000    
     112  0.1120      0.1000E-02 FIXED          0   0.0%   0.000       0.000       2.000       2.000       0.000      0.1000E-19   0.000    
     113  0.1130      0.1000E-02 FIXED          0   0.0%   0.000       0.000       2.000       2.000       0.000      0.1000E-19   0.000    
     114  0.1140      0.1000E-02 FIXED          0   0.0%   0.000       0.000       2.000       2.000       0.000      0.1000E-19   0.000    
     115  0.1150      0.1000E-02 FIXED          0  -0.0%   0.000       0.000       2.000       2.000       0.000      0.1000E-19   0.000    
     116  0.1160      0.1000E-02 FIXED          0  -0.0%   0.000       0.000       2.000       2.000       0.000      0.1000E-19   0.000    
     117  0.1170      0.1000E-02 FIXED          0   0.0%   0.000       0.000       2.000       2.000       0.000      0.1000E-19   0.000    
     118  0.1180      0.1000E-02 FIXED          0   0.0%   0.000       0.000       2.000       2.000       0.000      0.1000E-19   0.000    
     119  0.1190      0.1000E-02 FIXED          0  -0.0%   0.000       0.000       2.000       2.000       0.000      0.1000E-19   0.000    
     120  0.1200      0.1000E-02 FIXED          0   0.0%   0.000       0.000       2.000       2.000       0.000      0.1000E-19   0.000    
     121  0.1210      0.1000E-02 FIXED          0  -0.0%   0.000       0.000       2.000       2.000       0.000      0.1000E-19   0.000    
     122  0.1220      0.1000E-02 FIXED          0  -0.0%   0.000       0.000       2.000       2.000       0.000      0.1000E-19   0.000    
     123  0.1230      0.1000E-02 FIXED          0  -0.0%   0.000       0.000       2.000       2.000       0.000      0.1000E-19   0.000    
     124  0.1240      0.1000E-02 FIXED          0  -0.0%   0.000       0.000       2.000       2.000       0.000      0.1000E-19   0.000    
     125  0.1250      0.1000E-02 FIXED          0   0.0%   0.000       0.000       2.000       2.000       0.000      0.1000E-19   0.000    
     126  0.1260      0.1000E-02 FIXED          0   0.0%   0.000       0.000       2.000       2.000       0.000      0.1000E-19   0.000    
     127  0.1270      0.1000E-02 FIXED          0   0.0%   0.000       0.000       2.000       2.000       0.000      0.1000E-19   0.000    
     128  0.1280      0.1000E-02 FIXED          0   0.0%   0.000       0.000       2.000       2.000       0.000      0.1000E-19   0.000    
     129  0.1290      0.1000E-02 FIXED          0   0.0%   0.000       0.000       2.000       2.000       0.000      0.1000E-19   0.000    
     130  0.1300      0.1000E-02 FIXED          0  -0.0%   0.000       0.000       2.000       2.000       0.000      0.1000E-19   0.000    
     131  0.1310      0.1000E-02 FIXED          0   0.0%   0.000       0.000       2.000       2.000       0.000      0.1000E-19   0.000    
     132  0.1320      0.1000E-02 FIXED          0   0.0%   0.000       0.000       2.000       2.000       0.000      0.1000E-19   0.000    
     133  0.1330      0.1000E-02 FIXED          0  -0.0%   0.000       0.000       2.000       2.000       0.000      0.1000E-19   0.000    
     134  0.1340      0.1000E-02 FIXED          0   0.0%   0.000       0.000       2.000       2.000       0.000      0.1000E-19   0.000    
     135  0.1350      0.1000E-02 FIXED          0  -0.0%   0.000       0.000       2.000       2.000       0.000      0.1000E-19   0.000    
     136  0.1360      0.1000E-02 FIXED          0   0.0%   0.000       0.000       2.000       2.000       0.000      0.1000E-19   0.000    
     137  0.1370      0.1000E-02 FIXED          0   0.0%   0.000       0.000       2.000       2.000       0.000      0.1000E-19   0.000    
     138  0.1380      0.1000E-02 FIXED          0  -0.0%   0.000       0.000       2.000       2.000       0.000      0.1000E-19   0.000    
     139  0.1390      0.1000E-02 FIXED          0   0.0%   0.000       0.000       2.000       2.000       0.000      0.1000E-19   0.000    
     140  0.1400      0.1000E-02 FIXED          0   0.0%   0.000       0.000       2.000       2.000       0.000      0.1000E-19   0.000    
     141  0.1410      0.1000E-02 FIXED          0   0.0%   0.000       0.000       2.000       2.000       0.000      0.1000E-19   0.000    
     142  0.1420      0.1000E-02 FIXED          0   0.0%   0.000       0.000       2.000       2.000       0.000      0.1000E-19   0.000    
     143  0.1430      0.1000E-02 FIXED          0  -0.0%   0.000       0.000       2.000       2.000       0.000      0.1000E-19   0.000    
     144  0.1440      0.1000E-02 FIXED          0   0.0%   0.000       0.000       2.000       2.000       0.000      0.1000E-19   0.000    
     145  0.1450      0.1000E-02 FIXED          0   0.0%   0.000       0.000       2.000       2.000       0.000      0.1000E-19   0.000    
     146  0.1460      0.1000E-02 FIXED          0  -0.0%   0.000       0.000       2.000       2.000       0.000      0.1000E-19   0.000    
     147  0.1470      0.1000E-02 FIXED          0   0.0%   0.000       0.000       2.000       2.000       0.000      0.1000E-19   0.000    
     148  0.1480      0.1000E-02 FIXED          0   0.0%   0.000       0.000       2.000       2.000       0.000      0.1000E-19   0.000    
     149  0.1490      0.1000E-02 FIXED          0   0.0%   0.000       0.000       2.000       2.000       0.000      0.1000E-19   0.000    
     150  0.1500      0.1000E-02 FIXED          0   0.0%   0.000       0.000       2.000       2.000       0.000      0.1000E-19   0.000    
     151  0.1510      0.1000E-02 FIXED          0  -0.0%   0.000       0.000       2.000       2.000       0.000      0.1000E-19   0.000    
     152  0.1520      0.1000E-02 FIXED          0  -0.0%   0.000       0.000       2.000       2.000       0.000      0.1000E-19   0.000    
     153  0.1530      0.1000E-02 FIXED          0  -0.0%   0.000       0.000       2.000       2.000       0.000      0.1000E-19   0.000    
     154  0.1540      0.1000E-02 FIXED          0   0.0%   0.000       0.000       2.000       2.000       0.000      0.1000E-19   0.000    
     155  0.1550      0.1000E-02 FIXED          0  -0.0%   0.000       0.000       2.000       2.000       0.000      0.1000E-19   0.000    
     156  0.1560      0.1000E-02 FIXED          0  -0.0%   0.000       0.000       2.000       2.000       0.000      0.1000E-19   0.000    
     157  0.1570      0.1000E-02 FIXED          0   0.0%   0.000       0.000       2.000       2.000       0.000      0.1000E-19   0.000    
     158  0.1580      0.1000E-02 FIXED          0   0.0%   0.000       0.000       2.000       2.000       0.000      0.1000E-19   0.000    
     159  0.1590      0.1000E-02 FIXED          0  -0.0%   0.000       0.000       2.000       2.000       0.000      0.1000E-19   0.000    
     160  0.1600      0.1000E-02 FIXED          0   0.0%   0.000       0.000       2.000       2.000       0.000      0.1000E-19   0.000    
     161  0.1610      0.1000E-02 FIXED          0   0.0%   0.000       0.000       2.000       2.000       0.000      0.1000E-19   0.000    
     162  0.1620      0.1000E-02 FIXED          0   0.0%   0.000       0.000       2.000       2.000       0.000      0.1000E-19   0.000    
     163  0.1630      0.1000E-02 FIXED          0  -0.0%   0.000       0.000       2.000       2.000       0.000      0.1000E-19   0.000    
     164  0.1640      0.1000E-02 FIXED          0   0.0%   0.000       0.000       2.000       2.000       0.000      0.1000E-19   0.000    
   CYCLE    TIME      TIME-STEP  ELEMENT          ERROR  I-ENERGY    K-ENERGY T  K-ENERGY R  EXT-WORK     MAS.ERR     TOTAL MASS  MASS ADDED
     165  0.1650      0.1000E-02 FIXED          0  -0.0%   0.000       0.000       2.000       2.000       0.000      0.1000E-19   0.000    
     166  0.1660      0.1000E-02 FIXED          0  -0.0%   0.000       0.000       2.000       2.000       0.000      0.1000E-19   0.000    
     167  0.1670      0.1000E-02 FIXED          0   0.0%   0.000       0.000       2.000       2.000       0.000      0.1000E-19   0.000    
     168  0.1680      0.1000E-02 FIXED          0   0.0%   0.000       0.000       2.000       2.000       0.000      0.1000E-19   0.000    
     169  0.1690      0.1000E-02 FIXED          0   0.0%   0.000       0.000       2.000       2.000       0.000      0.1000E-19   0.000    
     170  0.1700      0.1000E-02 FIXED          0   0.0%   0.000       0.000       2.000       2.000       0.000      0.1000E-19   0.000    
     171  0.1710      0.1000E-02 FIXED          0  -0.0%   0.000       0.000       2.000       2.000       0.000      0.1000E-19   0.000    
     172  0.1720      0.1000E-02 FIXED          0   0.0%   0.000       0.000       2.000       2.000       0.000      0.1000E-19   0.000    
     173  0.1730      0.1000E-02 FIXED          0  -0.0%   0.000       0.000       2.000       2.000       0.000      0.1000E-19   0.000    
     174  0.1740      0.1000E-02 FIXED          0  -0.0%   0.000       0.000       2.000       2.000       0.000      0.1000E-19   0.000    
     175  0.1750      0.1000E-02 FIXED          0   0.0%   0.000       0.000       2.000       2.000       0.000      0.1000E-19   0.000    
     176  0.1760      0.1000E-02 FIXED          0   0.0%   0.000       0.000       2.000       2.000       0.000      0.1000E-19   0.000    
     177  0.1770      0.1000E-02 FIXED          0   0.0%   0.000       0.000       2.000       2.000       0.000      0.1000E-19   0.000    
     178  0.1780      0.1000E-02 FIXED          0  -0.0%   0.000       0.000       2.000       2.000       0.000      0.1000E-19   0.000    
     179  0.1790      0.1000E-02 FIXED          0   0.0%   0.000       0.000       2.000       2.000       0.000      0.1000E-19   0.000    
     180  0.1800      0.1000E-02 FIXED          0   0.0%   0.000       0.000       2.000       2.000       0.000      0.1000E-19   0.000    
     181  0.1810      0.1000E-02 FIXED          0  -0.0%   0.000       0.000       2.000       2.000       0.000      0.1000E-19   0.000    
     182  0.1820      0.1000E-02 FIXED          0   0.0%   0.000       0.000       2.000       2.000       0.000      0.1000E-19   0.000    
     183  0.1830      0.1000E-02 FIXED          0   0.0%   0.000       0.000       2.000       2.000       0.000      0.1000E-19   0.000    
     184  0.1840      0.1000E-02 FIXED          0   0.0%   0.000       0.000       2.000       2.000       0.000      0.1000E-19   0.000    
     185  0.1850      0.1000E-02 FIXED          0  -0.0%   0.000       0.000       2.000       2.000       0.000      0.1000E-19   0.000    
     186  0.1860      0.1000E-02 FIXED          0   0.0%   0.000       0.000       2.000       2.000       0.000      0.1000E-19   0.000    
     187  0.1870      0.1000E-02 FIXED          0  -0.0%   0.000       0.000       2.000       2.000       0.000      0.1000E-19   0.000    
     188  0.1880      0.1000E-02 FIXED          0   0.0%   0.000       0.000       2.000       2.000       0.000      0.1000E-19   0.000    
     189  0.1890      0.1000E-02 FIXED          0   0.0%   0.000       0.000       2.000       2.000       0.000      0.1000E-19   0.000    
     190  0.1900      0.1000E-02 FIXED          0   0.0%   0.000       0.000       2.000       2.000       0.000      0.1000E-19   0.000    
     191  0.1910      0.1000E-02 FIXED          0   0.0%   0.000       0.000       2.000       2.000       0.000      0.1000E-19   0.000    
     192  0.1920      0.1000E-02 FIXED          0  -0.0%   0.000       0.000       2.000       2.000       0.000      0.1000E-19   0.000    
     193  0.1930      0.1000E-02 FIXED          0   0.0%   0.000       0.000       2.000       2.000       0.000      0.1000E-19   0.000    
     194  0.1940      0.1000E-02 FIXED          0   0.0%   0.000       0.000       2.000       2.000       0.000      0.1000E-19   0.000    
     195  0.1950      0.1000E-02 FIXED          0   0.0%   0.000       0.000       2.000       2.000       0.000      0.1000E-19   0.000    
     196  0.1960      0.1000E-02 FIXED          0   0.0%   0.000       0.000       2.000       2.000       0.000      0.1000E-19   0.000    
     197  0.1970      0.1000E-02 FIXED          0  -0.0%   0.000       0.000       2.000       2.000       0.000      0.1000E-19   0.000    
     198  0.1980      0.1000E-02 FIXED          0  -0.0%   0.000       0.000       2.000       2.000       0.000      0.1000E-19   0.000    
     199  0.1990      0.1000E-02 FIXED          0   0.0%   0.000       0.000       2.000       2.000       0.000      0.1000E-19   0.000    
     200  0.2000      0.1000E-02 FIXED          0  -0.0%   0.000       0.000       2.000       2.000       0.000      0.1000E-19   0.000    
     201  0.2010      0.1000E-02 FIXED          0   0.0%   0.000       0.000       2.000       2.000       0.000      0.1000E-19   0.000    
     202  0.2020      0.1000E-02 FIXED          0  -0.0%   0.000       0.000       2.000       2.000       0.000      0.1000E-19   0.000    
     203  0.2030      0.1000E-02 FIXED          0   0.0%   0.000       0.000       2.000       2.000       0.000      0.1000E-19   0.000    
     204  0.2040      0.1000E-02 FIXED          0  -0.0%   0.000       0.000       2.000       2.000       0.000      0.1000E-19   0.000    
     205  0.2050      0.1000E-02 FIXED          0  -0.0%   0.000       0.000       2.000       2.000       0.000      0.1000E-19   0.000    
     206  0.2060      0.1000E-02 FIXED          0   0.0%   0.000       0.000       2.000       2.000       0.000      0.1000E-19   0.000    
     207  0.2070      0.1000E-02 FIXED          0   0.0%   0.000       0.000       2.000       2.000       0.000      0.1000E-19   0.000    
     208  0.2080      0.1000E-02 FIXED          0   0.0%   0.000       0.000       2.000       2.000       0.000      0.1000E-19   0.000    
     209  0.2090      0.1000E-02 FIXED          0   0.0%   0.000       0.000       2.000       2.000       0.000      0.1000E-19   0.000    
     210  0.2100      0.1000E-02 FIXED          0  -0.0%   0.000       0.000       2.000       2.000       0.000      0.1000E-19   0.000    
     211  0.2110      0.1000E-02 FIXED          0   0.0%   0.000       0.000       2.000       2.000       0.000      0.1000E-19   0.000    
     212  0.2120      0.1000E-02 FIXED          0  -0.0%   0.000       0.000       2.000       2.000       0.000      0.1000E-19   0.000    
     213  0.2130      0.1000E-02 FIXED          0  -0.0%   0.000       0.000       2.000       2.000       0.000      0.1000E-19   0.000    
     214  0.2140      0.1000E-02 FIXED          0   0.0%   0.000       0.000       2.000       2.000       0.000      0.1000E-19   0.000    
     215  0.2150      0.1000E-02 FIXED          0   0.0%   0.000       0.000       2.000       2.000       0.000      0.1000E-19   0.000    
     216  0.2160      0.1000E-02 FIXED          0  -0.0%   0.000       0.000       2.000       2.000       0.000      0.1000E-19   0.000    
     217  0.2170      0.1000E-02 FIXED          0  -0.0%   0.000       0.000       2.000       2.000       0.000      0.1000E-19   0.000    
     218  0.2180      0.1000E-02 FIXED          0   0.0%   0.000       0.000       2.000       2.000       0.000      0.1000E-19   0.000    
     219  0.2190      0.1000E-02 FIXED          0   0.0%   0.000       0.000       2.000       2.000       0.000      0.1000E-19   0.000    
   CYCLE    TIME      TIME-STEP  ELEMENT          ERROR  I-ENERGY    K-ENERGY T  K-ENERGY R  EXT-WORK     MAS.ERR     TOTAL MASS  MASS ADDED
     220  0.2200      0.1000E-02 FIXED          0  -0.0%   0.000       0.000       2.000       2.000       0.000      0.1000E-19   0.000    
     221  0.2210      0.1000E-02 FIXED          0   0.0%   0.000       0.000       2.000       2.000       0.000      0.1000E-19   0.000    
     222  0.2220      0.1000E-02 FIXED          0  -0.0%   0.000       0.000       2.000       2.000       0.000      0.1000E-19   0.000    
     223  0.2230      0.1000E-02 FIXED          0   0.0%   0.000       0.000       2.000       2.000       0.000      0.1000E-19   0.000    
     224  0.2240      0.1000E-02 FIXED          0   0.0%   0.000       0.000       2.000       2.000       0.000      0.1000E-19   0.000    
     225  0.2250      0.1000E-02 FIXED          0  -0.0%   0.000       0.000       2.000       2.000       0.000      0.1000E-19   0.000    
     226  0.2260      0.1000E-02 FIXED          0   0.0%   0.000       0.000       2.000       2.000       0.000      0.1000E-19   0.000    
     227  0.2270      0.1000E-02 FIXED          0   0.0%   0.000       0.000       2.000       2.000       0.000      0.1000E-19   0.000    
     228  0.2280      0.1000E-02 FIXED          0   0.0%   0.000       0.000       2.000       2.000       0.000      0.1000E-19   0.000    
     229  0.2290      0.1000E-02 FIXED          0  -0.0%   0.000       0.000       2.000       2.000       0.000      0.1000E-19   0.000    
     230  0.2300      0.1000E-02 FIXED          0   0.0%   0.000       0.000       2.000       2.000       0.000      0.1000E-19   0.000    
     231  0.2310      0.1000E-02 FIXED          0  -0.0%   0.000       0.000       2.000       2.000       0.000      0.1000E-19   0.000    
     232  0.2320      0.1000E-02 FIXED          0   0.0%   0.000       0.000       2.000       2.000       0.000      0.1000E-19   0.000    
     233  0.2330      0.1000E-02 FIXED          0   0.0%   0.000       0.000       2.000       2.000       0.000      0.1000E-19   0.000    
     234  0.2340      0.1000E-02 FIXED          0   0.0%   0.000       0.000       2.000       2.000       0.000      0.1000E-19   0.000    
     235  0.2350      0.1000E-02 FIXED          0   0.0%   0.000       0.000       2.000       2.000       0.000      0.1000E-19   0.000    
     236  0.2360      0.1000E-02 FIXED          0  -0.0%   0.000       0.000       2.000       2.000       0.000      0.1000E-19   0.000    
     237  0.2370      0.1000E-02 FIXED          0   0.0%   0.000       0.000       2.000       2.000       0.000      0.1000E-19   0.000    
     238  0.2380      0.1000E-02 FIXED          0  -0.0%   0.000       0.000       2.000       2.000       0.000      0.1000E-19   0.000    
     239  0.2390      0.1000E-02 FIXED          0   0.0%   0.000       0.000       2.000       2.000       0.000      0.1000E-19   0.000    
     240  0.2400      0.1000E-02 FIXED          0  -0.0%   0.000       0.000       2.000       2.000       0.000      0.1000E-19   0.000    
     241  0.2410      0.1000E-02 FIXED          0  -0.0%   0.000       0.000       2.000       2.000       0.000      0.1000E-19   0.000    
     242  0.2420      0.1000E-02 FIXED          0   0.0%   0.000       0.000       2.000       2.000       0.000      0.1000E-19   0.000    
     243  0.2430      0.1000E-02 FIXED          0  -0.0%   0.000       0.000       2.000       2.000       0.000      0.1000E-19   0.000    
     244  0.2440      0.1000E-02 FIXED          0   0.0%   0.000       0.000       2.000       2.000       0.000      0.1000E-19   0.000    
     245  0.2450      0.1000E-02 FIXED          0  -0.0%   0.000       0.000       2.000       2.000       0.000      0.1000E-19   0.000    
     246  0.2460      0.1000E-02 FIXED          0   0.0%   0.000       0.000       2.000       2.000       0.000      0.1000E-19   0.000    
     247  0.2470      0.1000E-02 FIXED          0   0.0%   0.000       0.000       2.000       2.000       0.000      0.1000E-19   0.000    
     248  0.2480      0.1000E-02 FIXED          0   0.0%   0.000       0.000       2.000       2.000       0.000      0.1000E-19   0.000    
     249  0.2490      0.1000E-02 FIXED          0   0.0%   0.000       0.000       2.000       2.000       0.000      0.1000E-19   0.000    
     250  0.2500      0.1000E-02 FIXED          0  -0.0%   0.000       0.000       2.000       2.000       0.000      0.1000E-19   0.000    
     251  0.2510      0.1000E-02 FIXED          0   0.0%   0.000       0.000       2.000       2.000       0.000      0.1000E-19   0.000    
     252  0.2520      0.1000E-02 FIXED          0   0.0%   0.000       0.000       2.000       2.000       0.000      0.1000E-19   0.000    
     253  0.2530      0.1000E-02 FIXED          0  -0.0%   0.000       0.000       2.000       2.000       0.000      0.1000E-19   0.000    
     254  0.2540      0.1000E-02 FIXED          0  -0.0%   0.000       0.000       2.000       2.000       0.000      0.1000E-19   0.000    
     255  0.2550      0.1000E-02 FIXED          0   0.0%   0.000       0.000       2.000       2.000       0.000      0.1000E-19   0.000    
     256  0.2560      0.1000E-02 FIXED          0  -0.0%   0.000       0.000       2.000       2.000       0.000      0.1000E-19   0.000    
     257  0.2570      0.1000E-02 FIXED          0   0.0%   0.000       0.000       2.000       2.000       0.000      0.1000E-19   0.000    
     258  0.2580      0.1000E-02 FIXED          0   0.0%   0.000       0.000       2.000       2.000       0.000      0.1000E-19   0.000    
     259  0.2590      0.1000E-02 FIXED          0  -0.0%   0.000       0.000       2.000       2.000       0.000      0.1000E-19   0.000    
     260  0.2600      0.1000E-02 FIXED          0  -0.0%   0.000       0.000       2.000       2.000       0.000      0.1000E-19   0.000    
     261  0.2610      0.1000E-02 FIXED          0   0.0%   0.000       0.000       2.000       2.000       0.000      0.1000E-19   0.000    
     262  0.2620      0.1000E-02 FIXED          0  -0.0%   0.000       0.000       2.000       2.000       0.000      0.1000E-19   0.000    
     263  0.2630      0.1000E-02 FIXED          0   0.0%   0.000       0.000       2.000       2.000       0.000      0.1000E-19   0.000    
     264  0.2640      0.1000E-02 FIXED          0   0.0%   0.000       0.000       2.000       2.000       0.000      0.1000E-19   0.000    
     265  0.2650      0.1000E-02 FIXED          0  -0.0%   0.000       0.000       2.000       2.000       0.000      0.1000E-19   0.000    
     266  0.2660      0.1000E-02 FIXED          0   0.0%   0.000       0.000       2.000       2.000       0.000      0.1000E-19   0.000    
     267  0.2670      0.1000E-02 FIXED          0   0.0%   0.000       0.000       2.000       2.000       0.000      0.1000E-19   0.000    
     268  0.2680      0.1000E-02 FIXED          0   0.0%   0.000       0.000       2.000       2.000       0.000      0.1000E-19   0.000    
     269  0.2690      0.1000E-02 FIXED          0   0.0%   0.000       0.000       2.000       2.000       0.000      0.1000E-19   0.000    
     270  0.2700      0.1000E-02 FIXED          0  -0.0%   0.000       0.000       2.000       2.000       0.000      0.1000E-19   0.000    
     271  0.2710      0.1000E-02 FIXED          0   0.0%   0.000       0.000       2.000       2.000       0.000      0.1000E-19   0.000    
     272  0.2720      0.1000E-02 FIXED          0  -0.0%   0.000       0.000       2.000       2.000       0.000      0.1000E-19   0.000    
     273  0.2730      0.1000E-02 FIXED          0   0.0%   0.000       0.000       2.000       2.000       0.000      0.1000E-19   0.000    
     274  0.2740      0.1000E-02 FIXED          0   0.0%   0.000       0.000       2.000       2.000       0.000      0.1000E-19   0.000    
   CYCLE    TIME      TIME-STEP  ELEMENT          ERROR  I-ENERGY    K-ENERGY T  K-ENERGY R  EXT-WORK     MAS.ERR     TOTAL MASS  MASS ADDED
     275  0.2750      0.1000E-02 FIXED          0   0.0%   0.000       0.000       2.000       2.000       0.000      0.1000E-19   0.000    
     276  0.2760      0.1000E-02 FIXED          0  -0.0%   0.000       0.000       2.000       2.000       0.000      0.1000E-19   0.000    
     277  0.2770      0.1000E-02 FIXED          0   0.0%   0.000       0.000       2.000       2.000       0.000      0.1000E-19   0.000    
     278  0.2780      0.1000E-02 FIXED          0   0.0%   0.000       0.000       2.000       2.000       0.000      0.1000E-19   0.000    
     279  0.2790      0.1000E-02 FIXED          0  -0.0%   0.000       0.000       2.000       2.000       0.000      0.1000E-19   0.000    
     280  0.2800      0.1000E-02 FIXED          0  -0.0%   0.000       0.000       2.000       2.000       0.000      0.1000E-19   0.000    
     281  0.2810      0.1000E-02 FIXED          0  -0.0%   0.000       0.000       2.000       2.000       0.000      0.1000E-19   0.000    
     282  0.2820      0.1000E-02 FIXED          0   0.0%   0.000       0.000       2.000       2.000       0.000      0.1000E-19   0.000    
     283  0.2830      0.1000E-02 FIXED          0  -0.0%   0.000       0.000       2.000       2.000       0.000      0.1000E-19   0.000    
     284  0.2840      0.1000E-02 FIXED          0  -0.0%   0.000       0.000       2.000       2.000       0.000      0.1000E-19   0.000    
     285  0.2850      0.1000E-02 FIXED          0  -0.0%   0.000       0.000       2.000       2.000       0.000      0.1000E-19   0.000    
     286  0.2860      0.1000E-02 FIXED          0   0.0%   0.000       0.000       2.000       2.000       0.000      0.1000E-19   0.000    
     287  0.2870      0.1000E-02 FIXED          0   0.0%   0.000       0.000       2.000       2.000       0.000      0.1000E-19   0.000    
     288  0.2880      0.1000E-02 FIXED          0  -0.0%   0.000       0.000       2.000       2.000       0.000      0.1000E-19   0.000    
     289  0.2890      0.1000E-02 FIXED          0   0.0%   0.000       0.000       2.000       2.000       0.000      0.1000E-19   0.000    
     290  0.2900      0.1000E-02 FIXED          0   0.0%   0.000       0.000       2.000       2.000       0.000      0.1000E-19   0.000    
     291  0.2910      0.1000E-02 FIXED          0  -0.0%   0.000       0.000       2.000       2.000       0.000      0.1000E-19   0.000    
     292  0.2920      0.1000E-02 FIXED          0   0.0%   0.000       0.000       2.000       2.000       0.000      0.1000E-19   0.000    
     293  0.2930      0.1000E-02 FIXED          0  -0.0%   0.000       0.000       2.000       2.000       0.000      0.1000E-19   0.000    
     294  0.2940      0.1000E-02 FIXED          0   0.0%   0.000       0.000       2.000       2.000       0.000      0.1000E-19   0.000    
     295  0.2950      0.1000E-02 FIXED          0  -0.0%   0.000       0.000       2.000       2.000       0.000      0.1000E-19   0.000    
     296  0.2960      0.1000E-02 FIXED          0   0.0%   0.000       0.000       2.000       2.000       0.000      0.1000E-19   0.000    
     297  0.2970      0.1000E-02 FIXED          0  -0.0%   0.000       0.000       2.000       2.000       0.000      0.1000E-19   0.000    
     298  0.2980      0.1000E-02 FIXED          0   0.0%   0.000       0.000       2.000       2.000       0.000      0.1000E-19   0.000    
     299  0.2990      0.1000E-02 FIXED          0   0.0%   0.000       0.000       2.000       2.000       0.000      0.1000E-19   0.000    
     300  0.3000      0.1000E-02 FIXED          0   0.0%   0.000       0.000       2.000       2.000       0.000      0.1000E-19   0.000    
     301  0.3010      0.1000E-02 FIXED          0   0.0%   0.000       0.000       2.000       2.000       0.000      0.1000E-19   0.000    
     302  0.3020      0.1000E-02 FIXED          0   0.0%   0.000       0.000       2.000       2.000       0.000      0.1000E-19   0.000    
     303  0.3030      0.1000E-02 FIXED          0   0.0%   0.000       0.000       2.000       2.000       0.000      0.1000E-19   0.000    
     304  0.3040      0.1000E-02 FIXED          0  -0.0%   0.000       0.000       2.000       2.000       0.000      0.1000E-19   0.000    
     305  0.3050      0.1000E-02 FIXED          0  -0.0%   0.000       0.000       2.000       2.000       0.000      0.1000E-19   0.000    
     306  0.3060      0.1000E-02 FIXED          0   0.0%   0.000       0.000       2.000       2.000       0.000      0.1000E-19   0.000    
     307  0.3070      0.1000E-02 FIXED          0   0.0%   0.000       0.000       2.000       2.000       0.000      0.1000E-19   0.000    
     308  0.3080      0.1000E-02 FIXED          0  -0.0%   0.000       0.000       2.000       2.000       0.000      0.1000E-19   0.000    
     309  0.3090      0.1000E-02 FIXED          0   0.0%   0.000       0.000       2.000       2.000       0.000      0.1000E-19   0.000    
     310  0.3100      0.1000E-02 FIXED          0   0.0%   0.000       0.000       2.000       2.000       0.000      0.1000E-19   0.000    
     311  0.3110      0.1000E-02 FIXED          0   0.0%   0.000       0.000       2.000       2.000       0.000      0.1000E-19   0.000    
     312  0.3120      0.1000E-02 FIXED          0  -0.0%   0.000       0.000       2.000       2.000       0.000      0.1000E-19   0.000    
     313  0.3130      0.1000E-02 FIXED          0  -0.0%   0.000       0.000       2.000       2.000       0.000      0.1000E-19   0.000    
     314  0.3140      0.1000E-02 FIXED          0   0.0%   0.000       0.000       2.000       2.000       0.000      0.1000E-19   0.000    
     315  0.3150      0.1000E-02 FIXED          0  -0.0%   0.000       0.000       2.000       2.000       0.000      0.1000E-19   0.000    
     316  0.3160      0.1000E-02 FIXED          0  -0.0%   0.000       0.000       2.000       2.000       0.000      0.1000E-19   0.000    
     317  0.3170      0.1000E-02 FIXED          0   0.0%   0.000       0.000       2.000       2.000       0.000      0.1000E-19   0.000    
     318  0.3180      0.1000E-02 FIXED          0  -0.0%   0.000       0.000       2.000       2.000       0.000      0.1000E-19   0.000    
     319  0.3190      0.1000E-02 FIXED          0   0.0%   0.000       0.000       2.000       2.000       0.000      0.1000E-19   0.000    
     320  0.3200      0.1000E-02 FIXED          0   0.0%   0.000       0.000       2.000       2.000       0.000      0.1000E-19   0.000    
     321  0.3210      0.1000E-02 FIXED          0   0.0%   0.000       0.000       2.000       2.000       0.000      0.1000E-19   0.000    
     322  0.3220      0.1000E-02 FIXED          0  -0.0%   0.000       0.000       2.000       2.000       0.000      0.1000E-19   0.000    
     323  0.3230      0.1000E-02 FIXED          0   0.0%   0.000       0.000       2.000       2.000       0.000      0.1000E-19   0.000    
     324  0.3240      0.1000E-02 FIXED          0  -0.0%   0.000       0.000       2.000       2.000       0.000      0.1000E-19   0.000    
     325  0.3250      0.1000E-02 FIXED          0   0.0%   0.000       0.000       2.000       2.000       0.000      0.1000E-19   0.000    
     326  0.3260      0.1000E-02 FIXED          0   0.0%   0.000       0.000       2.000       2.000       0.000      0.1000E-19   0.000    
     327  0.3270      0.1000E-02 FIXED          0  -0.0%   0.000       0.000       2.000       2.000       0.000      0.1000E-19   0.000    
     328  0.3280      0.1000E-02 FIXED          0   0.0%   0.000       0.000       2.000       2.000       0.000      0.1000E-19   0.000    
     329  0.3290      0.1000E-02 FIXED          0   0.0%   0.000       0.000       2.000       2.000       0.000      0.1000E-19   0.000    
   CYCLE    TIME      TIME-STEP  ELEMENT          ERROR  I-ENERGY    K-ENERGY T  K-ENERGY R  EXT-WORK     MAS.ERR     TOTAL MASS  MASS ADDED
     330  0.3300      0.1000E-02 FIXED          0   0.0%   0.000       0.000       2.000       2.000       0.000      0.1000E-19   0.000    
     331  0.3310      0.1000E-02 FIXED          0  -0.0%   0.000       0.000       2.000       2.000       0.000      0.1000E-19   0.000    
     332  0.3320      0.1000E-02 FIXED          0   0.0%   0.000       0.000       2.000       2.000       0.000      0.1000E-19   0.000    
     333  0.3330      0.1000E-02 FIXED          0  -0.0%   0.000       0.000       2.000       2.000       0.000      0.1000E-19   0.000    
     334  0.3340      0.1000E-02 FIXED          0  -0.0%   0.000       0.000       2.000       2.000       0.000      0.1000E-19   0.000    
     335  0.3350      0.1000E-02 FIXED          0  -0.0%   0.000       0.000       2.000       2.000       0.000      0.1000E-19   0.000    
     336  0.3360      0.1000E-02 FIXED          0   0.0%   0.000       0.000       2.000       2.000       0.000      0.1000E-19   0.000    
     337  0.3370      0.1000E-02 FIXED          0   0.0%   0.000       0.000       2.000       2.000       0.000      0.1000E-19   0.000    
     338  0.3380      0.1000E-02 FIXED          0   0.0%   0.000       0.000       2.000       2.000       0.000      0.1000E-19   0.000    
     339  0.3390      0.1000E-02 FIXED          0  -0.0%   0.000       0.000       2.000       2.000       0.000      0.1000E-19   0.000    
     340  0.3400      0.1000E-02 FIXED          0   0.0%   0.000       0.000       2.000       2.000       0.000      0.1000E-19   0.000    
     341  0.3410      0.1000E-02 FIXED          0   0.0%   0.000       0.000       2.000       2.000       0.000      0.1000E-19   0.000    
     342  0.3420      0.1000E-02 FIXED          0   0.0%   0.000       0.000       2.000       2.000       0.000      0.1000E-19   0.000    
     343  0.3430      0.1000E-02 FIXED          0  -0.0%   0.000       0.000       2.000       2.000       0.000      0.1000E-19   0.000    
     344  0.3440      0.1000E-02 FIXED          0   0.0%   0.000       0.000       2.000       2.000       0.000      0.1000E-19   0.000    
     345  0.3450      0.1000E-02 FIXED          0   0.0%   0.000       0.000       2.000       2.000       0.000      0.1000E-19   0.000    
     346  0.3460      0.1000E-02 FIXED          0  -0.0%   0.000       0.000       2.000       2.000       0.000      0.1000E-19   0.000    
     347  0.3470      0.1000E-02 FIXED          0   0.0%   0.000       0.000       2.000       2.000       0.000      0.1000E-19   0.000    
     348  0.3480      0.1000E-02 FIXED          0   0.0%   0.000       0.000       2.000       2.000       0.000      0.1000E-19   0.000    
     349  0.3490      0.1000E-02 FIXED          0   0.0%   0.000       0.000       2.000       2.000       0.000      0.1000E-19   0.000    
     350  0.3500      0.1000E-02 FIXED          0   0.0%   0.000       0.000       2.000       2.000       0.000      0.1000E-19   0.000    
     351  0.3510      0.1000E-02 FIXED          0   0.0%   0.000       0.000       2.000       2.000       0.000      0.1000E-19   0.000    
     352  0.3520      0.1000E-02 FIXED          0   0.0%   0.000       0.000       2.000       2.000       0.000      0.1000E-19   0.000    
     353  0.3530      0.1000E-02 FIXED          0   0.0%   0.000       0.000       2.000       2.000       0.000      0.1000E-19   0.000    
     354  0.3540      0.1000E-02 FIXED          0  -0.0%   0.000       0.000       2.000       2.000       0.000      0.1000E-19   0.000    
     355  0.3550      0.1000E-02 FIXED          0  -0.0%   0.000       0.000       2.000       2.000       0.000      0.1000E-19   0.000    
     356  0.3560      0.1000E-02 FIXED          0   0.0%   0.000       0.000       2.000       2.000       0.000      0.1000E-19   0.000    
     357  0.3570      0.1000E-02 FIXED          0  -0.0%   0.000       0.000       2.000       2.000       0.000      0.1000E-19   0.000    
     358  0.3580      0.1000E-02 FIXED          0   0.0%   0.000       0.000       2.000       2.000       0.000      0.1000E-19   0.000    
     359  0.3590      0.1000E-02 FIXED          0   0.0%   0.000       0.000       2.000       2.000       0.000      0.1000E-19   0.000    
     360  0.3600      0.1000E-02 FIXED          0   0.0%   0.000       0.000       2.000       2.000       0.000      0.1000E-19   0.000    
     361  0.3610      0.1000E-02 FIXED          0   0.0%   0.000       0.000       2.000       2.000       0.000      0.1000E-19   0.000    
     362  0.3620      0.1000E-02 FIXED          0   0.0%   0.000       0.000       2.000       2.000       0.000      0.1000E-19   0.000    
     363  0.3630      0.1000E-02 FIXED          0   0.0%   0.000       0.000       2.000       2.000       0.000      0.1000E-19   0.000    
     364  0.3640      0.1000E-02 FIXED          0   0.0%   0.000       0.000       2.000       2.000       0.000      0.1000E-19   0.000    
     365  0.3650      0.1000E-02 FIXED          0  -0.0%   0.000       0.000       2.000       2.000       0.000      0.1000E-19   0.000    
     366  0.3660      0.1000E-02 FIXED          0   0.0%   0.000       0.000       2.000       2.000       0.000      0.1000E-19   0.000    
     367  0.3670      0.1000E-02 FIXED          0  -0.0%   0.000       0.000       2.000       2.000       0.000      0.1000E-19   0.000    
     368  0.3680      0.1000E-02 FIXED          0   0.0%   0.000       0.000       2.000       2.000       0.000      0.1000E-19   0.000    
     369  0.3690      0.1000E-02 FIXED          0  -0.0%   0.000       0.000       2.000       2.000       0.000      0.1000E-19   0.000    
     370  0.3700      0.1000E-02 FIXED          0  -0.0%   0.000       0.000       2.000       2.000       0.000      0.1000E-19   0.000    
     371  0.3710      0.1000E-02 FIXED          0   0.0%   0.000       0.000       2.000       2.000       0.000      0.1000E-19   0.000    
     372  0.3720      0.1000E-02 FIXED          0   0.0%   0.000       0.000       2.000       2.000       0.000      0.1000E-19   0.000    
     373  0.3730      0.1000E-02 FIXED          0  -0.0%   0.000       0.000       2.000       2.000       0.000      0.1000E-19   0.000    
     374  0.3740      0.1000E-02 FIXED          0  -0.0%   0.000       0.000       2.000       2.000       0.000      0.1000E-19   0.000    
     375  0.3750      0.1000E-02 FIXED          0  -0.0%   0.000       0.000       2.000       2.000       0.000      0.1000E-19   0.000    
     376  0.3760      0.1000E-02 FIXED          0   0.0%   0.000       0.000       2.000       2.000       0.000      0.1000E-19   0.000    
     377  0.3770      0.1000E-02 FIXED          0  -0.0%   0.000       0.000       2.000       2.000       0.000      0.1000E-19   0.000    
     378  0.3780      0.1000E-02 FIXED          0  -0.0%   0.000       0.000       2.000       2.000       0.000      0.1000E-19   0.000    
     379  0.3790      0.1000E-02 FIXED          0   0.0%   0.000       0.000       2.000       2.000       0.000      0.1000E-19   0.000    
     380  0.3800      0.1000E-02 FIXED          0  -0.0%   0.000       0.000       2.000       2.000       0.000      0.1000E-19   0.000    
     381  0.3810      0.1000E-02 FIXED          0   0.0%   0.000       0.000       2.000       2.000       0.000      0.1000E-19   0.000    
     382  0.3820      0.1000E-02 FIXED          0  -0.0%   0.000       0.000       2.000       2.000       0.000      0.1000E-19   0.000    
     383  0.3830      0.1000E-02 FIXED          0   0.0%   0.000       0.000       2.000       2.000       0.000      0.1000E-19   0.000    
     384  0.3840      0.1000E-02 FIXED          0  -0.0%   0.000       0.000       2.000       2.000       0.000      0.1000E-19   0.000    
   CYCLE    TIME      TIME-STEP  ELEMENT          ERROR  I-ENERGY    K-ENERGY T  K-ENERGY R  EXT-WORK     MAS.ERR     TOTAL MASS  MASS ADDED
     385  0.3850      0.1000E-02 FIXED          0   0.0%   0.000       0.000       2.000       2.000       0.000      0.1000E-19   0.000    
     386  0.3860      0.1000E-02 FIXED          0  -0.0%   0.000       0.000       2.000       2.000       0.000      0.1000E-19   0.000    
     387  0.3870      0.1000E-02 FIXED          0   0.0%   0.000       0.000       2.000       2.000       0.000      0.1000E-19   0.000    
     388  0.3880      0.1000E-02 FIXED          0  -0.0%   0.000       0.000       2.000       2.000       0.000      0.1000E-19   0.000    
     389  0.3890      0.1000E-02 FIXED          0   0.0%   0.000       0.000       2.000       2.000       0.000      0.1000E-19   0.000    
     390  0.3900      0.1000E-02 FIXED          0   0.0%   0.000       0.000       2.000       2.000       0.000      0.1000E-19   0.000    
     391  0.3910      0.1000E-02 FIXED          0   0.0%   0.000       0.000       2.000       2.000       0.000      0.1000E-19   0.000    
     392  0.3920      0.1000E-02 FIXED          0  -0.0%   0.000       0.000       2.000       2.000       0.000      0.1000E-19   0.000    
     393  0.3930      0.1000E-02 FIXED          0   0.0%   0.000       0.000       2.000       2.000       0.000      0.1000E-19   0.000    
     394  0.3940      0.1000E-02 FIXED          0  -0.0%   0.000       0.000       2.000       2.000       0.000      0.1000E-19   0.000    
     395  0.3950      0.1000E-02 FIXED          0   0.0%   0.000       0.000       2.000       2.000       0.000      0.1000E-19   0.000    
     396  0.3960      0.1000E-02 FIXED          0   0.0%   0.000       0.000       2.000       2.000       0.000      0.1000E-19   0.000    
     397  0.3970      0.1000E-02 FIXED          0   0.0%   0.000       0.000       2.000       2.000       0.000      0.1000E-19   0.000    
     398  0.3980      0.1000E-02 FIXED          0  -0.0%   0.000       0.000       2.000       2.000       0.000      0.1000E-19   0.000    
     399  0.3990      0.1000E-02 FIXED          0  -0.0%   0.000       0.000       2.000       2.000       0.000      0.1000E-19   0.000    
     400  0.4000      0.1000E-02 FIXED          0   0.0%   0.000       0.000       2.000       2.000       0.000      0.1000E-19   0.000    
     401  0.4010      0.1000E-02 FIXED          0   0.0%   0.000       0.000       2.000       2.000       0.000      0.1000E-19   0.000    
     402  0.4020      0.1000E-02 FIXED          0  -0.0%   0.000       0.000       2.000       2.000       0.000      0.1000E-19   0.000    
     403  0.4030      0.1000E-02 FIXED          0  -0.0%   0.000       0.000       2.000       2.000       0.000      0.1000E-19   0.000    
     404  0.4040      0.1000E-02 FIXED          0   0.0%   0.000       0.000       2.000       2.000       0.000      0.1000E-19   0.000    
     405  0.4050      0.1000E-02 FIXED          0  -0.0%   0.000       0.000       2.000       2.000       0.000      0.1000E-19   0.000    
     406  0.4060      0.1000E-02 FIXED          0   0.0%   0.000       0.000       2.000       2.000       0.000      0.1000E-19   0.000    
     407  0.4070      0.1000E-02 FIXED          0  -0.0%   0.000       0.000       2.000       2.000       0.000      0.1000E-19   0.000    
     408  0.4080      0.1000E-02 FIXED          0   0.0%   0.000       0.000       2.000       2.000       0.000      0.1000E-19   0.000    
     409  0.4090      0.1000E-02 FIXED          0   0.0%   0.000       0.000       2.000       2.000       0.000      0.1000E-19   0.000    
     410  0.4100      0.1000E-02 FIXED          0  -0.0%   0.000       0.000       2.000       2.000       0.000      0.1000E-19   0.000    
     411  0.4110      0.1000E-02 FIXED          0   0.0%   0.000       0.000       2.000       2.000       0.000      0.1000E-19   0.000    
     412  0.4120      0.1000E-02 FIXED          0  -0.0%   0.000       0.000       2.000       2.000       0.000      0.1000E-19   0.000    
     413  0.4130      0.1000E-02 FIXED          0   0.0%   0.000       0.000       2.000       2.000       0.000      0.1000E-19   0.000    
     414  0.4140      0.1000E-02 FIXED          0  -0.0%   0.000       0.000       2.000       2.000       0.000      0.1000E-19   0.000    
     415  0.4150      0.1000E-02 FIXED          0   0.0%   0.000       0.000       2.000       2.000       0.000      0.1000E-19   0.000    
     416  0.4160      0.1000E-02 FIXED          0  -0.0%   0.000       0.000       2.000       2.000       0.000      0.1000E-19   0.000    
     417  0.4170      0.1000E-02 FIXED          0  -0.0%   0.000       0.000       2.000       2.000       0.000      0.1000E-19   0.000    
     418  0.4180      0.1000E-02 FIXED          0   0.0%   0.000       0.000       2.000       2.000       0.000      0.1000E-19   0.000    
     419  0.4190      0.1000E-02 FIXED          0   0.0%   0.000       0.000       2.000       2.000       0.000      0.1000E-19   0.000    
     420  0.4200      0.1000E-02 FIXED          0  -0.0%   0.000       0.000       2.000       2.000       0.000      0.1000E-19   0.000    
     421  0.4210      0.1000E-02 FIXED          0   0.0%   0.000       0.000       2.000       2.000       0.000      0.1000E-19   0.000    
     422  0.4220      0.1000E-02 FIXED          0  -0.0%   0.000       0.000       2.000       2.000       0.000      0.1000E-19   0.000    
     423  0.4230      0.1000E-02 FIXED          0   0.0%   0.000       0.000       2.000       2.000       0.000      0.1000E-19   0.000    
     424  0.4240      0.1000E-02 FIXED          0  -0.0%   0.000       0.000       2.000       2.000       0.000      0.1000E-19   0.000    
     425  0.4250      0.1000E-02 FIXED          0   0.0%   0.000       0.000       2.000       2.000       0.000      0.1000E-19   0.000    
     426  0.4260      0.1000E-02 FIXED          0  -0.0%   0.000       0.000       2.000       2.000       0.000      0.1000E-19   0.000    
     427  0.4270      0.1000E-02 FIXED          0   0.0%   0.000       0.000       2.000       2.000       0.000      0.1000E-19   0.000    
     428  0.4280      0.1000E-02 FIXED          0   0.0%   0.000       0.000       2.000       2.000       0.000      0.1000E-19   0.000    
     429  0.4290      0.1000E-02 FIXED          0  -0.0%   0.000       0.000       2.000       2.000       0.000      0.1000E-19   0.000    
     430  0.4300      0.1000E-02 FIXED          0   0.0%   0.000       0.000       2.000       2.000       0.000      0.1000E-19   0.000    
     431  0.4310      0.1000E-02 FIXED          0   0.0%   0.000       0.000       2.000       2.000       0.000      0.1000E-19   0.000    
     432  0.4320      0.1000E-02 FIXED          0   0.0%   0.000       0.000       2.000       2.000       0.000      0.1000E-19   0.000    
     433  0.4330      0.1000E-02 FIXED          0   0.0%   0.000       0.000       2.000       2.000       0.000      0.1000E-19   0.000    
     434  0.4340      0.1000E-02 FIXED          0  -0.0%   0.000       0.000       2.000       2.000       0.000      0.1000E-19   0.000    
     435  0.4350      0.1000E-02 FIXED          0   0.0%   0.000       0.000       2.000       2.000       0.000      0.1000E-19   0.000    
     436  0.4360      0.1000E-02 FIXED          0  -0.0%   0.000       0.000       2.000       2.000       0.000      0.1000E-19   0.000    
     437  0.4370      0.1000E-02 FIXED          0   0.0%   0.000       0.000       2.000       2.000       0.000      0.1000E-19   0.000    
     438  0.4380      0.1000E-02 FIXED          0  -0.0%   0.000       0.000       2.000       2.000       0.000      0.1000E-19   0.000    
     439  0.4390      0.1000E-02 FIXED          0   0.0%   0.000       0.000       2.000       2.000       0.000      0.1000E-19   0.000    
   CYCLE    TIME      TIME-STEP  ELEMENT          ERROR  I-ENERGY    K-ENERGY T  K-ENERGY R  EXT-WORK     MAS.ERR     TOTAL MASS  MASS ADDED
     440  0.4400      0.1000E-02 FIXED          0  -0.0%   0.000       0.000       2.000       2.000       0.000      0.1000E-19   0.000    
     441  0.4410      0.1000E-02 FIXED          0  -0.0%   0.000       0.000       2.000       2.000       0.000      0.1000E-19   0.000    
     442  0.4420      0.1000E-02 FIXED          0  -0.0%   0.000       0.000       2.000       2.000       0.000      0.1000E-19   0.000    
     443  0.4430      0.1000E-02 FIXED          0   0.0%   0.000       0.000       2.000       2.000       0.000      0.1000E-19   0.000    
     444  0.4440      0.1000E-02 FIXED          0  -0.0%   0.000       0.000       2.000       2.000       0.000      0.1000E-19   0.000    
     445  0.4450      0.1000E-02 FIXED          0   0.0%   0.000       0.000       2.000       2.000       0.000      0.1000E-19   0.000    
     446  0.4460      0.1000E-02 FIXED          0  -0.0%   0.000       0.000       2.000       2.000       0.000      0.1000E-19   0.000    
     447  0.4470      0.1000E-02 FIXED          0   0.0%   0.000       0.000       2.000       2.000       0.000      0.1000E-19   0.000    
     448  0.4480      0.1000E-02 FIXED          0   0.0%   0.000       0.000       2.000       2.000       0.000      0.1000E-19   0.000    
     449  0.4490      0.1000E-02 FIXED          0   0.0%   0.000       0.000       2.000       2.000       0.000      0.1000E-19   0.000    
     450  0.4500      0.1000E-02 FIXED          0  -0.0%   0.000       0.000       2.000       2.000       0.000      0.1000E-19   0.000    
     451  0.4510      0.1000E-02 FIXED          0   0.0%   0.000       0.000       2.000       2.000       0.000      0.1000E-19   0.000    
     452  0.4520      0.1000E-02 FIXED          0   0.0%   0.000       0.000       2.000       2.000       0.000      0.1000E-19   0.000    
     453  0.4530      0.1000E-02 FIXED          0  -0.0%   0.000       0.000       2.000       2.000       0.000      0.1000E-19   0.000    
     454  0.4540      0.1000E-02 FIXED          0   0.0%   0.000       0.000       2.000       2.000       0.000      0.1000E-19   0.000    
     455  0.4550      0.1000E-02 FIXED          0  -0.0%   0.000       0.000       2.000       2.000       0.000      0.1000E-19   0.000    
     456  0.4560      0.1000E-02 FIXED          0   0.0%   0.000       0.000       2.000       2.000       0.000      0.1000E-19   0.000    
     457  0.4570      0.1000E-02 FIXED          0  -0.0%   0.000       0.000       2.000       2.000       0.000      0.1000E-19   0.000    
     458  0.4580      0.1000E-02 FIXED          0   0.0%   0.000       0.000       2.000       2.000       0.000      0.1000E-19   0.000    
     459  0.4590      0.1000E-02 FIXED          0  -0.0%   0.000       0.000       2.000       2.000       0.000      0.1000E-19   0.000    
     460  0.4600      0.1000E-02 FIXED          0   0.0%   0.000       0.000       2.000       2.000       0.000      0.1000E-19   0.000    
     461  0.4610      0.1000E-02 FIXED          0  -0.0%   0.000       0.000       2.000       2.000       0.000      0.1000E-19   0.000    
     462  0.4620      0.1000E-02 FIXED          0  -0.0%   0.000       0.000       2.000       2.000       0.000      0.1000E-19   0.000    
     463  0.4630      0.1000E-02 FIXED          0   0.0%   0.000       0.000       2.000       2.000       0.000      0.1000E-19   0.000    
     464  0.4640      0.1000E-02 FIXED          0   0.0%   0.000       0.000       2.000       2.000       0.000      0.1000E-19   0.000    
     465  0.4650      0.1000E-02 FIXED          0   0.0%   0.000       0.000       2.000       2.000       0.000      0.1000E-19   0.000    
     466  0.4660      0.1000E-02 FIXED          0  -0.0%   0.000       0.000       2.000       2.000       0.000      0.1000E-19   0.000    
     467  0.4670      0.1000E-02 FIXED          0  -0.0%   0.000       0.000       2.000       2.000       0.000      0.1000E-19   0.000    
     468  0.4680      0.1000E-02 FIXED          0   0.0%   0.000       0.000       2.000       2.000       0.000      0.1000E-19   0.000    
     469  0.4690      0.1000E-02 FIXED          0   0.0%   0.000       0.000       2.000       2.000       0.000      0.1000E-19   0.000    
     470  0.4700      0.1000E-02 FIXED          0  -0.0%   0.000       0.000       2.000       2.000       0.000      0.1000E-19   0.000    
     471  0.4710      0.1000E-02 FIXED          0  -0.0%   0.000       0.000       2.000       2.000       0.000      0.1000E-19   0.000    
     472  0.4720      0.1000E-02 FIXED          0  -0.0%   0.000       0.000       2.000       2.000       0.000      0.1000E-19   0.000    
     473  0.4730      0.1000E-02 FIXED          0   0.0%   0.000       0.000       2.000       2.000       0.000      0.1000E-19   0.000    
     474  0.4740      0.1000E-02 FIXED          0   0.0%   0.000       0.000       2.000       2.000       0.000      0.1000E-19   0.000    
     475  0.4750      0.1000E-02 FIXED          0   0.0%   0.000       0.000       2.000       2.000       0.000      0.1000E-19   0.000    
     476  0.4760      0.1000E-02 FIXED          0  -0.0%   0.000       0.000       2.000       2.000       0.000      0.1000E-19   0.000    
     477  0.4770      0.1000E-02 FIXED          0   0.0%   0.000       0.000       2.000       2.000       0.000      0.1000E-19   0.000    
     478  0.4780      0.1000E-02 FIXED          0   0.0%   0.000       0.000       2.000       2.000       0.000      0.1000E-19   0.000    
     479  0.4790      0.1000E-02 FIXED          0  -0.0%   0.000       0.000       2.000       2.000       0.000      0.1000E-19   0.000    
     480  0.4800      0.1000E-02 FIXED          0   0.0%   0.000       0.000       2.000       2.000       0.000      0.1000E-19   0.000    
     481  0.4810      0.1000E-02 FIXED          0  -0.0%   0.000       0.000       2.000       2.000       0.000      0.1000E-19   0.000    
     482  0.4820      0.1000E-02 FIXED          0   0.0%   0.000       0.000       2.000       2.000       0.000      0.1000E-19   0.000    
     483  0.4830      0.1000E-02 FIXED          0   0.0%   0.000       0.000       2.000       2.000       0.000      0.1000E-19   0.000    
     484  0.4840      0.1000E-02 FIXED          0  -0.0%   0.000       0.000       2.000       2.000       0.000      0.1000E-19   0.000    
     485  0.4850      0.1000E-02 FIXED          0   0.0%   0.000       0.000       2.000       2.000       0.000      0.1000E-19   0.000    
     486  0.4860      0.1000E-02 FIXED          0  -0.0%   0.000       0.000       2.000       2.000       0.000      0.1000E-19   0.000    
     487  0.4870      0.1000E-02 FIXED          0  -0.0%   0.000       0.000       2.000       2.000       0.000      0.1000E-19   0.000    
     488  0.4880      0.1000E-02 FIXED          0   0.0%   0.000       0.000       2.000       2.000       0.000      0.1000E-19   0.000    
     489  0.4890      0.1000E-02 FIXED          0  -0.0%   0.000       0.000       2.000       2.000       0.000      0.1000E-19   0.000    
     490  0.4900      0.1000E-02 FIXED          0   0.0%   0.000       0.000       2.000       2.000       0.000      0.1000E-19   0.000    
     491  0.4910      0.1000E-02 FIXED          0   0.0%   0.000       0.000       2.000       2.000       0.000      0.1000E-19   0.000    
     492  0.4920      0.1000E-02 FIXED          0   0.0%   0.000       0.000       2.000       2.000       0.000      0.1000E-19   0.000    
     493  0.4930      0.1000E-02 FIXED          0  -0.0%   0.000       0.000       2.000       2.000       0.000      0.1000E-19   0.000    
     494  0.4940      0.1000E-02 FIXED          0   0.0%   0.000       0.000       2.000       2.000       0.000      0.1000E-19   0.000    
   CYCLE    TIME      TIME-STEP  ELEMENT          ERROR  I-ENERGY    K-ENERGY T  K-ENERGY R  EXT-WORK     MAS.ERR     TOTAL MASS  MASS ADDED
     495  0.4950      0.1000E-02 FIXED          0   0.0%   0.000       0.000       2.000       2.000       0.000      0.1000E-19   0.000    
     496  0.4960      0.1000E-02 FIXED          0   0.0%   0.000       0.000       2.000       2.000       0.000      0.1000E-19   0.000    
     497  0.4970      0.1000E-02 FIXED          0  -0.0%   0.000       0.000       2.000       2.000       0.000      0.1000E-19   0.000    
     498  0.4980      0.1000E-02 FIXED          0   0.0%   0.000       0.000       2.000       2.000       0.000      0.1000E-19   0.000    
     499  0.4990      0.1000E-02 FIXED          0   0.0%   0.000       0.000       2.000       2.000       0.000      0.1000E-19   0.000    
     500  0.5000      0.1000E-02 FIXED          0   0.0%   0.000       0.000       2.000       2.000       0.000      0.1000E-19   0.000    
     501  0.5010      0.1000E-02 FIXED          0  -0.0%   0.000       0.000       2.000       2.000       0.000      0.1000E-19   0.000    
     502  0.5020      0.1000E-02 FIXED          0  -0.0%   0.000       0.000       2.000       2.000       0.000      0.1000E-19   0.000    
     503  0.5030      0.1000E-02 FIXED          0   0.0%   0.000       0.000       2.000       2.000       0.000      0.1000E-19   0.000    
     504  0.5040      0.1000E-02 FIXED          0   0.0%   0.000       0.000       2.000       2.000       0.000      0.1000E-19   0.000    
     505  0.5050      0.1000E-02 FIXED          0   0.0%   0.000       0.000       2.000       2.000       0.000      0.1000E-19   0.000    
     506  0.5060      0.1000E-02 FIXED          0  -0.0%   0.000       0.000       2.000       2.000       0.000      0.1000E-19   0.000    
     507  0.5070      0.1000E-02 FIXED          0  -0.0%   0.000       0.000       2.000       2.000       0.000      0.1000E-19   0.000    
     508  0.5080      0.1000E-02 FIXED          0   0.0%   0.000       0.000       2.000       2.000       0.000      0.1000E-19   0.000    
     509  0.5090      0.1000E-02 FIXED          0   0.0%   0.000       0.000       2.000       2.000       0.000      0.1000E-19   0.000    
     510  0.5100      0.1000E-02 FIXED          0   0.0%   0.000       0.000       2.000       2.000       0.000      0.1000E-19   0.000    
     511  0.5110      0.1000E-02 FIXED          0  -0.0%   0.000       0.000       2.000       2.000       0.000      0.1000E-19   0.000    
     512  0.5120      0.1000E-02 FIXED          0  -0.0%   0.000       0.000       2.000       2.000       0.000      0.1000E-19   0.000    
     513  0.5130      0.1000E-02 FIXED          0   0.0%   0.000       0.000       2.000       2.000       0.000      0.1000E-19   0.000    
     514  0.5140      0.1000E-02 FIXED          0   0.0%   0.000       0.000       2.000       2.000       0.000      0.1000E-19   0.000    
     515  0.5150      0.1000E-02 FIXED          0   0.0%   0.000       0.000       2.000       2.000       0.000      0.1000E-19   0.000    
     516  0.5160      0.1000E-02 FIXED          0   0.0%   0.000       0.000       2.000       2.000       0.000      0.1000E-19   0.000    
     517  0.5170      0.1000E-02 FIXED          0   0.0%   0.000       0.000       2.000       2.000       0.000      0.1000E-19   0.000    
     518  0.5180      0.1000E-02 FIXED          0   0.0%   0.000       0.000       2.000       2.000       0.000      0.1000E-19   0.000    
     519  0.5190      0.1000E-02 FIXED          0  -0.0%   0.000       0.000       2.000       2.000       0.000      0.1000E-19   0.000    
     520  0.5200      0.1000E-02 FIXED          0   0.0%   0.000       0.000       2.000       2.000       0.000      0.1000E-19   0.000    
     521  0.5210      0.1000E-02 FIXED          0   0.0%   0.000       0.000       2.000       2.000       0.000      0.1000E-19   0.000    
     522  0.5220      0.1000E-02 FIXED          0   0.0%   0.000       0.000       2.000       2.000       0.000      0.1000E-19   0.000    
     523  0.5230      0.1000E-02 FIXED          0  -0.0%   0.000       0.000       2.000       2.000       0.000      0.1000E-19   0.000    
     524  0.5240      0.1000E-02 FIXED          0   0.0%   0.000       0.000       2.000       2.000       0.000      0.1000E-19   0.000    
     525  0.5250      0.1000E-02 FIXED          0  -0.0%   0.000       0.000       2.000       2.000       0.000      0.1000E-19   0.000    
     526  0.5260      0.1000E-02 FIXED          0  -0.0%   0.000       0.000       2.000       2.000       0.000      0.1000E-19   0.000    
     527  0.5270      0.1000E-02 FIXED          0   0.0%   0.000       0.000       2.000       2.000       0.000      0.1000E-19   0.000    
     528  0.5280      0.1000E-02 FIXED          0  -0.0%   0.000       0.000       2.000       2.000       0.000      0.1000E-19   0.000    
     529  0.5290      0.1000E-02 FIXED          0   0.0%   0.000       0.000       2.000       2.000       0.000      0.1000E-19   0.000    
     530  0.5300      0.1000E-02 FIXED          0   0.0%   0.000       0.000       2.000       2.000       0.000      0.1000E-19   0.000    
     531  0.5310      0.1000E-02 FIXED          0  -0.0%   0.000       0.000       2.000       2.000       0.000      0.1000E-19   0.000    
     532  0.5320      0.1000E-02 FIXED          0   0.0%   0.000       0.000       2.000       2.000       0.000      0.1000E-19   0.000    
     533  0.5330      0.1000E-02 FIXED          0  -0.0%   0.000       0.000       2.000       2.000       0.000      0.1000E-19   0.000    
     534  0.5340      0.1000E-02 FIXED          0  -0.0%   0.000       0.000       2.000       2.000       0.000      0.1000E-19   0.000    
     535  0.5350      0.1000E-02 FIXED          0   0.0%   0.000       0.000       2.000       2.000       0.000      0.1000E-19   0.000    
     536  0.5360      0.1000E-02 FIXED          0  -0.0%   0.000       0.000       2.000       2.000       0.000      0.1000E-19   0.000    
     537  0.5370      0.1000E-02 FIXED          0   0.0%   0.000       0.000       2.000       2.000       0.000      0.1000E-19   0.000    
     538  0.5380      0.1000E-02 FIXED          0   0.0%   0.000       0.000       2.000       2.000       0.000      0.1000E-19   0.000    
     539  0.5390      0.1000E-02 FIXED          0   0.0%   0.000       0.000       2.000       2.000       0.000      0.1000E-19   0.000    
     540  0.5400      0.1000E-02 FIXED          0  -0.0%   0.000       0.000       2.000       2.000       0.000      0.1000E-19   0.000    
     541  0.5410      0.1000E-02 FIXED          0   0.0%   0.000       0.000       2.000       2.000       0.000      0.1000E-19   0.000    
     542  0.5420      0.1000E-02 FIXED          0  -0.0%   0.000       0.000       2.000       2.000       0.000      0.1000E-19   0.000    
     543  0.5430      0.1000E-02 FIXED          0  -0.0%   0.000       0.000       2.000       2.000       0.000      0.1000E-19   0.000    
     544  0.5440      0.1000E-02 FIXED          0   0.0%   0.000       0.000       2.000       2.000       0.000      0.1000E-19   0.000    
     545  0.5450      0.1000E-02 FIXED          0  -0.0%   0.000       0.000       2.000       2.000       0.000      0.1000E-19   0.000    
     546  0.5460      0.1000E-02 FIXED          0   0.0%   0.000       0.000       2.000       2.000       0.000      0.1000E-19   0.000    
     547  0.5470      0.1000E-02 FIXED          0   0.0%   0.000       0.000       2.000       2.000       0.000      0.1000E-19   0.000    
     548  0.5480      0.1000E-02 FIXED          0   0.0%   0.000       0.000       2.000       2.000       0.000      0.1000E-19   0.000    
     549  0.5490      0.1000E-02 FIXED          0  -0.0%   0.000       0.000       2.000       2.000       0.000      0.1000E-19   0.000    
   CYCLE    TIME      TIME-STEP  ELEMENT          ERROR  I-ENERGY    K-ENERGY T  K-ENERGY R  EXT-WORK     MAS.ERR     TOTAL MASS  MASS ADDED
     550  0.5500      0.1000E-02 FIXED          0  -0.0%   0.000       0.000       2.000       2.000       0.000      0.1000E-19   0.000    
     551  0.5510      0.1000E-02 FIXED          0   0.0%   0.000       0.000       2.000       2.000       0.000      0.1000E-19   0.000    
     552  0.5520      0.1000E-02 FIXED          0  -0.0%   0.000       0.000       2.000       2.000       0.000      0.1000E-19   0.000    
     553  0.5530      0.1000E-02 FIXED          0   0.0%   0.000       0.000       2.000       2.000       0.000      0.1000E-19   0.000    
     554  0.5540      0.1000E-02 FIXED          0  -0.0%   0.000       0.000       2.000       2.000       0.000      0.1000E-19   0.000    
     555  0.5550      0.1000E-02 FIXED          0   0.0%   0.000       0.000       2.000       2.000       0.000      0.1000E-19   0.000    
     556  0.5560      0.1000E-02 FIXED          0   0.0%   0.000       0.000       2.000       2.000       0.000      0.1000E-19   0.000    
     557  0.5570      0.1000E-02 FIXED          0   0.0%   0.000       0.000       2.000       2.000       0.000      0.1000E-19   0.000    
     558  0.5580      0.1000E-02 FIXED          0   0.0%   0.000       0.000       2.000       2.000       0.000      0.1000E-19   0.000    
     559  0.5590      0.1000E-02 FIXED          0   0.0%   0.000       0.000       2.000       2.000       0.000      0.1000E-19   0.000    
     560  0.5600      0.1000E-02 FIXED          0   0.0%   0.000       0.000       2.000       2.000       0.000      0.1000E-19   0.000    
     561  0.5610      0.1000E-02 FIXED          0  -0.0%   0.000       0.000       2.000       2.000       0.000      0.1000E-19   0.000    
     562  0.5620      0.1000E-02 FIXED          0   0.0%   0.000       0.000       2.000       2.000       0.000      0.1000E-19   0.000    
     563  0.5630      0.1000E-02 FIXED          0  -0.0%   0.000       0.000       2.000       2.000       0.000      0.1000E-19   0.000    
     564  0.5640      0.1000E-02 FIXED          0  -0.0%   0.000       0.000       2.000       2.000       0.000      0.1000E-19   0.000    
     565  0.5650      0.1000E-02 FIXED          0   0.0%   0.000       0.000       2.000       2.000       0.000      0.1000E-19   0.000    
     566  0.5660      0.1000E-02 FIXED          0  -0.0%   0.000       0.000       2.000       2.000       0.000      0.1000E-19   0.000    
     567  0.5670      0.1000E-02 FIXED          0   0.0%   0.000       0.000       2.000       2.000       0.000      0.1000E-19   0.000    
     568  0.5680      0.1000E-02 FIXED          0  -0.0%   0.000       0.000       2.000       2.000       0.000      0.1000E-19   0.000    
     569  0.5690      0.1000E-02 FIXED          0   0.0%   0.000       0.000       2.000       2.000       0.000      0.1000E-19   0.000    
     570  0.5700      0.1000E-02 FIXED          0  -0.0%   0.000       0.000       2.000       2.000       0.000      0.1000E-19   0.000    
     571  0.5710      0.1000E-02 FIXED          0   0.0%   0.000       0.000       2.000       2.000       0.000      0.1000E-19   0.000    
     572  0.5720      0.1000E-02 FIXED          0   0.0%   0.000       0.000       2.000       2.000       0.000      0.1000E-19   0.000    
     573  0.5730      0.1000E-02 FIXED          0   0.0%   0.000       0.000       2.000       2.000       0.000      0.1000E-19   0.000    
     574  0.5740      0.1000E-02 FIXED          0   0.0%   0.000       0.000       2.000       2.000       0.000      0.1000E-19   0.000    
     575  0.5750      0.1000E-02 FIXED          0   0.0%   0.000       0.000       2.000       2.000       0.000      0.1000E-19   0.000    
     576  0.5760      0.1000E-02 FIXED          0  -0.0%   0.000       0.000       2.000       2.000       0.000      0.1000E-19   0.000    
     577  0.5770      0.1000E-02 FIXED          0   0.0%   0.000       0.000       2.000       2.000       0.000      0.1000E-19   0.000    
     578  0.5780      0.1000E-02 FIXED          0   0.0%   0.000       0.000       2.000       2.000       0.000      0.1000E-19   0.000    
     579  0.5790      0.1000E-02 FIXED          0   0.0%   0.000       0.000       2.000       2.000       0.000      0.1000E-19   0.000    
     580  0.5800      0.1000E-02 FIXED          0   0.0%   0.000       0.000       2.000       2.000       0.000      0.1000E-19   0.000    
     581  0.5810      0.1000E-02 FIXED          0  -0.0%   0.000       0.000       2.000       2.000       0.000      0.1000E-19   0.000    
     582  0.5820      0.1000E-02 FIXED          0   0.0%   0.000       0.000       2.000       2.000       0.000      0.1000E-19   0.000    
     583  0.5830      0.1000E-02 FIXED          0  -0.0%   0.000       0.000       2.000       2.000       0.000      0.1000E-19   0.000    
     584  0.5840      0.1000E-02 FIXED          0   0.0%   0.000       0.000       2.000       2.000       0.000      0.1000E-19   0.000    
     585  0.5850      0.1000E-02 FIXED          0   0.0%   0.000       0.000       2.000       2.000       0.000      0.1000E-19   0.000    
     586  0.5860      0.1000E-02 FIXED          0   0.0%   0.000       0.000       2.000       2.000       0.000      0.1000E-19   0.000    
     587  0.5870      0.1000E-02 FIXED          0  -0.0%   0.000       0.000       2.000       2.000       0.000      0.1000E-19   0.000    
     588  0.5880      0.1000E-02 FIXED          0   0.0%   0.000       0.000       2.000       2.000       0.000      0.1000E-19   0.000    
     589  0.5890      0.1000E-02 FIXED          0  -0.0%   0.000       0.000       2.000       2.000       0.000      0.1000E-19   0.000    
     590  0.5900      0.1000E-02 FIXED          0  -0.0%   0.000       0.000       2.000       2.000       0.000      0.1000E-19   0.000    
     591  0.5910      0.1000E-02 FIXED          0   0.0%   0.000       0.000       2.000       2.000       0.000      0.1000E-19   0.000    
     592  0.5920      0.1000E-02 FIXED          0  -0.0%   0.000       0.000       2.000       2.000       0.000      0.1000E-19   0.000    
     593  0.5930      0.1000E-02 FIXED          0   0.0%   0.000       0.000       2.000       2.000       0.000      0.1000E-19   0.000    
     594  0.5940      0.1000E-02 FIXED          0  -0.0%   0.000       0.000       2.000       2.000       0.000      0.1000E-19   0.000    
     595  0.5950      0.1000E-02 FIXED          0  -0.0%   0.000       0.000       2.000       2.000       0.000      0.1000E-19   0.000    
     596  0.5960      0.1000E-02 FIXED          0   0.0%   0.000       0.000       2.000       2.000       0.000      0.1000E-19   0.000    
     597  0.5970      0.1000E-02 FIXED          0  -0.0%   0.000       0.000       2.000       2.000       0.000      0.1000E-19   0.000    
     598  0.5980      0.1000E-02 FIXED          0   0.0%   0.000       0.000       2.000       2.000       0.000      0.1000E-19   0.000    
     599  0.5990      0.1000E-02 FIXED          0  -0.0%   0.000       0.000       2.000       2.000       0.000      0.1000E-19   0.000    
     600  0.6000      0.1000E-02 FIXED          0   0.0%   0.000       0.000       2.000       2.000       0.000      0.1000E-19   0.000    
     601  0.6010      0.1000E-02 FIXED          0  -0.0%   0.000       0.000       2.000       2.000       0.000      0.1000E-19   0.000    
     602  0.6020      0.1000E-02 FIXED          0  -0.0%   0.000       0.000       2.000       2.000       0.000      0.1000E-19   0.000    
     603  0.6030      0.1000E-02 FIXED          0   0.0%   0.000       0.000       2.000       2.000       0.000      0.1000E-19   0.000    
     604  0.6040      0.1000E-02 FIXED          0   0.0%   0.000       0.000       2.000       2.000       0.000      0.1000E-19   0.000    
   CYCLE    TIME      TIME-STEP  ELEMENT          ERROR  I-ENERGY    K-ENERGY T  K-ENERGY R  EXT-WORK     MAS.ERR     TOTAL MASS  MASS ADDED
     605  0.6050      0.1000E-02 FIXED          0  -0.0%   0.000       0.000       2.000       2.000       0.000      0.1000E-19   0.000    
     606  0.6060      0.1000E-02 FIXED          0   0.0%   0.000       0.000       2.000       2.000       0.000      0.1000E-19   0.000    
     607  0.6070      0.1000E-02 FIXED          0   0.0%   0.000       0.000       2.000       2.000       0.000      0.1000E-19   0.000    
     608  0.6080      0.1000E-02 FIXED          0  -0.0%   0.000       0.000       2.000       2.000       0.000      0.1000E-19   0.000    
     609  0.6090      0.1000E-02 FIXED          0   0.0%   0.000       0.000       2.000       2.000       0.000      0.1000E-19   0.000    
     610  0.6100      0.1000E-02 FIXED          0  -0.0%   0.000       0.000       2.000       2.000       0.000      0.1000E-19   0.000    
     611  0.6110      0.1000E-02 FIXED          0   0.0%   0.000       0.000       2.000       2.000       0.000      0.1000E-19   0.000    
     612  0.6120      0.1000E-02 FIXED          0   0.0%   0.000       0.000       2.000       2.000       0.000      0.1000E-19   0.000    
     613  0.6130      0.1000E-02 FIXED          0   0.0%   0.000       0.000       2.000       2.000       0.000      0.1000E-19   0.000    
     614  0.6140      0.1000E-02 FIXED          0   0.0%   0.000       0.000       2.000       2.000       0.000      0.1000E-19   0.000    
     615  0.6150      0.1000E-02 FIXED          0   0.0%   0.000       0.000       2.000       2.000       0.000      0.1000E-19   0.000    
     616  0.6160      0.1000E-02 FIXED          0  -0.0%   0.000       0.000       2.000       2.000       0.000      0.1000E-19   0.000    
     617  0.6170      0.1000E-02 FIXED          0   0.0%   0.000       0.000       2.000       2.000       0.000      0.1000E-19   0.000    
     618  0.6180      0.1000E-02 FIXED          0  -0.0%   0.000       0.000       2.000       2.000       0.000      0.1000E-19   0.000    
     619  0.6190      0.1000E-02 FIXED          0   0.0%   0.000       0.000       2.000       2.000       0.000      0.1000E-19   0.000    
     620  0.6200      0.1000E-02 FIXED          0   0.0%   0.000       0.000       2.000       2.000       0.000      0.1000E-19   0.000    
     621  0.6210      0.1000E-02 FIXED          0  -0.0%   0.000       0.000       2.000       2.000       0.000      0.1000E-19   0.000    
     622  0.6220      0.1000E-02 FIXED          0   0.0%   0.000       0.000       2.000       2.000       0.000      0.1000E-19   0.000    
     623  0.6230      0.1000E-02 FIXED          0  -0.0%   0.000       0.000       2.000       2.000       0.000      0.1000E-19   0.000    
     624  0.6240      0.1000E-02 FIXED          0   0.0%   0.000       0.000       2.000       2.000       0.000      0.1000E-19   0.000    
     625  0.6250      0.1000E-02 FIXED          0   0.0%   0.000       0.000       2.000       2.000       0.000      0.1000E-19   0.000    
     626  0.6260      0.1000E-02 FIXED          0   0.0%   0.000       0.000       2.000       2.000       0.000      0.1000E-19   0.000    
     627  0.6270      0.1000E-02 FIXED          0   0.0%   0.000       0.000       2.000       2.000       0.000      0.1000E-19   0.000    
     628  0.6280      0.1000E-02 FIXED          0  -0.0%   0.000       0.000       2.000       2.000       0.000      0.1000E-19   0.000    
     629  0.6290      0.1000E-02 FIXED          0   0.0%   0.000       0.000       2.000       2.000       0.000      0.1000E-19   0.000    
     630  0.6300      0.1000E-02 FIXED          0   0.0%   0.000       0.000       2.000       2.000       0.000      0.1000E-19   0.000    
     631  0.6310      0.1000E-02 FIXED          0   0.0%   0.000       0.000       2.000       2.000       0.000      0.1000E-19   0.000    
     632  0.6320      0.1000E-02 FIXED          0   0.0%   0.000       0.000       2.000       2.000       0.000      0.1000E-19   0.000    
     633  0.6330      0.1000E-02 FIXED          0  -0.0%   0.000       0.000       2.000       2.000       0.000      0.1000E-19   0.000    
     634  0.6340      0.1000E-02 FIXED          0   0.0%   0.000       0.000       2.000       2.000       0.000      0.1000E-19   0.000    
     635  0.6350      0.1000E-02 FIXED          0   0.0%   0.000       0.000       2.000       2.000       0.000      0.1000E-19   0.000    
     636  0.6360      0.1000E-02 FIXED          0  -0.0%   0.000       0.000       2.000       2.000       0.000      0.1000E-19   0.000    
     637  0.6370      0.1000E-02 FIXED          0  -0.0%   0.000       0.000       2.000       2.000       0.000      0.1000E-19   0.000    
     638  0.6380      0.1000E-02 FIXED          0  -0.0%   0.000       0.000       2.000       2.000       0.000      0.1000E-19   0.000    
     639  0.6390      0.1000E-02 FIXED          0  -0.0%   0.000       0.000       2.000       2.000       0.000      0.1000E-19   0.000    
     640  0.6400      0.1000E-02 FIXED          0   0.0%   0.000       0.000       2.000       2.000       0.000      0.1000E-19   0.000    
     641  0.6410      0.1000E-02 FIXED          0   0.0%   0.000       0.000       2.000       2.000       0.000      0.1000E-19   0.000    
     642  0.6420      0.1000E-02 FIXED          0   0.0%   0.000       0.000       2.000       2.000       0.000      0.1000E-19   0.000    
     643  0.6430      0.1000E-02 FIXED          0  -0.0%   0.000       0.000       2.000       2.000       0.000      0.1000E-19   0.000    
     644  0.6440      0.1000E-02 FIXED          0  -0.0%   0.000       0.000       2.000       2.000       0.000      0.1000E-19   0.000    
     645  0.6450      0.1000E-02 FIXED          0   0.0%   0.000       0.000       2.000       2.000       0.000      0.1000E-19   0.000    
     646  0.6460      0.1000E-02 FIXED          0  -0.0%   0.000       0.000       2.000       2.000       0.000      0.1000E-19   0.000    
     647  0.6470      0.1000E-02 FIXED          0   0.0%   0.000       0.000       2.000       2.000       0.000      0.1000E-19   0.000    
     648  0.6480      0.1000E-02 FIXED          0  -0.0%   0.000       0.000       2.000       2.000       0.000      0.1000E-19   0.000    
     649  0.6490      0.1000E-02 FIXED          0   0.0%   0.000       0.000       2.000       2.000       0.000      0.1000E-19   0.000    
     650  0.6500      0.1000E-02 FIXED          0   0.0%   0.000       0.000       2.000       2.000       0.000      0.1000E-19   0.000    
     651  0.6510      0.1000E-02 FIXED          0   0.0%   0.000       0.000       2.000       2.000       0.000      0.1000E-19   0.000    
     652  0.6520      0.1000E-02 FIXED          0  -0.0%   0.000       0.000       2.000       2.000       0.000      0.1000E-19   0.000    
     653  0.6530      0.1000E-02 FIXED          0  -0.0%   0.000       0.000       2.000       2.000       0.000      0.1000E-19   0.000    
     654  0.6540      0.1000E-02 FIXED          0   0.0%   0.000       0.000       2.000       2.000       0.000      0.1000E-19   0.000    
     655  0.6550      0.1000E-02 FIXED          0  -0.0%   0.000       0.000       2.000       2.000       0.000      0.1000E-19   0.000    
     656  0.6560      0.1000E-02 FIXED          0  -0.0%   0.000       0.000       2.000       2.000       0.000      0.1000E-19   0.000    
     657  0.6570      0.1000E-02 FIXED          0  -0.0%   0.000       0.000       2.000       2.000       0.000      0.1000E-19   0.000    
     658  0.6580      0.1000E-02 FIXED          0  -0.0%   0.000       0.000       2.000       2.000       0.000      0.1000E-19   0.000    
     659  0.6590      0.1000E-02 FIXED          0  -0.0%   0.000       0.000       2.000       2.000       0.000      0.1000E-19   0.000    
   CYCLE    TIME      TIME-STEP  ELEMENT          ERROR  I-ENERGY    K-ENERGY T  K-ENERGY R  EXT-WORK     MAS.ERR     TOTAL MASS  MASS ADDED
     660  0.6600      0.1000E-02 FIXED          0   0.0%   0.000       0.000       2.000       2.000       0.000      0.1000E-19   0.000    
     661  0.6610      0.1000E-02 FIXED          0  -0.0%   0.000       0.000       2.000       2.000       0.000      0.1000E-19   0.000    
     662  0.6620      0.1000E-02 FIXED          0  -0.0%   0.000       0.000       2.000       2.000       0.000      0.1000E-19   0.000    
     663  0.6630      0.1000E-02 FIXED          0   0.0%   0.000       0.000       2.000       2.000       0.000      0.1000E-19   0.000    
     664  0.6640      0.1000E-02 FIXED          0   0.0%   0.000       0.000       2.000       2.000       0.000      0.1000E-19   0.000    
     665  0.6650      0.1000E-02 FIXED          0   0.0%   0.000       0.000       2.000       2.000       0.000      0.1000E-19   0.000    
     666  0.6660      0.1000E-02 FIXED          0   0.0%   0.000       0.000       2.000       2.000       0.000      0.1000E-19   0.000    
     667  0.6670      0.1000E-02 FIXED          0   0.0%   0.000       0.000       2.000       2.000       0.000      0.1000E-19   0.000    
     668  0.6680      0.1000E-02 FIXED          0   0.0%   0.000       0.000       2.000       2.000       0.000      0.1000E-19   0.000    
     669  0.6690      0.1000E-02 FIXED          0  -0.0%   0.000       0.000       2.000       2.000       0.000      0.1000E-19   0.000    
     670  0.6700      0.1000E-02 FIXED          0  -0.0%   0.000       0.000       2.000       2.000       0.000      0.1000E-19   0.000    
     671  0.6710      0.1000E-02 FIXED          0   0.0%   0.000       0.000       2.000       2.000       0.000      0.1000E-19   0.000    
     672  0.6720      0.1000E-02 FIXED          0  -0.0%   0.000       0.000       2.000       2.000       0.000      0.1000E-19   0.000    
     673  0.6730      0.1000E-02 FIXED          0   0.0%   0.000       0.000       2.000       2.000       0.000      0.1000E-19   0.000    
     674  0.6740      0.1000E-02 FIXED          0   0.0%   0.000       0.000       2.000       2.000       0.000      0.1000E-19   0.000    
     675  0.6750      0.1000E-02 FIXED          0   0.0%   0.000       0.000       2.000       2.000       0.000      0.1000E-19   0.000    
     676  0.6760      0.1000E-02 FIXED          0  -0.0%   0.000       0.000       2.000       2.000       0.000      0.1000E-19   0.000    
     677  0.6770      0.1000E-02 FIXED          0   0.0%   0.000       0.000       2.000       2.000       0.000      0.1000E-19   0.000    
     678  0.6780      0.1000E-02 FIXED          0   0.0%   0.000       0.000       2.000       2.000       0.000      0.1000E-19   0.000    
     679  0.6790      0.1000E-02 FIXED          0  -0.0%   0.000       0.000       2.000       2.000       0.000      0.1000E-19   0.000    
     680  0.6800      0.1000E-02 FIXED          0   0.0%   0.000       0.000       2.000       2.000       0.000      0.1000E-19   0.000    
     681  0.6810      0.1000E-02 FIXED          0  -0.0%   0.000       0.000       2.000       2.000       0.000      0.1000E-19   0.000    
     682  0.6820      0.1000E-02 FIXED          0   0.0%   0.000       0.000       2.000       2.000       0.000      0.1000E-19   0.000    
     683  0.6830      0.1000E-02 FIXED          0   0.0%   0.000       0.000       2.000       2.000       0.000      0.1000E-19   0.000    
     684  0.6840      0.1000E-02 FIXED          0   0.0%   0.000       0.000       2.000       2.000       0.000      0.1000E-19   0.000    
     685  0.6850      0.1000E-02 FIXED          0  -0.0%   0.000       0.000       2.000       2.000       0.000      0.1000E-19   0.000    
     686  0.6860      0.1000E-02 FIXED          0   0.0%   0.000       0.000       2.000       2.000       0.000      0.1000E-19   0.000    
     687  0.6870      0.1000E-02 FIXED          0   0.0%   0.000       0.000       2.000       2.000       0.000      0.1000E-19   0.000    
     688  0.6880      0.1000E-02 FIXED          0   0.0%   0.000       0.000       2.000       2.000       0.000      0.1000E-19   0.000    
     689  0.6890      0.1000E-02 FIXED          0  -0.0%   0.000       0.000       2.000       2.000       0.000      0.1000E-19   0.000    
     690  0.6900      0.1000E-02 FIXED          0   0.0%   0.000       0.000       2.000       2.000       0.000      0.1000E-19   0.000    
     691  0.6910      0.1000E-02 FIXED          0   0.0%   0.000       0.000       2.000       2.000       0.000      0.1000E-19   0.000    
     692  0.6920      0.1000E-02 FIXED          0  -0.0%   0.000       0.000       2.000       2.000       0.000      0.1000E-19   0.000    
     693  0.6930      0.1000E-02 FIXED          0   0.0%   0.000       0.000       2.000       2.000       0.000      0.1000E-19   0.000    
     694  0.6940      0.1000E-02 FIXED          0   0.0%   0.000       0.000       2.000       2.000       0.000      0.1000E-19   0.000    
     695  0.6950      0.1000E-02 FIXED          0   0.0%   0.000       0.000       2.000       2.000       0.000      0.1000E-19   0.000    
     696  0.6960      0.1000E-02 FIXED          0   0.0%   0.000       0.000       2.000       2.000       0.000      0.1000E-19   0.000    
     697  0.6970      0.1000E-02 FIXED          0  -0.0%   0.000       0.000       2.000       2.000       0.000      0.1000E-19   0.000    
     698  0.6980      0.1000E-02 FIXED          0   0.0%   0.000       0.000       2.000       2.000       0.000      0.1000E-19   0.000    
     699  0.6990      0.1000E-02 FIXED          0  -0.0%   0.000       0.000       2.000       2.000       0.000      0.1000E-19   0.000    
     700  0.7000      0.1000E-02 FIXED          0  -0.0%   0.000       0.000       2.000       2.000       0.000      0.1000E-19   0.000    
     701  0.7010      0.1000E-02 FIXED          0  -0.0%   0.000       0.000       2.000       2.000       0.000      0.1000E-19   0.000    
     702  0.7020      0.1000E-02 FIXED          0   0.0%   0.000       0.000       2.000       2.000       0.000      0.1000E-19   0.000    
     703  0.7030      0.1000E-02 FIXED          0  -0.0%   0.000       0.000       2.000       2.000       0.000      0.1000E-19   0.000    
     704  0.7040      0.1000E-02 FIXED          0  -0.0%   0.000       0.000       2.000       2.000       0.000      0.1000E-19   0.000    
     705  0.7050      0.1000E-02 FIXED          0   0.0%   0.000       0.000       2.000       2.000       0.000      0.1000E-19   0.000    
     706  0.7060      0.1000E-02 FIXED          0  -0.0%   0.000       0.000       2.000       2.000       0.000      0.1000E-19   0.000    
     707  0.7070      0.1000E-02 FIXED          0   0.0%   0.000       0.000       2.000       2.000       0.000      0.1000E-19   0.000    
     708  0.7080      0.1000E-02 FIXED          0   0.0%   0.000       0.000       2.000       2.000       0.000      0.1000E-19   0.000    
     709  0.7090      0.1000E-02 FIXED          0  -0.0%   0.000       0.000       2.000       2.000       0.000      0.1000E-19   0.000    
     710  0.7100      0.1000E-02 FIXED          0   0.0%   0.000       0.000       2.000       2.000       0.000      0.1000E-19   0.000    
     711  0.7110      0.1000E-02 FIXED          0   0.0%   0.000       0.000       2.000       2.000       0.000      0.1000E-19   0.000    
     712  0.7120      0.1000E-02 FIXED          0  -0.0%   0.000       0.000       2.000       2.000       0.000      0.1000E-19   0.000    
     713  0.7130      0.1000E-02 FIXED          0   0.0%   0.000       0.000       2.000       2.000       0.000      0.1000E-19   0.000    
     714  0.7140      0.1000E-02 FIXED          0  -0.0%   0.000       0.000       2.000       2.000       0.000      0.1000E-19   0.000    
   CYCLE    TIME      TIME-STEP  ELEMENT          ERROR  I-ENERGY    K-ENERGY T  K-ENERGY R  EXT-WORK     MAS.ERR     TOTAL MASS  MASS ADDED
     715  0.7150      0.1000E-02 FIXED          0   0.0%   0.000       0.000       2.000       2.000       0.000      0.1000E-19   0.000    
     716  0.7160      0.1000E-02 FIXED          0   0.0%   0.000       0.000       2.000       2.000       0.000      0.1000E-19   0.000    
     717  0.7170      0.1000E-02 FIXED          0  -0.0%   0.000       0.000       2.000       2.000       0.000      0.1000E-19   0.000    
     718  0.7180      0.1000E-02 FIXED          0   0.0%   0.000       0.000       2.000       2.000       0.000      0.1000E-19   0.000    
     719  0.7190      0.1000E-02 FIXED          0  -0.0%   0.000       0.000       2.000       2.000       0.000      0.1000E-19   0.000    
     720  0.7200      0.1000E-02 FIXED          0   0.0%   0.000       0.000       2.000       2.000       0.000      0.1000E-19   0.000    
     721  0.7210      0.1000E-02 FIXED          0   0.0%   0.000       0.000       2.000       2.000       0.000      0.1000E-19   0.000    
     722  0.7220      0.1000E-02 FIXED          0   0.0%   0.000       0.000       2.000       2.000       0.000      0.1000E-19   0.000    
     723  0.7230      0.1000E-02 FIXED          0  -0.0%   0.000       0.000       2.000       2.000       0.000      0.1000E-19   0.000    
     724  0.7240      0.1000E-02 FIXED          0   0.0%   0.000       0.000       2.000       2.000       0.000      0.1000E-19   0.000    
     725  0.7250      0.1000E-02 FIXED          0  -0.0%   0.000       0.000       2.000       2.000       0.000      0.1000E-19   0.000    
     726  0.7260      0.1000E-02 FIXED          0  -0.0%   0.000       0.000       2.000       2.000       0.000      0.1000E-19   0.000    
     727  0.7270      0.1000E-02 FIXED          0   0.0%   0.000       0.000       2.000       2.000       0.000      0.1000E-19   0.000    
     728  0.7280      0.1000E-02 FIXED          0   0.0%   0.000       0.000       2.000       2.000       0.000      0.1000E-19   0.000    
     729  0.7290      0.1000E-02 FIXED          0   0.0%   0.000       0.000       2.000       2.000       0.000      0.1000E-19   0.000    
     730  0.7300      0.1000E-02 FIXED          0  -0.0%   0.000       0.000       2.000       2.000       0.000      0.1000E-19   0.000    
     731  0.7310      0.1000E-02 FIXED          0   0.0%   0.000       0.000       2.000       2.000       0.000      0.1000E-19   0.000    
     732  0.7320      0.1000E-02 FIXED          0  -0.0%   0.000       0.000       2.000       2.000       0.000      0.1000E-19   0.000    
     733  0.7330      0.1000E-02 FIXED          0   0.0%   0.000       0.000       2.000       2.000       0.000      0.1000E-19   0.000    
     734  0.7340      0.1000E-02 FIXED          0   0.0%   0.000       0.000       2.000       2.000       0.000      0.1000E-19   0.000    
     735  0.7350      0.1000E-02 FIXED          0  -0.0%   0.000       0.000       2.000       2.000       0.000      0.1000E-19   0.000    
     736  0.7360      0.1000E-02 FIXED          0  -0.0%   0.000       0.000       2.000       2.000       0.000      0.1000E-19   0.000    
     737  0.7370      0.1000E-02 FIXED          0   0.0%   0.000       0.000       2.000       2.000       0.000      0.1000E-19   0.000    
     738  0.7380      0.1000E-02 FIXED          0   0.0%   0.000       0.000       2.000       2.000       0.000      0.1000E-19   0.000    
     739  0.7390      0.1000E-02 FIXED          0   0.0%   0.000       0.000       2.000       2.000       0.000      0.1000E-19   0.000    
     740  0.7400      0.1000E-02 FIXED          0  -0.0%   0.000       0.000       2.000       2.000       0.000      0.1000E-19   0.000    
     741  0.7410      0.1000E-02 FIXED          0  -0.0%   0.000       0.000       2.000       2.000       0.000      0.1000E-19   0.000    
     742  0.7420      0.1000E-02 FIXED          0  -0.0%   0.000       0.000       2.000       2.000       0.000      0.1000E-19   0.000    
     743  0.7430      0.1000E-02 FIXED          0  -0.0%   0.000       0.000       2.000       2.000       0.000      0.1000E-19   0.000    
     744  0.7440      0.1000E-02 FIXED          0  -0.0%   0.000       0.000       2.000       2.000       0.000      0.1000E-19   0.000    
     745  0.7450      0.1000E-02 FIXED          0   0.0%   0.000       0.000       2.000       2.000       0.000      0.1000E-19   0.000    
     746  0.7460      0.1000E-02 FIXED          0  -0.0%   0.000       0.000       2.000       2.000       0.000      0.1000E-19   0.000    
     747  0.7470      0.1000E-02 FIXED          0  -0.0%   0.000       0.000       2.000       2.000       0.000      0.1000E-19   0.000    
     748  0.7480      0.1000E-02 FIXED          0  -0.0%   0.000       0.000       2.000       2.000       0.000      0.1000E-19   0.000    
     749  0.7490      0.1000E-02 FIXED          0  -0.0%   0.000       0.000       2.000       2.000       0.000      0.1000E-19   0.000    
     750  0.7500      0.1000E-02 FIXED          0  -0.0%   0.000       0.000       2.000       2.000       0.000      0.1000E-19   0.000    
     751  0.7510      0.1000E-02 FIXED          0   0.0%   0.000       0.000       2.000       2.000       0.000      0.1000E-19   0.000    
     752  0.7520      0.1000E-02 FIXED          0  -0.0%   0.000       0.000       2.000       2.000       0.000      0.1000E-19   0.000    
     753  0.7530      0.1000E-02 FIXED          0  -0.0%   0.000       0.000       2.000       2.000       0.000      0.1000E-19   0.000    
     754  0.7540      0.1000E-02 FIXED          0   0.0%   0.000       0.000       2.000       2.000       0.000      0.1000E-19   0.000    
     755  0.7550      0.1000E-02 FIXED          0   0.0%   0.000       0.000       2.000       2.000       0.000      0.1000E-19   0.000    
     756  0.7560      0.1000E-02 FIXED          0   0.0%   0.000       0.000       2.000       2.000       0.000      0.1000E-19   0.000    
     757  0.7570      0.1000E-02 FIXED          0   0.0%   0.000       0.000       2.000       2.000       0.000      0.1000E-19   0.000    
     758  0.7580      0.1000E-02 FIXED          0   0.0%   0.000       0.000       2.000       2.000       0.000      0.1000E-19   0.000    
     759  0.7590      0.1000E-02 FIXED          0  -0.0%   0.000       0.000       2.000       2.000       0.000      0.1000E-19   0.000    
     760  0.7600      0.1000E-02 FIXED          0   0.0%   0.000       0.000       2.000       2.000       0.000      0.1000E-19   0.000    
     761  0.7610      0.1000E-02 FIXED          0  -0.0%   0.000       0.000       2.000       2.000       0.000      0.1000E-19   0.000    
     762  0.7620      0.1000E-02 FIXED          0  -0.0%   0.000       0.000       2.000       2.000       0.000      0.1000E-19   0.000    
     763  0.7630      0.1000E-02 FIXED          0  -0.0%   0.000       0.000       2.000       2.000       0.000      0.1000E-19   0.000    
     764  0.7640      0.1000E-02 FIXED          0   0.0%   0.000       0.000       2.000       2.000       0.000      0.1000E-19   0.000    
     765  0.7650      0.1000E-02 FIXED          0   0.0%   0.000       0.000       2.000       2.000       0.000      0.1000E-19   0.000    
     766  0.7660      0.1000E-02 FIXED          0   0.0%   0.000       0.000       2.000       2.000       0.000      0.1000E-19   0.000    
     767  0.7670      0.1000E-02 FIXED          0   0.0%   0.000       0.000       2.000       2.000       0.000      0.1000E-19   0.000    
     768  0.7680      0.1000E-02 FIXED          0  -0.0%   0.000       0.000       2.000       2.000       0.000      0.1000E-19   0.000    
     769  0.7690      0.1000E-02 FIXED          0   0.0%   0.000       0.000       2.000       2.000       0.000      0.1000E-19   0.000    
   CYCLE    TIME      TIME-STEP  ELEMENT          ERROR  I-ENERGY    K-ENERGY T  K-ENERGY R  EXT-WORK     MAS.ERR     TOTAL MASS  MASS ADDED
     770  0.7700      0.1000E-02 FIXED          0  -0.0%   0.000       0.000       2.000       2.000       0.000      0.1000E-19   0.000    
     771  0.7710      0.1000E-02 FIXED          0  -0.0%   0.000       0.000       2.000       2.000       0.000      0.1000E-19   0.000    
     772  0.7720      0.1000E-02 FIXED          0   0.0%   0.000       0.000       2.000       2.000       0.000      0.1000E-19   0.000    
     773  0.7730      0.1000E-02 FIXED          0   0.0%   0.000       0.000       2.000       2.000       0.000      0.1000E-19   0.000    
     774  0.7740      0.1000E-02 FIXED          0   0.0%   0.000       0.000       2.000       2.000       0.000      0.1000E-19   0.000    
     775  0.7750      0.1000E-02 FIXED          0  -0.0%   0.000       0.000       2.000       2.000       0.000      0.1000E-19   0.000    
     776  0.7760      0.1000E-02 FIXED          0   0.0%   0.000       0.000       2.000       2.000       0.000      0.1000E-19   0.000    
     777  0.7770      0.1000E-02 FIXED          0  -0.0%   0.000       0.000       2.000       2.000       0.000      0.1000E-19   0.000    
     778  0.7780      0.1000E-02 FIXED          0  -0.0%   0.000       0.000       2.000       2.000       0.000      0.1000E-19   0.000    
     779  0.7790      0.1000E-02 FIXED          0  -0.0%   0.000       0.000       2.000       2.000       0.000      0.1000E-19   0.000    
     780  0.7800      0.1000E-02 FIXED          0  -0.0%   0.000       0.000       2.000       2.000       0.000      0.1000E-19   0.000    
     781  0.7810      0.1000E-02 FIXED          0  -0.0%   0.000       0.000       2.000       2.000       0.000      0.1000E-19   0.000    
     782  0.7820      0.1000E-02 FIXED          0   0.0%   0.000       0.000       2.000       2.000       0.000      0.1000E-19   0.000    
     783  0.7830      0.1000E-02 FIXED          0  -0.0%   0.000       0.000       2.000       2.000       0.000      0.1000E-19   0.000    
     784  0.7840      0.1000E-02 FIXED          0   0.0%   0.000       0.000       2.000       2.000       0.000      0.1000E-19   0.000    
     785  0.7850      0.1000E-02 FIXED          0   0.0%   0.000       0.000       2.000       2.000       0.000      0.1000E-19   0.000    
     786  0.7860      0.1000E-02 FIXED          0   0.0%   0.000       0.000       2.000       2.000       0.000      0.1000E-19   0.000    
     787  0.7870      0.1000E-02 FIXED          0   0.0%   0.000       0.000       2.000       2.000       0.000      0.1000E-19   0.000    
     788  0.7880      0.1000E-02 FIXED          0   0.0%   0.000       0.000       2.000       2.000       0.000      0.1000E-19   0.000    
     789  0.7890      0.1000E-02 FIXED          0  -0.0%   0.000       0.000       2.000       2.000       0.000      0.1000E-19   0.000    
     790  0.7900      0.1000E-02 FIXED          0   0.0%   0.000       0.000       2.000       2.000       0.000      0.1000E-19   0.000    
     791  0.7910      0.1000E-02 FIXED          0   0.0%   0.000       0.000       2.000       2.000       0.000      0.1000E-19   0.000    
     792  0.7920      0.1000E-02 FIXED          0  -0.0%   0.000       0.000       2.000       2.000       0.000      0.1000E-19   0.000    
     793  0.7930      0.1000E-02 FIXED          0  -0.0%   0.000       0.000       2.000       2.000       0.000      0.1000E-19   0.000    
     794  0.7940      0.1000E-02 FIXED          0   0.0%   0.000       0.000       2.000       2.000       0.000      0.1000E-19   0.000    
     795  0.7950      0.1000E-02 FIXED          0   0.0%   0.000       0.000       2.000       2.000       0.000      0.1000E-19   0.000    
     796  0.7960      0.1000E-02 FIXED          0   0.0%   0.000       0.000       2.000       2.000       0.000      0.1000E-19   0.000    
     797  0.7970      0.1000E-02 FIXED          0  -0.0%   0.000       0.000       2.000       2.000       0.000      0.1000E-19   0.000    
     798  0.7980      0.1000E-02 FIXED          0   0.0%   0.000       0.000       2.000       2.000       0.000      0.1000E-19   0.000    
     799  0.7990      0.1000E-02 FIXED          0  -0.0%   0.000       0.000       2.000       2.000       0.000      0.1000E-19   0.000    
     800  0.8000      0.1000E-02 FIXED          0  -0.0%   0.000       0.000       2.000       2.000       0.000      0.1000E-19   0.000    
     801  0.8010      0.1000E-02 FIXED          0   0.0%   0.000       0.000       2.000       2.000       0.000      0.1000E-19   0.000    
     802  0.8020      0.1000E-02 FIXED          0  -0.0%   0.000       0.000       2.000       2.000       0.000      0.1000E-19   0.000    
     803  0.8030      0.1000E-02 FIXED          0  -0.0%   0.000       0.000       2.000       2.000       0.000      0.1000E-19   0.000    
     804  0.8040      0.1000E-02 FIXED          0   0.0%   0.000       0.000       2.000       2.000       0.000      0.1000E-19   0.000    
     805  0.8050      0.1000E-02 FIXED          0   0.0%   0.000       0.000       2.000       2.000       0.000      0.1000E-19   0.000    
     806  0.8060      0.1000E-02 FIXED          0   0.0%   0.000       0.000       2.000       2.000       0.000      0.1000E-19   0.000    
     807  0.8070      0.1000E-02 FIXED          0  -0.0%   0.000       0.000       2.000       2.000       0.000      0.1000E-19   0.000    
     808  0.8080      0.1000E-02 FIXED          0   0.0%   0.000       0.000       2.000       2.000       0.000      0.1000E-19   0.000    
     809  0.8090      0.1000E-02 FIXED          0   0.0%   0.000       0.000       2.000       2.000       0.000      0.1000E-19   0.000    
     810  0.8100      0.1000E-02 FIXED          0  -0.0%   0.000       0.000       2.000       2.000       0.000      0.1000E-19   0.000    
     811  0.8110      0.1000E-02 FIXED          0  -0.0%   0.000       0.000       2.000       2.000       0.000      0.1000E-19   0.000    
     812  0.8120      0.1000E-02 FIXED          0   0.0%   0.000       0.000       2.000       2.000       0.000      0.1000E-19   0.000    
     813  0.8130      0.1000E-02 FIXED          0  -0.0%   0.000       0.000       2.000       2.000       0.000      0.1000E-19   0.000    
     814  0.8140      0.1000E-02 FIXED          0   0.0%   0.000       0.000       2.000       2.000       0.000      0.1000E-19   0.000    
     815  0.8150      0.1000E-02 FIXED          0   0.0%   0.000       0.000       2.000       2.000       0.000      0.1000E-19   0.000    
     816  0.8160      0.1000E-02 FIXED          0  -0.0%   0.000       0.000       2.000       2.000       0.000      0.1000E-19   0.000    
     817  0.8170      0.1000E-02 FIXED          0   0.0%   0.000       0.000       2.000       2.000       0.000      0.1000E-19   0.000    
     818  0.8180      0.1000E-02 FIXED          0  -0.0%   0.000       0.000       2.000       2.000       0.000      0.1000E-19   0.000    
     819  0.8190      0.1000E-02 FIXED          0   0.0%   0.000       0.000       2.000       2.000       0.000      0.1000E-19   0.000    
     820  0.8200      0.1000E-02 FIXED          0   0.0%   0.000       0.000       2.000       2.000       0.000      0.1000E-19   0.000    
     821  0.8210      0.1000E-02 FIXED          0   0.0%   0.000       0.000       2.000       2.000       0.000      0.1000E-19   0.000    
     822  0.8220      0.1000E-02 FIXED          0   0.0%   0.000       0.000       2.000       2.000       0.000      0.1000E-19   0.000    
     823  0.8230      0.1000E-02 FIXED          0   0.0%   0.000       0.000       2.000       2.000       0.000      0.1000E-19   0.000    
     824  0.8240      0.1000E-02 FIXED          0   0.0%   0.000       0.000       2.000       2.000       0.000      0.1000E-19   0.000    
   CYCLE    TIME      TIME-STEP  ELEMENT          ERROR  I-ENERGY    K-ENERGY T  K-ENERGY R  EXT-WORK     MAS.ERR     TOTAL MASS  MASS ADDED
     825  0.8250      0.1000E-02 FIXED          0  -0.0%   0.000       0.000       2.000       2.000       0.000      0.1000E-19   0.000    
     826  0.8260      0.1000E-02 FIXED          0   0.0%   0.000       0.000       2.000       2.000       0.000      0.1000E-19   0.000    
     827  0.8270      0.1000E-02 FIXED          0  -0.0%   0.000       0.000       2.000       2.000       0.000      0.1000E-19   0.000    
     828  0.8280      0.1000E-02 FIXED          0   0.0%   0.000       0.000       2.000       2.000       0.000      0.1000E-19   0.000    
     829  0.8290      0.1000E-02 FIXED          0  -0.0%   0.000       0.000       2.000       2.000       0.000      0.1000E-19   0.000    
     830  0.8300      0.1000E-02 FIXED          0  -0.0%   0.000       0.000       2.000       2.000       0.000      0.1000E-19   0.000    
     831  0.8310      0.1000E-02 FIXED          0   0.0%   0.000       0.000       2.000       2.000       0.000      0.1000E-19   0.000    
     832  0.8320      0.1000E-02 FIXED          0   0.0%   0.000       0.000       2.000       2.000       0.000      0.1000E-19   0.000    
     833  0.8330      0.1000E-02 FIXED          0   0.0%   0.000       0.000       2.000       2.000       0.000      0.1000E-19   0.000    
     834  0.8340      0.1000E-02 FIXED          0  -0.0%   0.000       0.000       2.000       2.000       0.000      0.1000E-19   0.000    
     835  0.8350      0.1000E-02 FIXED          0  -0.0%   0.000       0.000       2.000       2.000       0.000      0.1000E-19   0.000    
     836  0.8360      0.1000E-02 FIXED          0   0.0%   0.000       0.000       2.000       2.000       0.000      0.1000E-19   0.000    
     837  0.8370      0.1000E-02 FIXED          0   0.0%   0.000       0.000       2.000       2.000       0.000      0.1000E-19   0.000    
     838  0.8380      0.1000E-02 FIXED          0   0.0%   0.000       0.000       2.000       2.000       0.000      0.1000E-19   0.000    
     839  0.8390      0.1000E-02 FIXED          0  -0.0%   0.000       0.000       2.000       2.000       0.000      0.1000E-19   0.000    
     840  0.8400      0.1000E-02 FIXED          0  -0.0%   0.000       0.000       2.000       2.000       0.000      0.1000E-19   0.000    
     841  0.8410      0.1000E-02 FIXED          0  -0.0%   0.000       0.000       2.000       2.000       0.000      0.1000E-19   0.000    
     842  0.8420      0.1000E-02 FIXED          0  -0.0%   0.000       0.000       2.000       2.000       0.000      0.1000E-19   0.000    
     843  0.8430      0.1000E-02 FIXED          0  -0.0%   0.000       0.000       2.000       2.000       0.000      0.1000E-19   0.000    
     844  0.8440      0.1000E-02 FIXED          0   0.0%   0.000       0.000       2.000       2.000       0.000      0.1000E-19   0.000    
     845  0.8450      0.1000E-02 FIXED          0  -0.0%   0.000       0.000       2.000       2.000       0.000      0.1000E-19   0.000    
     846  0.8460      0.1000E-02 FIXED          0   0.0%   0.000       0.000       2.000       2.000       0.000      0.1000E-19   0.000    
     847  0.8470      0.1000E-02 FIXED          0   0.0%   0.000       0.000       2.000       2.000       0.000      0.1000E-19   0.000    
     848  0.8480      0.1000E-02 FIXED          0   0.0%   0.000       0.000       2.000       2.000       0.000      0.1000E-19   0.000    
     849  0.8490      0.1000E-02 FIXED          0   0.0%   0.000       0.000       2.000       2.000       0.000      0.1000E-19   0.000    
     850  0.8500      0.1000E-02 FIXED          0   0.0%   0.000       0.000       2.000       2.000       0.000      0.1000E-19   0.000    
     851  0.8510      0.1000E-02 FIXED          0   0.0%   0.000       0.000       2.000       2.000       0.000      0.1000E-19   0.000    
     852  0.8520      0.1000E-02 FIXED          0  -0.0%   0.000       0.000       2.000       2.000       0.000      0.1000E-19   0.000    
     853  0.8530      0.1000E-02 FIXED          0   0.0%   0.000       0.000       2.000       2.000       0.000      0.1000E-19   0.000    
     854  0.8540      0.1000E-02 FIXED          0   0.0%   0.000       0.000       2.000       2.000       0.000      0.1000E-19   0.000    
     855  0.8550      0.1000E-02 FIXED          0   0.0%   0.000       0.000       2.000       2.000       0.000      0.1000E-19   0.000    
     856  0.8560      0.1000E-02 FIXED          0   0.0%   0.000       0.000       2.000       2.000       0.000      0.1000E-19   0.000    
     857  0.8570      0.1000E-02 FIXED          0  -0.0%   0.000       0.000       2.000       2.000       0.000      0.1000E-19   0.000    
     858  0.8580      0.1000E-02 FIXED          0  -0.0%   0.000       0.000       2.000       2.000       0.000      0.1000E-19   0.000    
     859  0.8590      0.1000E-02 FIXED          0   0.0%   0.000       0.000       2.000       2.000       0.000      0.1000E-19   0.000    
     860  0.8600      0.1000E-02 FIXED          0  -0.0%   0.000       0.000       2.000       2.000       0.000      0.1000E-19   0.000    
     861  0.8610      0.1000E-02 FIXED          0   0.0%   0.000       0.000       2.000       2.000       0.000      0.1000E-19   0.000    
     862  0.8620      0.1000E-02 FIXED          0   0.0%   0.000       0.000       2.000       2.000       0.000      0.1000E-19   0.000    
     863  0.8630      0.1000E-02 FIXED          0  -0.0%   0.000       0.000       2.000       2.000       0.000      0.1000E-19   0.000    
     864  0.8640      0.1000E-02 FIXED          0  -0.0%   0.000       0.000       2.000       2.000       0.000      0.1000E-19   0.000    
     865  0.8650      0.1000E-02 FIXED          0  -0.0%   0.000       0.000       2.000       2.000       0.000      0.1000E-19   0.000    
     866  0.8660      0.1000E-02 FIXED          0   0.0%   0.000       0.000       2.000       2.000       0.000      0.1000E-19   0.000    
     867  0.8670      0.1000E-02 FIXED          0  -0.0%   0.000       0.000       2.000       2.000       0.000      0.1000E-19   0.000    
     868  0.8680      0.1000E-02 FIXED          0  -0.0%   0.000       0.000       2.000       2.000       0.000      0.1000E-19   0.000    
     869  0.8690      0.1000E-02 FIXED          0   0.0%   0.000       0.000       2.000       2.000       0.000      0.1000E-19   0.000    
     870  0.8700      0.1000E-02 FIXED          0  -0.0%   0.000       0.000       2.000       2.000       0.000      0.1000E-19   0.000    
     871  0.8710      0.1000E-02 FIXED          0   0.0%   0.000       0.000       2.000       2.000       0.000      0.1000E-19   0.000    
     872  0.8720      0.1000E-02 FIXED          0  -0.0%   0.000       0.000       2.000       2.000       0.000      0.1000E-19   0.000    
     873  0.8730      0.1000E-02 FIXED          0  -0.0%   0.000       0.000       2.000       2.000       0.000      0.1000E-19   0.000    
     874  0.8740      0.1000E-02 FIXED          0   0.0%   0.000       0.000       2.000       2.000       0.000      0.1000E-19   0.000    
     875  0.8750      0.1000E-02 FIXED          0  -0.0%   0.000       0.000       2.000       2.000       0.000      0.1000E-19   0.000    
     876  0.8760      0.1000E-02 FIXED          0  -0.0%   0.000       0.000       2.000       2.000       0.000      0.1000E-19   0.000    
     877  0.8770      0.1000E-02 FIXED          0  -0.0%   0.000       0.000       2.000       2.000       0.000      0.1000E-19   0.000    
     878  0.8780      0.1000E-02 FIXED          0  -0.0%   0.000       0.000       2.000       2.000       0.000      0.1000E-19   0.000    
     879  0.8790      0.1000E-02 FIXED          0   0.0%   0.000       0.000       2.000       2.000       0.000      0.1000E-19   0.000    
   CYCLE    TIME      TIME-STEP  ELEMENT          ERROR  I-ENERGY    K-ENERGY T  K-ENERGY R  EXT-WORK     MAS.ERR     TOTAL MASS  MASS ADDED
     880  0.8800      0.1000E-02 FIXED          0   0.0%   0.000       0.000       2.000       2.000       0.000      0.1000E-19   0.000    
     881  0.8810      0.1000E-02 FIXED          0  -0.0%   0.000       0.000       2.000       2.000       0.000      0.1000E-19   0.000    
     882  0.8820      0.1000E-02 FIXED          0  -0.0%   0.000       0.000       2.000       2.000       0.000      0.1000E-19   0.000    
     883  0.8830      0.1000E-02 FIXED          0   0.0%   0.000       0.000       2.000       2.000       0.000      0.1000E-19   0.000    
     884  0.8840      0.1000E-02 FIXED          0  -0.0%   0.000       0.000       2.000       2.000       0.000      0.1000E-19   0.000    
     885  0.8850      0.1000E-02 FIXED          0  -0.0%   0.000       0.000       2.000       2.000       0.000      0.1000E-19   0.000    
     886  0.8860      0.1000E-02 FIXED          0   0.0%   0.000       0.000       2.000       2.000       0.000      0.1000E-19   0.000    
     887  0.8870      0.1000E-02 FIXED          0   0.0%   0.000       0.000       2.000       2.000       0.000      0.1000E-19   0.000    
     888  0.8880      0.1000E-02 FIXED          0  -0.0%   0.000       0.000       2.000       2.000       0.000      0.1000E-19   0.000    
     889  0.8890      0.1000E-02 FIXED          0   0.0%   0.000       0.000       2.000       2.000       0.000      0.1000E-19   0.000    
     890  0.8900      0.1000E-02 FIXED          0   0.0%   0.000       0.000       2.000       2.000       0.000      0.1000E-19   0.000    
     891  0.8910      0.1000E-02 FIXED          0  -0.0%   0.000       0.000       2.000       2.000       0.000      0.1000E-19   0.000    
     892  0.8920      0.1000E-02 FIXED          0   0.0%   0.000       0.000       2.000       2.000       0.000      0.1000E-19   0.000    
     893  0.8930      0.1000E-02 FIXED          0   0.0%   0.000       0.000       2.000       2.000       0.000      0.1000E-19   0.000    
     894  0.8940      0.1000E-02 FIXED          0   0.0%   0.000       0.000       2.000       2.000       0.000      0.1000E-19   0.000    
     895  0.8950      0.1000E-02 FIXED          0  -0.0%   0.000       0.000       2.000       2.000       0.000      0.1000E-19   0.000    
     896  0.8960      0.1000E-02 FIXED          0   0.0%   0.000       0.000       2.000       2.000       0.000      0.1000E-19   0.000    
     897  0.8970      0.1000E-02 FIXED          0  -0.0%   0.000       0.000       2.000       2.000       0.000      0.1000E-19   0.000    
     898  0.8980      0.1000E-02 FIXED          0   0.0%   0.000       0.000       2.000       2.000       0.000      0.1000E-19   0.000    
     899  0.8990      0.1000E-02 FIXED          0   0.0%   0.000       0.000       2.000       2.000       0.000      0.1000E-19   0.000    
     900  0.9000      0.1000E-02 FIXED          0   0.0%   0.000       0.000       2.000       2.000       0.000      0.1000E-19   0.000    
     901  0.9010      0.1000E-02 FIXED          0   0.0%   0.000       0.000       2.000       2.000       0.000      0.1000E-19   0.000    
     902  0.9020      0.1000E-02 FIXED          0  -0.0%   0.000       0.000       2.000       2.000       0.000      0.1000E-19   0.000    
     903  0.9030      0.1000E-02 FIXED          0   0.0%   0.000       0.000       2.000       2.000       0.000      0.1000E-19   0.000    
     904  0.9040      0.1000E-02 FIXED          0  -0.0%   0.000       0.000       2.000       2.000       0.000      0.1000E-19   0.000    
     905  0.9050      0.1000E-02 FIXED          0   0.0%   0.000       0.000       2.000       2.000       0.000      0.1000E-19   0.000    
     906  0.9060      0.1000E-02 FIXED          0  -0.0%   0.000       0.000       2.000       2.000       0.000      0.1000E-19   0.000    
     907  0.9070      0.1000E-02 FIXED          0   0.0%   0.000       0.000       2.000       2.000       0.000      0.1000E-19   0.000    
     908  0.9080      0.1000E-02 FIXED          0  -0.0%   0.000       0.000       2.000       2.000       0.000      0.1000E-19   0.000    
     909  0.9090      0.1000E-02 FIXED          0   0.0%   0.000       0.000       2.000       2.000       0.000      0.1000E-19   0.000    
     910  0.9100      0.1000E-02 FIXED          0   0.0%   0.000       0.000       2.000       2.000       0.000      0.1000E-19   0.000    
     911  0.9110      0.1000E-02 FIXED          0   0.0%   0.000       0.000       2.000       2.000       0.000      0.1000E-19   0.000    
     912  0.9120      0.1000E-02 FIXED          0  -0.0%   0.000       0.000       2.000       2.000       0.000      0.1000E-19   0.000    
     913  0.9130      0.1000E-02 FIXED          0  -0.0%   0.000       0.000       2.000       2.000       0.000      0.1000E-19   0.000    
     914  0.9140      0.1000E-02 FIXED          0  -0.0%   0.000       0.000       2.000       2.000       0.000      0.1000E-19   0.000    
     915  0.9150      0.1000E-02 FIXED          0   0.0%   0.000       0.000       2.000       2.000       0.000      0.1000E-19   0.000    
     916  0.9160      0.1000E-02 FIXED          0   0.0%   0.000       0.000       2.000       2.000       0.000      0.1000E-19   0.000    
     917  0.9170      0.1000E-02 FIXED          0  -0.0%   0.000       0.000       2.000       2.000       0.000      0.1000E-19   0.000    
     918  0.9180      0.1000E-02 FIXED          0   0.0%   0.000       0.000       2.000       2.000       0.000      0.1000E-19   0.000    
     919  0.9190      0.1000E-02 FIXED          0   0.0%   0.000       0.000       2.000       2.000       0.000      0.1000E-19   0.000    
     920  0.9200      0.1000E-02 FIXED          0  -0.0%   0.000       0.000       2.000       2.000       0.000      0.1000E-19   0.000    
     921  0.9210      0.1000E-02 FIXED          0   0.0%   0.000       0.000       2.000       2.000       0.000      0.1000E-19   0.000    
     922  0.9220      0.1000E-02 FIXED          0  -0.0%   0.000       0.000       2.000       2.000       0.000      0.1000E-19   0.000    
     923  0.9230      0.1000E-02 FIXED          0   0.0%   0.000       0.000       2.000       2.000       0.000      0.1000E-19   0.000    
     924  0.9240      0.1000E-02 FIXED          0   0.0%   0.000       0.000       2.000       2.000       0.000      0.1000E-19   0.000    
     925  0.9250      0.1000E-02 FIXED          0  -0.0%   0.000       0.000       2.000       2.000       0.000      0.1000E-19   0.000    
     926  0.9260      0.1000E-02 FIXED          0   0.0%   0.000       0.000       2.000       2.000       0.000      0.1000E-19   0.000    
     927  0.9270      0.1000E-02 FIXED          0  -0.0%   0.000       0.000       2.000       2.000       0.000      0.1000E-19   0.000    
     928  0.9280      0.1000E-02 FIXED          0   0.0%   0.000       0.000       2.000       2.000       0.000      0.1000E-19   0.000    
     929  0.9290      0.1000E-02 FIXED          0   0.0%   0.000       0.000       2.000       2.000       0.000      0.1000E-19   0.000    
     930  0.9300      0.1000E-02 FIXED          0   0.0%   0.000       0.000       2.000       2.000       0.000      0.1000E-19   0.000    
     931  0.9310      0.1000E-02 FIXED          0  -0.0%   0.000       0.000       2.000       2.000       0.000      0.1000E-19   0.000    
     932  0.9320      0.1000E-02 FIXED          0   0.0%   0.000       0.000       2.000       2.000       0.000      0.1000E-19   0.000    
     933  0.9330      0.1000E-02 FIXED          0   0.0%   0.000       0.000       2.000       2.000       0.000      0.1000E-19   0.000    
     934  0.9340      0.1000E-02 FIXED          0   0.0%   0.000       0.000       2.000       2.000       0.000      0.1000E-19   0.000    
   CYCLE    TIME      TIME-STEP  ELEMENT          ERROR  I-ENERGY    K-ENERGY T  K-ENERGY R  EXT-WORK     MAS.ERR     TOTAL MASS  MASS ADDED
     935  0.9350      0.1000E-02 FIXED          0   0.0%   0.000       0.000       2.000       2.000       0.000      0.1000E-19   0.000    
     936  0.9360      0.1000E-02 FIXED          0   0.0%   0.000       0.000       2.000       2.000       0.000      0.1000E-19   0.000    
     937  0.9370      0.1000E-02 FIXED          0   0.0%   0.000       0.000       2.000       2.000       0.000      0.1000E-19   0.000    
     938  0.9380      0.1000E-02 FIXED          0   0.0%   0.000       0.000       2.000       2.000       0.000      0.1000E-19   0.000    
     939  0.9390      0.1000E-02 FIXED          0   0.0%   0.000       0.000       2.000       2.000       0.000      0.1000E-19   0.000    
     940  0.9400      0.1000E-02 FIXED          0   0.0%   0.000       0.000       2.000       2.000       0.000      0.1000E-19   0.000    
     941  0.9410      0.1000E-02 FIXED          0   0.0%   0.000       0.000       2.000       2.000       0.000      0.1000E-19   0.000    
     942  0.9420      0.1000E-02 FIXED          0   0.0%   0.000       0.000       2.000       2.000       0.000      0.1000E-19   0.000    
     943  0.9430      0.1000E-02 FIXED          0  -0.0%   0.000       0.000       2.000       2.000       0.000      0.1000E-19   0.000    
     944  0.9440      0.1000E-02 FIXED          0   0.0%   0.000       0.000       2.000       2.000       0.000      0.1000E-19   0.000    
     945  0.9450      0.1000E-02 FIXED          0  -0.0%   0.000       0.000       2.000       2.000       0.000      0.1000E-19   0.000    
     946  0.9460      0.1000E-02 FIXED          0  -0.0%   0.000       0.000       2.000       2.000       0.000      0.1000E-19   0.000    
     947  0.9470      0.1000E-02 FIXED          0   0.0%   0.000       0.000       2.000       2.000       0.000      0.1000E-19   0.000    
     948  0.9480      0.1000E-02 FIXED          0   0.0%   0.000       0.000       2.000       2.000       0.000      0.1000E-19   0.000    
     949  0.9490      0.1000E-02 FIXED          0   0.0%   0.000       0.000       2.000       2.000       0.000      0.1000E-19   0.000    
     950  0.9500      0.1000E-02 FIXED          0  -0.0%   0.000       0.000       2.000       2.000       0.000      0.1000E-19   0.000    
     951  0.9510      0.1000E-02 FIXED          0  -0.0%   0.000       0.000       2.000       2.000       0.000      0.1000E-19   0.000    
     952  0.9520      0.1000E-02 FIXED          0  -0.0%   0.000       0.000       2.000       2.000       0.000      0.1000E-19   0.000    
     953  0.9530      0.1000E-02 FIXED          0  -0.0%   0.000       0.000       2.000       2.000       0.000      0.1000E-19   0.000    
     954  0.9540      0.1000E-02 FIXED          0   0.0%   0.000       0.000       2.000       2.000       0.000      0.1000E-19   0.000    
     955  0.9550      0.1000E-02 FIXED          0   0.0%   0.000       0.000       2.000       2.000       0.000      0.1000E-19   0.000    
     956  0.9560      0.1000E-02 FIXED          0  -0.0%   0.000       0.000       2.000       2.000       0.000      0.1000E-19   0.000    
     957  0.9570      0.1000E-02 FIXED          0   0.0%   0.000       0.000       2.000       2.000       0.000      0.1000E-19   0.000    
     958  0.9580      0.1000E-02 FIXED          0  -0.0%   0.000       0.000       2.000       2.000       0.000      0.1000E-19   0.000    
     959  0.9590      0.1000E-02 FIXED          0   0.0%   0.000       0.000       2.000       2.000       0.000      0.1000E-19   0.000    
     960  0.9600      0.1000E-02 FIXED          0  -0.0%   0.000       0.000       2.000       2.000       0.000      0.1000E-19   0.000    
     961  0.9610      0.1000E-02 FIXED          0   0.0%   0.000       0.000       2.000       2.000       0.000      0.1000E-19   0.000    
     962  0.9620      0.1000E-02 FIXED          0  -0.0%   0.000       0.000       2.000       2.000       0.000      0.1000E-19   0.000    
     963  0.9630      0.1000E-02 FIXED          0   0.0%   0.000       0.000       2.000       2.000       0.000      0.1000E-19   0.000    
     964  0.9640      0.1000E-02 FIXED          0  -0.0%   0.000       0.000       2.000       2.000       0.000      0.1000E-19   0.000    
     965  0.9650      0.1000E-02 FIXED          0   0.0%   0.000       0.000       2.000       2.000       0.000      0.1000E-19   0.000    
     966  0.9660      0.1000E-02 FIXED          0   0.0%   0.000       0.000       2.000       2.000       0.000      0.1000E-19   0.000    
     967  0.9670      0.1000E-02 FIXED          0   0.0%   0.000       0.000       2.000       2.000       0.000      0.1000E-19   0.000    
     968  0.9680      0.1000E-02 FIXED          0   0.0%   0.000       0.000       2.000       2.000       0.000      0.1000E-19   0.000    
     969  0.9690      0.1000E-02 FIXED          0   0.0%   0.000       0.000       2.000       2.000       0.000      0.1000E-19   0.000    
     970  0.9700      0.1000E-02 FIXED          0   0.0%   0.000       0.000       2.000       2.000       0.000      0.1000E-19   0.000    
     971  0.9710      0.1000E-02 FIXED          0   0.0%   0.000       0.000       2.000       2.000       0.000      0.1000E-19   0.000    
     972  0.9720      0.1000E-02 FIXED          0   0.0%   0.000       0.000       2.000       2.000       0.000      0.1000E-19   0.000    
     973  0.9730      0.1000E-02 FIXED          0   0.0%   0.000       0.000       2.000       2.000       0.000      0.1000E-19   0.000    
     974  0.9740      0.1000E-02 FIXED          0   0.0%   0.000       0.000       2.000       2.000       0.000      0.1000E-19   0.000    
     975  0.9750      0.1000E-02 FIXED          0  -0.0%   0.000       0.000       2.000       2.000       0.000      0.1000E-19   0.000    
     976  0.9760      0.1000E-02 FIXED          0  -0.0%   0.000       0.000       2.000       2.000       0.000      0.1000E-19   0.000    
     977  0.9770      0.1000E-02 FIXED          0   0.0%   0.000       0.000       2.000       2.000       0.000      0.1000E-19   0.000    
     978  0.9780      0.1000E-02 FIXED          0  -0.0%   0.000       0.000       2.000       2.000       0.000      0.1000E-19   0.000    
     979  0.9790      0.1000E-02 FIXED          0   0.0%   0.000       0.000       2.000       2.000       0.000      0.1000E-19   0.000    
     980  0.9800      0.1000E-02 FIXED          0   0.0%   0.000       0.000       2.000       2.000       0.000      0.1000E-19   0.000    
     981  0.9810      0.1000E-02 FIXED          0   0.0%   0.000       0.000       2.000       2.000       0.000      0.1000E-19   0.000    
     982  0.9820      0.1000E-02 FIXED          0   0.0%   0.000       0.000       2.000       2.000       0.000      0.1000E-19   0.000    
     983  0.9830      0.1000E-02 FIXED          0  -0.0%   0.000       0.000       2.000       2.000       0.000      0.1000E-19   0.000    
     984  0.9840      0.1000E-02 FIXED          0   0.0%   0.000       0.000       2.000       2.000       0.000      0.1000E-19   0.000    
     985  0.9850      0.1000E-02 FIXED          0   0.0%   0.000       0.000       2.000       2.000       0.000      0.1000E-19   0.000    
     986  0.9860      0.1000E-02 FIXED          0  -0.0%   0.000       0.000       2.000       2.000       0.000      0.1000E-19   0.000    
     987  0.9870      0.1000E-02 FIXED          0   0.0%   0.000       0.000       2.000       2.000       0.000      0.1000E-19   0.000    
     988  0.9880      0.1000E-02 FIXED          0  -0.0%   0.000       0.000       2.000       2.000       0.000      0.1000E-19   0.000    
     989  0.9890      0.1000E-02 FIXED          0   0.0%   0.000       0.000       2.000       2.000       0.000      0.1000E-19   0.000    
   CYCLE    TIME      TIME-STEP  ELEMENT          ERROR  I-ENERGY    K-ENERGY T  K-ENERGY R  EXT-WORK     MAS.ERR     TOTAL MASS  MASS ADDED
     990  0.9900      0.1000E-02 FIXED          0  -0.0%   0.000       0.000       2.000       2.000       0.000      0.1000E-19   0.000    
     991  0.9910      0.1000E-02 FIXED          0   0.0%   0.000       0.000       2.000       2.000       0.000      0.1000E-19   0.000    
     992  0.9920      0.1000E-02 FIXED          0  -0.0%   0.000       0.000       2.000       2.000       0.000      0.1000E-19   0.000    
     993  0.9930      0.1000E-02 FIXED          0   0.0%   0.000       0.000       2.000       2.000       0.000      0.1000E-19   0.000    
     994  0.9940      0.1000E-02 FIXED          0   0.0%   0.000       0.000       2.000       2.000       0.000      0.1000E-19   0.000    
     995  0.9950      0.1000E-02 FIXED          0   0.0%   0.000       0.000       2.000       2.000       0.000      0.1000E-19   0.000    
     996  0.9960      0.1000E-02 FIXED          0  -0.0%   0.000       0.000       2.000       2.000       0.000      0.1000E-19   0.000    
     997  0.9970      0.1000E-02 FIXED          0   0.0%   0.000       0.000       2.000       2.000       0.000      0.1000E-19   0.000    
     998  0.9980      0.1000E-02 FIXED          0  -0.0%   0.000       0.000       2.000       2.000       0.000      0.1000E-19   0.000    
     999  0.9990      0.1000E-02 FIXED          0  -0.0%   0.000       0.000       2.000       2.000       0.000      0.1000E-19   0.000    
    1000   1.000      0.1000E-02 FIXED          0  -0.0%   0.000       0.000       2.000       2.000       0.000      0.1000E-19   0.000    
     ANIMATION FILE: BLOCKA002 WRITTEN
    1001   1.001      0.1000E-02 FIXED          0   0.0%   0.000       0.000       2.000       2.000       0.000      0.1000E-19   0.000    
    1002   1.002      0.1000E-02 FIXED          0  -0.0%   0.000       0.000       2.000       2.000       0.000      0.1000E-19   0.000    
    1003   1.003      0.1000E-02 FIXED          0  -0.0%   0.000       0.000       2.000       2.000       0.000      0.1000E-19   0.000    
    1004   1.004      0.1000E-02 FIXED          0   0.0%   0.000       0.000       2.000       2.000       0.000      0.1000E-19   0.000    
    1005   1.005      0.1000E-02 FIXED          0   0.0%   0.000       0.000       2.000       2.000       0.000      0.1000E-19   0.000    
    1006   1.006      0.1000E-02 FIXED          0   0.0%   0.000       0.000       2.000       2.000       0.000      0.1000E-19   0.000    
    1007   1.007      0.1000E-02 FIXED          0  -0.0%   0.000       0.000       2.000       2.000       0.000      0.1000E-19   0.000    
    1008   1.008      0.1000E-02 FIXED          0   0.0%   0.000       0.000       2.000       2.000       0.000      0.1000E-19   0.000    
    1009   1.009      0.1000E-02 FIXED          0   0.0%   0.000       0.000       2.000       2.000       0.000      0.1000E-19   0.000    
    1010   1.010      0.1000E-02 FIXED          0  -0.0%   0.000       0.000       2.000       2.000       0.000      0.1000E-19   0.000    
    1011   1.011      0.1000E-02 FIXED          0  -0.0%   0.000       0.000       2.000       2.000       0.000      0.1000E-19   0.000    
    1012   1.012      0.1000E-02 FIXED          0   0.0%   0.000       0.000       2.000       2.000       0.000      0.1000E-19   0.000    
    1013   1.013      0.1000E-02 FIXED          0   0.0%   0.000       0.000       2.000       2.000       0.000      0.1000E-19   0.000    
    1014   1.014      0.1000E-02 FIXED          0  -0.0%   0.000       0.000       2.000       2.000       0.000      0.1000E-19   0.000    
    1015   1.015      0.1000E-02 FIXED          0   0.0%   0.000       0.000       2.000       2.000       0.000      0.1000E-19   0.000    
    1016   1.016      0.1000E-02 FIXED          0   0.0%   0.000       0.000       2.000       2.000       0.000      0.1000E-19   0.000    
    1017   1.017      0.1000E-02 FIXED          0  -0.0%   0.000       0.000       2.000       2.000       0.000      0.1000E-19   0.000    
    1018   1.018      0.1000E-02 FIXED          0   0.0%   0.000       0.000       2.000       2.000       0.000      0.1000E-19   0.000    
    1019   1.019      0.1000E-02 FIXED          0  -0.0%   0.000       0.000       2.000       2.000       0.000      0.1000E-19   0.000    
    1020   1.020      0.1000E-02 FIXED          0   0.0%   0.000       0.000       2.000       2.000       0.000      0.1000E-19   0.000    
    1021   1.021      0.1000E-02 FIXED          0   0.0%   0.000       0.000       2.000       2.000       0.000      0.1000E-19   0.000    
    1022   1.022      0.1000E-02 FIXED          0  -0.0%   0.000       0.000       2.000       2.000       0.000      0.1000E-19   0.000    
    1023   1.023      0.1000E-02 FIXED          0   0.0%   0.000       0.000       2.000       2.000       0.000      0.1000E-19   0.000    
    1024   1.024      0.1000E-02 FIXED          0   0.0%   0.000       0.000       2.000       2.000       0.000      0.1000E-19   0.000    
    1025   1.025      0.1000E-02 FIXED          0   0.0%   0.000       0.000       2.000       2.000       0.000      0.1000E-19   0.000    
    1026   1.026      0.1000E-02 FIXED          0  -0.0%   0.000       0.000       2.000       2.000       0.000      0.1000E-19   0.000    
    1027   1.027      0.1000E-02 FIXED          0   0.0%   0.000       0.000       2.000       2.000       0.000      0.1000E-19   0.000    
    1028   1.028      0.1000E-02 FIXED          0   0.0%   0.000       0.000       2.000       2.000       0.000      0.1000E-19   0.000    
    1029   1.029      0.1000E-02 FIXED          0  -0.0%   0.000       0.000       2.000       2.000       0.000      0.1000E-19   0.000    
    1030   1.030      0.1000E-02 FIXED          0   0.0%   0.000       0.000       2.000       2.000       0.000      0.1000E-19   0.000    
    1031   1.031      0.1000E-02 FIXED          0   0.0%   0.000       0.000       2.000       2.000       0.000      0.1000E-19   0.000    
    1032   1.032      0.1000E-02 FIXED          0  -0.0%   0.000       0.000       2.000       2.000       0.000      0.1000E-19   0.000    
    1033   1.033      0.1000E-02 FIXED          0   0.0%   0.000       0.000       2.000       2.000       0.000      0.1000E-19   0.000    
    1034   1.034      0.1000E-02 FIXED          0   0.0%   0.000       0.000       2.000       2.000       0.000      0.1000E-19   0.000    
    1035   1.035      0.1000E-02 FIXED          0  -0.0%   0.000       0.000       2.000       2.000       0.000      0.1000E-19   0.000    
    1036   1.036      0.1000E-02 FIXED          0   0.0%   0.000       0.000       2.000       2.000       0.000      0.1000E-19   0.000    
    1037   1.037      0.1000E-02 FIXED          0   0.0%   0.000       0.000       2.000       2.000       0.000      0.1000E-19   0.000    
    1038   1.038      0.1000E-02 FIXED          0  -0.0%   0.000       0.000       2.000       2.000       0.000      0.1000E-19   0.000    
    1039   1.039      0.1000E-02 FIXED          0  -0.0%   0.000       0.000       2.000       2.000       0.000      0.1000E-19   0.000    
    1040   1.040      0.1000E-02 FIXED          0   0.0%   0.000       0.000       2.000       2.000       0.000      0.1000E-19   0.000    
    1041   1.041      0.1000E-02 FIXED          0   0.0%   0.000       0.000       2.000       2.000       0.000      0.1000E-19   0.000    
    1042   1.042      0.1000E-02 FIXED          0   0.0%   0.000       0.000       2.000       2.000       0.000      0.1000E-19   0.000    
    1043   1.043      0.1000E-02 FIXED          0  -0.0%   0.000       0.000       2.000       2.000       0.000      0.1000E-19   0.000    
    1044   1.044      0.1000E-02 FIXED          0   0.0%   0.000       0.000       2.000       2.000       0.000      0.1000E-19   0.000    
   CYCLE    TIME      TIME-STEP  ELEMENT          ERROR  I-ENERGY    K-ENERGY T  K-ENERGY R  EXT-WORK     MAS.ERR     TOTAL MASS  MASS ADDED
    1045   1.045      0.1000E-02 FIXED          0  -0.0%   0.000       0.000       2.000       2.000       0.000      0.1000E-19   0.000    
    1046   1.046      0.1000E-02 FIXED          0   0.0%   0.000       0.000       2.000       2.000       0.000      0.1000E-19   0.000    
    1047   1.047      0.1000E-02 FIXED          0   0.0%   0.000       0.000       2.000       2.000       0.000      0.1000E-19   0.000    
    1048   1.048      0.1000E-02 FIXED          0   0.0%   0.000       0.000       2.000       2.000       0.000      0.1000E-19   0.000    
    1049   1.049      0.1000E-02 FIXED          0  -0.0%   0.000       0.000       2.000       2.000       0.000      0.1000E-19   0.000    
    1050   1.050      0.1000E-02 FIXED          0   0.0%   0.000       0.000       2.000       2.000       0.000      0.1000E-19   0.000    
    1051   1.051      0.1000E-02 FIXED          0   0.0%   0.000       0.000       2.000       2.000       0.000      0.1000E-19   0.000    
    1052   1.052      0.1000E-02 FIXED          0   0.0%   0.000       0.000       2.000       2.000       0.000      0.1000E-19   0.000    
    1053   1.053      0.1000E-02 FIXED          0   0.0%   0.000       0.000       2.000       2.000       0.000      0.1000E-19   0.000    
    1054   1.054      0.1000E-02 FIXED          0  -0.0%   0.000       0.000       2.000       2.000       0.000      0.1000E-19   0.000    
    1055   1.055      0.1000E-02 FIXED          0   0.0%   0.000       0.000       2.000       2.000       0.000      0.1000E-19   0.000    
    1056   1.056      0.1000E-02 FIXED          0   0.0%   0.000       0.000       2.000       2.000       0.000      0.1000E-19   0.000    
    1057   1.057      0.1000E-02 FIXED          0   0.0%   0.000       0.000       2.000       2.000       0.000      0.1000E-19   0.000    
    1058   1.058      0.1000E-02 FIXED          0   0.0%   0.000       0.000       2.000       2.000       0.000      0.1000E-19   0.000    
    1059   1.059      0.1000E-02 FIXED          0   0.0%   0.000       0.000       2.000       2.000       0.000      0.1000E-19   0.000    
    1060   1.060      0.1000E-02 FIXED          0   0.0%   0.000       0.000       2.000       2.000       0.000      0.1000E-19   0.000    
    1061   1.061      0.1000E-02 FIXED          0  -0.0%   0.000       0.000       2.000       2.000       0.000      0.1000E-19   0.000    
    1062   1.062      0.1000E-02 FIXED          0  -0.0%   0.000       0.000       2.000       2.000       0.000      0.1000E-19   0.000    
    1063   1.063      0.1000E-02 FIXED          0   0.0%   0.000       0.000       2.000       2.000       0.000      0.1000E-19   0.000    
    1064   1.064      0.1000E-02 FIXED          0  -0.0%   0.000       0.000       2.000       2.000       0.000      0.1000E-19   0.000    
    1065   1.065      0.1000E-02 FIXED          0   0.0%   0.000       0.000       2.000       2.000       0.000      0.1000E-19   0.000    
    1066   1.066      0.1000E-02 FIXED          0   0.0%   0.000       0.000       2.000       2.000       0.000      0.1000E-19   0.000    
    1067   1.067      0.1000E-02 FIXED          0  -0.0%   0.000       0.000       2.000       2.000       0.000      0.1000E-19   0.000    
    1068   1.068      0.1000E-02 FIXED          0   0.0%   0.000       0.000       2.000       2.000       0.000      0.1000E-19   0.000    
    1069   1.069      0.1000E-02 FIXED          0  -0.0%   0.000       0.000       2.000       2.000       0.000      0.1000E-19   0.000    
    1070   1.070      0.1000E-02 FIXED          0  -0.0%   0.000       0.000       2.000       2.000       0.000      0.1000E-19   0.000    
    1071   1.071      0.1000E-02 FIXED          0  -0.0%   0.000       0.000       2.000       2.000       0.000      0.1000E-19   0.000    
    1072   1.072      0.1000E-02 FIXED          0   0.0%   0.000       0.000       2.000       2.000       0.000      0.1000E-19   0.000    
    1073   1.073      0.1000E-02 FIXED          0   0.0%   0.000       0.000       2.000       2.000       0.000      0.1000E-19   0.000    
    1074   1.074      0.1000E-02 FIXED          0  -0.0%   0.000       0.000       2.000       2.000       0.000      0.1000E-19   0.000    
    1075   1.075      0.1000E-02 FIXED          0   0.0%   0.000       0.000       2.000       2.000       0.000      0.1000E-19   0.000    
    1076   1.076      0.1000E-02 FIXED          0   0.0%   0.000       0.000       2.000       2.000       0.000      0.1000E-19   0.000    
    1077   1.077      0.1000E-02 FIXED          0  -0.0%   0.000       0.000       2.000       2.000       0.000      0.1000E-19   0.000    
    1078   1.078      0.1000E-02 FIXED          0   0.0%   0.000       0.000       2.000       2.000       0.000      0.1000E-19   0.000    
    1079   1.079      0.1000E-02 FIXED          0  -0.0%   0.000       0.000       2.000       2.000       0.000      0.1000E-19   0.000    
    1080   1.080      0.1000E-02 FIXED          0   0.0%   0.000       0.000       2.000       2.000       0.000      0.1000E-19   0.000    
    1081   1.081      0.1000E-02 FIXED          0  -0.0%   0.000       0.000       2.000       2.000       0.000      0.1000E-19   0.000    
    1082   1.082      0.1000E-02 FIXED          0   0.0%   0.000       0.000       2.000       2.000       0.000      0.1000E-19   0.000    
    1083   1.083      0.1000E-02 FIXED          0  -0.0%   0.000       0.000       2.000       2.000       0.000      0.1000E-19   0.000    
    1084   1.084      0.1000E-02 FIXED          0  -0.0%   0.000       0.000       2.000       2.000       0.000      0.1000E-19   0.000    
    1085   1.085      0.1000E-02 FIXED          0   0.0%   0.000       0.000       2.000       2.000       0.000      0.1000E-19   0.000    
    1086   1.086      0.1000E-02 FIXED          0   0.0%   0.000       0.000       2.000       2.000       0.000      0.1000E-19   0.000    
    1087   1.087      0.1000E-02 FIXED          0   0.0%   0.000       0.000       2.000       2.000       0.000      0.1000E-19   0.000    
    1088   1.088      0.1000E-02 FIXED          0   0.0%   0.000       0.000       2.000       2.000       0.000      0.1000E-19   0.000    
    1089   1.089      0.1000E-02 FIXED          0   0.0%   0.000       0.000       2.000       2.000       0.000      0.1000E-19   0.000    
    1090   1.090      0.1000E-02 FIXED          0  -0.0%   0.000       0.000       2.000       2.000       0.000      0.1000E-19   0.000    
    1091   1.091      0.1000E-02 FIXED          0   0.0%   0.000       0.000       2.000       2.000       0.000      0.1000E-19   0.000    
    1092   1.092      0.1000E-02 FIXED          0   0.0%   0.000       0.000       2.000       2.000       0.000      0.1000E-19   0.000    
    1093   1.093      0.1000E-02 FIXED          0  -0.0%   0.000       0.000       2.000       2.000       0.000      0.1000E-19   0.000    
    1094   1.094      0.1000E-02 FIXED          0   0.0%   0.000       0.000       2.000       2.000       0.000      0.1000E-19   0.000    
    1095   1.095      0.1000E-02 FIXED          0   0.0%   0.000       0.000       2.000       2.000       0.000      0.1000E-19   0.000    
    1096   1.096      0.1000E-02 FIXED          0   0.0%   0.000       0.000       2.000       2.000       0.000      0.1000E-19   0.000    
    1097   1.097      0.1000E-02 FIXED          0   0.0%   0.000       0.000       2.000       2.000       0.000      0.1000E-19   0.000    
    1098   1.098      0.1000E-02 FIXED          0  -0.0%   0.000       0.000       2.000       2.000       0.000      0.1000E-19   0.000    
    1099   1.099      0.1000E-02 FIXED          0   0.0%   0.000       0.000       2.000       2.000       0.000      0.1000E-19   0.000    
   CYCLE    TIME      TIME-STEP  ELEMENT          ERROR  I-ENERGY    K-ENERGY T  K-ENERGY R  EXT-WORK     MAS.ERR     TOTAL MASS  MASS ADDED
    1100   1.100      0.1000E-02 FIXED          0  -0.0%   0.000       0.000       2.000       2.000       0.000      0.1000E-19   0.000    
    1101   1.101      0.1000E-02 FIXED          0   0.0%   0.000       0.000       2.000       2.000       0.000      0.1000E-19   0.000    
    1102   1.102      0.1000E-02 FIXED          0  -0.0%   0.000       0.000       2.000       2.000       0.000      0.1000E-19   0.000    
    1103   1.103      0.1000E-02 FIXED          0   0.0%   0.000       0.000       2.000       2.000       0.000      0.1000E-19   0.000    
    1104   1.104      0.1000E-02 FIXED          0  -0.0%   0.000       0.000       2.000       2.000       0.000      0.1000E-19   0.000    
    1105   1.105      0.1000E-02 FIXED          0   0.0%   0.000       0.000       2.000       2.000       0.000      0.1000E-19   0.000    
    1106   1.106      0.1000E-02 FIXED          0   0.0%   0.000       0.000       2.000       2.000       0.000      0.1000E-19   0.000    
    1107   1.107      0.1000E-02 FIXED          0   0.0%   0.000       0.000       2.000       2.000       0.000      0.1000E-19   0.000    
    1108   1.108      0.1000E-02 FIXED          0  -0.0%   0.000       0.000       2.000       2.000       0.000      0.1000E-19   0.000    
    1109   1.109      0.1000E-02 FIXED          0   0.0%   0.000       0.000       2.000       2.000       0.000      0.1000E-19   0.000    
    1110   1.110      0.1000E-02 FIXED          0  -0.0%   0.000       0.000       2.000       2.000       0.000      0.1000E-19   0.000    
    1111   1.111      0.1000E-02 FIXED          0   0.0%   0.000       0.000       2.000       2.000       0.000      0.1000E-19   0.000    
    1112   1.112      0.1000E-02 FIXED          0   0.0%   0.000       0.000       2.000       2.000       0.000      0.1000E-19   0.000    
    1113   1.113      0.1000E-02 FIXED          0   0.0%   0.000       0.000       2.000       2.000       0.000      0.1000E-19   0.000    
    1114   1.114      0.1000E-02 FIXED          0   0.0%   0.000       0.000       2.000       2.000       0.000      0.1000E-19   0.000    
    1115   1.115      0.1000E-02 FIXED          0  -0.0%   0.000       0.000       2.000       2.000       0.000      0.1000E-19   0.000    
    1116   1.116      0.1000E-02 FIXED          0   0.0%   0.000       0.000       2.000       2.000       0.000      0.1000E-19   0.000    
    1117   1.117      0.1000E-02 FIXED          0  -0.0%   0.000       0.000       2.000       2.000       0.000      0.1000E-19   0.000    
    1118   1.118      0.1000E-02 FIXED          0   0.0%   0.000       0.000       2.000       2.000       0.000      0.1000E-19   0.000    
    1119   1.119      0.1000E-02 FIXED          0  -0.0%   0.000       0.000       2.000       2.000       0.000      0.1000E-19   0.000    
    1120   1.120      0.1000E-02 FIXED          0   0.0%   0.000       0.000       2.000       2.000       0.000      0.1000E-19   0.000    
    1121   1.121      0.1000E-02 FIXED          0   0.0%   0.000       0.000       2.000       2.000       0.000      0.1000E-19   0.000    
    1122   1.122      0.1000E-02 FIXED          0  -0.0%   0.000       0.000       2.000       2.000       0.000      0.1000E-19   0.000    
    1123   1.123      0.1000E-02 FIXED          0   0.0%   0.000       0.000       2.000       2.000       0.000      0.1000E-19   0.000    
    1124   1.124      0.1000E-02 FIXED          0   0.0%   0.000       0.000       2.000       2.000       0.000      0.1000E-19   0.000    
    1125   1.125      0.1000E-02 FIXED          0  -0.0%   0.000       0.000       2.000       2.000       0.000      0.1000E-19   0.000    
    1126   1.126      0.1000E-02 FIXED          0  -0.0%   0.000       0.000       2.000       2.000       0.000      0.1000E-19   0.000    
    1127   1.127      0.1000E-02 FIXED          0  -0.0%   0.000       0.000       2.000       2.000       0.000      0.1000E-19   0.000    
    1128   1.128      0.1000E-02 FIXED          0  -0.0%   0.000       0.000       2.000       2.000       0.000      0.1000E-19   0.000    
    1129   1.129      0.1000E-02 FIXED          0   0.0%   0.000       0.000       2.000       2.000       0.000      0.1000E-19   0.000    
    1130   1.130      0.1000E-02 FIXED          0  -0.0%   0.000       0.000       2.000       2.000       0.000      0.1000E-19   0.000    
    1131   1.131      0.1000E-02 FIXED          0   0.0%   0.000       0.000       2.000       2.000       0.000      0.1000E-19   0.000    
    1132   1.132      0.1000E-02 FIXED          0   0.0%   0.000       0.000       2.000       2.000       0.000      0.1000E-19   0.000    
    1133   1.133      0.1000E-02 FIXED          0  -0.0%   0.000       0.000       2.000       2.000       0.000      0.1000E-19   0.000    
    1134   1.134      0.1000E-02 FIXED          0   0.0%   0.000       0.000       2.000       2.000       0.000      0.1000E-19   0.000    
    1135   1.135      0.1000E-02 FIXED          0  -0.0%   0.000       0.000       2.000       2.000       0.000      0.1000E-19   0.000    
    1136   1.136      0.1000E-02 FIXED          0  -0.0%   0.000       0.000       2.000       2.000       0.000      0.1000E-19   0.000    
    1137   1.137      0.1000E-02 FIXED          0  -0.0%   0.000       0.000       2.000       2.000       0.000      0.1000E-19   0.000    
    1138   1.138      0.1000E-02 FIXED          0   0.0%   0.000       0.000       2.000       2.000       0.000      0.1000E-19   0.000    
    1139   1.139      0.1000E-02 FIXED          0   0.0%   0.000       0.000       2.000       2.000       0.000      0.1000E-19   0.000    
    1140   1.140      0.1000E-02 FIXED          0   0.0%   0.000       0.000       2.000       2.000       0.000      0.1000E-19   0.000    
    1141   1.141      0.1000E-02 FIXED          0  -0.0%   0.000       0.000       2.000       2.000       0.000      0.1000E-19   0.000    
    1142   1.142      0.1000E-02 FIXED          0  -0.0%   0.000       0.000       2.000       2.000       0.000      0.1000E-19   0.000    
    1143   1.143      0.1000E-02 FIXED          0  -0.0%   0.000       0.000       2.000       2.000       0.000      0.1000E-19   0.000    
    1144   1.144      0.1000E-02 FIXED          0  -0.0%   0.000       0.000       2.000       2.000       0.000      0.1000E-19   0.000    
    1145   1.145      0.1000E-02 FIXED          0   0.0%   0.000       0.000       2.000       2.000       0.000      0.1000E-19   0.000    
    1146   1.146      0.1000E-02 FIXED          0  -0.0%   0.000       0.000       2.000       2.000       0.000      0.1000E-19   0.000    
    1147   1.147      0.1000E-02 FIXED          0   0.0%   0.000       0.000       2.000       2.000       0.000      0.1000E-19   0.000    
    1148   1.148      0.1000E-02 FIXED          0   0.0%   0.000       0.000       2.000       2.000       0.000      0.1000E-19   0.000    
    1149   1.149      0.1000E-02 FIXED          0  -0.0%   0.000       0.000       2.000       2.000       0.000      0.1000E-19   0.000    
    1150   1.150      0.1000E-02 FIXED          0   0.0%   0.000       0.000       2.000       2.000       0.000      0.1000E-19   0.000    
    1151   1.151      0.1000E-02 FIXED          0  -0.0%   0.000       0.000       2.000       2.000       0.000      0.1000E-19   0.000    
    1152   1.152      0.1000E-02 FIXED          0   0.0%   0.000       0.000       2.000       2.000       0.000      0.1000E-19   0.000    
    1153   1.153      0.1000E-02 FIXED          0   0.0%   0.000       0.000       2.000       2.000       0.000      0.1000E-19   0.000    
    1154   1.154      0.1000E-02 FIXED          0  -0.0%   0.000       0.000       2.000       2.000       0.000      0.1000E-19   0.000    
   CYCLE    TIME      TIME-STEP  ELEMENT          ERROR  I-ENERGY    K-ENERGY T  K-ENERGY R  EXT-WORK     MAS.ERR     TOTAL MASS  MASS ADDED
    1155   1.155      0.1000E-02 FIXED          0   0.0%   0.000       0.000       2.000       2.000       0.000      0.1000E-19   0.000    
    1156   1.156      0.1000E-02 FIXED          0   0.0%   0.000       0.000       2.000       2.000       0.000      0.1000E-19   0.000    
    1157   1.157      0.1000E-02 FIXED          0  -0.0%   0.000       0.000       2.000       2.000       0.000      0.1000E-19   0.000    
    1158   1.158      0.1000E-02 FIXED          0  -0.0%   0.000       0.000       2.000       2.000       0.000      0.1000E-19   0.000    
    1159   1.159      0.1000E-02 FIXED          0   0.0%   0.000       0.000       2.000       2.000       0.000      0.1000E-19   0.000    
    1160   1.160      0.1000E-02 FIXED          0   0.0%   0.000       0.000       2.000       2.000       0.000      0.1000E-19   0.000    
    1161   1.161      0.1000E-02 FIXED          0   0.0%   0.000       0.000       2.000       2.000       0.000      0.1000E-19   0.000    
    1162   1.162      0.1000E-02 FIXED          0   0.0%   0.000       0.000       2.000       2.000       0.000      0.1000E-19   0.000    
    1163   1.163      0.1000E-02 FIXED          0  -0.0%   0.000       0.000       2.000       2.000       0.000      0.1000E-19   0.000    
    1164   1.164      0.1000E-02 FIXED          0   0.0%   0.000       0.000       2.000       2.000       0.000      0.1000E-19   0.000    
    1165   1.165      0.1000E-02 FIXED          0  -0.0%   0.000       0.000       2.000       2.000       0.000      0.1000E-19   0.000    
    1166   1.166      0.1000E-02 FIXED          0  -0.0%   0.000       0.000       2.000       2.000       0.000      0.1000E-19   0.000    
    1167   1.167      0.1000E-02 FIXED          0   0.0%   0.000       0.000       2.000       2.000       0.000      0.1000E-19   0.000    
    1168   1.168      0.1000E-02 FIXED          0  -0.0%   0.000       0.000       2.000       2.000       0.000      0.1000E-19   0.000    
    1169   1.169      0.1000E-02 FIXED          0   0.0%   0.000       0.000       2.000       2.000       0.000      0.1000E-19   0.000    
    1170   1.170      0.1000E-02 FIXED          0   0.0%   0.000       0.000       2.000       2.000       0.000      0.1000E-19   0.000    
    1171   1.171      0.1000E-02 FIXED          0  -0.0%   0.000       0.000       2.000       2.000       0.000      0.1000E-19   0.000    
    1172   1.172      0.1000E-02 FIXED          0   0.0%   0.000       0.000       2.000       2.000       0.000      0.1000E-19   0.000    
    1173   1.173      0.1000E-02 FIXED          0  -0.0%   0.000       0.000       2.000       2.000       0.000      0.1000E-19   0.000    
    1174   1.174      0.1000E-02 FIXED          0  -0.0%   0.000       0.000       2.000       2.000       0.000      0.1000E-19   0.000    
    1175   1.175      0.1000E-02 FIXED          0   0.0%   0.000       0.000       2.000       2.000       0.000      0.1000E-19   0.000    
    1176   1.176      0.1000E-02 FIXED          0   0.0%   0.000       0.000       2.000       2.000       0.000      0.1000E-19   0.000    
    1177   1.177      0.1000E-02 FIXED          0   0.0%   0.000       0.000       2.000       2.000       0.000      0.1000E-19   0.000    
    1178   1.178      0.1000E-02 FIXED          0  -0.0%   0.000       0.000       2.000       2.000       0.000      0.1000E-19   0.000    
    1179   1.179      0.1000E-02 FIXED          0   0.0%   0.000       0.000       2.000       2.000       0.000      0.1000E-19   0.000    
    1180   1.180      0.1000E-02 FIXED          0  -0.0%   0.000       0.000       2.000       2.000       0.000      0.1000E-19   0.000    
    1181   1.181      0.1000E-02 FIXED          0  -0.0%   0.000       0.000       2.000       2.000       0.000      0.1000E-19   0.000    
    1182   1.182      0.1000E-02 FIXED          0  -0.0%   0.000       0.000       2.000       2.000       0.000      0.1000E-19   0.000    
    1183   1.183      0.1000E-02 FIXED          0   0.0%   0.000       0.000       2.000       2.000       0.000      0.1000E-19   0.000    
    1184   1.184      0.1000E-02 FIXED          0  -0.0%   0.000       0.000       2.000       2.000       0.000      0.1000E-19   0.000    
    1185   1.185      0.1000E-02 FIXED          0   0.0%   0.000       0.000       2.000       2.000       0.000      0.1000E-19   0.000    
    1186   1.186      0.1000E-02 FIXED          0   0.0%   0.000       0.000       2.000       2.000       0.000      0.1000E-19   0.000    
    1187   1.187      0.1000E-02 FIXED          0   0.0%   0.000       0.000       2.000       2.000       0.000      0.1000E-19   0.000    
    1188   1.188      0.1000E-02 FIXED          0   0.0%   0.000       0.000       2.000       2.000       0.000      0.1000E-19   0.000    
    1189   1.189      0.1000E-02 FIXED          0   0.0%   0.000       0.000       2.000       2.000       0.000      0.1000E-19   0.000    
    1190   1.190      0.1000E-02 FIXED          0  -0.0%   0.000       0.000       2.000       2.000       0.000      0.1000E-19   0.000    
    1191   1.191      0.1000E-02 FIXED          0   0.0%   0.000       0.000       2.000       2.000       0.000      0.1000E-19   0.000    
    1192   1.192      0.1000E-02 FIXED          0   0.0%   0.000       0.000       2.000       2.000       0.000      0.1000E-19   0.000    
    1193   1.193      0.1000E-02 FIXED          0  -0.0%   0.000       0.000       2.000       2.000       0.000      0.1000E-19   0.000    
    1194   1.194      0.1000E-02 FIXED          0   0.0%   0.000       0.000       2.000       2.000       0.000      0.1000E-19   0.000    
    1195   1.195      0.1000E-02 FIXED          0  -0.0%   0.000       0.000       2.000       2.000       0.000      0.1000E-19   0.000    
    1196   1.196      0.1000E-02 FIXED          0  -0.0%   0.000       0.000       2.000       2.000       0.000      0.1000E-19   0.000    
    1197   1.197      0.1000E-02 FIXED          0   0.0%   0.000       0.000       2.000       2.000       0.000      0.1000E-19   0.000    
    1198   1.198      0.1000E-02 FIXED          0  -0.0%   0.000       0.000       2.000       2.000       0.000      0.1000E-19   0.000    
    1199   1.199      0.1000E-02 FIXED          0   0.0%   0.000       0.000       2.000       2.000       0.000      0.1000E-19   0.000    
    1200   1.200      0.1000E-02 FIXED          0   0.0%   0.000       0.000       2.000       2.000       0.000      0.1000E-19   0.000    
    1201   1.201      0.1000E-02 FIXED          0  -0.0%   0.000       0.000       2.000       2.000       0.000      0.1000E-19   0.000    
    1202   1.202      0.1000E-02 FIXED          0  -0.0%   0.000       0.000       2.000       2.000       0.000      0.1000E-19   0.000    
    1203   1.203      0.1000E-02 FIXED          0   0.0%   0.000       0.000       2.000       2.000       0.000      0.1000E-19   0.000    
    1204   1.204      0.1000E-02 FIXED          0   0.0%   0.000       0.000       2.000       2.000       0.000      0.1000E-19   0.000    
    1205   1.205      0.1000E-02 FIXED          0  -0.0%   0.000       0.000       2.000       2.000       0.000      0.1000E-19   0.000    
    1206   1.206      0.1000E-02 FIXED          0   0.0%   0.000       0.000       2.000       2.000       0.000      0.1000E-19   0.000    
    1207   1.207      0.1000E-02 FIXED          0   0.0%   0.000       0.000       2.000       2.000       0.000      0.1000E-19   0.000    
    1208   1.208      0.1000E-02 FIXED          0  -0.0%   0.000       0.000       2.000       2.000       0.000      0.1000E-19   0.000    
    1209   1.209      0.1000E-02 FIXED          0   0.0%   0.000       0.000       2.000       2.000       0.000      0.1000E-19   0.000    
   CYCLE    TIME      TIME-STEP  ELEMENT          ERROR  I-ENERGY    K-ENERGY T  K-ENERGY R  EXT-WORK     MAS.ERR     TOTAL MASS  MASS ADDED
    1210   1.210      0.1000E-02 FIXED          0   0.0%   0.000       0.000       2.000       2.000       0.000      0.1000E-19   0.000    
    1211   1.211      0.1000E-02 FIXED          0   0.0%   0.000       0.000       2.000       2.000       0.000      0.1000E-19   0.000    
    1212   1.212      0.1000E-02 FIXED          0   0.0%   0.000       0.000       2.000       2.000       0.000      0.1000E-19   0.000    
    1213   1.213      0.1000E-02 FIXED          0  -0.0%   0.000       0.000       2.000       2.000       0.000      0.1000E-19   0.000    
    1214   1.214      0.1000E-02 FIXED          0   0.0%   0.000       0.000       2.000       2.000       0.000      0.1000E-19   0.000    
    1215   1.215      0.1000E-02 FIXED          0   0.0%   0.000       0.000       2.000       2.000       0.000      0.1000E-19   0.000    
    1216   1.216      0.1000E-02 FIXED          0   0.0%   0.000       0.000       2.000       2.000       0.000      0.1000E-19   0.000    
    1217   1.217      0.1000E-02 FIXED          0  -0.0%   0.000       0.000       2.000       2.000       0.000      0.1000E-19   0.000    
    1218   1.218      0.1000E-02 FIXED          0   0.0%   0.000       0.000       2.000       2.000       0.000      0.1000E-19   0.000    
    1219   1.219      0.1000E-02 FIXED          0  -0.0%   0.000       0.000       2.000       2.000       0.000      0.1000E-19   0.000    
    1220   1.220      0.1000E-02 FIXED          0   0.0%   0.000       0.000       2.000       2.000       0.000      0.1000E-19   0.000    
    1221   1.221      0.1000E-02 FIXED          0  -0.0%   0.000       0.000       2.000       2.000       0.000      0.1000E-19   0.000    
    1222   1.222      0.1000E-02 FIXED          0   0.0%   0.000       0.000       2.000       2.000       0.000      0.1000E-19   0.000    
    1223   1.223      0.1000E-02 FIXED          0   0.0%   0.000       0.000       2.000       2.000       0.000      0.1000E-19   0.000    
    1224   1.224      0.1000E-02 FIXED          0  -0.0%   0.000       0.000       2.000       2.000       0.000      0.1000E-19   0.000    
    1225   1.225      0.1000E-02 FIXED          0   0.0%   0.000       0.000       2.000       2.000       0.000      0.1000E-19   0.000    
    1226   1.226      0.1000E-02 FIXED          0   0.0%   0.000       0.000       2.000       2.000       0.000      0.1000E-19   0.000    
    1227   1.227      0.1000E-02 FIXED          0  -0.0%   0.000       0.000       2.000       2.000       0.000      0.1000E-19   0.000    
    1228   1.228      0.1000E-02 FIXED          0  -0.0%   0.000       0.000       2.000       2.000       0.000      0.1000E-19   0.000    
    1229   1.229      0.1000E-02 FIXED          0   0.0%   0.000       0.000       2.000       2.000       0.000      0.1000E-19   0.000    
    1230   1.230      0.1000E-02 FIXED          0   0.0%   0.000       0.000       2.000       2.000       0.000      0.1000E-19   0.000    
    1231   1.231      0.1000E-02 FIXED          0  -0.0%   0.000       0.000       2.000       2.000       0.000      0.1000E-19   0.000    
    1232   1.232      0.1000E-02 FIXED          0   0.0%   0.000       0.000       2.000       2.000       0.000      0.1000E-19   0.000    
    1233   1.233      0.1000E-02 FIXED          0  -0.0%   0.000       0.000       2.000       2.000       0.000      0.1000E-19   0.000    
    1234   1.234      0.1000E-02 FIXED          0   0.0%   0.000       0.000       2.000       2.000       0.000      0.1000E-19   0.000    
    1235   1.235      0.1000E-02 FIXED          0   0.0%   0.000       0.000       2.000       2.000       0.000      0.1000E-19   0.000    
    1236   1.236      0.1000E-02 FIXED          0   0.0%   0.000       0.000       2.000       2.000       0.000      0.1000E-19   0.000    
    1237   1.237      0.1000E-02 FIXED          0   0.0%   0.000       0.000       2.000       2.000       0.000      0.1000E-19   0.000    
    1238   1.238      0.1000E-02 FIXED          0   0.0%   0.000       0.000       2.000       2.000       0.000      0.1000E-19   0.000    
    1239   1.239      0.1000E-02 FIXED          0   0.0%   0.000       0.000       2.000       2.000       0.000      0.1000E-19   0.000    
    1240   1.240      0.1000E-02 FIXED          0   0.0%   0.000       0.000       2.000       2.000       0.000      0.1000E-19   0.000    
    1241   1.241      0.1000E-02 FIXED          0   0.0%   0.000       0.000       2.000       2.000       0.000      0.1000E-19   0.000    
    1242   1.242      0.1000E-02 FIXED          0   0.0%   0.000       0.000       2.000       2.000       0.000      0.1000E-19   0.000    
    1243   1.243      0.1000E-02 FIXED          0   0.0%   0.000       0.000       2.000       2.000       0.000      0.1000E-19   0.000    
    1244   1.244      0.1000E-02 FIXED          0  -0.0%   0.000       0.000       2.000       2.000       0.000      0.1000E-19   0.000    
    1245   1.245      0.1000E-02 FIXED          0   0.0%   0.000       0.000       2.000       2.000       0.000      0.1000E-19   0.000    
    1246   1.246      0.1000E-02 FIXED          0  -0.0%   0.000       0.000       2.000       2.000       0.000      0.1000E-19   0.000    
    1247   1.247      0.1000E-02 FIXED          0  -0.0%   0.000       0.000       2.000       2.000       0.000      0.1000E-19   0.000    
    1248   1.248      0.1000E-02 FIXED          0   0.0%   0.000       0.000       2.000       2.000       0.000      0.1000E-19   0.000    
    1249   1.249      0.1000E-02 FIXED          0   0.0%   0.000       0.000       2.000       2.000       0.000      0.1000E-19   0.000    
    1250   1.250      0.1000E-02 FIXED          0  -0.0%   0.000       0.000       2.000       2.000       0.000      0.1000E-19   0.000    
    1251   1.251      0.1000E-02 FIXED          0   0.0%   0.000       0.000       2.000       2.000       0.000      0.1000E-19   0.000    
    1252   1.252      0.1000E-02 FIXED          0   0.0%   0.000       0.000       2.000       2.000       0.000      0.1000E-19   0.000    
    1253   1.253      0.1000E-02 FIXED          0   0.0%   0.000       0.000       2.000       2.000       0.000      0.1000E-19   0.000    
    1254   1.254      0.1000E-02 FIXED          0  -0.0%   0.000       0.000       2.000       2.000       0.000      0.1000E-19   0.000    
    1255   1.255      0.1000E-02 FIXED          0  -0.0%   0.000       0.000       2.000       2.000       0.000      0.1000E-19   0.000    
    1256   1.256      0.1000E-02 FIXED          0   0.0%   0.000       0.000       2.000       2.000       0.000      0.1000E-19   0.000    
    1257   1.257      0.1000E-02 FIXED          0  -0.0%   0.000       0.000       2.000       2.000       0.000      0.1000E-19   0.000    
    1258   1.258      0.1000E-02 FIXED          0  -0.0%   0.000       0.000       2.000       2.000       0.000      0.1000E-19   0.000    
    1259   1.259      0.1000E-02 FIXED          0   0.0%   0.000       0.000       2.000       2.000       0.000      0.1000E-19   0.000    
    1260   1.260      0.1000E-02 FIXED          0  -0.0%   0.000       0.000       2.000       2.000       0.000      0.1000E-19   0.000    
    1261   1.261      0.1000E-02 FIXED          0   0.0%   0.000       0.000       2.000       2.000       0.000      0.1000E-19   0.000    
    1262   1.262      0.1000E-02 FIXED          0   0.0%   0.000       0.000       2.000       2.000       0.000      0.1000E-19   0.000    
    1263   1.263      0.1000E-02 FIXED          0   0.0%   0.000       0.000       2.000       2.000       0.000      0.1000E-19   0.000    
    1264   1.264      0.1000E-02 FIXED          0  -0.0%   0.000       0.000       2.000       2.000       0.000      0.1000E-19   0.000    
   CYCLE    TIME      TIME-STEP  ELEMENT          ERROR  I-ENERGY    K-ENERGY T  K-ENERGY R  EXT-WORK     MAS.ERR     TOTAL MASS  MASS ADDED
    1265   1.265      0.1000E-02 FIXED          0   0.0%   0.000       0.000       2.000       2.000       0.000      0.1000E-19   0.000    
    1266   1.266      0.1000E-02 FIXED          0  -0.0%   0.000       0.000       2.000       2.000       0.000      0.1000E-19   0.000    
    1267   1.267      0.1000E-02 FIXED          0   0.0%   0.000       0.000       2.000       2.000       0.000      0.1000E-19   0.000    
    1268   1.268      0.1000E-02 FIXED          0  -0.0%   0.000       0.000       2.000       2.000       0.000      0.1000E-19   0.000    
    1269   1.269      0.1000E-02 FIXED          0  -0.0%   0.000       0.000       2.000       2.000       0.000      0.1000E-19   0.000    
    1270   1.270      0.1000E-02 FIXED          0   0.0%   0.000       0.000       2.000       2.000       0.000      0.1000E-19   0.000    
    1271   1.271      0.1000E-02 FIXED          0  -0.0%   0.000       0.000       2.000       2.000       0.000      0.1000E-19   0.000    
    1272   1.272      0.1000E-02 FIXED          0   0.0%   0.000       0.000       2.000       2.000       0.000      0.1000E-19   0.000    
    1273   1.273      0.1000E-02 FIXED          0  -0.0%   0.000       0.000       2.000       2.000       0.000      0.1000E-19   0.000    
    1274   1.274      0.1000E-02 FIXED          0  -0.0%   0.000       0.000       2.000       2.000       0.000      0.1000E-19   0.000    
    1275   1.275      0.1000E-02 FIXED          0   0.0%   0.000       0.000       2.000       2.000       0.000      0.1000E-19   0.000    
    1276   1.276      0.1000E-02 FIXED          0   0.0%   0.000       0.000       2.000       2.000       0.000      0.1000E-19   0.000    
    1277   1.277      0.1000E-02 FIXED          0   0.0%   0.000       0.000       2.000       2.000       0.000      0.1000E-19   0.000    
    1278   1.278      0.1000E-02 FIXED          0   0.0%   0.000       0.000       2.000       2.000       0.000      0.1000E-19   0.000    
    1279   1.279      0.1000E-02 FIXED          0  -0.0%   0.000       0.000       2.000       2.000       0.000      0.1000E-19   0.000    
    1280   1.280      0.1000E-02 FIXED          0   0.0%   0.000       0.000       2.000       2.000       0.000      0.1000E-19   0.000    
    1281   1.281      0.1000E-02 FIXED          0   0.0%   0.000       0.000       2.000       2.000       0.000      0.1000E-19   0.000    
    1282   1.282      0.1000E-02 FIXED          0  -0.0%   0.000       0.000       2.000       2.000       0.000      0.1000E-19   0.000    
    1283   1.283      0.1000E-02 FIXED          0   0.0%   0.000       0.000       2.000       2.000       0.000      0.1000E-19   0.000    
    1284   1.284      0.1000E-02 FIXED          0  -0.0%   0.000       0.000       2.000       2.000       0.000      0.1000E-19   0.000    
    1285   1.285      0.1000E-02 FIXED          0   0.0%   0.000       0.000       2.000       2.000       0.000      0.1000E-19   0.000    
    1286   1.286      0.1000E-02 FIXED          0   0.0%   0.000       0.000       2.000       2.000       0.000      0.1000E-19   0.000    
    1287   1.287      0.1000E-02 FIXED          0   0.0%   0.000       0.000       2.000       2.000       0.000      0.1000E-19   0.000    
    1288   1.288      0.1000E-02 FIXED          0   0.0%   0.000       0.000       2.000       2.000       0.000      0.1000E-19   0.000    
    1289   1.289      0.1000E-02 FIXED          0   0.0%   0.000       0.000       2.000       2.000       0.000      0.1000E-19   0.000    
    1290   1.290      0.1000E-02 FIXED          0   0.0%   0.000       0.000       2.000       2.000       0.000      0.1000E-19   0.000    
    1291   1.291      0.1000E-02 FIXED          0   0.0%   0.000       0.000       2.000       2.000       0.000      0.1000E-19   0.000    
    1292   1.292      0.1000E-02 FIXED          0  -0.0%   0.000       0.000       2.000       2.000       0.000      0.1000E-19   0.000    
    1293   1.293      0.1000E-02 FIXED          0  -0.0%   0.000       0.000       2.000       2.000       0.000      0.1000E-19   0.000    
    1294   1.294      0.1000E-02 FIXED          0   0.0%   0.000       0.000       2.000       2.000       0.000      0.1000E-19   0.000    
    1295   1.295      0.1000E-02 FIXED          0   0.0%   0.000       0.000       2.000       2.000       0.000      0.1000E-19   0.000    
    1296   1.296      0.1000E-02 FIXED          0  -0.0%   0.000       0.000       2.000       2.000       0.000      0.1000E-19   0.000    
    1297   1.297      0.1000E-02 FIXED          0  -0.0%   0.000       0.000       2.000       2.000       0.000      0.1000E-19   0.000    
    1298   1.298      0.1000E-02 FIXED          0   0.0%   0.000       0.000       2.000       2.000       0.000      0.1000E-19   0.000    
    1299   1.299      0.1000E-02 FIXED          0  -0.0%   0.000       0.000       2.000       2.000       0.000      0.1000E-19   0.000    
    1300   1.300      0.1000E-02 FIXED          0   0.0%   0.000       0.000       2.000       2.000       0.000      0.1000E-19   0.000    
    1301   1.301      0.1000E-02 FIXED          0   0.0%   0.000       0.000       2.000       2.000       0.000      0.1000E-19   0.000    
    1302   1.302      0.1000E-02 FIXED          0   0.0%   0.000       0.000       2.000       2.000       0.000      0.1000E-19   0.000    
    1303   1.303      0.1000E-02 FIXED          0  -0.0%   0.000       0.000       2.000       2.000       0.000      0.1000E-19   0.000    
    1304   1.304      0.1000E-02 FIXED          0   0.0%   0.000       0.000       2.000       2.000       0.000      0.1000E-19   0.000    
    1305   1.305      0.1000E-02 FIXED          0  -0.0%   0.000       0.000       2.000       2.000       0.000      0.1000E-19   0.000    
    1306   1.306      0.1000E-02 FIXED          0   0.0%   0.000       0.000       2.000       2.000       0.000      0.1000E-19   0.000    
    1307   1.307      0.1000E-02 FIXED          0  -0.0%   0.000       0.000       2.000       2.000       0.000      0.1000E-19   0.000    
    1308   1.308      0.1000E-02 FIXED          0   0.0%   0.000       0.000       2.000       2.000       0.000      0.1000E-19   0.000    
    1309   1.309      0.1000E-02 FIXED          0   0.0%   0.000       0.000       2.000       2.000       0.000      0.1000E-19   0.000    
    1310   1.310      0.1000E-02 FIXED          0   0.0%   0.000       0.000       2.000       2.000       0.000      0.1000E-19   0.000    
    1311   1.311      0.1000E-02 FIXED          0  -0.0%   0.000       0.000       2.000       2.000       0.000      0.1000E-19   0.000    
    1312   1.312      0.1000E-02 FIXED          0   0.0%   0.000       0.000       2.000       2.000       0.000      0.1000E-19   0.000    
    1313   1.313      0.1000E-02 FIXED          0  -0.0%   0.000       0.000       2.000       2.000       0.000      0.1000E-19   0.000    
    1314   1.314      0.1000E-02 FIXED          0   0.0%   0.000       0.000       2.000       2.000       0.000      0.1000E-19   0.000    
    1315   1.315      0.1000E-02 FIXED          0  -0.0%   0.000       0.000       2.000       2.000       0.000      0.1000E-19   0.000    
    1316   1.316      0.1000E-02 FIXED          0   0.0%   0.000       0.000       2.000       2.000       0.000      0.1000E-19   0.000    
    1317   1.317      0.1000E-02 FIXED          0   0.0%   0.000       0.000       2.000       2.000       0.000      0.1000E-19   0.000    
    1318   1.318      0.1000E-02 FIXED          0  -0.0%   0.000       0.000       2.000       2.000       0.000      0.1000E-19   0.000    
    1319   1.319      0.1000E-02 FIXED          0  -0.0%   0.000       0.000       2.000       2.000       0.000      0.1000E-19   0.000    
   CYCLE    TIME      TIME-STEP  ELEMENT          ERROR  I-ENERGY    K-ENERGY T  K-ENERGY R  EXT-WORK     MAS.ERR     TOTAL MASS  MASS ADDED
    1320   1.320      0.1000E-02 FIXED          0   0.0%   0.000       0.000       2.000       2.000       0.000      0.1000E-19   0.000    
    1321   1.321      0.1000E-02 FIXED          0   0.0%   0.000       0.000       2.000       2.000       0.000      0.1000E-19   0.000    
    1322   1.322      0.1000E-02 FIXED          0   0.0%   0.000       0.000       2.000       2.000       0.000      0.1000E-19   0.000    
    1323   1.323      0.1000E-02 FIXED          0  -0.0%   0.000       0.000       2.000       2.000       0.000      0.1000E-19   0.000    
    1324   1.324      0.1000E-02 FIXED          0   0.0%   0.000       0.000       2.000       2.000       0.000      0.1000E-19   0.000    
    1325   1.325      0.1000E-02 FIXED          0   0.0%   0.000       0.000       2.000       2.000       0.000      0.1000E-19   0.000    
    1326   1.326      0.1000E-02 FIXED          0  -0.0%   0.000       0.000       2.000       2.000       0.000      0.1000E-19   0.000    
    1327   1.327      0.1000E-02 FIXED          0   0.0%   0.000       0.000       2.000       2.000       0.000      0.1000E-19   0.000    
    1328   1.328      0.1000E-02 FIXED          0  -0.0%   0.000       0.000       2.000       2.000       0.000      0.1000E-19   0.000    
    1329   1.329      0.1000E-02 FIXED          0   0.0%   0.000       0.000       2.000       2.000       0.000      0.1000E-19   0.000    
    1330   1.330      0.1000E-02 FIXED          0  -0.0%   0.000       0.000       2.000       2.000       0.000      0.1000E-19   0.000    
    1331   1.331      0.1000E-02 FIXED          0  -0.0%   0.000       0.000       2.000       2.000       0.000      0.1000E-19   0.000    
    1332   1.332      0.1000E-02 FIXED          0   0.0%   0.000       0.000       2.000       2.000       0.000      0.1000E-19   0.000    
    1333   1.333      0.1000E-02 FIXED          0  -0.0%   0.000       0.000       2.000       2.000       0.000      0.1000E-19   0.000    
    1334   1.334      0.1000E-02 FIXED          0   0.0%   0.000       0.000       2.000       2.000       0.000      0.1000E-19   0.000    
    1335   1.335      0.1000E-02 FIXED          0   0.0%   0.000       0.000       2.000       2.000       0.000      0.1000E-19   0.000    
    1336   1.336      0.1000E-02 FIXED          0   0.0%   0.000       0.000       2.000       2.000       0.000      0.1000E-19   0.000    
    1337   1.337      0.1000E-02 FIXED          0   0.0%   0.000       0.000       2.000       2.000       0.000      0.1000E-19   0.000    
    1338   1.338      0.1000E-02 FIXED          0   0.0%   0.000       0.000       2.000       2.000       0.000      0.1000E-19   0.000    
    1339   1.339      0.1000E-02 FIXED          0  -0.0%   0.000       0.000       2.000       2.000       0.000      0.1000E-19   0.000    
    1340   1.340      0.1000E-02 FIXED          0   0.0%   0.000       0.000       2.000       2.000       0.000      0.1000E-19   0.000    
    1341   1.341      0.1000E-02 FIXED          0   0.0%   0.000       0.000       2.000       2.000       0.000      0.1000E-19   0.000    
    1342   1.342      0.1000E-02 FIXED          0  -0.0%   0.000       0.000       2.000       2.000       0.000      0.1000E-19   0.000    
    1343   1.343      0.1000E-02 FIXED          0   0.0%   0.000       0.000       2.000       2.000       0.000      0.1000E-19   0.000    
    1344   1.344      0.1000E-02 FIXED          0   0.0%   0.000       0.000       2.000       2.000       0.000      0.1000E-19   0.000    
    1345   1.345      0.1000E-02 FIXED          0  -0.0%   0.000       0.000       2.000       2.000       0.000      0.1000E-19   0.000    
    1346   1.346      0.1000E-02 FIXED          0   0.0%   0.000       0.000       2.000       2.000       0.000      0.1000E-19   0.000    
    1347   1.347      0.1000E-02 FIXED          0  -0.0%   0.000       0.000       2.000       2.000       0.000      0.1000E-19   0.000    
    1348   1.348      0.1000E-02 FIXED          0   0.0%   0.000       0.000       2.000       2.000       0.000      0.1000E-19   0.000    
    1349   1.349      0.1000E-02 FIXED          0  -0.0%   0.000       0.000       2.000       2.000       0.000      0.1000E-19   0.000    
    1350   1.350      0.1000E-02 FIXED          0   0.0%   0.000       0.000       2.000       2.000       0.000      0.1000E-19   0.000    
    1351   1.351      0.1000E-02 FIXED          0   0.0%   0.000       0.000       2.000       2.000       0.000      0.1000E-19   0.000    
    1352   1.352      0.1000E-02 FIXED          0  -0.0%   0.000       0.000       2.000       2.000       0.000      0.1000E-19   0.000    
    1353   1.353      0.1000E-02 FIXED          0   0.0%   0.000       0.000       2.000       2.000       0.000      0.1000E-19   0.000    
    1354   1.354      0.1000E-02 FIXED          0  -0.0%   0.000       0.000       2.000       2.000       0.000      0.1000E-19   0.000    
    1355   1.355      0.1000E-02 FIXED          0  -0.0%   0.000       0.000       2.000       2.000       0.000      0.1000E-19   0.000    
    1356   1.356      0.1000E-02 FIXED          0   0.0%   0.000       0.000       2.000       2.000       0.000      0.1000E-19   0.000    
    1357   1.357      0.1000E-02 FIXED          0   0.0%   0.000       0.000       2.000       2.000       0.000      0.1000E-19   0.000    
    1358   1.358      0.1000E-02 FIXED          0  -0.0%   0.000       0.000       2.000       2.000       0.000      0.1000E-19   0.000    
    1359   1.359      0.1000E-02 FIXED          0  -0.0%   0.000       0.000       2.000       2.000       0.000      0.1000E-19   0.000    
    1360   1.360      0.1000E-02 FIXED          0  -0.0%   0.000       0.000       2.000       2.000       0.000      0.1000E-19   0.000    
    1361   1.361      0.1000E-02 FIXED          0   0.0%   0.000       0.000       2.000       2.000       0.000      0.1000E-19   0.000    
    1362   1.362      0.1000E-02 FIXED          0  -0.0%   0.000       0.000       2.000       2.000       0.000      0.1000E-19   0.000    
    1363   1.363      0.1000E-02 FIXED          0   0.0%   0.000       0.000       2.000       2.000       0.000      0.1000E-19   0.000    
    1364   1.364      0.1000E-02 FIXED          0  -0.0%   0.000       0.000       2.000       2.000       0.000      0.1000E-19   0.000    
    1365   1.365      0.1000E-02 FIXED          0   0.0%   0.000       0.000       2.000       2.000       0.000      0.1000E-19   0.000    
    1366   1.366      0.1000E-02 FIXED          0   0.0%   0.000       0.000       2.000       2.000       0.000      0.1000E-19   0.000    
    1367   1.367      0.1000E-02 FIXED          0  -0.0%   0.000       0.000       2.000       2.000       0.000      0.1000E-19   0.000    
    1368   1.368      0.1000E-02 FIXED          0   0.0%   0.000       0.000       2.000       2.000       0.000      0.1000E-19   0.000    
    1369   1.369      0.1000E-02 FIXED          0  -0.0%   0.000       0.000       2.000       2.000       0.000      0.1000E-19   0.000    
    1370   1.370      0.1000E-02 FIXED          0  -0.0%   0.000       0.000       2.000       2.000       0.000      0.1000E-19   0.000    
    1371   1.371      0.1000E-02 FIXED          0   0.0%   0.000       0.000       2.000       2.000       0.000      0.1000E-19   0.000    
    1372   1.372      0.1000E-02 FIXED          0  -0.0%   0.000       0.000       2.000       2.000       0.000      0.1000E-19   0.000    
    1373   1.373      0.1000E-02 FIXED          0   0.0%   0.000       0.000       2.000       2.000       0.000      0.1000E-19   0.000    
    1374   1.374      0.1000E-02 FIXED          0   0.0%   0.000       0.000       2.000       2.000       0.000      0.1000E-19   0.000    
   CYCLE    TIME      TIME-STEP  ELEMENT          ERROR  I-ENERGY    K-ENERGY T  K-ENERGY R  EXT-WORK     MAS.ERR     TOTAL MASS  MASS ADDED
    1375   1.375      0.1000E-02 FIXED          0  -0.0%   0.000       0.000       2.000       2.000       0.000      0.1000E-19   0.000    
    1376   1.376      0.1000E-02 FIXED          0   0.0%   0.000       0.000       2.000       2.000       0.000      0.1000E-19   0.000    
    1377   1.377      0.1000E-02 FIXED          0  -0.0%   0.000       0.000       2.000       2.000       0.000      0.1000E-19   0.000    
    1378   1.378      0.1000E-02 FIXED          0   0.0%   0.000       0.000       2.000       2.000       0.000      0.1000E-19   0.000    
    1379   1.379      0.1000E-02 FIXED          0  -0.0%   0.000       0.000       2.000       2.000       0.000      0.1000E-19   0.000    
    1380   1.380      0.1000E-02 FIXED          0   0.0%   0.000       0.000       2.000       2.000       0.000      0.1000E-19   0.000    
    1381   1.381      0.1000E-02 FIXED          0   0.0%   0.000       0.000       2.000       2.000       0.000      0.1000E-19   0.000    
    1382   1.382      0.1000E-02 FIXED          0  -0.0%   0.000       0.000       2.000       2.000       0.000      0.1000E-19   0.000    
    1383   1.383      0.1000E-02 FIXED          0   0.0%   0.000       0.000       2.000       2.000       0.000      0.1000E-19   0.000    
    1384   1.384      0.1000E-02 FIXED          0  -0.0%   0.000       0.000       2.000       2.000       0.000      0.1000E-19   0.000    
    1385   1.385      0.1000E-02 FIXED          0   0.0%   0.000       0.000       2.000       2.000       0.000      0.1000E-19   0.000    
    1386   1.386      0.1000E-02 FIXED          0  -0.0%   0.000       0.000       2.000       2.000       0.000      0.1000E-19   0.000    
    1387   1.387      0.1000E-02 FIXED          0   0.0%   0.000       0.000       2.000       2.000       0.000      0.1000E-19   0.000    
    1388   1.388      0.1000E-02 FIXED          0   0.0%   0.000       0.000       2.000       2.000       0.000      0.1000E-19   0.000    
    1389   1.389      0.1000E-02 FIXED          0  -0.0%   0.000       0.000       2.000       2.000       0.000      0.1000E-19   0.000    
    1390   1.390      0.1000E-02 FIXED          0  -0.0%   0.000       0.000       2.000       2.000       0.000      0.1000E-19   0.000    
    1391   1.391      0.1000E-02 FIXED          0  -0.0%   0.000       0.000       2.000       2.000       0.000      0.1000E-19   0.000    
    1392   1.392      0.1000E-02 FIXED          0   0.0%   0.000       0.000       2.000       2.000       0.000      0.1000E-19   0.000    
    1393   1.393      0.1000E-02 FIXED          0   0.0%   0.000       0.000       2.000       2.000       0.000      0.1000E-19   0.000    
    1394   1.394      0.1000E-02 FIXED          0  -0.0%   0.000       0.000       2.000       2.000       0.000      0.1000E-19   0.000    
    1395   1.395      0.1000E-02 FIXED          0   0.0%   0.000       0.000       2.000       2.000       0.000      0.1000E-19   0.000    
    1396   1.396      0.1000E-02 FIXED          0   0.0%   0.000       0.000       2.000       2.000       0.000      0.1000E-19   0.000    
    1397   1.397      0.1000E-02 FIXED          0   0.0%   0.000       0.000       2.000       2.000       0.000      0.1000E-19   0.000    
    1398   1.398      0.1000E-02 FIXED          0  -0.0%   0.000       0.000       2.000       2.000       0.000      0.1000E-19   0.000    
    1399   1.399      0.1000E-02 FIXED          0   0.0%   0.000       0.000       2.000       2.000       0.000      0.1000E-19   0.000    
    1400   1.400      0.1000E-02 FIXED          0  -0.0%   0.000       0.000       2.000       2.000       0.000      0.1000E-19   0.000    
    1401   1.401      0.1000E-02 FIXED          0   0.0%   0.000       0.000       2.000       2.000       0.000      0.1000E-19   0.000    
    1402   1.402      0.1000E-02 FIXED          0   0.0%   0.000       0.000       2.000       2.000       0.000      0.1000E-19   0.000    
    1403   1.403      0.1000E-02 FIXED          0   0.0%   0.000       0.000       2.000       2.000       0.000      0.1000E-19   0.000    
    1404   1.404      0.1000E-02 FIXED          0   0.0%   0.000       0.000       2.000       2.000       0.000      0.1000E-19   0.000    
    1405   1.405      0.1000E-02 FIXED          0  -0.0%   0.000       0.000       2.000       2.000       0.000      0.1000E-19   0.000    
    1406   1.406      0.1000E-02 FIXED          0  -0.0%   0.000       0.000       2.000       2.000       0.000      0.1000E-19   0.000    
    1407   1.407      0.1000E-02 FIXED          0   0.0%   0.000       0.000       2.000       2.000       0.000      0.1000E-19   0.000    
    1408   1.408      0.1000E-02 FIXED          0   0.0%   0.000       0.000       2.000       2.000       0.000      0.1000E-19   0.000    
    1409   1.409      0.1000E-02 FIXED          0  -0.0%   0.000       0.000       2.000       2.000       0.000      0.1000E-19   0.000    
    1410   1.410      0.1000E-02 FIXED          0   0.0%   0.000       0.000       2.000       2.000       0.000      0.1000E-19   0.000    
    1411   1.411      0.1000E-02 FIXED          0  -0.0%   0.000       0.000       2.000       2.000       0.000      0.1000E-19   0.000    
    1412   1.412      0.1000E-02 FIXED          0   0.0%   0.000       0.000       2.000       2.000       0.000      0.1000E-19   0.000    
    1413   1.413      0.1000E-02 FIXED          0  -0.0%   0.000       0.000       2.000       2.000       0.000      0.1000E-19   0.000    
    1414   1.414      0.1000E-02 FIXED          0   0.0%   0.000       0.000       2.000       2.000       0.000      0.1000E-19   0.000    
    1415   1.415      0.1000E-02 FIXED          0  -0.0%   0.000       0.000       2.000       2.000       0.000      0.1000E-19   0.000    
    1416   1.416      0.1000E-02 FIXED          0  -0.0%   0.000       0.000       2.000       2.000       0.000      0.1000E-19   0.000    
    1417   1.417      0.1000E-02 FIXED          0  -0.0%   0.000       0.000       2.000       2.000       0.000      0.1000E-19   0.000    
    1418   1.418      0.1000E-02 FIXED          0   0.0%   0.000       0.000       2.000       2.000       0.000      0.1000E-19   0.000    
    1419   1.419      0.1000E-02 FIXED          0   0.0%   0.000       0.000       2.000       2.000       0.000      0.1000E-19   0.000    
    1420   1.420      0.1000E-02 FIXED          0  -0.0%   0.000       0.000       2.000       2.000       0.000      0.1000E-19   0.000    
    1421   1.421      0.1000E-02 FIXED          0  -0.0%   0.000       0.000       2.000       2.000       0.000      0.1000E-19   0.000    
    1422   1.422      0.1000E-02 FIXED          0   0.0%   0.000       0.000       2.000       2.000       0.000      0.1000E-19   0.000    
    1423   1.423      0.1000E-02 FIXED          0  -0.0%   0.000       0.000       2.000       2.000       0.000      0.1000E-19   0.000    
    1424   1.424      0.1000E-02 FIXED          0  -0.0%   0.000       0.000       2.000       2.000       0.000      0.1000E-19   0.000    
    1425   1.425      0.1000E-02 FIXED          0   0.0%   0.000       0.000       2.000       2.000       0.000      0.1000E-19   0.000    
    1426   1.426      0.1000E-02 FIXED          0  -0.0%   0.000       0.000       2.000       2.000       0.000      0.1000E-19   0.000    
    1427   1.427      0.1000E-02 FIXED          0  -0.0%   0.000       0.000       2.000       2.000       0.000      0.1000E-19   0.000    
    1428   1.428      0.1000E-02 FIXED          0   0.0%   0.000       0.000       2.000       2.000       0.000      0.1000E-19   0.000    
    1429   1.429      0.1000E-02 FIXED          0   0.0%   0.000       0.000       2.000       2.000       0.000      0.1000E-19   0.000    
   CYCLE    TIME      TIME-STEP  ELEMENT          ERROR  I-ENERGY    K-ENERGY T  K-ENERGY R  EXT-WORK     MAS.ERR     TOTAL MASS  MASS ADDED
    1430   1.430      0.1000E-02 FIXED          0  -0.0%   0.000       0.000       2.000       2.000       0.000      0.1000E-19   0.000    
    1431   1.431      0.1000E-02 FIXED          0   0.0%   0.000       0.000       2.000       2.000       0.000      0.1000E-19   0.000    
    1432   1.432      0.1000E-02 FIXED          0   0.0%   0.000       0.000       2.000       2.000       0.000      0.1000E-19   0.000    
    1433   1.433      0.1000E-02 FIXED          0   0.0%   0.000       0.000       2.000       2.000       0.000      0.1000E-19   0.000    
    1434   1.434      0.1000E-02 FIXED          0  -0.0%   0.000       0.000       2.000       2.000       0.000      0.1000E-19   0.000    
    1435   1.435      0.1000E-02 FIXED          0   0.0%   0.000       0.000       2.000       2.000       0.000      0.1000E-19   0.000    
    1436   1.436      0.1000E-02 FIXED          0  -0.0%   0.000       0.000       2.000       2.000       0.000      0.1000E-19   0.000    
    1437   1.437      0.1000E-02 FIXED          0   0.0%   0.000       0.000       2.000       2.000       0.000      0.1000E-19   0.000    
    1438   1.438      0.1000E-02 FIXED          0   0.0%   0.000       0.000       2.000       2.000       0.000      0.1000E-19   0.000    
    1439   1.439      0.1000E-02 FIXED          0  -0.0%   0.000       0.000       2.000       2.000       0.000      0.1000E-19   0.000    
    1440   1.440      0.1000E-02 FIXED          0   0.0%   0.000       0.000       2.000       2.000       0.000      0.1000E-19   0.000    
    1441   1.441      0.1000E-02 FIXED          0   0.0%   0.000       0.000       2.000       2.000       0.000      0.1000E-19   0.000    
    1442   1.442      0.1000E-02 FIXED          0   0.0%   0.000       0.000       2.000       2.000       0.000      0.1000E-19   0.000    
    1443   1.443      0.1000E-02 FIXED          0   0.0%   0.000       0.000       2.000       2.000       0.000      0.1000E-19   0.000    
    1444   1.444      0.1000E-02 FIXED          0   0.0%   0.000       0.000       2.000       2.000       0.000      0.1000E-19   0.000    
    1445   1.445      0.1000E-02 FIXED          0  -0.0%   0.000       0.000       2.000       2.000       0.000      0.1000E-19   0.000    
    1446   1.446      0.1000E-02 FIXED          0  -0.0%   0.000       0.000       2.000       2.000       0.000      0.1000E-19   0.000    
    1447   1.447      0.1000E-02 FIXED          0   0.0%   0.000       0.000       2.000       2.000       0.000      0.1000E-19   0.000    
    1448   1.448      0.1000E-02 FIXED          0   0.0%   0.000       0.000       2.000       2.000       0.000      0.1000E-19   0.000    
    1449   1.449      0.1000E-02 FIXED          0  -0.0%   0.000       0.000       2.000       2.000       0.000      0.1000E-19   0.000    
    1450   1.450      0.1000E-02 FIXED          0   0.0%   0.000       0.000       2.000       2.000       0.000      0.1000E-19   0.000    
    1451   1.451      0.1000E-02 FIXED          0  -0.0%   0.000       0.000       2.000       2.000       0.000      0.1000E-19   0.000    
    1452   1.452      0.1000E-02 FIXED          0   0.0%   0.000       0.000       2.000       2.000       0.000      0.1000E-19   0.000    
    1453   1.453      0.1000E-02 FIXED          0  -0.0%   0.000       0.000       2.000       2.000       0.000      0.1000E-19   0.000    
    1454   1.454      0.1000E-02 FIXED          0   0.0%   0.000       0.000       2.000       2.000       0.000      0.1000E-19   0.000    
    1455   1.455      0.1000E-02 FIXED          0  -0.0%   0.000       0.000       2.000       2.000       0.000      0.1000E-19   0.000    
    1456   1.456      0.1000E-02 FIXED          0   0.0%   0.000       0.000       2.000       2.000       0.000      0.1000E-19   0.000    
    1457   1.457      0.1000E-02 FIXED          0   0.0%   0.000       0.000       2.000       2.000       0.000      0.1000E-19   0.000    
    1458   1.458      0.1000E-02 FIXED          0  -0.0%   0.000       0.000       2.000       2.000       0.000      0.1000E-19   0.000    
    1459   1.459      0.1000E-02 FIXED          0   0.0%   0.000       0.000       2.000       2.000       0.000      0.1000E-19   0.000    
    1460   1.460      0.1000E-02 FIXED          0  -0.0%   0.000       0.000       2.000       2.000       0.000      0.1000E-19   0.000    
    1461   1.461      0.1000E-02 FIXED          0   0.0%   0.000       0.000       2.000       2.000       0.000      0.1000E-19   0.000    
    1462   1.462      0.1000E-02 FIXED          0   0.0%   0.000       0.000       2.000       2.000       0.000      0.1000E-19   0.000    
    1463   1.463      0.1000E-02 FIXED          0  -0.0%   0.000       0.000       2.000       2.000       0.000      0.1000E-19   0.000    
    1464   1.464      0.1000E-02 FIXED          0  -0.0%   0.000       0.000       2.000       2.000       0.000      0.1000E-19   0.000    
    1465   1.465      0.1000E-02 FIXED          0  -0.0%   0.000       0.000       2.000       2.000       0.000      0.1000E-19   0.000    
    1466   1.466      0.1000E-02 FIXED          0   0.0%   0.000       0.000       2.000       2.000       0.000      0.1000E-19   0.000    
    1467   1.467      0.1000E-02 FIXED          0   0.0%   0.000       0.000       2.000       2.000       0.000      0.1000E-19   0.000    
    1468   1.468      0.1000E-02 FIXED          0   0.0%   0.000       0.000       2.000       2.000       0.000      0.1000E-19   0.000    
    1469   1.469      0.1000E-02 FIXED          0   0.0%   0.000       0.000       2.000       2.000       0.000      0.1000E-19   0.000    
    1470   1.470      0.1000E-02 FIXED          0  -0.0%   0.000       0.000       2.000       2.000       0.000      0.1000E-19   0.000    
    1471   1.471      0.1000E-02 FIXED          0   0.0%   0.000       0.000       2.000       2.000       0.000      0.1000E-19   0.000    
    1472   1.472      0.1000E-02 FIXED          0   0.0%   0.000       0.000       2.000       2.000       0.000      0.1000E-19   0.000    
    1473   1.473      0.1000E-02 FIXED          0   0.0%   0.000       0.000       2.000       2.000       0.000      0.1000E-19   0.000    
    1474   1.474      0.1000E-02 FIXED          0   0.0%   0.000       0.000       2.000       2.000       0.000      0.1000E-19   0.000    
    1475   1.475      0.1000E-02 FIXED          0   0.0%   0.000       0.000       2.000       2.000       0.000      0.1000E-19   0.000    
    1476   1.476      0.1000E-02 FIXED          0   0.0%   0.000       0.000       2.000       2.000       0.000      0.1000E-19   0.000    
    1477   1.477      0.1000E-02 FIXED          0   0.0%   0.000       0.000       2.000       2.000       0.000      0.1000E-19   0.000    
    1478   1.478      0.1000E-02 FIXED          0   0.0%   0.000       0.000       2.000       2.000       0.000      0.1000E-19   0.000    
    1479   1.479      0.1000E-02 FIXED          0  -0.0%   0.000       0.000       2.000       2.000       0.000      0.1000E-19   0.000    
    1480   1.480      0.1000E-02 FIXED          0  -0.0%   0.000       0.000       2.000       2.000       0.000      0.1000E-19   0.000    
    1481   1.481      0.1000E-02 FIXED          0   0.0%   0.000       0.000       2.000       2.000       0.000      0.1000E-19   0.000    
    1482   1.482      0.1000E-02 FIXED          0   0.0%   0.000       0.000       2.000       2.000       0.000      0.1000E-19   0.000    
    1483   1.483      0.1000E-02 FIXED          0  -0.0%   0.000       0.000       2.000       2.000       0.000      0.1000E-19   0.000    
    1484   1.484      0.1000E-02 FIXED          0   0.0%   0.000       0.000       2.000       2.000       0.000      0.1000E-19   0.000    
   CYCLE    TIME      TIME-STEP  ELEMENT          ERROR  I-ENERGY    K-ENERGY T  K-ENERGY R  EXT-WORK     MAS.ERR     TOTAL MASS  MASS ADDED
    1485   1.485      0.1000E-02 FIXED          0  -0.0%   0.000       0.000       2.000       2.000       0.000      0.1000E-19   0.000    
    1486   1.486      0.1000E-02 FIXED          0   0.0%   0.000       0.000       2.000       2.000       0.000      0.1000E-19   0.000    
    1487   1.487      0.1000E-02 FIXED          0  -0.0%   0.000       0.000       2.000       2.000       0.000      0.1000E-19   0.000    
    1488   1.488      0.1000E-02 FIXED          0   0.0%   0.000       0.000       2.000       2.000       0.000      0.1000E-19   0.000    
    1489   1.489      0.1000E-02 FIXED          0   0.0%   0.000       0.000       2.000       2.000       0.000      0.1000E-19   0.000    
    1490   1.490      0.1000E-02 FIXED          0  -0.0%   0.000       0.000       2.000       2.000       0.000      0.1000E-19   0.000    
    1491   1.491      0.1000E-02 FIXED          0   0.0%   0.000       0.000       2.000       2.000       0.000      0.1000E-19   0.000    
    1492   1.492      0.1000E-02 FIXED          0  -0.0%   0.000       0.000       2.000       2.000       0.000      0.1000E-19   0.000    
    1493   1.493      0.1000E-02 FIXED          0  -0.0%   0.000       0.000       2.000       2.000       0.000      0.1000E-19   0.000    
    1494   1.494      0.1000E-02 FIXED          0   0.0%   0.000       0.000       2.000       2.000       0.000      0.1000E-19   0.000    
    1495   1.495      0.1000E-02 FIXED          0  -0.0%   0.000       0.000       2.000       2.000       0.000      0.1000E-19   0.000    
    1496   1.496      0.1000E-02 FIXED          0   0.0%   0.000       0.000       2.000       2.000       0.000      0.1000E-19   0.000    
    1497   1.497      0.1000E-02 FIXED          0   0.0%   0.000       0.000       2.000       2.000       0.000      0.1000E-19   0.000    
    1498   1.498      0.1000E-02 FIXED          0  -0.0%   0.000       0.000       2.000       2.000       0.000      0.1000E-19   0.000    
    1499   1.499      0.1000E-02 FIXED          0  -0.0%   0.000       0.000       2.000       2.000       0.000      0.1000E-19   0.000    
    1500   1.500      0.1000E-02 FIXED          0   0.0%   0.000       0.000       2.000       2.000       0.000      0.1000E-19   0.000    
    1501   1.501      0.1000E-02 FIXED          0   0.0%   0.000       0.000       2.000       2.000       0.000      0.1000E-19   0.000    
    1502   1.502      0.1000E-02 FIXED          0  -0.0%   0.000       0.000       2.000       2.000       0.000      0.1000E-19   0.000    
    1503   1.503      0.1000E-02 FIXED          0  -0.0%   0.000       0.000       2.000       2.000       0.000      0.1000E-19   0.000    
    1504   1.504      0.1000E-02 FIXED          0  -0.0%   0.000       0.000       2.000       2.000       0.000      0.1000E-19   0.000    
    1505   1.505      0.1000E-02 FIXED          0  -0.0%   0.000       0.000       2.000       2.000       0.000      0.1000E-19   0.000    
    1506   1.506      0.1000E-02 FIXED          0   0.0%   0.000       0.000       2.000       2.000       0.000      0.1000E-19   0.000    
    1507   1.507      0.1000E-02 FIXED          0   0.0%   0.000       0.000       2.000       2.000       0.000      0.1000E-19   0.000    
    1508   1.508      0.1000E-02 FIXED          0   0.0%   0.000       0.000       2.000       2.000       0.000      0.1000E-19   0.000    
    1509   1.509      0.1000E-02 FIXED          0   0.0%   0.000       0.000       2.000       2.000       0.000      0.1000E-19   0.000    
    1510   1.510      0.1000E-02 FIXED          0   0.0%   0.000       0.000       2.000       2.000       0.000      0.1000E-19   0.000    
    1511   1.511      0.1000E-02 FIXED          0   0.0%   0.000       0.000       2.000       2.000       0.000      0.1000E-19   0.000    
    1512   1.512      0.1000E-02 FIXED          0  -0.0%   0.000       0.000       2.000       2.000       0.000      0.1000E-19   0.000    
    1513   1.513      0.1000E-02 FIXED          0   0.0%   0.000       0.000       2.000       2.000       0.000      0.1000E-19   0.000    
    1514   1.514      0.1000E-02 FIXED          0  -0.0%   0.000       0.000       2.000       2.000       0.000      0.1000E-19   0.000    
    1515   1.515      0.1000E-02 FIXED          0   0.0%   0.000       0.000       2.000       2.000       0.000      0.1000E-19   0.000    
    1516   1.516      0.1000E-02 FIXED          0   0.0%   0.000       0.000       2.000       2.000       0.000      0.1000E-19   0.000    
    1517   1.517      0.1000E-02 FIXED          0   0.0%   0.000       0.000       2.000       2.000       0.000      0.1000E-19   0.000    
    1518   1.518      0.1000E-02 FIXED          0   0.0%   0.000       0.000       2.000       2.000       0.000      0.1000E-19   0.000    
    1519   1.519      0.1000E-02 FIXED          0  -0.0%   0.000       0.000       2.000       2.000       0.000      0.1000E-19   0.000    
    1520   1.520      0.1000E-02 FIXED          0   0.0%   0.000       0.000       2.000       2.000       0.000      0.1000E-19   0.000    
    1521   1.521      0.1000E-02 FIXED          0  -0.0%   0.000       0.000       2.000       2.000       0.000      0.1000E-19   0.000    
    1522   1.522      0.1000E-02 FIXED          0   0.0%   0.000       0.000       2.000       2.000       0.000      0.1000E-19   0.000    
    1523   1.523      0.1000E-02 FIXED          0   0.0%   0.000       0.000       2.000       2.000       0.000      0.1000E-19   0.000    
    1524   1.524      0.1000E-02 FIXED          0  -0.0%   0.000       0.000       2.000       2.000       0.000      0.1000E-19   0.000    
    1525   1.525      0.1000E-02 FIXED          0  -0.0%   0.000       0.000       2.000       2.000       0.000      0.1000E-19   0.000    
    1526   1.526      0.1000E-02 FIXED          0  -0.0%   0.000       0.000       2.000       2.000       0.000      0.1000E-19   0.000    
    1527   1.527      0.1000E-02 FIXED          0  -0.0%   0.000       0.000       2.000       2.000       0.000      0.1000E-19   0.000    
    1528   1.528      0.1000E-02 FIXED          0   0.0%   0.000       0.000       2.000       2.000       0.000      0.1000E-19   0.000    
    1529   1.529      0.1000E-02 FIXED          0  -0.0%   0.000       0.000       2.000       2.000       0.000      0.1000E-19   0.000    
    1530   1.530      0.1000E-02 FIXED          0   0.0%   0.000       0.000       2.000       2.000       0.000      0.1000E-19   0.000    
    1531   1.531      0.1000E-02 FIXED          0  -0.0%   0.000       0.000       2.000       2.000       0.000      0.1000E-19   0.000    
    1532   1.532      0.1000E-02 FIXED          0   0.0%   0.000       0.000       2.000       2.000       0.000      0.1000E-19   0.000    
    1533   1.533      0.1000E-02 FIXED          0  -0.0%   0.000       0.000       2.000       2.000       0.000      0.1000E-19   0.000    
    1534   1.534      0.1000E-02 FIXED          0   0.0%   0.000       0.000       2.000       2.000       0.000      0.1000E-19   0.000    
    1535   1.535      0.1000E-02 FIXED          0  -0.0%   0.000       0.000       2.000       2.000       0.000      0.1000E-19   0.000    
    1536   1.536      0.1000E-02 FIXED          0   0.0%   0.000       0.000       2.000       2.000       0.000      0.1000E-19   0.000    
    1537   1.537      0.1000E-02 FIXED          0   0.0%   0.000       0.000       2.000       2.000       0.000      0.1000E-19   0.000    
    1538   1.538      0.1000E-02 FIXED          0   0.0%   0.000       0.000       2.000       2.000       0.000      0.1000E-19   0.000    
    1539   1.539      0.1000E-02 FIXED          0   0.0%   0.000       0.000       2.000       2.000       0.000      0.1000E-19   0.000    
   CYCLE    TIME      TIME-STEP  ELEMENT          ERROR  I-ENERGY    K-ENERGY T  K-ENERGY R  EXT-WORK     MAS.ERR     TOTAL MASS  MASS ADDED
    1540   1.540      0.1000E-02 FIXED          0   0.0%   0.000       0.000       2.000       2.000       0.000      0.1000E-19   0.000    
    1541   1.541      0.1000E-02 FIXED          0  -0.0%   0.000       0.000       2.000       2.000       0.000      0.1000E-19   0.000    
    1542   1.542      0.1000E-02 FIXED          0  -0.0%   0.000       0.000       2.000       2.000       0.000      0.1000E-19   0.000    
    1543   1.543      0.1000E-02 FIXED          0   0.0%   0.000       0.000       2.000       2.000       0.000      0.1000E-19   0.000    
    1544   1.544      0.1000E-02 FIXED          0   0.0%   0.000       0.000       2.000       2.000       0.000      0.1000E-19   0.000    
    1545   1.545      0.1000E-02 FIXED          0  -0.0%   0.000       0.000       2.000       2.000       0.000      0.1000E-19   0.000    
    1546   1.546      0.1000E-02 FIXED          0   0.0%   0.000       0.000       2.000       2.000       0.000      0.1000E-19   0.000    
    1547   1.547      0.1000E-02 FIXED          0   0.0%   0.000       0.000       2.000       2.000       0.000      0.1000E-19   0.000    
    1548   1.548      0.1000E-02 FIXED          0  -0.0%   0.000       0.000       2.000       2.000       0.000      0.1000E-19   0.000    
    1549   1.549      0.1000E-02 FIXED          0  -0.0%   0.000       0.000       2.000       2.000       0.000      0.1000E-19   0.000    
    1550   1.550      0.1000E-02 FIXED          0   0.0%   0.000       0.000       2.000       2.000       0.000      0.1000E-19   0.000    
    1551   1.551      0.1000E-02 FIXED          0   0.0%   0.000       0.000       2.000       2.000       0.000      0.1000E-19   0.000    
    1552   1.552      0.1000E-02 FIXED          0  -0.0%   0.000       0.000       2.000       2.000       0.000      0.1000E-19   0.000    
    1553   1.553      0.1000E-02 FIXED          0   0.0%   0.000       0.000       2.000       2.000       0.000      0.1000E-19   0.000    
    1554   1.554      0.1000E-02 FIXED          0   0.0%   0.000       0.000       2.000       2.000       0.000      0.1000E-19   0.000    
    1555   1.555      0.1000E-02 FIXED          0   0.0%   0.000       0.000       2.000       2.000       0.000      0.1000E-19   0.000    
    1556   1.556      0.1000E-02 FIXED          0  -0.0%   0.000       0.000       2.000       2.000       0.000      0.1000E-19   0.000    
    1557   1.557      0.1000E-02 FIXED          0  -0.0%   0.000       0.000       2.000       2.000       0.000      0.1000E-19   0.000    
    1558   1.558      0.1000E-02 FIXED          0  -0.0%   0.000       0.000       2.000       2.000       0.000      0.1000E-19   0.000    
    1559   1.559      0.1000E-02 FIXED          0  -0.0%   0.000       0.000       2.000       2.000       0.000      0.1000E-19   0.000    
    1560   1.560      0.1000E-02 FIXED          0   0.0%   0.000       0.000       2.000       2.000       0.000      0.1000E-19   0.000    
    1561   1.561      0.1000E-02 FIXED          0   0.0%   0.000       0.000       2.000       2.000       0.000      0.1000E-19   0.000    
    1562   1.562      0.1000E-02 FIXED          0   0.0%   0.000       0.000       2.000       2.000       0.000      0.1000E-19   0.000    
    1563   1.563      0.1000E-02 FIXED          0   0.0%   0.000       0.000       2.000       2.000       0.000      0.1000E-19   0.000    
    1564   1.564      0.1000E-02 FIXED          0  -0.0%   0.000       0.000       2.000       2.000       0.000      0.1000E-19   0.000    
    1565   1.565      0.1000E-02 FIXED          0  -0.0%   0.000       0.000       2.000       2.000       0.000      0.1000E-19   0.000    
    1566   1.566      0.1000E-02 FIXED          0   0.0%   0.000       0.000       2.000       2.000       0.000      0.1000E-19   0.000    
    1567   1.567      0.1000E-02 FIXED          0  -0.0%   0.000       0.000       2.000       2.000       0.000      0.1000E-19   0.000    
    1568   1.568      0.1000E-02 FIXED          0   0.0%   0.000       0.000       2.000       2.000       0.000      0.1000E-19   0.000    
    1569   1.569      0.1000E-02 FIXED          0   0.0%   0.000       0.000       2.000       2.000       0.000      0.1000E-19   0.000    
    1570   1.570      0.1000E-02 FIXED          0   0.0%   0.000       0.000       2.000       2.000       0.000      0.1000E-19   0.000    
    1571   1.571      0.1000E-02 FIXED          0   0.0%   0.000       0.000       2.000       2.000       0.000      0.1000E-19   0.000    
    1572   1.572      0.1000E-02 FIXED          0  -0.0%   0.000       0.000       2.000       2.000       0.000      0.1000E-19   0.000    
    1573   1.573      0.1000E-02 FIXED          0   0.0%   0.000       0.000       2.000       2.000       0.000      0.1000E-19   0.000    
    1574   1.574      0.1000E-02 FIXED          0  -0.0%   0.000       0.000       2.000       2.000       0.000      0.1000E-19   0.000    
    1575   1.575      0.1000E-02 FIXED          0   0.0%   0.000       0.000       2.000       2.000       0.000      0.1000E-19   0.000    
    1576   1.576      0.1000E-02 FIXED          0  -0.0%   0.000       0.000       2.000       2.000       0.000      0.1000E-19   0.000    
    1577   1.577      0.1000E-02 FIXED          0   0.0%   0.000       0.000       2.000       2.000       0.000      0.1000E-19   0.000    
    1578   1.578      0.1000E-02 FIXED          0   0.0%   0.000       0.000       2.000       2.000       0.000      0.1000E-19   0.000    
    1579   1.579      0.1000E-02 FIXED          0   0.0%   0.000       0.000       2.000       2.000       0.000      0.1000E-19   0.000    
    1580   1.580      0.1000E-02 FIXED          0  -0.0%   0.000       0.000       2.000       2.000       0.000      0.1000E-19   0.000    
    1581   1.581      0.1000E-02 FIXED          0   0.0%   0.000       0.000       2.000       2.000       0.000      0.1000E-19   0.000    
    1582   1.582      0.1000E-02 FIXED          0  -0.0%   0.000       0.000       2.000       2.000       0.000      0.1000E-19   0.000    
    1583   1.583      0.1000E-02 FIXED          0   0.0%   0.000       0.000       2.000       2.000       0.000      0.1000E-19   0.000    
    1584   1.584      0.1000E-02 FIXED          0   0.0%   0.000       0.000       2.000       2.000       0.000      0.1000E-19   0.000    
    1585   1.585      0.1000E-02 FIXED          0   0.0%   0.000       0.000       2.000       2.000       0.000      0.1000E-19   0.000    
    1586   1.586      0.1000E-02 FIXED          0  -0.0%   0.000       0.000       2.000       2.000       0.000      0.1000E-19   0.000    
    1587   1.587      0.1000E-02 FIXED          0  -0.0%   0.000       0.000       2.000       2.000       0.000      0.1000E-19   0.000    
    1588   1.588      0.1000E-02 FIXED          0  -0.0%   0.000       0.000       2.000       2.000       0.000      0.1000E-19   0.000    
    1589   1.589      0.1000E-02 FIXED          0   0.0%   0.000       0.000       2.000       2.000       0.000      0.1000E-19   0.000    
    1590   1.590      0.1000E-02 FIXED          0   0.0%   0.000       0.000       2.000       2.000       0.000      0.1000E-19   0.000    
    1591   1.591      0.1000E-02 FIXED          0   0.0%   0.000       0.000       2.000       2.000       0.000      0.1000E-19   0.000    
    1592   1.592      0.1000E-02 FIXED          0  -0.0%   0.000       0.000       2.000       2.000       0.000      0.1000E-19   0.000    
    1593   1.593      0.1000E-02 FIXED          0   0.0%   0.000       0.000       2.000       2.000       0.000      0.1000E-19   0.000    
    1594   1.594      0.1000E-02 FIXED          0  -0.0%   0.000       0.000       2.000       2.000       0.000      0.1000E-19   0.000    
   CYCLE    TIME      TIME-STEP  ELEMENT          ERROR  I-ENERGY    K-ENERGY T  K-ENERGY R  EXT-WORK     MAS.ERR     TOTAL MASS  MASS ADDED
    1595   1.595      0.1000E-02 FIXED          0   0.0%   0.000       0.000       2.000       2.000       0.000      0.1000E-19   0.000    
    1596   1.596      0.1000E-02 FIXED          0   0.0%   0.000       0.000       2.000       2.000       0.000      0.1000E-19   0.000    
    1597   1.597      0.1000E-02 FIXED          0   0.0%   0.000       0.000       2.000       2.000       0.000      0.1000E-19   0.000    
    1598   1.598      0.1000E-02 FIXED          0   0.0%   0.000       0.000       2.000       2.000       0.000      0.1000E-19   0.000    
    1599   1.599      0.1000E-02 FIXED          0   0.0%   0.000       0.000       2.000       2.000       0.000      0.1000E-19   0.000    
    1600   1.600      0.1000E-02 FIXED          0  -0.0%   0.000       0.000       2.000       2.000       0.000      0.1000E-19   0.000    
    1601   1.601      0.1000E-02 FIXED          0   0.0%   0.000       0.000       2.000       2.000       0.000      0.1000E-19   0.000    
    1602   1.602      0.1000E-02 FIXED          0  -0.0%   0.000       0.000       2.000       2.000       0.000      0.1000E-19   0.000    
    1603   1.603      0.1000E-02 FIXED          0   0.0%   0.000       0.000       2.000       2.000       0.000      0.1000E-19   0.000    
    1604   1.604      0.1000E-02 FIXED          0  -0.0%   0.000       0.000       2.000       2.000       0.000      0.1000E-19   0.000    
    1605   1.605      0.1000E-02 FIXED          0   0.0%   0.000       0.000       2.000       2.000       0.000      0.1000E-19   0.000    
    1606   1.606      0.1000E-02 FIXED          0   0.0%   0.000       0.000       2.000       2.000       0.000      0.1000E-19   0.000    
    1607   1.607      0.1000E-02 FIXED          0  -0.0%   0.000       0.000       2.000       2.000       0.000      0.1000E-19   0.000    
    1608   1.608      0.1000E-02 FIXED          0   0.0%   0.000       0.000       2.000       2.000       0.000      0.1000E-19   0.000    
    1609   1.609      0.1000E-02 FIXED          0   0.0%   0.000       0.000       2.000       2.000       0.000      0.1000E-19   0.000    
    1610   1.610      0.1000E-02 FIXED          0   0.0%   0.000       0.000       2.000       2.000       0.000      0.1000E-19   0.000    
    1611   1.611      0.1000E-02 FIXED          0  -0.0%   0.000       0.000       2.000       2.000       0.000      0.1000E-19   0.000    
    1612   1.612      0.1000E-02 FIXED          0   0.0%   0.000       0.000       2.000       2.000       0.000      0.1000E-19   0.000    
    1613   1.613      0.1000E-02 FIXED          0   0.0%   0.000       0.000       2.000       2.000       0.000      0.1000E-19   0.000    
    1614   1.614      0.1000E-02 FIXED          0   0.0%   0.000       0.000       2.000       2.000       0.000      0.1000E-19   0.000    
    1615   1.615      0.1000E-02 FIXED          0   0.0%   0.000       0.000       2.000       2.000       0.000      0.1000E-19   0.000    
    1616   1.616      0.1000E-02 FIXED          0   0.0%   0.000       0.000       2.000       2.000       0.000      0.1000E-19   0.000    
    1617   1.617      0.1000E-02 FIXED          0  -0.0%   0.000       0.000       2.000       2.000       0.000      0.1000E-19   0.000    
    1618   1.618      0.1000E-02 FIXED          0  -0.0%   0.000       0.000       2.000       2.000       0.000      0.1000E-19   0.000    
    1619   1.619      0.1000E-02 FIXED          0   0.0%   0.000       0.000       2.000       2.000       0.000      0.1000E-19   0.000    
    1620   1.620      0.1000E-02 FIXED          0   0.0%   0.000       0.000       2.000       2.000       0.000      0.1000E-19   0.000    
    1621   1.621      0.1000E-02 FIXED          0  -0.0%   0.000       0.000       2.000       2.000       0.000      0.1000E-19   0.000    
    1622   1.622      0.1000E-02 FIXED          0   0.0%   0.000       0.000       2.000       2.000       0.000      0.1000E-19   0.000    
    1623   1.623      0.1000E-02 FIXED          0   0.0%   0.000       0.000       2.000       2.000       0.000      0.1000E-19   0.000    
    1624   1.624      0.1000E-02 FIXED          0  -0.0%   0.000       0.000       2.000       2.000       0.000      0.1000E-19   0.000    
    1625   1.625      0.1000E-02 FIXED          0   0.0%   0.000       0.000       2.000       2.000       0.000      0.1000E-19   0.000    
    1626   1.626      0.1000E-02 FIXED          0   0.0%   0.000       0.000       2.000       2.000       0.000      0.1000E-19   0.000    
    1627   1.627      0.1000E-02 FIXED          0  -0.0%   0.000       0.000       2.000       2.000       0.000      0.1000E-19   0.000    
    1628   1.628      0.1000E-02 FIXED          0   0.0%   0.000       0.000       2.000       2.000       0.000      0.1000E-19   0.000    
    1629   1.629      0.1000E-02 FIXED          0  -0.0%   0.000       0.000       2.000       2.000       0.000      0.1000E-19   0.000    
    1630   1.630      0.1000E-02 FIXED          0  -0.0%   0.000       0.000       2.000       2.000       0.000      0.1000E-19   0.000    
    1631   1.631      0.1000E-02 FIXED          0  -0.0%   0.000       0.000       2.000       2.000       0.000      0.1000E-19   0.000    
    1632   1.632      0.1000E-02 FIXED          0   0.0%   0.000       0.000       2.000       2.000       0.000      0.1000E-19   0.000    
    1633   1.633      0.1000E-02 FIXED          0  -0.0%   0.000       0.000       2.000       2.000       0.000      0.1000E-19   0.000    
    1634   1.634      0.1000E-02 FIXED          0   0.0%   0.000       0.000       2.000       2.000       0.000      0.1000E-19   0.000    
    1635   1.635      0.1000E-02 FIXED          0   0.0%   0.000       0.000       2.000       2.000       0.000      0.1000E-19   0.000    
    1636   1.636      0.1000E-02 FIXED          0   0.0%   0.000       0.000       2.000       2.000       0.000      0.1000E-19   0.000    
    1637   1.637      0.1000E-02 FIXED          0  -0.0%   0.000       0.000       2.000       2.000       0.000      0.1000E-19   0.000    
    1638   1.638      0.1000E-02 FIXED          0   0.0%   0.000       0.000       2.000       2.000       0.000      0.1000E-19   0.000    
    1639   1.639      0.1000E-02 FIXED          0  -0.0%   0.000       0.000       2.000       2.000       0.000      0.1000E-19   0.000    
    1640   1.640      0.1000E-02 FIXED          0  -0.0%   0.000       0.000       2.000       2.000       0.000      0.1000E-19   0.000    
    1641   1.641      0.1000E-02 FIXED          0   0.0%   0.000       0.000       2.000       2.000       0.000      0.1000E-19   0.000    
    1642   1.642      0.1000E-02 FIXED          0   0.0%   0.000       0.000       2.000       2.000       0.000      0.1000E-19   0.000    
    1643   1.643      0.1000E-02 FIXED          0   0.0%   0.000       0.000       2.000       2.000       0.000      0.1000E-19   0.000    
    1644   1.644      0.1000E-02 FIXED          0  -0.0%   0.000       0.000       2.000       2.000       0.000      0.1000E-19   0.000    
    1645   1.645      0.1000E-02 FIXED          0   0.0%   0.000       0.000       2.000       2.000       0.000      0.1000E-19   0.000    
    1646   1.646      0.1000E-02 FIXED          0   0.0%   0.000       0.000       2.000       2.000       0.000      0.1000E-19   0.000    
    1647   1.647      0.1000E-02 FIXED          0   0.0%   0.000       0.000       2.000       2.000       0.000      0.1000E-19   0.000    
    1648   1.648      0.1000E-02 FIXED          0   0.0%   0.000       0.000       2.000       2.000       0.000      0.1000E-19   0.000    
    1649   1.649      0.1000E-02 FIXED          0   0.0%   0.000       0.000       2.000       2.000       0.000      0.1000E-19   0.000    
   CYCLE    TIME      TIME-STEP  ELEMENT          ERROR  I-ENERGY    K-ENERGY T  K-ENERGY R  EXT-WORK     MAS.ERR     TOTAL MASS  MASS ADDED
    1650   1.650      0.1000E-02 FIXED          0   0.0%   0.000       0.000       2.000       2.000       0.000      0.1000E-19   0.000    
    1651   1.651      0.1000E-02 FIXED          0   0.0%   0.000       0.000       2.000       2.000       0.000      0.1000E-19   0.000    
    1652   1.652      0.1000E-02 FIXED          0   0.0%   0.000       0.000       2.000       2.000       0.000      0.1000E-19   0.000    
    1653   1.653      0.1000E-02 FIXED          0   0.0%   0.000       0.000       2.000       2.000       0.000      0.1000E-19   0.000    
    1654   1.654      0.1000E-02 FIXED          0   0.0%   0.000       0.000       2.000       2.000       0.000      0.1000E-19   0.000    
    1655   1.655      0.1000E-02 FIXED          0  -0.0%   0.000       0.000       2.000       2.000       0.000      0.1000E-19   0.000    
    1656   1.656      0.1000E-02 FIXED          0   0.0%   0.000       0.000       2.000       2.000       0.000      0.1000E-19   0.000    
    1657   1.657      0.1000E-02 FIXED          0   0.0%   0.000       0.000       2.000       2.000       0.000      0.1000E-19   0.000    
    1658   1.658      0.1000E-02 FIXED          0  -0.0%   0.000       0.000       2.000       2.000       0.000      0.1000E-19   0.000    
    1659   1.659      0.1000E-02 FIXED          0  -0.0%   0.000       0.000       2.000       2.000       0.000      0.1000E-19   0.000    
    1660   1.660      0.1000E-02 FIXED          0  -0.0%   0.000       0.000       2.000       2.000       0.000      0.1000E-19   0.000    
    1661   1.661      0.1000E-02 FIXED          0   0.0%   0.000       0.000       2.000       2.000       0.000      0.1000E-19   0.000    
    1662   1.662      0.1000E-02 FIXED          0  -0.0%   0.000       0.000       2.000       2.000       0.000      0.1000E-19   0.000    
    1663   1.663      0.1000E-02 FIXED          0  -0.0%   0.000       0.000       2.000       2.000       0.000      0.1000E-19   0.000    
    1664   1.664      0.1000E-02 FIXED          0   0.0%   0.000       0.000       2.000       2.000       0.000      0.1000E-19   0.000    
    1665   1.665      0.1000E-02 FIXED          0  -0.0%   0.000       0.000       2.000       2.000       0.000      0.1000E-19   0.000    
    1666   1.666      0.1000E-02 FIXED          0  -0.0%   0.000       0.000       2.000       2.000       0.000      0.1000E-19   0.000    
    1667   1.667      0.1000E-02 FIXED          0   0.0%   0.000       0.000       2.000       2.000       0.000      0.1000E-19   0.000    
    1668   1.668      0.1000E-02 FIXED          0  -0.0%   0.000       0.000       2.000       2.000       0.000      0.1000E-19   0.000    
    1669   1.669      0.1000E-02 FIXED          0  -0.0%   0.000       0.000       2.000       2.000       0.000      0.1000E-19   0.000    
    1670   1.670      0.1000E-02 FIXED          0  -0.0%   0.000       0.000       2.000       2.000       0.000      0.1000E-19   0.000    
    1671   1.671      0.1000E-02 FIXED          0   0.0%   0.000       0.000       2.000       2.000       0.000      0.1000E-19   0.000    
    1672   1.672      0.1000E-02 FIXED          0   0.0%   0.000       0.000       2.000       2.000       0.000      0.1000E-19   0.000    
    1673   1.673      0.1000E-02 FIXED          0   0.0%   0.000       0.000       2.000       2.000       0.000      0.1000E-19   0.000    
    1674   1.674      0.1000E-02 FIXED          0   0.0%   0.000       0.000       2.000       2.000       0.000      0.1000E-19   0.000    
    1675   1.675      0.1000E-02 FIXED          0  -0.0%   0.000       0.000       2.000       2.000       0.000      0.1000E-19   0.000    
    1676   1.676      0.1000E-02 FIXED          0   0.0%   0.000       0.000       2.000       2.000       0.000      0.1000E-19   0.000    
    1677   1.677      0.1000E-02 FIXED          0   0.0%   0.000       0.000       2.000       2.000       0.000      0.1000E-19   0.000    
    1678   1.678      0.1000E-02 FIXED          0  -0.0%   0.000       0.000       2.000       2.000       0.000      0.1000E-19   0.000    
    1679   1.679      0.1000E-02 FIXED          0  -0.0%   0.000       0.000       2.000       2.000       0.000      0.1000E-19   0.000    
    1680   1.680      0.1000E-02 FIXED          0   0.0%   0.000       0.000       2.000       2.000       0.000      0.1000E-19   0.000    
    1681   1.681      0.1000E-02 FIXED          0   0.0%   0.000       0.000       2.000       2.000       0.000      0.1000E-19   0.000    
    1682   1.682      0.1000E-02 FIXED          0  -0.0%   0.000       0.000       2.000       2.000       0.000      0.1000E-19   0.000    
    1683   1.683      0.1000E-02 FIXED          0  -0.0%   0.000       0.000       2.000       2.000       0.000      0.1000E-19   0.000    
    1684   1.684      0.1000E-02 FIXED          0   0.0%   0.000       0.000       2.000       2.000       0.000      0.1000E-19   0.000    
    1685   1.685      0.1000E-02 FIXED          0  -0.0%   0.000       0.000       2.000       2.000       0.000      0.1000E-19   0.000    
    1686   1.686      0.1000E-02 FIXED          0   0.0%   0.000       0.000       2.000       2.000       0.000      0.1000E-19   0.000    
    1687   1.687      0.1000E-02 FIXED          0  -0.0%   0.000       0.000       2.000       2.000       0.000      0.1000E-19   0.000    
    1688   1.688      0.1000E-02 FIXED          0   0.0%   0.000       0.000       2.000       2.000       0.000      0.1000E-19   0.000    
    1689   1.689      0.1000E-02 FIXED          0   0.0%   0.000       0.000       2.000       2.000       0.000      0.1000E-19   0.000    
    1690   1.690      0.1000E-02 FIXED          0  -0.0%   0.000       0.000       2.000       2.000       0.000      0.1000E-19   0.000    
    1691   1.691      0.1000E-02 FIXED          0   0.0%   0.000       0.000       2.000       2.000       0.000      0.1000E-19   0.000    
    1692   1.692      0.1000E-02 FIXED          0  -0.0%   0.000       0.000       2.000       2.000       0.000      0.1000E-19   0.000    
    1693   1.693      0.1000E-02 FIXED          0   0.0%   0.000       0.000       2.000       2.000       0.000      0.1000E-19   0.000    
    1694   1.694      0.1000E-02 FIXED          0   0.0%   0.000       0.000       2.000       2.000       0.000      0.1000E-19   0.000    
    1695   1.695      0.1000E-02 FIXED          0   0.0%   0.000       0.000       2.000       2.000       0.000      0.1000E-19   0.000    
    1696   1.696      0.1000E-02 FIXED          0  -0.0%   0.000       0.000       2.000       2.000       0.000      0.1000E-19   0.000    
    1697   1.697      0.1000E-02 FIXED          0  -0.0%   0.000       0.000       2.000       2.000       0.000      0.1000E-19   0.000    
    1698   1.698      0.1000E-02 FIXED          0  -0.0%   0.000       0.000       2.000       2.000       0.000      0.1000E-19   0.000    
    1699   1.699      0.1000E-02 FIXED          0   0.0%   0.000       0.000       2.000       2.000       0.000      0.1000E-19   0.000    
    1700   1.700      0.1000E-02 FIXED          0  -0.0%   0.000       0.000       2.000       2.000       0.000      0.1000E-19   0.000    
    1701   1.701      0.1000E-02 FIXED          0   0.0%   0.000       0.000       2.000       2.000       0.000      0.1000E-19   0.000    
    1702   1.702      0.1000E-02 FIXED          0  -0.0%   0.000       0.000       2.000       2.000       0.000      0.1000E-19   0.000    
    1703   1.703      0.1000E-02 FIXED          0   0.0%   0.000       0.000       2.000       2.000       0.000      0.1000E-19   0.000    
    1704   1.704      0.1000E-02 FIXED          0   0.0%   0.000       0.000       2.000       2.000       0.000      0.1000E-19   0.000    
   CYCLE    TIME      TIME-STEP  ELEMENT          ERROR  I-ENERGY    K-ENERGY T  K-ENERGY R  EXT-WORK     MAS.ERR     TOTAL MASS  MASS ADDED
    1705   1.705      0.1000E-02 FIXED          0   0.0%   0.000       0.000       2.000       2.000       0.000      0.1000E-19   0.000    
    1706   1.706      0.1000E-02 FIXED          0   0.0%   0.000       0.000       2.000       2.000       0.000      0.1000E-19   0.000    
    1707   1.707      0.1000E-02 FIXED          0  -0.0%   0.000       0.000       2.000       2.000       0.000      0.1000E-19   0.000    
    1708   1.708      0.1000E-02 FIXED          0   0.0%   0.000       0.000       2.000       2.000       0.000      0.1000E-19   0.000    
    1709   1.709      0.1000E-02 FIXED          0   0.0%   0.000       0.000       2.000       2.000       0.000      0.1000E-19   0.000    
    1710   1.710      0.1000E-02 FIXED          0   0.0%   0.000       0.000       2.000       2.000       0.000      0.1000E-19   0.000    
    1711   1.711      0.1000E-02 FIXED          0   0.0%   0.000       0.000       2.000       2.000       0.000      0.1000E-19   0.000    
    1712   1.712      0.1000E-02 FIXED          0  -0.0%   0.000       0.000       2.000       2.000       0.000      0.1000E-19   0.000    
    1713   1.713      0.1000E-02 FIXED          0   0.0%   0.000       0.000       2.000       2.000       0.000      0.1000E-19   0.000    
    1714   1.714      0.1000E-02 FIXED          0  -0.0%   0.000       0.000       2.000       2.000       0.000      0.1000E-19   0.000    
    1715   1.715      0.1000E-02 FIXED          0   0.0%   0.000       0.000       2.000       2.000       0.000      0.1000E-19   0.000    
    1716   1.716      0.1000E-02 FIXED          0  -0.0%   0.000       0.000       2.000       2.000       0.000      0.1000E-19   0.000    
    1717   1.717      0.1000E-02 FIXED          0  -0.0%   0.000       0.000       2.000       2.000       0.000      0.1000E-19   0.000    
    1718   1.718      0.1000E-02 FIXED          0   0.0%   0.000       0.000       2.000       2.000       0.000      0.1000E-19   0.000    
    1719   1.719      0.1000E-02 FIXED          0  -0.0%   0.000       0.000       2.000       2.000       0.000      0.1000E-19   0.000    
    1720   1.720      0.1000E-02 FIXED          0   0.0%   0.000       0.000       2.000       2.000       0.000      0.1000E-19   0.000    
    1721   1.721      0.1000E-02 FIXED          0  -0.0%   0.000       0.000       2.000       2.000       0.000      0.1000E-19   0.000    
    1722   1.722      0.1000E-02 FIXED          0   0.0%   0.000       0.000       2.000       2.000       0.000      0.1000E-19   0.000    
    1723   1.723      0.1000E-02 FIXED          0   0.0%   0.000       0.000       2.000       2.000       0.000      0.1000E-19   0.000    
    1724   1.724      0.1000E-02 FIXED          0   0.0%   0.000       0.000       2.000       2.000       0.000      0.1000E-19   0.000    
    1725   1.725      0.1000E-02 FIXED          0  -0.0%   0.000       0.000       2.000       2.000       0.000      0.1000E-19   0.000    
    1726   1.726      0.1000E-02 FIXED          0   0.0%   0.000       0.000       2.000       2.000       0.000      0.1000E-19   0.000    
    1727   1.727      0.1000E-02 FIXED          0   0.0%   0.000       0.000       2.000       2.000       0.000      0.1000E-19   0.000    
    1728   1.728      0.1000E-02 FIXED          0  -0.0%   0.000       0.000       2.000       2.000       0.000      0.1000E-19   0.000    
    1729   1.729      0.1000E-02 FIXED          0   0.0%   0.000       0.000       2.000       2.000       0.000      0.1000E-19   0.000    
    1730   1.730      0.1000E-02 FIXED          0   0.0%   0.000       0.000       2.000       2.000       0.000      0.1000E-19   0.000    
    1731   1.731      0.1000E-02 FIXED          0  -0.0%   0.000       0.000       2.000       2.000       0.000      0.1000E-19   0.000    
    1732   1.732      0.1000E-02 FIXED          0   0.0%   0.000       0.000       2.000       2.000       0.000      0.1000E-19   0.000    
    1733   1.733      0.1000E-02 FIXED          0  -0.0%   0.000       0.000       2.000       2.000       0.000      0.1000E-19   0.000    
    1734   1.734      0.1000E-02 FIXED          0   0.0%   0.000       0.000       2.000       2.000       0.000      0.1000E-19   0.000    
    1735   1.735      0.1000E-02 FIXED          0  -0.0%   0.000       0.000       2.000       2.000       0.000      0.1000E-19   0.000    
    1736   1.736      0.1000E-02 FIXED          0  -0.0%   0.000       0.000       2.000       2.000       0.000      0.1000E-19   0.000    
    1737   1.737      0.1000E-02 FIXED          0   0.0%   0.000       0.000       2.000       2.000       0.000      0.1000E-19   0.000    
    1738   1.738      0.1000E-02 FIXED          0  -0.0%   0.000       0.000       2.000       2.000       0.000      0.1000E-19   0.000    
    1739   1.739      0.1000E-02 FIXED          0   0.0%   0.000       0.000       2.000       2.000       0.000      0.1000E-19   0.000    
    1740   1.740      0.1000E-02 FIXED          0  -0.0%   0.000       0.000       2.000       2.000       0.000      0.1000E-19   0.000    
    1741   1.741      0.1000E-02 FIXED          0   0.0%   0.000       0.000       2.000       2.000       0.000      0.1000E-19   0.000    
    1742   1.742      0.1000E-02 FIXED          0  -0.0%   0.000       0.000       2.000       2.000       0.000      0.1000E-19   0.000    
    1743   1.743      0.1000E-02 FIXED          0   0.0%   0.000       0.000       2.000       2.000       0.000      0.1000E-19   0.000    
    1744   1.744      0.1000E-02 FIXED          0   0.0%   0.000       0.000       2.000       2.000       0.000      0.1000E-19   0.000    
    1745   1.745      0.1000E-02 FIXED          0  -0.0%   0.000       0.000       2.000       2.000       0.000      0.1000E-19   0.000    
    1746   1.746      0.1000E-02 FIXED          0  -0.0%   0.000       0.000       2.000       2.000       0.000      0.1000E-19   0.000    
    1747   1.747      0.1000E-02 FIXED          0  -0.0%   0.000       0.000       2.000       2.000       0.000      0.1000E-19   0.000    
    1748   1.748      0.1000E-02 FIXED          0  -0.0%   0.000       0.000       2.000       2.000       0.000      0.1000E-19   0.000    
    1749   1.749      0.1000E-02 FIXED          0  -0.0%   0.000       0.000       2.000       2.000       0.000      0.1000E-19   0.000    
    1750   1.750      0.1000E-02 FIXED          0  -0.0%   0.000       0.000       2.000       2.000       0.000      0.1000E-19   0.000    
    1751   1.751      0.1000E-02 FIXED          0   0.0%   0.000       0.000       2.000       2.000       0.000      0.1000E-19   0.000    
    1752   1.752      0.1000E-02 FIXED          0  -0.0%   0.000       0.000       2.000       2.000       0.000      0.1000E-19   0.000    
    1753   1.753      0.1000E-02 FIXED          0   0.0%   0.000       0.000       2.000       2.000       0.000      0.1000E-19   0.000    
    1754   1.754      0.1000E-02 FIXED          0   0.0%   0.000       0.000       2.000       2.000       0.000      0.1000E-19   0.000    
    1755   1.755      0.1000E-02 FIXED          0   0.0%   0.000       0.000       2.000       2.000       0.000      0.1000E-19   0.000    
    1756   1.756      0.1000E-02 FIXED          0  -0.0%   0.000       0.000       2.000       2.000       0.000      0.1000E-19   0.000    
    1757   1.757      0.1000E-02 FIXED          0   0.0%   0.000       0.000       2.000       2.000       0.000      0.1000E-19   0.000    
    1758   1.758      0.1000E-02 FIXED          0  -0.0%   0.000       0.000       2.000       2.000       0.000      0.1000E-19   0.000    
    1759   1.759      0.1000E-02 FIXED          0   0.0%   0.000       0.000       2.000       2.000       0.000      0.1000E-19   0.000    
   CYCLE    TIME      TIME-STEP  ELEMENT          ERROR  I-ENERGY    K-ENERGY T  K-ENERGY R  EXT-WORK     MAS.ERR     TOTAL MASS  MASS ADDED
    1760   1.760      0.1000E-02 FIXED          0  -0.0%   0.000       0.000       2.000       2.000       0.000      0.1000E-19   0.000    
    1761   1.761      0.1000E-02 FIXED          0   0.0%   0.000       0.000       2.000       2.000       0.000      0.1000E-19   0.000    
    1762   1.762      0.1000E-02 FIXED          0   0.0%   0.000       0.000       2.000       2.000       0.000      0.1000E-19   0.000    
    1763   1.763      0.1000E-02 FIXED          0   0.0%   0.000       0.000       2.000       2.000       0.000      0.1000E-19   0.000    
    1764   1.764      0.1000E-02 FIXED          0   0.0%   0.000       0.000       2.000       2.000       0.000      0.1000E-19   0.000    
    1765   1.765      0.1000E-02 FIXED          0  -0.0%   0.000       0.000       2.000       2.000       0.000      0.1000E-19   0.000    
    1766   1.766      0.1000E-02 FIXED          0   0.0%   0.000       0.000       2.000       2.000       0.000      0.1000E-19   0.000    
    1767   1.767      0.1000E-02 FIXED          0  -0.0%   0.000       0.000       2.000       2.000       0.000      0.1000E-19   0.000    
    1768   1.768      0.1000E-02 FIXED          0   0.0%   0.000       0.000       2.000       2.000       0.000      0.1000E-19   0.000    
    1769   1.769      0.1000E-02 FIXED          0  -0.0%   0.000       0.000       2.000       2.000       0.000      0.1000E-19   0.000    
    1770   1.770      0.1000E-02 FIXED          0   0.0%   0.000       0.000       2.000       2.000       0.000      0.1000E-19   0.000    
    1771   1.771      0.1000E-02 FIXED          0  -0.0%   0.000       0.000       2.000       2.000       0.000      0.1000E-19   0.000    
    1772   1.772      0.1000E-02 FIXED          0  -0.0%   0.000       0.000       2.000       2.000       0.000      0.1000E-19   0.000    
    1773   1.773      0.1000E-02 FIXED          0   0.0%   0.000       0.000       2.000       2.000       0.000      0.1000E-19   0.000    
    1774   1.774      0.1000E-02 FIXED          0  -0.0%   0.000       0.000       2.000       2.000       0.000      0.1000E-19   0.000    
    1775   1.775      0.1000E-02 FIXED          0   0.0%   0.000       0.000       2.000       2.000       0.000      0.1000E-19   0.000    
    1776   1.776      0.1000E-02 FIXED          0  -0.0%   0.000       0.000       2.000       2.000       0.000      0.1000E-19   0.000    
    1777   1.777      0.1000E-02 FIXED          0   0.0%   0.000       0.000       2.000       2.000       0.000      0.1000E-19   0.000    
    1778   1.778      0.1000E-02 FIXED          0   0.0%   0.000       0.000       2.000       2.000       0.000      0.1000E-19   0.000    
    1779   1.779      0.1000E-02 FIXED          0   0.0%   0.000       0.000       2.000       2.000       0.000      0.1000E-19   0.000    
    1780   1.780      0.1000E-02 FIXED          0  -0.0%   0.000       0.000       2.000       2.000       0.000      0.1000E-19   0.000    
    1781   1.781      0.1000E-02 FIXED          0   0.0%   0.000       0.000       2.000       2.000       0.000      0.1000E-19   0.000    
    1782   1.782      0.1000E-02 FIXED          0   0.0%   0.000       0.000       2.000       2.000       0.000      0.1000E-19   0.000    
    1783   1.783      0.1000E-02 FIXED          0   0.0%   0.000       0.000       2.000       2.000       0.000      0.1000E-19   0.000    
    1784   1.784      0.1000E-02 FIXED          0   0.0%   0.000       0.000       2.000       2.000       0.000      0.1000E-19   0.000    
    1785   1.785      0.1000E-02 FIXED          0   0.0%   0.000       0.000       2.000       2.000       0.000      0.1000E-19   0.000    
    1786   1.786      0.1000E-02 FIXED          0   0.0%   0.000       0.000       2.000       2.000       0.000      0.1000E-19   0.000    
    1787   1.787      0.1000E-02 FIXED          0   0.0%   0.000       0.000       2.000       2.000       0.000      0.1000E-19   0.000    
    1788   1.788      0.1000E-02 FIXED          0  -0.0%   0.000       0.000       2.000       2.000       0.000      0.1000E-19   0.000    
    1789   1.789      0.1000E-02 FIXED          0   0.0%   0.000       0.000       2.000       2.000       0.000      0.1000E-19   0.000    
    1790   1.790      0.1000E-02 FIXED          0  -0.0%   0.000       0.000       2.000       2.000       0.000      0.1000E-19   0.000    
    1791   1.791      0.1000E-02 FIXED          0   0.0%   0.000       0.000       2.000       2.000       0.000      0.1000E-19   0.000    
    1792   1.792      0.1000E-02 FIXED          0   0.0%   0.000       0.000       2.000       2.000       0.000      0.1000E-19   0.000    
    1793   1.793      0.1000E-02 FIXED          0   0.0%   0.000       0.000       2.000       2.000       0.000      0.1000E-19   0.000    
    1794   1.794      0.1000E-02 FIXED          0  -0.0%   0.000       0.000       2.000       2.000       0.000      0.1000E-19   0.000    
    1795   1.795      0.1000E-02 FIXED          0  -0.0%   0.000       0.000       2.000       2.000       0.000      0.1000E-19   0.000    
    1796   1.796      0.1000E-02 FIXED          0   0.0%   0.000       0.000       2.000       2.000       0.000      0.1000E-19   0.000    
    1797   1.797      0.1000E-02 FIXED          0   0.0%   0.000       0.000       2.000       2.000       0.000      0.1000E-19   0.000    
    1798   1.798      0.1000E-02 FIXED          0  -0.0%   0.000       0.000       2.000       2.000       0.000      0.1000E-19   0.000    
    1799   1.799      0.1000E-02 FIXED          0   0.0%   0.000       0.000       2.000       2.000       0.000      0.1000E-19   0.000    
    1800   1.800      0.1000E-02 FIXED          0  -0.0%   0.000       0.000       2.000       2.000       0.000      0.1000E-19   0.000    
    1801   1.801      0.1000E-02 FIXED          0   0.0%   0.000       0.000       2.000       2.000       0.000      0.1000E-19   0.000    
    1802   1.802      0.1000E-02 FIXED          0  -0.0%   0.000       0.000       2.000       2.000       0.000      0.1000E-19   0.000    
    1803   1.803      0.1000E-02 FIXED          0  -0.0%   0.000       0.000       2.000       2.000       0.000      0.1000E-19   0.000    
    1804   1.804      0.1000E-02 FIXED          0   0.0%   0.000       0.000       2.000       2.000       0.000      0.1000E-19   0.000    
    1805   1.805      0.1000E-02 FIXED          0  -0.0%   0.000       0.000       2.000       2.000       0.000      0.1000E-19   0.000    
    1806   1.806      0.1000E-02 FIXED          0  -0.0%   0.000       0.000       2.000       2.000       0.000      0.1000E-19   0.000    
    1807   1.807      0.1000E-02 FIXED          0   0.0%   0.000       0.000       2.000       2.000       0.000      0.1000E-19   0.000    
    1808   1.808      0.1000E-02 FIXED          0  -0.0%   0.000       0.000       2.000       2.000       0.000      0.1000E-19   0.000    
    1809   1.809      0.1000E-02 FIXED          0   0.0%   0.000       0.000       2.000       2.000       0.000      0.1000E-19   0.000    
    1810   1.810      0.1000E-02 FIXED          0  -0.0%   0.000       0.000       2.000       2.000       0.000      0.1000E-19   0.000    
    1811   1.811      0.1000E-02 FIXED          0   0.0%   0.000       0.000       2.000       2.000       0.000      0.1000E-19   0.000    
    1812   1.812      0.1000E-02 FIXED          0   0.0%   0.000       0.000       2.000       2.000       0.000      0.1000E-19   0.000    
    1813   1.813      0.1000E-02 FIXED          0   0.0%   0.000       0.000       2.000       2.000       0.000      0.1000E-19   0.000    
    1814   1.814      0.1000E-02 FIXED          0   0.0%   0.000       0.000       2.000       2.000       0.000      0.1000E-19   0.000    
   CYCLE    TIME      TIME-STEP  ELEMENT          ERROR  I-ENERGY    K-ENERGY T  K-ENERGY R  EXT-WORK     MAS.ERR     TOTAL MASS  MASS ADDED
    1815   1.815      0.1000E-02 FIXED          0  -0.0%   0.000       0.000       2.000       2.000       0.000      0.1000E-19   0.000    
    1816   1.816      0.1000E-02 FIXED          0   0.0%   0.000       0.000       2.000       2.000       0.000      0.1000E-19   0.000    
    1817   1.817      0.1000E-02 FIXED          0  -0.0%   0.000       0.000       2.000       2.000       0.000      0.1000E-19   0.000    
    1818   1.818      0.1000E-02 FIXED          0   0.0%   0.000       0.000       2.000       2.000       0.000      0.1000E-19   0.000    
    1819   1.819      0.1000E-02 FIXED          0  -0.0%   0.000       0.000       2.000       2.000       0.000      0.1000E-19   0.000    
    1820   1.820      0.1000E-02 FIXED          0  -0.0%   0.000       0.000       2.000       2.000       0.000      0.1000E-19   0.000    
    1821   1.821      0.1000E-02 FIXED          0   0.0%   0.000       0.000       2.000       2.000       0.000      0.1000E-19   0.000    
    1822   1.822      0.1000E-02 FIXED          0   0.0%   0.000       0.000       2.000       2.000       0.000      0.1000E-19   0.000    
    1823   1.823      0.1000E-02 FIXED          0   0.0%   0.000       0.000       2.000       2.000       0.000      0.1000E-19   0.000    
    1824   1.824      0.1000E-02 FIXED          0   0.0%   0.000       0.000       2.000       2.000       0.000      0.1000E-19   0.000    
    1825   1.825      0.1000E-02 FIXED          0  -0.0%   0.000       0.000       2.000       2.000       0.000      0.1000E-19   0.000    
    1826   1.826      0.1000E-02 FIXED          0   0.0%   0.000       0.000       2.000       2.000       0.000      0.1000E-19   0.000    
    1827   1.827      0.1000E-02 FIXED          0  -0.0%   0.000       0.000       2.000       2.000       0.000      0.1000E-19   0.000    
    1828   1.828      0.1000E-02 FIXED          0  -0.0%   0.000       0.000       2.000       2.000       0.000      0.1000E-19   0.000    
    1829   1.829      0.1000E-02 FIXED          0  -0.0%   0.000       0.000       2.000       2.000       0.000      0.1000E-19   0.000    
    1830   1.830      0.1000E-02 FIXED          0   0.0%   0.000       0.000       2.000       2.000       0.000      0.1000E-19   0.000    
    1831   1.831      0.1000E-02 FIXED          0  -0.0%   0.000       0.000       2.000       2.000       0.000      0.1000E-19   0.000    
    1832   1.832      0.1000E-02 FIXED          0   0.0%   0.000       0.000       2.000       2.000       0.000      0.1000E-19   0.000    
    1833   1.833      0.1000E-02 FIXED          0   0.0%   0.000       0.000       2.000       2.000       0.000      0.1000E-19   0.000    
    1834   1.834      0.1000E-02 FIXED          0   0.0%   0.000       0.000       2.000       2.000       0.000      0.1000E-19   0.000    
    1835   1.835      0.1000E-02 FIXED          0   0.0%   0.000       0.000       2.000       2.000       0.000      0.1000E-19   0.000    
    1836   1.836      0.1000E-02 FIXED          0  -0.0%   0.000       0.000       2.000       2.000       0.000      0.1000E-19   0.000    
    1837   1.837      0.1000E-02 FIXED          0   0.0%   0.000       0.000       2.000       2.000       0.000      0.1000E-19   0.000    
    1838   1.838      0.1000E-02 FIXED          0  -0.0%   0.000       0.000       2.000       2.000       0.000      0.1000E-19   0.000    
    1839   1.839      0.1000E-02 FIXED          0   0.0%   0.000       0.000       2.000       2.000       0.000      0.1000E-19   0.000    
    1840   1.840      0.1000E-02 FIXED          0   0.0%   0.000       0.000       2.000       2.000       0.000      0.1000E-19   0.000    
    1841   1.841      0.1000E-02 FIXED          0  -0.0%   0.000       0.000       2.000       2.000       0.000      0.1000E-19   0.000    
    1842   1.842      0.1000E-02 FIXED          0   0.0%   0.000       0.000       2.000       2.000       0.000      0.1000E-19   0.000    
    1843   1.843      0.1000E-02 FIXED          0  -0.0%   0.000       0.000       2.000       2.000       0.000      0.1000E-19   0.000    
    1844   1.844      0.1000E-02 FIXED          0   0.0%   0.000       0.000       2.000       2.000       0.000      0.1000E-19   0.000    
    1845   1.845      0.1000E-02 FIXED          0  -0.0%   0.000       0.000       2.000       2.000       0.000      0.1000E-19   0.000    
    1846   1.846      0.1000E-02 FIXED          0   0.0%   0.000       0.000       2.000       2.000       0.000      0.1000E-19   0.000    
    1847   1.847      0.1000E-02 FIXED          0  -0.0%   0.000       0.000       2.000       2.000       0.000      0.1000E-19   0.000    
    1848   1.848      0.1000E-02 FIXED          0  -0.0%   0.000       0.000       2.000       2.000       0.000      0.1000E-19   0.000    
    1849   1.849      0.1000E-02 FIXED          0   0.0%   0.000       0.000       2.000       2.000       0.000      0.1000E-19   0.000    
    1850   1.850      0.1000E-02 FIXED          0   0.0%   0.000       0.000       2.000       2.000       0.000      0.1000E-19   0.000    
    1851   1.851      0.1000E-02 FIXED          0   0.0%   0.000       0.000       2.000       2.000       0.000      0.1000E-19   0.000    
    1852   1.852      0.1000E-02 FIXED          0   0.0%   0.000       0.000       2.000       2.000       0.000      0.1000E-19   0.000    
    1853   1.853      0.1000E-02 FIXED          0  -0.0%   0.000       0.000       2.000       2.000       0.000      0.1000E-19   0.000    
    1854   1.854      0.1000E-02 FIXED          0   0.0%   0.000       0.000       2.000       2.000       0.000      0.1000E-19   0.000    
    1855   1.855      0.1000E-02 FIXED          0  -0.0%   0.000       0.000       2.000       2.000       0.000      0.1000E-19   0.000    
    1856   1.856      0.1000E-02 FIXED          0   0.0%   0.000       0.000       2.000       2.000       0.000      0.1000E-19   0.000    
    1857   1.857      0.1000E-02 FIXED          0  -0.0%   0.000       0.000       2.000       2.000       0.000      0.1000E-19   0.000    
    1858   1.858      0.1000E-02 FIXED          0   0.0%   0.000       0.000       2.000       2.000       0.000      0.1000E-19   0.000    
    1859   1.859      0.1000E-02 FIXED          0   0.0%   0.000       0.000       2.000       2.000       0.000      0.1000E-19   0.000    
    1860   1.860      0.1000E-02 FIXED          0  -0.0%   0.000       0.000       2.000       2.000       0.000      0.1000E-19   0.000    
    1861   1.861      0.1000E-02 FIXED          0  -0.0%   0.000       0.000       2.000       2.000       0.000      0.1000E-19   0.000    
    1862   1.862      0.1000E-02 FIXED          0   0.0%   0.000       0.000       2.000       2.000       0.000      0.1000E-19   0.000    
    1863   1.863      0.1000E-02 FIXED          0  -0.0%   0.000       0.000       2.000       2.000       0.000      0.1000E-19   0.000    
    1864   1.864      0.1000E-02 FIXED          0   0.0%   0.000       0.000       2.000       2.000       0.000      0.1000E-19   0.000    
    1865   1.865      0.1000E-02 FIXED          0   0.0%   0.000       0.000       2.000       2.000       0.000      0.1000E-19   0.000    
    1866   1.866      0.1000E-02 FIXED          0  -0.0%   0.000       0.000       2.000       2.000       0.000      0.1000E-19   0.000    
    1867   1.867      0.1000E-02 FIXED          0   0.0%   0.000       0.000       2.000       2.000       0.000      0.1000E-19   0.000    
    1868   1.868      0.1000E-02 FIXED          0   0.0%   0.000       0.000       2.000       2.000       0.000      0.1000E-19   0.000    
    1869   1.869      0.1000E-02 FIXED          0  -0.0%   0.000       0.000       2.000       2.000       0.000      0.1000E-19   0.000    
   CYCLE    TIME      TIME-STEP  ELEMENT          ERROR  I-ENERGY    K-ENERGY T  K-ENERGY R  EXT-WORK     MAS.ERR     TOTAL MASS  MASS ADDED
    1870   1.870      0.1000E-02 FIXED          0   0.0%   0.000       0.000       2.000       2.000       0.000      0.1000E-19   0.000    
    1871   1.871      0.1000E-02 FIXED          0   0.0%   0.000       0.000       2.000       2.000       0.000      0.1000E-19   0.000    
    1872   1.872      0.1000E-02 FIXED          0  -0.0%   0.000       0.000       2.000       2.000       0.000      0.1000E-19   0.000    
    1873   1.873      0.1000E-02 FIXED          0   0.0%   0.000       0.000       2.000       2.000       0.000      0.1000E-19   0.000    
    1874   1.874      0.1000E-02 FIXED          0  -0.0%   0.000       0.000       2.000       2.000       0.000      0.1000E-19   0.000    
    1875   1.875      0.1000E-02 FIXED          0   0.0%   0.000       0.000       2.000       2.000       0.000      0.1000E-19   0.000    
    1876   1.876      0.1000E-02 FIXED          0  -0.0%   0.000       0.000       2.000       2.000       0.000      0.1000E-19   0.000    
    1877   1.877      0.1000E-02 FIXED          0   0.0%   0.000       0.000       2.000       2.000       0.000      0.1000E-19   0.000    
    1878   1.878      0.1000E-02 FIXED          0  -0.0%   0.000       0.000       2.000       2.000       0.000      0.1000E-19   0.000    
    1879   1.879      0.1000E-02 FIXED          0   0.0%   0.000       0.000       2.000       2.000       0.000      0.1000E-19   0.000    
    1880   1.880      0.1000E-02 FIXED          0  -0.0%   0.000       0.000       2.000       2.000       0.000      0.1000E-19   0.000    
    1881   1.881      0.1000E-02 FIXED          0   0.0%   0.000       0.000       2.000       2.000       0.000      0.1000E-19   0.000    
    1882   1.882      0.1000E-02 FIXED          0   0.0%   0.000       0.000       2.000       2.000       0.000      0.1000E-19   0.000    
    1883   1.883      0.1000E-02 FIXED          0   0.0%   0.000       0.000       2.000       2.000       0.000      0.1000E-19   0.000    
    1884   1.884      0.1000E-02 FIXED          0   0.0%   0.000       0.000       2.000       2.000       0.000      0.1000E-19   0.000    
    1885   1.885      0.1000E-02 FIXED          0  -0.0%   0.000       0.000       2.000       2.000       0.000      0.1000E-19   0.000    
    1886   1.886      0.1000E-02 FIXED          0   0.0%   0.000       0.000       2.000       2.000       0.000      0.1000E-19   0.000    
    1887   1.887      0.1000E-02 FIXED          0   0.0%   0.000       0.000       2.000       2.000       0.000      0.1000E-19   0.000    
    1888   1.888      0.1000E-02 FIXED          0   0.0%   0.000       0.000       2.000       2.000       0.000      0.1000E-19   0.000    
    1889   1.889      0.1000E-02 FIXED          0  -0.0%   0.000       0.000       2.000       2.000       0.000      0.1000E-19   0.000    
    1890   1.890      0.1000E-02 FIXED          0   0.0%   0.000       0.000       2.000       2.000       0.000      0.1000E-19   0.000    
    1891   1.891      0.1000E-02 FIXED          0   0.0%   0.000       0.000       2.000       2.000       0.000      0.1000E-19   0.000    
    1892   1.892      0.1000E-02 FIXED          0   0.0%   0.000       0.000       2.000       2.000       0.000      0.1000E-19   0.000    
    1893   1.893      0.1000E-02 FIXED          0   0.0%   0.000       0.000       2.000       2.000       0.000      0.1000E-19   0.000    
    1894   1.894      0.1000E-02 FIXED          0   0.0%   0.000       0.000       2.000       2.000       0.000      0.1000E-19   0.000    
    1895   1.895      0.1000E-02 FIXED          0   0.0%   0.000       0.000       2.000       2.000       0.000      0.1000E-19   0.000    
    1896   1.896      0.1000E-02 FIXED          0  -0.0%   0.000       0.000       2.000       2.000       0.000      0.1000E-19   0.000    
    1897   1.897      0.1000E-02 FIXED          0   0.0%   0.000       0.000       2.000       2.000       0.000      0.1000E-19   0.000    
    1898   1.898      0.1000E-02 FIXED          0   0.0%   0.000       0.000       2.000       2.000       0.000      0.1000E-19   0.000    
    1899   1.899      0.1000E-02 FIXED          0  -0.0%   0.000       0.000       2.000       2.000       0.000      0.1000E-19   0.000    
    1900   1.900      0.1000E-02 FIXED          0   0.0%   0.000       0.000       2.000       2.000       0.000      0.1000E-19   0.000    
    1901   1.901      0.1000E-02 FIXED          0   0.0%   0.000       0.000       2.000       2.000       0.000      0.1000E-19   0.000    
    1902   1.902      0.1000E-02 FIXED          0   0.0%   0.000       0.000       2.000       2.000       0.000      0.1000E-19   0.000    
    1903   1.903      0.1000E-02 FIXED          0  -0.0%   0.000       0.000       2.000       2.000       0.000      0.1000E-19   0.000    
    1904   1.904      0.1000E-02 FIXED          0   0.0%   0.000       0.000       2.000       2.000       0.000      0.1000E-19   0.000    
    1905   1.905      0.1000E-02 FIXED          0  -0.0%   0.000       0.000       2.000       2.000       0.000      0.1000E-19   0.000    
    1906   1.906      0.1000E-02 FIXED          0  -0.0%   0.000       0.000       2.000       2.000       0.000      0.1000E-19   0.000    
    1907   1.907      0.1000E-02 FIXED          0   0.0%   0.000       0.000       2.000       2.000       0.000      0.1000E-19   0.000    
    1908   1.908      0.1000E-02 FIXED          0   0.0%   0.000       0.000       2.000       2.000       0.000      0.1000E-19   0.000    
    1909   1.909      0.1000E-02 FIXED          0  -0.0%   0.000       0.000       2.000       2.000       0.000      0.1000E-19   0.000    
    1910   1.910      0.1000E-02 FIXED          0   0.0%   0.000       0.000       2.000       2.000       0.000      0.1000E-19   0.000    
    1911   1.911      0.1000E-02 FIXED          0  -0.0%   0.000       0.000       2.000       2.000       0.000      0.1000E-19   0.000    
    1912   1.912      0.1000E-02 FIXED          0  -0.0%   0.000       0.000       2.000       2.000       0.000      0.1000E-19   0.000    
    1913   1.913      0.1000E-02 FIXED          0   0.0%   0.000       0.000       2.000       2.000       0.000      0.1000E-19   0.000    
    1914   1.914      0.1000E-02 FIXED          0  -0.0%   0.000       0.000       2.000       2.000       0.000      0.1000E-19   0.000    
    1915   1.915      0.1000E-02 FIXED          0  -0.0%   0.000       0.000       2.000       2.000       0.000      0.1000E-19   0.000    
    1916   1.916      0.1000E-02 FIXED          0  -0.0%   0.000       0.000       2.000       2.000       0.000      0.1000E-19   0.000    
    1917   1.917      0.1000E-02 FIXED          0   0.0%   0.000       0.000       2.000       2.000       0.000      0.1000E-19   0.000    
    1918   1.918      0.1000E-02 FIXED          0  -0.0%   0.000       0.000       2.000       2.000       0.000      0.1000E-19   0.000    
    1919   1.919      0.1000E-02 FIXED          0   0.0%   0.000       0.000       2.000       2.000       0.000      0.1000E-19   0.000    
    1920   1.920      0.1000E-02 FIXED          0   0.0%   0.000       0.000       2.000       2.000       0.000      0.1000E-19   0.000    
    1921   1.921      0.1000E-02 FIXED          0   0.0%   0.000       0.000       2.000       2.000       0.000      0.1000E-19   0.000    
    1922   1.922      0.1000E-02 FIXED          0   0.0%   0.000       0.000       2.000       2.000       0.000      0.1000E-19   0.000    
    1923   1.923      0.1000E-02 FIXED          0  -0.0%   0.000       0.000       2.000       2.000       0.000      0.1000E-19   0.000    
    1924   1.924      0.1000E-02 FIXED          0   0.0%   0.000       0.000       2.000       2.000       0.000      0.1000E-19   0.000    
   CYCLE    TIME      TIME-STEP  ELEMENT          ERROR  I-ENERGY    K-ENERGY T  K-ENERGY R  EXT-WORK     MAS.ERR     TOTAL MASS  MASS ADDED
    1925   1.925      0.1000E-02 FIXED          0   0.0%   0.000       0.000       2.000       2.000       0.000      0.1000E-19   0.000    
    1926   1.926      0.1000E-02 FIXED          0   0.0%   0.000       0.000       2.000       2.000       0.000      0.1000E-19   0.000    
    1927   1.927      0.1000E-02 FIXED          0   0.0%   0.000       0.000       2.000       2.000       0.000      0.1000E-19   0.000    
    1928   1.928      0.1000E-02 FIXED          0   0.0%   0.000       0.000       2.000       2.000       0.000      0.1000E-19   0.000    
    1929   1.929      0.1000E-02 FIXED          0  -0.0%   0.000       0.000       2.000       2.000       0.000      0.1000E-19   0.000    
    1930   1.930      0.1000E-02 FIXED          0   0.0%   0.000       0.000       2.000       2.000       0.000      0.1000E-19   0.000    
    1931   1.931      0.1000E-02 FIXED          0  -0.0%   0.000       0.000       2.000       2.000       0.000      0.1000E-19   0.000    
    1932   1.932      0.1000E-02 FIXED          0  -0.0%   0.000       0.000       2.000       2.000       0.000      0.1000E-19   0.000    
    1933   1.933      0.1000E-02 FIXED          0   0.0%   0.000       0.000       2.000       2.000       0.000      0.1000E-19   0.000    
    1934   1.934      0.1000E-02 FIXED          0  -0.0%   0.000       0.000       2.000       2.000       0.000      0.1000E-19   0.000    
    1935   1.935      0.1000E-02 FIXED          0   0.0%   0.000       0.000       2.000       2.000       0.000      0.1000E-19   0.000    
    1936   1.936      0.1000E-02 FIXED          0   0.0%   0.000       0.000       2.000       2.000       0.000      0.1000E-19   0.000    
    1937   1.937      0.1000E-02 FIXED          0   0.0%   0.000       0.000       2.000       2.000       0.000      0.1000E-19   0.000    
    1938   1.938      0.1000E-02 FIXED          0  -0.0%   0.000       0.000       2.000       2.000       0.000      0.1000E-19   0.000    
    1939   1.939      0.1000E-02 FIXED          0  -0.0%   0.000       0.000       2.000       2.000       0.000      0.1000E-19   0.000    
    1940   1.940      0.1000E-02 FIXED          0  -0.0%   0.000       0.000       2.000       2.000       0.000      0.1000E-19   0.000    
    1941   1.941      0.1000E-02 FIXED          0   0.0%   0.000       0.000       2.000       2.000       0.000      0.1000E-19   0.000    
    1942   1.942      0.1000E-02 FIXED          0  -0.0%   0.000       0.000       2.000       2.000       0.000      0.1000E-19   0.000    
    1943   1.943      0.1000E-02 FIXED          0   0.0%   0.000       0.000       2.000       2.000       0.000      0.1000E-19   0.000    
    1944   1.944      0.1000E-02 FIXED          0   0.0%   0.000       0.000       2.000       2.000       0.000      0.1000E-19   0.000    
    1945   1.945      0.1000E-02 FIXED          0  -0.0%   0.000       0.000       2.000       2.000       0.000      0.1000E-19   0.000    
    1946   1.946      0.1000E-02 FIXED          0  -0.0%   0.000       0.000       2.000       2.000       0.000      0.1000E-19   0.000    
    1947   1.947      0.1000E-02 FIXED          0   0.0%   0.000       0.000       2.000       2.000       0.000      0.1000E-19   0.000    
    1948   1.948      0.1000E-02 FIXED          0   0.0%   0.000       0.000       2.000       2.000       0.000      0.1000E-19   0.000    
    1949   1.949      0.1000E-02 FIXED          0   0.0%   0.000       0.000       2.000       2.000       0.000      0.1000E-19   0.000    
    1950   1.950      0.1000E-02 FIXED          0  -0.0%   0.000       0.000       2.000       2.000       0.000      0.1000E-19   0.000    
    1951   1.951      0.1000E-02 FIXED          0  -0.0%   0.000       0.000       2.000       2.000       0.000      0.1000E-19   0.000    
    1952   1.952      0.1000E-02 FIXED          0   0.0%   0.000       0.000       2.000       2.000       0.000      0.1000E-19   0.000    
    1953   1.953      0.1000E-02 FIXED          0   0.0%   0.000       0.000       2.000       2.000       0.000      0.1000E-19   0.000    
    1954   1.954      0.1000E-02 FIXED          0  -0.0%   0.000       0.000       2.000       2.000       0.000      0.1000E-19   0.000    
    1955   1.955      0.1000E-02 FIXED          0  -0.0%   0.000       0.000       2.000       2.000       0.000      0.1000E-19   0.000    
    1956   1.956      0.1000E-02 FIXED          0   0.0%   0.000       0.000       2.000       2.000       0.000      0.1000E-19   0.000    
    1957   1.957      0.1000E-02 FIXED          0  -0.0%   0.000       0.000       2.000       2.000       0.000      0.1000E-19   0.000    
    1958   1.958      0.1000E-02 FIXED          0   0.0%   0.000       0.000       2.000       2.000       0.000      0.1000E-19   0.000    
    1959   1.959      0.1000E-02 FIXED          0   0.0%   0.000       0.000       2.000       2.000       0.000      0.1000E-19   0.000    
    1960   1.960      0.1000E-02 FIXED          0  -0.0%   0.000       0.000       2.000       2.000       0.000      0.1000E-19   0.000    
    1961   1.961      0.1000E-02 FIXED          0   0.0%   0.000       0.000       2.000       2.000       0.000      0.1000E-19   0.000    
    1962   1.962      0.1000E-02 FIXED          0  -0.0%   0.000       0.000       2.000       2.000       0.000      0.1000E-19   0.000    
    1963   1.963      0.1000E-02 FIXED          0   0.0%   0.000       0.000       2.000       2.000       0.000      0.1000E-19   0.000    
    1964   1.964      0.1000E-02 FIXED          0  -0.0%   0.000       0.000       2.000       2.000       0.000      0.1000E-19   0.000    
    1965   1.965      0.1000E-02 FIXED          0  -0.0%   0.000       0.000       2.000       2.000       0.000      0.1000E-19   0.000    
    1966   1.966      0.1000E-02 FIXED          0   0.0%   0.000       0.000       2.000       2.000       0.000      0.1000E-19   0.000    
    1967   1.967      0.1000E-02 FIXED          0  -0.0%   0.000       0.000       2.000       2.000       0.000      0.1000E-19   0.000    
    1968   1.968      0.1000E-02 FIXED          0   0.0%   0.000       0.000       2.000       2.000       0.000      0.1000E-19   0.000    
    1969   1.969      0.1000E-02 FIXED          0  -0.0%   0.000       0.000       2.000       2.000       0.000      0.1000E-19   0.000    
    1970   1.970      0.1000E-02 FIXED          0   0.0%   0.000       0.000       2.000       2.000       0.000      0.1000E-19   0.000    
    1971   1.971      0.1000E-02 FIXED          0  -0.0%   0.000       0.000       2.000       2.000       0.000      0.1000E-19   0.000    
    1972   1.972      0.1000E-02 FIXED          0   0.0%   0.000       0.000       2.000       2.000       0.000      0.1000E-19   0.000    
    1973   1.973      0.1000E-02 FIXED          0   0.0%   0.000       0.000       2.000       2.000       0.000      0.1000E-19   0.000    
    1974   1.974      0.1000E-02 FIXED          0  -0.0%   0.000       0.000       2.000       2.000       0.000      0.1000E-19   0.000    
    1975   1.975      0.1000E-02 FIXED          0   0.0%   0.000       0.000       2.000       2.000       0.000      0.1000E-19   0.000    
    1976   1.976      0.1000E-02 FIXED          0  -0.0%   0.000       0.000       2.000       2.000       0.000      0.1000E-19   0.000    
    1977   1.977      0.1000E-02 FIXED          0  -0.0%   0.000       0.000       2.000       2.000       0.000      0.1000E-19   0.000    
    1978   1.978      0.1000E-02 FIXED          0   0.0%   0.000       0.000       2.000       2.000       0.000      0.1000E-19   0.000    
    1979   1.979      0.1000E-02 FIXED          0  -0.0%   0.000       0.000       2.000       2.000       0.000      0.1000E-19   0.000    
   CYCLE    TIME      TIME-STEP  ELEMENT          ERROR  I-ENERGY    K-ENERGY T  K-ENERGY R  EXT-WORK     MAS.ERR     TOTAL MASS  MASS ADDED
    1980   1.980      0.1000E-02 FIXED          0   0.0%   0.000       0.000       2.000       2.000       0.000      0.1000E-19   0.000    
    1981   1.981      0.1000E-02 FIXED          0   0.0%   0.000       0.000       2.000       2.000       0.000      0.1000E-19   0.000    
    1982   1.982      0.1000E-02 FIXED          0  -0.0%   0.000       0.000       2.000       2.000       0.000      0.1000E-19   0.000    
    1983   1.983      0.1000E-02 FIXED          0   0.0%   0.000       0.000       2.000       2.000       0.000      0.1000E-19   0.000    
    1984   1.984      0.1000E-02 FIXED          0  -0.0%   0.000       0.000       2.000       2.000       0.000      0.1000E-19   0.000    
    1985   1.985      0.1000E-02 FIXED          0   0.0%   0.000       0.000       2.000       2.000       0.000      0.1000E-19   0.000    
    1986   1.986      0.1000E-02 FIXED          0  -0.0%   0.000       0.000       2.000       2.000       0.000      0.1000E-19   0.000    
    1987   1.987      0.1000E-02 FIXED          0   0.0%   0.000       0.000       2.000       2.000       0.000      0.1000E-19   0.000    
    1988   1.988      0.1000E-02 FIXED          0   0.0%   0.000       0.000       2.000       2.000       0.000      0.1000E-19   0.000    
    1989   1.989      0.1000E-02 FIXED          0   0.0%   0.000       0.000       2.000       2.000       0.000      0.1000E-19   0.000    
    1990   1.990      0.1000E-02 FIXED          0   0.0%   0.000       0.000       2.000       2.000       0.000      0.1000E-19   0.000    
    1991   1.991      0.1000E-02 FIXED          0   0.0%   0.000       0.000       2.000       2.000       0.000      0.1000E-19   0.000    
    1992   1.992      0.1000E-02 FIXED          0   0.0%   0.000       0.000       2.000       2.000       0.000      0.1000E-19   0.000    
    1993   1.993      0.1000E-02 FIXED          0   0.0%   0.000       0.000       2.000       2.000       0.000      0.1000E-19   0.000    
    1994   1.994      0.1000E-02 FIXED          0   0.0%   0.000       0.000       2.000       2.000       0.000      0.1000E-19   0.000    
    1995   1.995      0.1000E-02 FIXED          0  -0.0%   0.000       0.000       2.000       2.000       0.000      0.1000E-19   0.000    
    1996   1.996      0.1000E-02 FIXED          0   0.0%   0.000       0.000       2.000       2.000       0.000      0.1000E-19   0.000    
    1997   1.997      0.1000E-02 FIXED          0  -0.0%   0.000       0.000       2.000       2.000       0.000      0.1000E-19   0.000    
    1998   1.998      0.1000E-02 FIXED          0   0.0%   0.000       0.000       2.000       2.000       0.000      0.1000E-19   0.000    
    1999   1.999      0.1000E-02 FIXED          0   0.0%   0.000       0.000       2.000       2.000       0.000      0.1000E-19   0.000    
    2000   2.000      0.1000E-02 FIXED          0  -0.0%   0.000       0.000       2.000       2.000       0.000      0.1000E-19   0.000    
    2001   2.001      0.1000E-02 FIXED          0   0.0%   0.000       0.000       2.000       2.000       0.000      0.1000E-19   0.000    
     ANIMATION FILE: BLOCKA003 WRITTEN
    2002   2.002      0.1000E-02 FIXED          0   0.0%   0.000       0.000       2.000       2.000       0.000      0.1000E-19   0.000    
    2003   2.003      0.1000E-02 FIXED          0  -0.0%   0.000       0.000       2.000       2.000       0.000      0.1000E-19   0.000    
    2004   2.004      0.1000E-02 FIXED          0   0.0%   0.000       0.000       2.000       2.000       0.000      0.1000E-19   0.000    
    2005   2.005      0.1000E-02 FIXED          0   0.0%   0.000       0.000       2.000       2.000       0.000      0.1000E-19   0.000    
    2006   2.006      0.1000E-02 FIXED          0  -0.0%   0.000       0.000       2.000       2.000       0.000      0.1000E-19   0.000    
    2007   2.007      0.1000E-02 FIXED          0   0.0%   0.000       0.000       2.000       2.000       0.000      0.1000E-19   0.000    
    2008   2.008      0.1000E-02 FIXED          0  -0.0%   0.000       0.000       2.000       2.000       0.000      0.1000E-19   0.000    
    2009   2.009      0.1000E-02 FIXED          0   0.0%   0.000       0.000       2.000       2.000       0.000      0.1000E-19   0.000    
    2010   2.010      0.1000E-02 FIXED          0  -0.0%   0.000       0.000       2.000       2.000       0.000      0.1000E-19   0.000    
    2011   2.011      0.1000E-02 FIXED          0  -0.0%   0.000       0.000       2.000       2.000       0.000      0.1000E-19   0.000    
    2012   2.012      0.1000E-02 FIXED          0   0.0%   0.000       0.000       2.000       2.000       0.000      0.1000E-19   0.000    
    2013   2.013      0.1000E-02 FIXED          0   0.0%   0.000       0.000       2.000       2.000       0.000      0.1000E-19   0.000    
    2014   2.014      0.1000E-02 FIXED          0  -0.0%   0.000       0.000       2.000       2.000       0.000      0.1000E-19   0.000    
    2015   2.015      0.1000E-02 FIXED          0  -0.0%   0.000       0.000       2.000       2.000       0.000      0.1000E-19   0.000    
    2016   2.016      0.1000E-02 FIXED          0   0.0%   0.000       0.000       2.000       2.000       0.000      0.1000E-19   0.000    
    2017   2.017      0.1000E-02 FIXED          0   0.0%   0.000       0.000       2.000       2.000       0.000      0.1000E-19   0.000    
    2018   2.018      0.1000E-02 FIXED          0   0.0%   0.000       0.000       2.000       2.000       0.000      0.1000E-19   0.000    
    2019   2.019      0.1000E-02 FIXED          0  -0.0%   0.000       0.000       2.000       2.000       0.000      0.1000E-19   0.000    
    2020   2.020      0.1000E-02 FIXED          0  -0.0%   0.000       0.000       2.000       2.000       0.000      0.1000E-19   0.000    
    2021   2.021      0.1000E-02 FIXED          0  -0.0%   0.000       0.000       2.000       2.000       0.000      0.1000E-19   0.000    
    2022   2.022      0.1000E-02 FIXED          0   0.0%   0.000       0.000       2.000       2.000       0.000      0.1000E-19   0.000    
    2023   2.023      0.1000E-02 FIXED          0   0.0%   0.000       0.000       2.000       2.000       0.000      0.1000E-19   0.000    
    2024   2.024      0.1000E-02 FIXED          0  -0.0%   0.000       0.000       2.000       2.000       0.000      0.1000E-19   0.000    
    2025   2.025      0.1000E-02 FIXED          0  -0.0%   0.000       0.000       2.000       2.000       0.000      0.1000E-19   0.000    
    2026   2.026      0.1000E-02 FIXED          0   0.0%   0.000       0.000       2.000       2.000       0.000      0.1000E-19   0.000    
    2027   2.027      0.1000E-02 FIXED          0  -0.0%   0.000       0.000       2.000       2.000       0.000      0.1000E-19   0.000    
    2028   2.028      0.1000E-02 FIXED          0   0.0%   0.000       0.000       2.000       2.000       0.000      0.1000E-19   0.000    
    2029   2.029      0.1000E-02 FIXED          0   0.0%   0.000       0.000       2.000       2.000       0.000      0.1000E-19   0.000    
    2030   2.030      0.1000E-02 FIXED          0  -0.0%   0.000       0.000       2.000       2.000       0.000      0.1000E-19   0.000    
    2031   2.031      0.1000E-02 FIXED          0   0.0%   0.000       0.000       2.000       2.000       0.000      0.1000E-19   0.000    
    2032   2.032      0.1000E-02 FIXED          0  -0.0%   0.000       0.000       2.000       2.000       0.000      0.1000E-19   0.000    
    2033   2.033      0.1000E-02 FIXED          0   0.0%   0.000       0.000       2.000       2.000       0.000      0.1000E-19   0.000    
    2034   2.034      0.1000E-02 FIXED          0   0.0%   0.000       0.000       2.000       2.000       0.000      0.1000E-19   0.000    
   CYCLE    TIME      TIME-STEP  ELEMENT          ERROR  I-ENERGY    K-ENERGY T  K-ENERGY R  EXT-WORK     MAS.ERR     TOTAL MASS  MASS ADDED
    2035   2.035      0.1000E-02 FIXED          0  -0.0%   0.000       0.000       2.000       2.000       0.000      0.1000E-19   0.000    
    2036   2.036      0.1000E-02 FIXED          0   0.0%   0.000       0.000       2.000       2.000       0.000      0.1000E-19   0.000    
    2037   2.037      0.1000E-02 FIXED          0   0.0%   0.000       0.000       2.000       2.000       0.000      0.1000E-19   0.000    
    2038   2.038      0.1000E-02 FIXED          0   0.0%   0.000       0.000       2.000       2.000       0.000      0.1000E-19   0.000    
    2039   2.039      0.1000E-02 FIXED          0  -0.0%   0.000       0.000       2.000       2.000       0.000      0.1000E-19   0.000    
    2040   2.040      0.1000E-02 FIXED          0   0.0%   0.000       0.000       2.000       2.000       0.000      0.1000E-19   0.000    
    2041   2.041      0.1000E-02 FIXED          0   0.0%   0.000       0.000       2.000       2.000       0.000      0.1000E-19   0.000    
    2042   2.042      0.1000E-02 FIXED          0  -0.0%   0.000       0.000       2.000       2.000       0.000      0.1000E-19   0.000    
    2043   2.043      0.1000E-02 FIXED          0   0.0%   0.000       0.000       2.000       2.000       0.000      0.1000E-19   0.000    
    2044   2.044      0.1000E-02 FIXED          0  -0.0%   0.000       0.000       2.000       2.000       0.000      0.1000E-19   0.000    
    2045   2.045      0.1000E-02 FIXED          0  -0.0%   0.000       0.000       2.000       2.000       0.000      0.1000E-19   0.000    
    2046   2.046      0.1000E-02 FIXED          0   0.0%   0.000       0.000       2.000       2.000       0.000      0.1000E-19   0.000    
    2047   2.047      0.1000E-02 FIXED          0   0.0%   0.000       0.000       2.000       2.000       0.000      0.1000E-19   0.000    
    2048   2.048      0.1000E-02 FIXED          0   0.0%   0.000       0.000       2.000       2.000       0.000      0.1000E-19   0.000    
    2049   2.049      0.1000E-02 FIXED          0  -0.0%   0.000       0.000       2.000       2.000       0.000      0.1000E-19   0.000    
    2050   2.050      0.1000E-02 FIXED          0   0.0%   0.000       0.000       2.000       2.000       0.000      0.1000E-19   0.000    
    2051   2.051      0.1000E-02 FIXED          0   0.0%   0.000       0.000       2.000       2.000       0.000      0.1000E-19   0.000    
    2052   2.052      0.1000E-02 FIXED          0   0.0%   0.000       0.000       2.000       2.000       0.000      0.1000E-19   0.000    
    2053   2.053      0.1000E-02 FIXED          0  -0.0%   0.000       0.000       2.000       2.000       0.000      0.1000E-19   0.000    
    2054   2.054      0.1000E-02 FIXED          0   0.0%   0.000       0.000       2.000       2.000       0.000      0.1000E-19   0.000    
    2055   2.055      0.1000E-02 FIXED          0   0.0%   0.000       0.000       2.000       2.000       0.000      0.1000E-19   0.000    
    2056   2.056      0.1000E-02 FIXED          0   0.0%   0.000       0.000       2.000       2.000       0.000      0.1000E-19   0.000    
    2057   2.057      0.1000E-02 FIXED          0   0.0%   0.000       0.000       2.000       2.000       0.000      0.1000E-19   0.000    
    2058   2.058      0.1000E-02 FIXED          0  -0.0%   0.000       0.000       2.000       2.000       0.000      0.1000E-19   0.000    
    2059   2.059      0.1000E-02 FIXED          0   0.0%   0.000       0.000       2.000       2.000       0.000      0.1000E-19   0.000    
    2060   2.060      0.1000E-02 FIXED          0  -0.0%   0.000       0.000       2.000       2.000       0.000      0.1000E-19   0.000    
    2061   2.061      0.1000E-02 FIXED          0   0.0%   0.000       0.000       2.000       2.000       0.000      0.1000E-19   0.000    
    2062   2.062      0.1000E-02 FIXED          0  -0.0%   0.000       0.000       2.000       2.000       0.000      0.1000E-19   0.000    
    2063   2.063      0.1000E-02 FIXED          0   0.0%   0.000       0.000       2.000       2.000       0.000      0.1000E-19   0.000    
    2064   2.064      0.1000E-02 FIXED          0  -0.0%   0.000       0.000       2.000       2.000       0.000      0.1000E-19   0.000    
    2065   2.065      0.1000E-02 FIXED          0   0.0%   0.000       0.000       2.000       2.000       0.000      0.1000E-19   0.000    
    2066   2.066      0.1000E-02 FIXED          0  -0.0%   0.000       0.000       2.000       2.000       0.000      0.1000E-19   0.000    
    2067   2.067      0.1000E-02 FIXED          0   0.0%   0.000       0.000       2.000       2.000       0.000      0.1000E-19   0.000    
    2068   2.068      0.1000E-02 FIXED          0   0.0%   0.000       0.000       2.000       2.000       0.000      0.1000E-19   0.000    
    2069   2.069      0.1000E-02 FIXED          0  -0.0%   0.000       0.000       2.000       2.000       0.000      0.1000E-19   0.000    
    2070   2.070      0.1000E-02 FIXED          0   0.0%   0.000       0.000       2.000       2.000       0.000      0.1000E-19   0.000    
    2071   2.071      0.1000E-02 FIXED          0   0.0%   0.000       0.000       2.000       2.000       0.000      0.1000E-19   0.000    
    2072   2.072      0.1000E-02 FIXED          0  -0.0%   0.000       0.000       2.000       2.000       0.000      0.1000E-19   0.000    
    2073   2.073      0.1000E-02 FIXED          0   0.0%   0.000       0.000       2.000       2.000       0.000      0.1000E-19   0.000    
    2074   2.074      0.1000E-02 FIXED          0  -0.0%   0.000       0.000       2.000       2.000       0.000      0.1000E-19   0.000    
    2075   2.075      0.1000E-02 FIXED          0  -0.0%   0.000       0.000       2.000       2.000       0.000      0.1000E-19   0.000    
    2076   2.076      0.1000E-02 FIXED          0   0.0%   0.000       0.000       2.000       2.000       0.000      0.1000E-19   0.000    
    2077   2.077      0.1000E-02 FIXED          0   0.0%   0.000       0.000       2.000       2.000       0.000      0.1000E-19   0.000    
    2078   2.078      0.1000E-02 FIXED          0   0.0%   0.000       0.000       2.000       2.000       0.000      0.1000E-19   0.000    
    2079   2.079      0.1000E-02 FIXED          0  -0.0%   0.000       0.000       2.000       2.000       0.000      0.1000E-19   0.000    
    2080   2.080      0.1000E-02 FIXED          0   0.0%   0.000       0.000       2.000       2.000       0.000      0.1000E-19   0.000    
    2081   2.081      0.1000E-02 FIXED          0   0.0%   0.000       0.000       2.000       2.000       0.000      0.1000E-19   0.000    
    2082   2.082      0.1000E-02 FIXED          0  -0.0%   0.000       0.000       2.000       2.000       0.000      0.1000E-19   0.000    
    2083   2.083      0.1000E-02 FIXED          0   0.0%   0.000       0.000       2.000       2.000       0.000      0.1000E-19   0.000    
    2084   2.084      0.1000E-02 FIXED          0   0.0%   0.000       0.000       2.000       2.000       0.000      0.1000E-19   0.000    
    2085   2.085      0.1000E-02 FIXED          0  -0.0%   0.000       0.000       2.000       2.000       0.000      0.1000E-19   0.000    
    2086   2.086      0.1000E-02 FIXED          0   0.0%   0.000       0.000       2.000       2.000       0.000      0.1000E-19   0.000    
    2087   2.087      0.1000E-02 FIXED          0   0.0%   0.000       0.000       2.000       2.000       0.000      0.1000E-19   0.000    
    2088   2.088      0.1000E-02 FIXED          0  -0.0%   0.000       0.000       2.000       2.000       0.000      0.1000E-19   0.000    
    2089   2.089      0.1000E-02 FIXED          0   0.0%   0.000       0.000       2.000       2.000       0.000      0.1000E-19   0.000    
   CYCLE    TIME      TIME-STEP  ELEMENT          ERROR  I-ENERGY    K-ENERGY T  K-ENERGY R  EXT-WORK     MAS.ERR     TOTAL MASS  MASS ADDED
    2090   2.090      0.1000E-02 FIXED          0  -0.0%   0.000       0.000       2.000       2.000       0.000      0.1000E-19   0.000    
    2091   2.091      0.1000E-02 FIXED          0   0.0%   0.000       0.000       2.000       2.000       0.000      0.1000E-19   0.000    
    2092   2.092      0.1000E-02 FIXED          0  -0.0%   0.000       0.000       2.000       2.000       0.000      0.1000E-19   0.000    
    2093   2.093      0.1000E-02 FIXED          0  -0.0%   0.000       0.000       2.000       2.000       0.000      0.1000E-19   0.000    
    2094   2.094      0.1000E-02 FIXED          0   0.0%   0.000       0.000       2.000       2.000       0.000      0.1000E-19   0.000    
    2095   2.095      0.1000E-02 FIXED          0  -0.0%   0.000       0.000       2.000       2.000       0.000      0.1000E-19   0.000    
    2096   2.096      0.1000E-02 FIXED          0   0.0%   0.000       0.000       2.000       2.000       0.000      0.1000E-19   0.000    
    2097   2.097      0.1000E-02 FIXED          0   0.0%   0.000       0.000       2.000       2.000       0.000      0.1000E-19   0.000    
    2098   2.098      0.1000E-02 FIXED          0  -0.0%   0.000       0.000       2.000       2.000       0.000      0.1000E-19   0.000    
    2099   2.099      0.1000E-02 FIXED          0   0.0%   0.000       0.000       2.000       2.000       0.000      0.1000E-19   0.000    
    2100   2.100      0.1000E-02 FIXED          0  -0.0%   0.000       0.000       2.000       2.000       0.000      0.1000E-19   0.000    
    2101   2.101      0.1000E-02 FIXED          0   0.0%   0.000       0.000       2.000       2.000       0.000      0.1000E-19   0.000    
    2102   2.102      0.1000E-02 FIXED          0   0.0%   0.000       0.000       2.000       2.000       0.000      0.1000E-19   0.000    
    2103   2.103      0.1000E-02 FIXED          0  -0.0%   0.000       0.000       2.000       2.000       0.000      0.1000E-19   0.000    
    2104   2.104      0.1000E-02 FIXED          0   0.0%   0.000       0.000       2.000       2.000       0.000      0.1000E-19   0.000    
    2105   2.105      0.1000E-02 FIXED          0  -0.0%   0.000       0.000       2.000       2.000       0.000      0.1000E-19   0.000    
    2106   2.106      0.1000E-02 FIXED          0   0.0%   0.000       0.000       2.000       2.000       0.000      0.1000E-19   0.000    
    2107   2.107      0.1000E-02 FIXED          0   0.0%   0.000       0.000       2.000       2.000       0.000      0.1000E-19   0.000    
    2108   2.108      0.1000E-02 FIXED          0   0.0%   0.000       0.000       2.000       2.000       0.000      0.1000E-19   0.000    
    2109   2.109      0.1000E-02 FIXED          0  -0.0%   0.000       0.000       2.000       2.000       0.000      0.1000E-19   0.000    
    2110   2.110      0.1000E-02 FIXED          0   0.0%   0.000       0.000       2.000       2.000       0.000      0.1000E-19   0.000    
    2111   2.111      0.1000E-02 FIXED          0  -0.0%   0.000       0.000       2.000       2.000       0.000      0.1000E-19   0.000    
    2112   2.112      0.1000E-02 FIXED          0  -0.0%   0.000       0.000       2.000       2.000       0.000      0.1000E-19   0.000    
    2113   2.113      0.1000E-02 FIXED          0   0.0%   0.000       0.000       2.000       2.000       0.000      0.1000E-19   0.000    
    2114   2.114      0.1000E-02 FIXED          0   0.0%   0.000       0.000       2.000       2.000       0.000      0.1000E-19   0.000    
    2115   2.115      0.1000E-02 FIXED          0  -0.0%   0.000       0.000       2.000       2.000       0.000      0.1000E-19   0.000    
    2116   2.116      0.1000E-02 FIXED          0   0.0%   0.000       0.000       2.000       2.000       0.000      0.1000E-19   0.000    
    2117   2.117      0.1000E-02 FIXED          0   0.0%   0.000       0.000       2.000       2.000       0.000      0.1000E-19   0.000    
    2118   2.118      0.1000E-02 FIXED          0   0.0%   0.000       0.000       2.000       2.000       0.000      0.1000E-19   0.000    
    2119   2.119      0.1000E-02 FIXED          0   0.0%   0.000       0.000       2.000       2.000       0.000      0.1000E-19   0.000    
    2120   2.120      0.1000E-02 FIXED          0  -0.0%   0.000       0.000       2.000       2.000       0.000      0.1000E-19   0.000    
    2121   2.121      0.1000E-02 FIXED          0   0.0%   0.000       0.000       2.000       2.000       0.000      0.1000E-19   0.000    
    2122   2.122      0.1000E-02 FIXED          0   0.0%   0.000       0.000       2.000       2.000       0.000      0.1000E-19   0.000    
    2123   2.123      0.1000E-02 FIXED          0   0.0%   0.000       0.000       2.000       2.000       0.000      0.1000E-19   0.000    
    2124   2.124      0.1000E-02 FIXED          0  -0.0%   0.000       0.000       2.000       2.000       0.000      0.1000E-19   0.000    
    2125   2.125      0.1000E-02 FIXED          0   0.0%   0.000       0.000       2.000       2.000       0.000      0.1000E-19   0.000    
    2126   2.126      0.1000E-02 FIXED          0  -0.0%   0.000       0.000       2.000       2.000       0.000      0.1000E-19   0.000    
    2127   2.127      0.1000E-02 FIXED          0   0.0%   0.000       0.000       2.000       2.000       0.000      0.1000E-19   0.000    
    2128   2.128      0.1000E-02 FIXED          0  -0.0%   0.000       0.000       2.000       2.000       0.000      0.1000E-19   0.000    
    2129   2.129      0.1000E-02 FIXED          0   0.0%   0.000       0.000       2.000       2.000       0.000      0.1000E-19   0.000    
    2130   2.130      0.1000E-02 FIXED          0  -0.0%   0.000       0.000       2.000       2.000       0.000      0.1000E-19   0.000    
    2131   2.131      0.1000E-02 FIXED          0   0.0%   0.000       0.000       2.000       2.000       0.000      0.1000E-19   0.000    
    2132   2.132      0.1000E-02 FIXED          0  -0.0%   0.000       0.000       2.000       2.000       0.000      0.1000E-19   0.000    
    2133   2.133      0.1000E-02 FIXED          0   0.0%   0.000       0.000       2.000       2.000       0.000      0.1000E-19   0.000    
    2134   2.134      0.1000E-02 FIXED          0  -0.0%   0.000       0.000       2.000       2.000       0.000      0.1000E-19   0.000    
    2135   2.135      0.1000E-02 FIXED          0   0.0%   0.000       0.000       2.000       2.000       0.000      0.1000E-19   0.000    
    2136   2.136      0.1000E-02 FIXED          0   0.0%   0.000       0.000       2.000       2.000       0.000      0.1000E-19   0.000    
    2137   2.137      0.1000E-02 FIXED          0   0.0%   0.000       0.000       2.000       2.000       0.000      0.1000E-19   0.000    
    2138   2.138      0.1000E-02 FIXED          0  -0.0%   0.000       0.000       2.000       2.000       0.000      0.1000E-19   0.000    
    2139   2.139      0.1000E-02 FIXED          0  -0.0%   0.000       0.000       2.000       2.000       0.000      0.1000E-19   0.000    
    2140   2.140      0.1000E-02 FIXED          0   0.0%   0.000       0.000       2.000       2.000       0.000      0.1000E-19   0.000    
    2141   2.141      0.1000E-02 FIXED          0   0.0%   0.000       0.000       2.000       2.000       0.000      0.1000E-19   0.000    
    2142   2.142      0.1000E-02 FIXED          0   0.0%   0.000       0.000       2.000       2.000       0.000      0.1000E-19   0.000    
    2143   2.143      0.1000E-02 FIXED          0  -0.0%   0.000       0.000       2.000       2.000       0.000      0.1000E-19   0.000    
    2144   2.144      0.1000E-02 FIXED          0   0.0%   0.000       0.000       2.000       2.000       0.000      0.1000E-19   0.000    
   CYCLE    TIME      TIME-STEP  ELEMENT          ERROR  I-ENERGY    K-ENERGY T  K-ENERGY R  EXT-WORK     MAS.ERR     TOTAL MASS  MASS ADDED
    2145   2.145      0.1000E-02 FIXED          0  -0.0%   0.000       0.000       2.000       2.000       0.000      0.1000E-19   0.000    
    2146   2.146      0.1000E-02 FIXED          0   0.0%   0.000       0.000       2.000       2.000       0.000      0.1000E-19   0.000    
    2147   2.147      0.1000E-02 FIXED          0   0.0%   0.000       0.000       2.000       2.000       0.000      0.1000E-19   0.000    
    2148   2.148      0.1000E-02 FIXED          0   0.0%   0.000       0.000       2.000       2.000       0.000      0.1000E-19   0.000    
    2149   2.149      0.1000E-02 FIXED          0   0.0%   0.000       0.000       2.000       2.000       0.000      0.1000E-19   0.000    
    2150   2.150      0.1000E-02 FIXED          0  -0.0%   0.000       0.000       2.000       2.000       0.000      0.1000E-19   0.000    
    2151   2.151      0.1000E-02 FIXED          0   0.0%   0.000       0.000       2.000       2.000       0.000      0.1000E-19   0.000    
    2152   2.152      0.1000E-02 FIXED          0  -0.0%   0.000       0.000       2.000       2.000       0.000      0.1000E-19   0.000    
    2153   2.153      0.1000E-02 FIXED          0   0.0%   0.000       0.000       2.000       2.000       0.000      0.1000E-19   0.000    
    2154   2.154      0.1000E-02 FIXED          0  -0.0%   0.000       0.000       2.000       2.000       0.000      0.1000E-19   0.000    
    2155   2.155      0.1000E-02 FIXED          0   0.0%   0.000       0.000       2.000       2.000       0.000      0.1000E-19   0.000    
    2156   2.156      0.1000E-02 FIXED          0  -0.0%   0.000       0.000       2.000       2.000       0.000      0.1000E-19   0.000    
    2157   2.157      0.1000E-02 FIXED          0  -0.0%   0.000       0.000       2.000       2.000       0.000      0.1000E-19   0.000    
    2158   2.158      0.1000E-02 FIXED          0   0.0%   0.000       0.000       2.000       2.000       0.000      0.1000E-19   0.000    
    2159   2.159      0.1000E-02 FIXED          0  -0.0%   0.000       0.000       2.000       2.000       0.000      0.1000E-19   0.000    
    2160   2.160      0.1000E-02 FIXED          0   0.0%   0.000       0.000       2.000       2.000       0.000      0.1000E-19   0.000    
    2161   2.161      0.1000E-02 FIXED          0  -0.0%   0.000       0.000       2.000       2.000       0.000      0.1000E-19   0.000    
    2162   2.162      0.1000E-02 FIXED          0   0.0%   0.000       0.000       2.000       2.000       0.000      0.1000E-19   0.000    
    2163   2.163      0.1000E-02 FIXED          0  -0.0%   0.000       0.000       2.000       2.000       0.000      0.1000E-19   0.000    
    2164   2.164      0.1000E-02 FIXED          0   0.0%   0.000       0.000       2.000       2.000       0.000      0.1000E-19   0.000    
    2165   2.165      0.1000E-02 FIXED          0  -0.0%   0.000       0.000       2.000       2.000       0.000      0.1000E-19   0.000    
    2166   2.166      0.1000E-02 FIXED          0   0.0%   0.000       0.000       2.000       2.000       0.000      0.1000E-19   0.000    
    2167   2.167      0.1000E-02 FIXED          0   0.0%   0.000       0.000       2.000       2.000       0.000      0.1000E-19   0.000    
    2168   2.168      0.1000E-02 FIXED          0  -0.0%   0.000       0.000       2.000       2.000       0.000      0.1000E-19   0.000    
    2169   2.169      0.1000E-02 FIXED          0  -0.0%   0.000       0.000       2.000       2.000       0.000      0.1000E-19   0.000    
    2170   2.170      0.1000E-02 FIXED          0   0.0%   0.000       0.000       2.000       2.000       0.000      0.1000E-19   0.000    
    2171   2.171      0.1000E-02 FIXED          0   0.0%   0.000       0.000       2.000       2.000       0.000      0.1000E-19   0.000    
    2172   2.172      0.1000E-02 FIXED          0  -0.0%   0.000       0.000       2.000       2.000       0.000      0.1000E-19   0.000    
    2173   2.173      0.1000E-02 FIXED          0   0.0%   0.000       0.000       2.000       2.000       0.000      0.1000E-19   0.000    
    2174   2.174      0.1000E-02 FIXED          0  -0.0%   0.000       0.000       2.000       2.000       0.000      0.1000E-19   0.000    
    2175   2.175      0.1000E-02 FIXED          0   0.0%   0.000       0.000       2.000       2.000       0.000      0.1000E-19   0.000    
    2176   2.176      0.1000E-02 FIXED          0  -0.0%   0.000       0.000       2.000       2.000       0.000      0.1000E-19   0.000    
    2177   2.177      0.1000E-02 FIXED          0  -0.0%   0.000       0.000       2.000       2.000       0.000      0.1000E-19   0.000    
    2178   2.178      0.1000E-02 FIXED          0   0.0%   0.000       0.000       2.000       2.000       0.000      0.1000E-19   0.000    
    2179   2.179      0.1000E-02 FIXED          0   0.0%   0.000       0.000       2.000       2.000       0.000      0.1000E-19   0.000    
    2180   2.180      0.1000E-02 FIXED          0  -0.0%   0.000       0.000       2.000       2.000       0.000      0.1000E-19   0.000    
    2181   2.181      0.1000E-02 FIXED          0   0.0%   0.000       0.000       2.000       2.000       0.000      0.1000E-19   0.000    
    2182   2.182      0.1000E-02 FIXED          0  -0.0%   0.000       0.000       2.000       2.000       0.000      0.1000E-19   0.000    
    2183   2.183      0.1000E-02 FIXED          0   0.0%   0.000       0.000       2.000       2.000       0.000      0.1000E-19   0.000    
    2184   2.184      0.1000E-02 FIXED          0  -0.0%   0.000       0.000       2.000       2.000       0.000      0.1000E-19   0.000    
    2185   2.185      0.1000E-02 FIXED          0   0.0%   0.000       0.000       2.000       2.000       0.000      0.1000E-19   0.000    
    2186   2.186      0.1000E-02 FIXED          0   0.0%   0.000       0.000       2.000       2.000       0.000      0.1000E-19   0.000    
    2187   2.187      0.1000E-02 FIXED          0  -0.0%   0.000       0.000       2.000       2.000       0.000      0.1000E-19   0.000    
    2188   2.188      0.1000E-02 FIXED          0  -0.0%   0.000       0.000       2.000       2.000       0.000      0.1000E-19   0.000    
    2189   2.189      0.1000E-02 FIXED          0   0.0%   0.000       0.000       2.000       2.000       0.000      0.1000E-19   0.000    
    2190   2.190      0.1000E-02 FIXED          0  -0.0%   0.000       0.000       2.000       2.000       0.000      0.1000E-19   0.000    
    2191   2.191      0.1000E-02 FIXED          0   0.0%   0.000       0.000       2.000       2.000       0.000      0.1000E-19   0.000    
    2192   2.192      0.1000E-02 FIXED          0  -0.0%   0.000       0.000       2.000       2.000       0.000      0.1000E-19   0.000    
    2193   2.193      0.1000E-02 FIXED          0  -0.0%   0.000       0.000       2.000       2.000       0.000      0.1000E-19   0.000    
    2194   2.194      0.1000E-02 FIXED          0  -0.0%   0.000       0.000       2.000       2.000       0.000      0.1000E-19   0.000    
    2195   2.195      0.1000E-02 FIXED          0   0.0%   0.000       0.000       2.000       2.000       0.000      0.1000E-19   0.000    
    2196   2.196      0.1000E-02 FIXED          0   0.0%   0.000       0.000       2.000       2.000       0.000      0.1000E-19   0.000    
    2197   2.197      0.1000E-02 FIXED          0  -0.0%   0.000       0.000       2.000       2.000       0.000      0.1000E-19   0.000    
    2198   2.198      0.1000E-02 FIXED          0  -0.0%   0.000       0.000       2.000       2.000       0.000      0.1000E-19   0.000    
    2199   2.199      0.1000E-02 FIXED          0   0.0%   0.000       0.000       2.000       2.000       0.000      0.1000E-19   0.000    
   CYCLE    TIME      TIME-STEP  ELEMENT          ERROR  I-ENERGY    K-ENERGY T  K-ENERGY R  EXT-WORK     MAS.ERR     TOTAL MASS  MASS ADDED
    2200   2.200      0.1000E-02 FIXED          0   0.0%   0.000       0.000       2.000       2.000       0.000      0.1000E-19   0.000    
    2201   2.201      0.1000E-02 FIXED          0   0.0%   0.000       0.000       2.000       2.000       0.000      0.1000E-19   0.000    
    2202   2.202      0.1000E-02 FIXED          0   0.0%   0.000       0.000       2.000       2.000       0.000      0.1000E-19   0.000    
    2203   2.203      0.1000E-02 FIXED          0   0.0%   0.000       0.000       2.000       2.000       0.000      0.1000E-19   0.000    
    2204   2.204      0.1000E-02 FIXED          0  -0.0%   0.000       0.000       2.000       2.000       0.000      0.1000E-19   0.000    
    2205   2.205      0.1000E-02 FIXED          0  -0.0%   0.000       0.000       2.000       2.000       0.000      0.1000E-19   0.000    
    2206   2.206      0.1000E-02 FIXED          0   0.0%   0.000       0.000       2.000       2.000       0.000      0.1000E-19   0.000    
    2207   2.207      0.1000E-02 FIXED          0   0.0%   0.000       0.000       2.000       2.000       0.000      0.1000E-19   0.000    
    2208   2.208      0.1000E-02 FIXED          0   0.0%   0.000       0.000       2.000       2.000       0.000      0.1000E-19   0.000    
    2209   2.209      0.1000E-02 FIXED          0   0.0%   0.000       0.000       2.000       2.000       0.000      0.1000E-19   0.000    
    2210   2.210      0.1000E-02 FIXED          0   0.0%   0.000       0.000       2.000       2.000       0.000      0.1000E-19   0.000    
    2211   2.211      0.1000E-02 FIXED          0  -0.0%   0.000       0.000       2.000       2.000       0.000      0.1000E-19   0.000    
    2212   2.212      0.1000E-02 FIXED          0  -0.0%   0.000       0.000       2.000       2.000       0.000      0.1000E-19   0.000    
    2213   2.213      0.1000E-02 FIXED          0  -0.0%   0.000       0.000       2.000       2.000       0.000      0.1000E-19   0.000    
    2214   2.214      0.1000E-02 FIXED          0   0.0%   0.000       0.000       2.000       2.000       0.000      0.1000E-19   0.000    
    2215   2.215      0.1000E-02 FIXED          0  -0.0%   0.000       0.000       2.000       2.000       0.000      0.1000E-19   0.000    
    2216   2.216      0.1000E-02 FIXED          0   0.0%   0.000       0.000       2.000       2.000       0.000      0.1000E-19   0.000    
    2217   2.217      0.1000E-02 FIXED          0   0.0%   0.000       0.000       2.000       2.000       0.000      0.1000E-19   0.000    
    2218   2.218      0.1000E-02 FIXED          0   0.0%   0.000       0.000       2.000       2.000       0.000      0.1000E-19   0.000    
    2219   2.219      0.1000E-02 FIXED          0   0.0%   0.000       0.000       2.000       2.000       0.000      0.1000E-19   0.000    
    2220   2.220      0.1000E-02 FIXED          0  -0.0%   0.000       0.000       2.000       2.000       0.000      0.1000E-19   0.000    
    2221   2.221      0.1000E-02 FIXED          0   0.0%   0.000       0.000       2.000       2.000       0.000      0.1000E-19   0.000    
    2222   2.222      0.1000E-02 FIXED          0   0.0%   0.000       0.000       2.000       2.000       0.000      0.1000E-19   0.000    
    2223   2.223      0.1000E-02 FIXED          0  -0.0%   0.000       0.000       2.000       2.000       0.000      0.1000E-19   0.000    
    2224   2.224      0.1000E-02 FIXED          0   0.0%   0.000       0.000       2.000       2.000       0.000      0.1000E-19   0.000    
    2225   2.225      0.1000E-02 FIXED          0   0.0%   0.000       0.000       2.000       2.000       0.000      0.1000E-19   0.000    
    2226   2.226      0.1000E-02 FIXED          0   0.0%   0.000       0.000       2.000       2.000       0.000      0.1000E-19   0.000    
    2227   2.227      0.1000E-02 FIXED          0   0.0%   0.000       0.000       2.000       2.000       0.000      0.1000E-19   0.000    
    2228   2.228      0.1000E-02 FIXED          0   0.0%   0.000       0.000       2.000       2.000       0.000      0.1000E-19   0.000    
    2229   2.229      0.1000E-02 FIXED          0   0.0%   0.000       0.000       2.000       2.000       0.000      0.1000E-19   0.000    
    2230   2.230      0.1000E-02 FIXED          0   0.0%   0.000       0.000       2.000       2.000       0.000      0.1000E-19   0.000    
    2231   2.231      0.1000E-02 FIXED          0   0.0%   0.000       0.000       2.000       2.000       0.000      0.1000E-19   0.000    
    2232   2.232      0.1000E-02 FIXED          0  -0.0%   0.000       0.000       2.000       2.000       0.000      0.1000E-19   0.000    
    2233   2.233      0.1000E-02 FIXED          0   0.0%   0.000       0.000       2.000       2.000       0.000      0.1000E-19   0.000    
    2234   2.234      0.1000E-02 FIXED          0   0.0%   0.000       0.000       2.000       2.000       0.000      0.1000E-19   0.000    
    2235   2.235      0.1000E-02 FIXED          0   0.0%   0.000       0.000       2.000       2.000       0.000      0.1000E-19   0.000    
    2236   2.236      0.1000E-02 FIXED          0   0.0%   0.000       0.000       2.000       2.000       0.000      0.1000E-19   0.000    
    2237   2.237      0.1000E-02 FIXED          0   0.0%   0.000       0.000       2.000       2.000       0.000      0.1000E-19   0.000    
    2238   2.238      0.1000E-02 FIXED          0   0.0%   0.000       0.000       2.000       2.000       0.000      0.1000E-19   0.000    
    2239   2.239      0.1000E-02 FIXED          0   0.0%   0.000       0.000       2.000       2.000       0.000      0.1000E-19   0.000    
    2240   2.240      0.1000E-02 FIXED          0  -0.0%   0.000       0.000       2.000       2.000       0.000      0.1000E-19   0.000    
    2241   2.241      0.1000E-02 FIXED          0  -0.0%   0.000       0.000       2.000       2.000       0.000      0.1000E-19   0.000    
    2242   2.242      0.1000E-02 FIXED          0   0.0%   0.000       0.000       2.000       2.000       0.000      0.1000E-19   0.000    
    2243   2.243      0.1000E-02 FIXED          0   0.0%   0.000       0.000       2.000       2.000       0.000      0.1000E-19   0.000    
    2244   2.244      0.1000E-02 FIXED          0   0.0%   0.000       0.000       2.000       2.000       0.000      0.1000E-19   0.000    
    2245   2.245      0.1000E-02 FIXED          0  -0.0%   0.000       0.000       2.000       2.000       0.000      0.1000E-19   0.000    
    2246   2.246      0.1000E-02 FIXED          0   0.0%   0.000       0.000       2.000       2.000       0.000      0.1000E-19   0.000    
    2247   2.247      0.1000E-02 FIXED          0   0.0%   0.000       0.000       2.000       2.000       0.000      0.1000E-19   0.000    
    2248   2.248      0.1000E-02 FIXED          0   0.0%   0.000       0.000       2.000       2.000       0.000      0.1000E-19   0.000    
    2249   2.249      0.1000E-02 FIXED          0  -0.0%   0.000       0.000       2.000       2.000       0.000      0.1000E-19   0.000    
    2250   2.250      0.1000E-02 FIXED          0  -0.0%   0.000       0.000       2.000       2.000       0.000      0.1000E-19   0.000    
    2251   2.251      0.1000E-02 FIXED          0   0.0%   0.000       0.000       2.000       2.000       0.000      0.1000E-19   0.000    
    2252   2.252      0.1000E-02 FIXED          0   0.0%   0.000       0.000       2.000       2.000       0.000      0.1000E-19   0.000    
    2253   2.253      0.1000E-02 FIXED          0  -0.0%   0.000       0.000       2.000       2.000       0.000      0.1000E-19   0.000    
    2254   2.254      0.1000E-02 FIXED          0   0.0%   0.000       0.000       2.000       2.000       0.000      0.1000E-19   0.000    
   CYCLE    TIME      TIME-STEP  ELEMENT          ERROR  I-ENERGY    K-ENERGY T  K-ENERGY R  EXT-WORK     MAS.ERR     TOTAL MASS  MASS ADDED
    2255   2.255      0.1000E-02 FIXED          0   0.0%   0.000       0.000       2.000       2.000       0.000      0.1000E-19   0.000    
    2256   2.256      0.1000E-02 FIXED          0   0.0%   0.000       0.000       2.000       2.000       0.000      0.1000E-19   0.000    
    2257   2.257      0.1000E-02 FIXED          0   0.0%   0.000       0.000       2.000       2.000       0.000      0.1000E-19   0.000    
    2258   2.258      0.1000E-02 FIXED          0   0.0%   0.000       0.000       2.000       2.000       0.000      0.1000E-19   0.000    
    2259   2.259      0.1000E-02 FIXED          0   0.0%   0.000       0.000       2.000       2.000       0.000      0.1000E-19   0.000    
    2260   2.260      0.1000E-02 FIXED          0  -0.0%   0.000       0.000       2.000       2.000       0.000      0.1000E-19   0.000    
    2261   2.261      0.1000E-02 FIXED          0   0.0%   0.000       0.000       2.000       2.000       0.000      0.1000E-19   0.000    
    2262   2.262      0.1000E-02 FIXED          0   0.0%   0.000       0.000       2.000       2.000       0.000      0.1000E-19   0.000    
    2263   2.263      0.1000E-02 FIXED          0   0.0%   0.000       0.000       2.000       2.000       0.000      0.1000E-19   0.000    
    2264   2.264      0.1000E-02 FIXED          0  -0.0%   0.000       0.000       2.000       2.000       0.000      0.1000E-19   0.000    
    2265   2.265      0.1000E-02 FIXED          0   0.0%   0.000       0.000       2.000       2.000       0.000      0.1000E-19   0.000    
    2266   2.266      0.1000E-02 FIXED          0   0.0%   0.000       0.000       2.000       2.000       0.000      0.1000E-19   0.000    
    2267   2.267      0.1000E-02 FIXED          0   0.0%   0.000       0.000       2.000       2.000       0.000      0.1000E-19   0.000    
    2268   2.268      0.1000E-02 FIXED          0  -0.0%   0.000       0.000       2.000       2.000       0.000      0.1000E-19   0.000    
    2269   2.269      0.1000E-02 FIXED          0   0.0%   0.000       0.000       2.000       2.000       0.000      0.1000E-19   0.000    
    2270   2.270      0.1000E-02 FIXED          0  -0.0%   0.000       0.000       2.000       2.000       0.000      0.1000E-19   0.000    
    2271   2.271      0.1000E-02 FIXED          0  -0.0%   0.000       0.000       2.000       2.000       0.000      0.1000E-19   0.000    
    2272   2.272      0.1000E-02 FIXED          0   0.0%   0.000       0.000       2.000       2.000       0.000      0.1000E-19   0.000    
    2273   2.273      0.1000E-02 FIXED          0   0.0%   0.000       0.000       2.000       2.000       0.000      0.1000E-19   0.000    
    2274   2.274      0.1000E-02 FIXED          0   0.0%   0.000       0.000       2.000       2.000       0.000      0.1000E-19   0.000    
    2275   2.275      0.1000E-02 FIXED          0   0.0%   0.000       0.000       2.000       2.000       0.000      0.1000E-19   0.000    
    2276   2.276      0.1000E-02 FIXED          0  -0.0%   0.000       0.000       2.000       2.000       0.000      0.1000E-19   0.000    
    2277   2.277      0.1000E-02 FIXED          0   0.0%   0.000       0.000       2.000       2.000       0.000      0.1000E-19   0.000    
    2278   2.278      0.1000E-02 FIXED          0  -0.0%   0.000       0.000       2.000       2.000       0.000      0.1000E-19   0.000    
    2279   2.279      0.1000E-02 FIXED          0   0.0%   0.000       0.000       2.000       2.000       0.000      0.1000E-19   0.000    
    2280   2.280      0.1000E-02 FIXED          0   0.0%   0.000       0.000       2.000       2.000       0.000      0.1000E-19   0.000    
    2281   2.281      0.1000E-02 FIXED          0   0.0%   0.000       0.000       2.000       2.000       0.000      0.1000E-19   0.000    
    2282   2.282      0.1000E-02 FIXED          0   0.0%   0.000       0.000       2.000       2.000       0.000      0.1000E-19   0.000    
    2283   2.283      0.1000E-02 FIXED          0   0.0%   0.000       0.000       2.000       2.000       0.000      0.1000E-19   0.000    
    2284   2.284      0.1000E-02 FIXED          0   0.0%   0.000       0.000       2.000       2.000       0.000      0.1000E-19   0.000    
    2285   2.285      0.1000E-02 FIXED          0   0.0%   0.000       0.000       2.000       2.000       0.000      0.1000E-19   0.000    
    2286   2.286      0.1000E-02 FIXED          0  -0.0%   0.000       0.000       2.000       2.000       0.000      0.1000E-19   0.000    
    2287   2.287      0.1000E-02 FIXED          0   0.0%   0.000       0.000       2.000       2.000       0.000      0.1000E-19   0.000    
    2288   2.288      0.1000E-02 FIXED          0  -0.0%   0.000       0.000       2.000       2.000       0.000      0.1000E-19   0.000    
    2289   2.289      0.1000E-02 FIXED          0  -0.0%   0.000       0.000       2.000       2.000       0.000      0.1000E-19   0.000    
    2290   2.290      0.1000E-02 FIXED          0   0.0%   0.000       0.000       2.000       2.000       0.000      0.1000E-19   0.000    
    2291   2.291      0.1000E-02 FIXED          0   0.0%   0.000       0.000       2.000       2.000       0.000      0.1000E-19   0.000    
    2292   2.292      0.1000E-02 FIXED          0   0.0%   0.000       0.000       2.000       2.000       0.000      0.1000E-19   0.000    
    2293   2.293      0.1000E-02 FIXED          0  -0.0%   0.000       0.000       2.000       2.000       0.000      0.1000E-19   0.000    
    2294   2.294      0.1000E-02 FIXED          0   0.0%   0.000       0.000       2.000       2.000       0.000      0.1000E-19   0.000    
    2295   2.295      0.1000E-02 FIXED          0   0.0%   0.000       0.000       2.000       2.000       0.000      0.1000E-19   0.000    
    2296   2.296      0.1000E-02 FIXED          0  -0.0%   0.000       0.000       2.000       2.000       0.000      0.1000E-19   0.000    
    2297   2.297      0.1000E-02 FIXED          0   0.0%   0.000       0.000       2.000       2.000       0.000      0.1000E-19   0.000    
    2298   2.298      0.1000E-02 FIXED          0   0.0%   0.000       0.000       2.000       2.000       0.000      0.1000E-19   0.000    
    2299   2.299      0.1000E-02 FIXED          0   0.0%   0.000       0.000       2.000       2.000       0.000      0.1000E-19   0.000    
    2300   2.300      0.1000E-02 FIXED          0   0.0%   0.000       0.000       2.000       2.000       0.000      0.1000E-19   0.000    
    2301   2.301      0.1000E-02 FIXED          0   0.0%   0.000       0.000       2.000       2.000       0.000      0.1000E-19   0.000    
    2302   2.302      0.1000E-02 FIXED          0   0.0%   0.000       0.000       2.000       2.000       0.000      0.1000E-19   0.000    
    2303   2.303      0.1000E-02 FIXED          0   0.0%   0.000       0.000       2.000       2.000       0.000      0.1000E-19   0.000    
    2304   2.304      0.1000E-02 FIXED          0   0.0%   0.000       0.000       2.000       2.000       0.000      0.1000E-19   0.000    
    2305   2.305      0.1000E-02 FIXED          0  -0.0%   0.000       0.000       2.000       2.000       0.000      0.1000E-19   0.000    
    2306   2.306      0.1000E-02 FIXED          0  -0.0%   0.000       0.000       2.000       2.000       0.000      0.1000E-19   0.000    
    2307   2.307      0.1000E-02 FIXED          0   0.0%   0.000       0.000       2.000       2.000       0.000      0.1000E-19   0.000    
    2308   2.308      0.1000E-02 FIXED          0  -0.0%   0.000       0.000       2.000       2.000       0.000      0.1000E-19   0.000    
    2309   2.309      0.1000E-02 FIXED          0  -0.0%   0.000       0.000       2.000       2.000       0.000      0.1000E-19   0.000    
   CYCLE    TIME      TIME-STEP  ELEMENT          ERROR  I-ENERGY    K-ENERGY T  K-ENERGY R  EXT-WORK     MAS.ERR     TOTAL MASS  MASS ADDED
    2310   2.310      0.1000E-02 FIXED          0   0.0%   0.000       0.000       2.000       2.000       0.000      0.1000E-19   0.000    
    2311   2.311      0.1000E-02 FIXED          0   0.0%   0.000       0.000       2.000       2.000       0.000      0.1000E-19   0.000    
    2312   2.312      0.1000E-02 FIXED          0   0.0%   0.000       0.000       2.000       2.000       0.000      0.1000E-19   0.000    
    2313   2.313      0.1000E-02 FIXED          0  -0.0%   0.000       0.000       2.000       2.000       0.000      0.1000E-19   0.000    
    2314   2.314      0.1000E-02 FIXED          0   0.0%   0.000       0.000       2.000       2.000       0.000      0.1000E-19   0.000    
    2315   2.315      0.1000E-02 FIXED          0  -0.0%   0.000       0.000       2.000       2.000       0.000      0.1000E-19   0.000    
    2316   2.316      0.1000E-02 FIXED          0  -0.0%   0.000       0.000       2.000       2.000       0.000      0.1000E-19   0.000    
    2317   2.317      0.1000E-02 FIXED          0  -0.0%   0.000       0.000       2.000       2.000       0.000      0.1000E-19   0.000    
    2318   2.318      0.1000E-02 FIXED          0  -0.0%   0.000       0.000       2.000       2.000       0.000      0.1000E-19   0.000    
    2319   2.319      0.1000E-02 FIXED          0   0.0%   0.000       0.000       2.000       2.000       0.000      0.1000E-19   0.000    
    2320   2.320      0.1000E-02 FIXED          0   0.0%   0.000       0.000       2.000       2.000       0.000      0.1000E-19   0.000    
    2321   2.321      0.1000E-02 FIXED          0   0.0%   0.000       0.000       2.000       2.000       0.000      0.1000E-19   0.000    
    2322   2.322      0.1000E-02 FIXED          0  -0.0%   0.000       0.000       2.000       2.000       0.000      0.1000E-19   0.000    
    2323   2.323      0.1000E-02 FIXED          0  -0.0%   0.000       0.000       2.000       2.000       0.000      0.1000E-19   0.000    
    2324   2.324      0.1000E-02 FIXED          0  -0.0%   0.000       0.000       2.000       2.000       0.000      0.1000E-19   0.000    
    2325   2.325      0.1000E-02 FIXED          0   0.0%   0.000       0.000       2.000       2.000       0.000      0.1000E-19   0.000    
    2326   2.326      0.1000E-02 FIXED          0  -0.0%   0.000       0.000       2.000       2.000       0.000      0.1000E-19   0.000    
    2327   2.327      0.1000E-02 FIXED          0   0.0%   0.000       0.000       2.000       2.000       0.000      0.1000E-19   0.000    
    2328   2.328      0.1000E-02 FIXED          0  -0.0%   0.000       0.000       2.000       2.000       0.000      0.1000E-19   0.000    
    2329   2.329      0.1000E-02 FIXED          0   0.0%   0.000       0.000       2.000       2.000       0.000      0.1000E-19   0.000    
    2330   2.330      0.1000E-02 FIXED          0   0.0%   0.000       0.000       2.000       2.000       0.000      0.1000E-19   0.000    
    2331   2.331      0.1000E-02 FIXED          0  -0.0%   0.000       0.000       2.000       2.000       0.000      0.1000E-19   0.000    
    2332   2.332      0.1000E-02 FIXED          0   0.0%   0.000       0.000       2.000       2.000       0.000      0.1000E-19   0.000    
    2333   2.333      0.1000E-02 FIXED          0  -0.0%   0.000       0.000       2.000       2.000       0.000      0.1000E-19   0.000    
    2334   2.334      0.1000E-02 FIXED          0  -0.0%   0.000       0.000       2.000       2.000       0.000      0.1000E-19   0.000    
    2335   2.335      0.1000E-02 FIXED          0   0.0%   0.000       0.000       2.000       2.000       0.000      0.1000E-19   0.000    
    2336   2.336      0.1000E-02 FIXED          0   0.0%   0.000       0.000       2.000       2.000       0.000      0.1000E-19   0.000    
    2337   2.337      0.1000E-02 FIXED          0   0.0%   0.000       0.000       2.000       2.000       0.000      0.1000E-19   0.000    
    2338   2.338      0.1000E-02 FIXED          0  -0.0%   0.000       0.000       2.000       2.000       0.000      0.1000E-19   0.000    
    2339   2.339      0.1000E-02 FIXED          0  -0.0%   0.000       0.000       2.000       2.000       0.000      0.1000E-19   0.000    
    2340   2.340      0.1000E-02 FIXED          0   0.0%   0.000       0.000       2.000       2.000       0.000      0.1000E-19   0.000    
    2341   2.341      0.1000E-02 FIXED          0  -0.0%   0.000       0.000       2.000       2.000       0.000      0.1000E-19   0.000    
    2342   2.342      0.1000E-02 FIXED          0  -0.0%   0.000       0.000       2.000       2.000       0.000      0.1000E-19   0.000    
    2343   2.343      0.1000E-02 FIXED          0  -0.0%   0.000       0.000       2.000       2.000       0.000      0.1000E-19   0.000    
    2344   2.344      0.1000E-02 FIXED          0   0.0%   0.000       0.000       2.000       2.000       0.000      0.1000E-19   0.000    
    2345   2.345      0.1000E-02 FIXED          0  -0.0%   0.000       0.000       2.000       2.000       0.000      0.1000E-19   0.000    
    2346   2.346      0.1000E-02 FIXED          0   0.0%   0.000       0.000       2.000       2.000       0.000      0.1000E-19   0.000    
    2347   2.347      0.1000E-02 FIXED          0   0.0%   0.000       0.000       2.000       2.000       0.000      0.1000E-19   0.000    
    2348   2.348      0.1000E-02 FIXED          0   0.0%   0.000       0.000       2.000       2.000       0.000      0.1000E-19   0.000    
    2349   2.349      0.1000E-02 FIXED          0   0.0%   0.000       0.000       2.000       2.000       0.000      0.1000E-19   0.000    
    2350   2.350      0.1000E-02 FIXED          0   0.0%   0.000       0.000       2.000       2.000       0.000      0.1000E-19   0.000    
    2351   2.351      0.1000E-02 FIXED          0   0.0%   0.000       0.000       2.000       2.000       0.000      0.1000E-19   0.000    
    2352   2.352      0.1000E-02 FIXED          0  -0.0%   0.000       0.000       2.000       2.000       0.000      0.1000E-19   0.000    
    2353   2.353      0.1000E-02 FIXED          0   0.0%   0.000       0.000       2.000       2.000       0.000      0.1000E-19   0.000    
    2354   2.354      0.1000E-02 FIXED          0   0.0%   0.000       0.000       2.000       2.000       0.000      0.1000E-19   0.000    
    2355   2.355      0.1000E-02 FIXED          0   0.0%   0.000       0.000       2.000       2.000       0.000      0.1000E-19   0.000    
    2356   2.356      0.1000E-02 FIXED          0   0.0%   0.000       0.000       2.000       2.000       0.000      0.1000E-19   0.000    
    2357   2.357      0.1000E-02 FIXED          0   0.0%   0.000       0.000       2.000       2.000       0.000      0.1000E-19   0.000    
    2358   2.358      0.1000E-02 FIXED          0  -0.0%   0.000       0.000       2.000       2.000       0.000      0.1000E-19   0.000    
    2359   2.359      0.1000E-02 FIXED          0   0.0%   0.000       0.000       2.000       2.000       0.000      0.1000E-19   0.000    
    2360   2.360      0.1000E-02 FIXED          0   0.0%   0.000       0.000       2.000       2.000       0.000      0.1000E-19   0.000    
    2361   2.361      0.1000E-02 FIXED          0   0.0%   0.000       0.000       2.000       2.000       0.000      0.1000E-19   0.000    
    2362   2.362      0.1000E-02 FIXED          0   0.0%   0.000       0.000       2.000       2.000       0.000      0.1000E-19   0.000    
    2363   2.363      0.1000E-02 FIXED          0  -0.0%   0.000       0.000       2.000       2.000       0.000      0.1000E-19   0.000    
    2364   2.364      0.1000E-02 FIXED          0   0.0%   0.000       0.000       2.000       2.000       0.000      0.1000E-19   0.000    
   CYCLE    TIME      TIME-STEP  ELEMENT          ERROR  I-ENERGY    K-ENERGY T  K-ENERGY R  EXT-WORK     MAS.ERR     TOTAL MASS  MASS ADDED
    2365   2.365      0.1000E-02 FIXED          0   0.0%   0.000       0.000       2.000       2.000       0.000      0.1000E-19   0.000    
    2366   2.366      0.1000E-02 FIXED          0  -0.0%   0.000       0.000       2.000       2.000       0.000      0.1000E-19   0.000    
    2367   2.367      0.1000E-02 FIXED          0   0.0%   0.000       0.000       2.000       2.000       0.000      0.1000E-19   0.000    
    2368   2.368      0.1000E-02 FIXED          0  -0.0%   0.000       0.000       2.000       2.000       0.000      0.1000E-19   0.000    
    2369   2.369      0.1000E-02 FIXED          0   0.0%   0.000       0.000       2.000       2.000       0.000      0.1000E-19   0.000    
    2370   2.370      0.1000E-02 FIXED          0   0.0%   0.000       0.000       2.000       2.000       0.000      0.1000E-19   0.000    
    2371   2.371      0.1000E-02 FIXED          0  -0.0%   0.000       0.000       2.000       2.000       0.000      0.1000E-19   0.000    
    2372   2.372      0.1000E-02 FIXED          0   0.0%   0.000       0.000       2.000       2.000       0.000      0.1000E-19   0.000    
    2373   2.373      0.1000E-02 FIXED          0  -0.0%   0.000       0.000       2.000       2.000       0.000      0.1000E-19   0.000    
    2374   2.374      0.1000E-02 FIXED          0   0.0%   0.000       0.000       2.000       2.000       0.000      0.1000E-19   0.000    
    2375   2.375      0.1000E-02 FIXED          0   0.0%   0.000       0.000       2.000       2.000       0.000      0.1000E-19   0.000    
    2376   2.376      0.1000E-02 FIXED          0  -0.0%   0.000       0.000       2.000       2.000       0.000      0.1000E-19   0.000    
    2377   2.377      0.1000E-02 FIXED          0   0.0%   0.000       0.000       2.000       2.000       0.000      0.1000E-19   0.000    
    2378   2.378      0.1000E-02 FIXED          0  -0.0%   0.000       0.000       2.000       2.000       0.000      0.1000E-19   0.000    
    2379   2.379      0.1000E-02 FIXED          0  -0.0%   0.000       0.000       2.000       2.000       0.000      0.1000E-19   0.000    
    2380   2.380      0.1000E-02 FIXED          0   0.0%   0.000       0.000       2.000       2.000       0.000      0.1000E-19   0.000    
    2381   2.381      0.1000E-02 FIXED          0   0.0%   0.000       0.000       2.000       2.000       0.000      0.1000E-19   0.000    
    2382   2.382      0.1000E-02 FIXED          0   0.0%   0.000       0.000       2.000       2.000       0.000      0.1000E-19   0.000    
    2383   2.383      0.1000E-02 FIXED          0   0.0%   0.000       0.000       2.000       2.000       0.000      0.1000E-19   0.000    
    2384   2.384      0.1000E-02 FIXED          0   0.0%   0.000       0.000       2.000       2.000       0.000      0.1000E-19   0.000    
    2385   2.385      0.1000E-02 FIXED          0  -0.0%   0.000       0.000       2.000       2.000       0.000      0.1000E-19   0.000    
    2386   2.386      0.1000E-02 FIXED          0   0.0%   0.000       0.000       2.000       2.000       0.000      0.1000E-19   0.000    
    2387   2.387      0.1000E-02 FIXED          0   0.0%   0.000       0.000       2.000       2.000       0.000      0.1000E-19   0.000    
    2388   2.388      0.1000E-02 FIXED          0   0.0%   0.000       0.000       2.000       2.000       0.000      0.1000E-19   0.000    
    2389   2.389      0.1000E-02 FIXED          0   0.0%   0.000       0.000       2.000       2.000       0.000      0.1000E-19   0.000    
    2390   2.390      0.1000E-02 FIXED          0  -0.0%   0.000       0.000       2.000       2.000       0.000      0.1000E-19   0.000    
    2391   2.391      0.1000E-02 FIXED          0   0.0%   0.000       0.000       2.000       2.000       0.000      0.1000E-19   0.000    
    2392   2.392      0.1000E-02 FIXED          0   0.0%   0.000       0.000       2.000       2.000       0.000      0.1000E-19   0.000    
    2393   2.393      0.1000E-02 FIXED          0  -0.0%   0.000       0.000       2.000       2.000       0.000      0.1000E-19   0.000    
    2394   2.394      0.1000E-02 FIXED          0   0.0%   0.000       0.000       2.000       2.000       0.000      0.1000E-19   0.000    
    2395   2.395      0.1000E-02 FIXED          0   0.0%   0.000       0.000       2.000       2.000       0.000      0.1000E-19   0.000    
    2396   2.396      0.1000E-02 FIXED          0  -0.0%   0.000       0.000       2.000       2.000       0.000      0.1000E-19   0.000    
    2397   2.397      0.1000E-02 FIXED          0   0.0%   0.000       0.000       2.000       2.000       0.000      0.1000E-19   0.000    
    2398   2.398      0.1000E-02 FIXED          0   0.0%   0.000       0.000       2.000       2.000       0.000      0.1000E-19   0.000    
    2399   2.399      0.1000E-02 FIXED          0  -0.0%   0.000       0.000       2.000       2.000       0.000      0.1000E-19   0.000    
    2400   2.400      0.1000E-02 FIXED          0   0.0%   0.000       0.000       2.000       2.000       0.000      0.1000E-19   0.000    
    2401   2.401      0.1000E-02 FIXED          0   0.0%   0.000       0.000       2.000       2.000       0.000      0.1000E-19   0.000    
    2402   2.402      0.1000E-02 FIXED          0  -0.0%   0.000       0.000       2.000       2.000       0.000      0.1000E-19   0.000    
    2403   2.403      0.1000E-02 FIXED          0   0.0%   0.000       0.000       2.000       2.000       0.000      0.1000E-19   0.000    
    2404   2.404      0.1000E-02 FIXED          0  -0.0%   0.000       0.000       2.000       2.000       0.000      0.1000E-19   0.000    
    2405   2.405      0.1000E-02 FIXED          0   0.0%   0.000       0.000       2.000       2.000       0.000      0.1000E-19   0.000    
    2406   2.406      0.1000E-02 FIXED          0  -0.0%   0.000       0.000       2.000       2.000       0.000      0.1000E-19   0.000    
    2407   2.407      0.1000E-02 FIXED          0   0.0%   0.000       0.000       2.000       2.000       0.000      0.1000E-19   0.000    
    2408   2.408      0.1000E-02 FIXED          0  -0.0%   0.000       0.000       2.000       2.000       0.000      0.1000E-19   0.000    
    2409   2.409      0.1000E-02 FIXED          0   0.0%   0.000       0.000       2.000       2.000       0.000      0.1000E-19   0.000    
    2410   2.410      0.1000E-02 FIXED          0  -0.0%   0.000       0.000       2.000       2.000       0.000      0.1000E-19   0.000    
    2411   2.411      0.1000E-02 FIXED          0   0.0%   0.000       0.000       2.000       2.000       0.000      0.1000E-19   0.000    
    2412   2.412      0.1000E-02 FIXED          0  -0.0%   0.000       0.000       2.000       2.000       0.000      0.1000E-19   0.000    
    2413   2.413      0.1000E-02 FIXED          0   0.0%   0.000       0.000       2.000       2.000       0.000      0.1000E-19   0.000    
    2414   2.414      0.1000E-02 FIXED          0  -0.0%   0.000       0.000       2.000       2.000       0.000      0.1000E-19   0.000    
    2415   2.415      0.1000E-02 FIXED          0   0.0%   0.000       0.000       2.000       2.000       0.000      0.1000E-19   0.000    
    2416   2.416      0.1000E-02 FIXED          0   0.0%   0.000       0.000       2.000       2.000       0.000      0.1000E-19   0.000    
    2417   2.417      0.1000E-02 FIXED          0   0.0%   0.000       0.000       2.000       2.000       0.000      0.1000E-19   0.000    
    2418   2.418      0.1000E-02 FIXED          0  -0.0%   0.000       0.000       2.000       2.000       0.000      0.1000E-19   0.000    
    2419   2.419      0.1000E-02 FIXED          0   0.0%   0.000       0.000       2.000       2.000       0.000      0.1000E-19   0.000    
   CYCLE    TIME      TIME-STEP  ELEMENT          ERROR  I-ENERGY    K-ENERGY T  K-ENERGY R  EXT-WORK     MAS.ERR     TOTAL MASS  MASS ADDED
    2420   2.420      0.1000E-02 FIXED          0   0.0%   0.000       0.000       2.000       2.000       0.000      0.1000E-19   0.000    
    2421   2.421      0.1000E-02 FIXED          0  -0.0%   0.000       0.000       2.000       2.000       0.000      0.1000E-19   0.000    
    2422   2.422      0.1000E-02 FIXED          0   0.0%   0.000       0.000       2.000       2.000       0.000      0.1000E-19   0.000    
    2423   2.423      0.1000E-02 FIXED          0  -0.0%   0.000       0.000       2.000       2.000       0.000      0.1000E-19   0.000    
    2424   2.424      0.1000E-02 FIXED          0   0.0%   0.000       0.000       2.000       2.000       0.000      0.1000E-19   0.000    
    2425   2.425      0.1000E-02 FIXED          0   0.0%   0.000       0.000       2.000       2.000       0.000      0.1000E-19   0.000    
    2426   2.426      0.1000E-02 FIXED          0  -0.0%   0.000       0.000       2.000       2.000       0.000      0.1000E-19   0.000    
    2427   2.427      0.1000E-02 FIXED          0   0.0%   0.000       0.000       2.000       2.000       0.000      0.1000E-19   0.000    
    2428   2.428      0.1000E-02 FIXED          0   0.0%   0.000       0.000       2.000       2.000       0.000      0.1000E-19   0.000    
    2429   2.429      0.1000E-02 FIXED          0  -0.0%   0.000       0.000       2.000       2.000       0.000      0.1000E-19   0.000    
    2430   2.430      0.1000E-02 FIXED          0   0.0%   0.000       0.000       2.000       2.000       0.000      0.1000E-19   0.000    
    2431   2.431      0.1000E-02 FIXED          0   0.0%   0.000       0.000       2.000       2.000       0.000      0.1000E-19   0.000    
    2432   2.432      0.1000E-02 FIXED          0   0.0%   0.000       0.000       2.000       2.000       0.000      0.1000E-19   0.000    
    2433   2.433      0.1000E-02 FIXED          0   0.0%   0.000       0.000       2.000       2.000       0.000      0.1000E-19   0.000    
    2434   2.434      0.1000E-02 FIXED          0   0.0%   0.000       0.000       2.000       2.000       0.000      0.1000E-19   0.000    
    2435   2.435      0.1000E-02 FIXED          0  -0.0%   0.000       0.000       2.000       2.000       0.000      0.1000E-19   0.000    
    2436   2.436      0.1000E-02 FIXED          0  -0.0%   0.000       0.000       2.000       2.000       0.000      0.1000E-19   0.000    
    2437   2.437      0.1000E-02 FIXED          0   0.0%   0.000       0.000       2.000       2.000       0.000      0.1000E-19   0.000    
    2438   2.438      0.1000E-02 FIXED          0   0.0%   0.000       0.000       2.000       2.000       0.000      0.1000E-19   0.000    
    2439   2.439      0.1000E-02 FIXED          0   0.0%   0.000       0.000       2.000       2.000       0.000      0.1000E-19   0.000    
    2440   2.440      0.1000E-02 FIXED          0   0.0%   0.000       0.000       2.000       2.000       0.000      0.1000E-19   0.000    
    2441   2.441      0.1000E-02 FIXED          0   0.0%   0.000       0.000       2.000       2.000       0.000      0.1000E-19   0.000    
    2442   2.442      0.1000E-02 FIXED          0   0.0%   0.000       0.000       2.000       2.000       0.000      0.1000E-19   0.000    
    2443   2.443      0.1000E-02 FIXED          0  -0.0%   0.000       0.000       2.000       2.000       0.000      0.1000E-19   0.000    
    2444   2.444      0.1000E-02 FIXED          0   0.0%   0.000       0.000       2.000       2.000       0.000      0.1000E-19   0.000    
    2445   2.445      0.1000E-02 FIXED          0   0.0%   0.000       0.000       2.000       2.000       0.000      0.1000E-19   0.000    
    2446   2.446      0.1000E-02 FIXED          0   0.0%   0.000       0.000       2.000       2.000       0.000      0.1000E-19   0.000    
    2447   2.447      0.1000E-02 FIXED          0  -0.0%   0.000       0.000       2.000       2.000       0.000      0.1000E-19   0.000    
    2448   2.448      0.1000E-02 FIXED          0   0.0%   0.000       0.000       2.000       2.000       0.000      0.1000E-19   0.000    
    2449   2.449      0.1000E-02 FIXED          0  -0.0%   0.000       0.000       2.000       2.000       0.000      0.1000E-19   0.000    
    2450   2.450      0.1000E-02 FIXED          0  -0.0%   0.000       0.000       2.000       2.000       0.000      0.1000E-19   0.000    
    2451   2.451      0.1000E-02 FIXED          0   0.0%   0.000       0.000       2.000       2.000       0.000      0.1000E-19   0.000    
    2452   2.452      0.1000E-02 FIXED          0  -0.0%   0.000       0.000       2.000       2.000       0.000      0.1000E-19   0.000    
    2453   2.453      0.1000E-02 FIXED          0   0.0%   0.000       0.000       2.000       2.000       0.000      0.1000E-19   0.000    
    2454   2.454      0.1000E-02 FIXED          0   0.0%   0.000       0.000       2.000       2.000       0.000      0.1000E-19   0.000    
    2455   2.455      0.1000E-02 FIXED          0  -0.0%   0.000       0.000       2.000       2.000       0.000      0.1000E-19   0.000    
    2456   2.456      0.1000E-02 FIXED          0   0.0%   0.000       0.000       2.000       2.000       0.000      0.1000E-19   0.000    
    2457   2.457      0.1000E-02 FIXED          0  -0.0%   0.000       0.000       2.000       2.000       0.000      0.1000E-19   0.000    
    2458   2.458      0.1000E-02 FIXED          0   0.0%   0.000       0.000       2.000       2.000       0.000      0.1000E-19   0.000    
    2459   2.459      0.1000E-02 FIXED          0  -0.0%   0.000       0.000       2.000       2.000       0.000      0.1000E-19   0.000    
    2460   2.460      0.1000E-02 FIXED          0   0.0%   0.000       0.000       2.000       2.000       0.000      0.1000E-19   0.000    
    2461   2.461      0.1000E-02 FIXED          0   0.0%   0.000       0.000       2.000       2.000       0.000      0.1000E-19   0.000    
    2462   2.462      0.1000E-02 FIXED          0  -0.0%   0.000       0.000       2.000       2.000       0.000      0.1000E-19   0.000    
    2463   2.463      0.1000E-02 FIXED          0   0.0%   0.000       0.000       2.000       2.000       0.000      0.1000E-19   0.000    
    2464   2.464      0.1000E-02 FIXED          0  -0.0%   0.000       0.000       2.000       2.000       0.000      0.1000E-19   0.000    
    2465   2.465      0.1000E-02 FIXED          0   0.0%   0.000       0.000       2.000       2.000       0.000      0.1000E-19   0.000    
    2466   2.466      0.1000E-02 FIXED          0   0.0%   0.000       0.000       2.000       2.000       0.000      0.1000E-19   0.000    
    2467   2.467      0.1000E-02 FIXED          0  -0.0%   0.000       0.000       2.000       2.000       0.000      0.1000E-19   0.000    
    2468   2.468      0.1000E-02 FIXED          0   0.0%   0.000       0.000       2.000       2.000       0.000      0.1000E-19   0.000    
    2469   2.469      0.1000E-02 FIXED          0  -0.0%   0.000       0.000       2.000       2.000       0.000      0.1000E-19   0.000    
    2470   2.470      0.1000E-02 FIXED          0  -0.0%   0.000       0.000       2.000       2.000       0.000      0.1000E-19   0.000    
    2471   2.471      0.1000E-02 FIXED          0  -0.0%   0.000       0.000       2.000       2.000       0.000      0.1000E-19   0.000    
    2472   2.472      0.1000E-02 FIXED          0  -0.0%   0.000       0.000       2.000       2.000       0.000      0.1000E-19   0.000    
    2473   2.473      0.1000E-02 FIXED          0   0.0%   0.000       0.000       2.000       2.000       0.000      0.1000E-19   0.000    
    2474   2.474      0.1000E-02 FIXED          0  -0.0%   0.000       0.000       2.000       2.000       0.000      0.1000E-19   0.000    
   CYCLE    TIME      TIME-STEP  ELEMENT          ERROR  I-ENERGY    K-ENERGY T  K-ENERGY R  EXT-WORK     MAS.ERR     TOTAL MASS  MASS ADDED
    2475   2.475      0.1000E-02 FIXED          0   0.0%   0.000       0.000       2.000       2.000       0.000      0.1000E-19   0.000    
    2476   2.476      0.1000E-02 FIXED          0   0.0%   0.000       0.000       2.000       2.000       0.000      0.1000E-19   0.000    
    2477   2.477      0.1000E-02 FIXED          0  -0.0%   0.000       0.000       2.000       2.000       0.000      0.1000E-19   0.000    
    2478   2.478      0.1000E-02 FIXED          0  -0.0%   0.000       0.000       2.000       2.000       0.000      0.1000E-19   0.000    
    2479   2.479      0.1000E-02 FIXED          0  -0.0%   0.000       0.000       2.000       2.000       0.000      0.1000E-19   0.000    
    2480   2.480      0.1000E-02 FIXED          0   0.0%   0.000       0.000       2.000       2.000       0.000      0.1000E-19   0.000    
    2481   2.481      0.1000E-02 FIXED          0   0.0%   0.000       0.000       2.000       2.000       0.000      0.1000E-19   0.000    
    2482   2.482      0.1000E-02 FIXED          0  -0.0%   0.000       0.000       2.000       2.000       0.000      0.1000E-19   0.000    
    2483   2.483      0.1000E-02 FIXED          0  -0.0%   0.000       0.000       2.000       2.000       0.000      0.1000E-19   0.000    
    2484   2.484      0.1000E-02 FIXED          0  -0.0%   0.000       0.000       2.000       2.000       0.000      0.1000E-19   0.000    
    2485   2.485      0.1000E-02 FIXED          0   0.0%   0.000       0.000       2.000       2.000       0.000      0.1000E-19   0.000    
    2486   2.486      0.1000E-02 FIXED          0  -0.0%   0.000       0.000       2.000       2.000       0.000      0.1000E-19   0.000    
    2487   2.487      0.1000E-02 FIXED          0  -0.0%   0.000       0.000       2.000       2.000       0.000      0.1000E-19   0.000    
    2488   2.488      0.1000E-02 FIXED          0  -0.0%   0.000       0.000       2.000       2.000       0.000      0.1000E-19   0.000    
    2489   2.489      0.1000E-02 FIXED          0  -0.0%   0.000       0.000       2.000       2.000       0.000      0.1000E-19   0.000    
    2490   2.490      0.1000E-02 FIXED          0   0.0%   0.000       0.000       2.000       2.000       0.000      0.1000E-19   0.000    
    2491   2.491      0.1000E-02 FIXED          0   0.0%   0.000       0.000       2.000       2.000       0.000      0.1000E-19   0.000    
    2492   2.492      0.1000E-02 FIXED          0   0.0%   0.000       0.000       2.000       2.000       0.000      0.1000E-19   0.000    
    2493   2.493      0.1000E-02 FIXED          0   0.0%   0.000       0.000       2.000       2.000       0.000      0.1000E-19   0.000    
    2494   2.494      0.1000E-02 FIXED          0   0.0%   0.000       0.000       2.000       2.000       0.000      0.1000E-19   0.000    
    2495   2.495      0.1000E-02 FIXED          0   0.0%   0.000       0.000       2.000       2.000       0.000      0.1000E-19   0.000    
    2496   2.496      0.1000E-02 FIXED          0   0.0%   0.000       0.000       2.000       2.000       0.000      0.1000E-19   0.000    
    2497   2.497      0.1000E-02 FIXED          0   0.0%   0.000       0.000       2.000       2.000       0.000      0.1000E-19   0.000    
    2498   2.498      0.1000E-02 FIXED          0   0.0%   0.000       0.000       2.000       2.000       0.000      0.1000E-19   0.000    
    2499   2.499      0.1000E-02 FIXED          0   0.0%   0.000       0.000       2.000       2.000       0.000      0.1000E-19   0.000    
    2500   2.500      0.1000E-02 FIXED          0  -0.0%   0.000       0.000       2.000       2.000       0.000      0.1000E-19   0.000    
    2501   2.501      0.1000E-02 FIXED          0   0.0%   0.000       0.000       2.000       2.000       0.000      0.1000E-19   0.000    
    2502   2.502      0.1000E-02 FIXED          0   0.0%   0.000       0.000       2.000       2.000       0.000      0.1000E-19   0.000    
    2503   2.503      0.1000E-02 FIXED          0   0.0%   0.000       0.000       2.000       2.000       0.000      0.1000E-19   0.000    
    2504   2.504      0.1000E-02 FIXED          0  -0.0%   0.000       0.000       2.000       2.000       0.000      0.1000E-19   0.000    
    2505   2.505      0.1000E-02 FIXED          0   0.0%   0.000       0.000       2.000       2.000       0.000      0.1000E-19   0.000    
    2506   2.506      0.1000E-02 FIXED          0   0.0%   0.000       0.000       2.000       2.000       0.000      0.1000E-19   0.000    
    2507   2.507      0.1000E-02 FIXED          0  -0.0%   0.000       0.000       2.000       2.000       0.000      0.1000E-19   0.000    
    2508   2.508      0.1000E-02 FIXED          0   0.0%   0.000       0.000       2.000       2.000       0.000      0.1000E-19   0.000    
    2509   2.509      0.1000E-02 FIXED          0  -0.0%   0.000       0.000       2.000       2.000       0.000      0.1000E-19   0.000    
    2510   2.510      0.1000E-02 FIXED          0  -0.0%   0.000       0.000       2.000       2.000       0.000      0.1000E-19   0.000    
    2511   2.511      0.1000E-02 FIXED          0  -0.0%   0.000       0.000       2.000       2.000       0.000      0.1000E-19   0.000    
    2512   2.512      0.1000E-02 FIXED          0   0.0%   0.000       0.000       2.000       2.000       0.000      0.1000E-19   0.000    
    2513   2.513      0.1000E-02 FIXED          0  -0.0%   0.000       0.000       2.000       2.000       0.000      0.1000E-19   0.000    
    2514   2.514      0.1000E-02 FIXED          0   0.0%   0.000       0.000       2.000       2.000       0.000      0.1000E-19   0.000    
    2515   2.515      0.1000E-02 FIXED          0   0.0%   0.000       0.000       2.000       2.000       0.000      0.1000E-19   0.000    
    2516   2.516      0.1000E-02 FIXED          0  -0.0%   0.000       0.000       2.000       2.000       0.000      0.1000E-19   0.000    
    2517   2.517      0.1000E-02 FIXED          0   0.0%   0.000       0.000       2.000       2.000       0.000      0.1000E-19   0.000    
    2518   2.518      0.1000E-02 FIXED          0  -0.0%   0.000       0.000       2.000       2.000       0.000      0.1000E-19   0.000    
    2519   2.519      0.1000E-02 FIXED          0  -0.0%   0.000       0.000       2.000       2.000       0.000      0.1000E-19   0.000    
    2520   2.520      0.1000E-02 FIXED          0   0.0%   0.000       0.000       2.000       2.000       0.000      0.1000E-19   0.000    
    2521   2.521      0.1000E-02 FIXED          0   0.0%   0.000       0.000       2.000       2.000       0.000      0.1000E-19   0.000    
    2522   2.522      0.1000E-02 FIXED          0  -0.0%   0.000       0.000       2.000       2.000       0.000      0.1000E-19   0.000    
    2523   2.523      0.1000E-02 FIXED          0  -0.0%   0.000       0.000       2.000       2.000       0.000      0.1000E-19   0.000    
    2524   2.524      0.1000E-02 FIXED          0   0.0%   0.000       0.000       2.000       2.000       0.000      0.1000E-19   0.000    
    2525   2.525      0.1000E-02 FIXED          0   0.0%   0.000       0.000       2.000       2.000       0.000      0.1000E-19   0.000    
    2526   2.526      0.1000E-02 FIXED          0   0.0%   0.000       0.000       2.000       2.000       0.000      0.1000E-19   0.000    
    2527   2.527      0.1000E-02 FIXED          0  -0.0%   0.000       0.000       2.000       2.000       0.000      0.1000E-19   0.000    
    2528   2.528      0.1000E-02 FIXED          0  -0.0%   0.000       0.000       2.000       2.000       0.000      0.1000E-19   0.000    
    2529   2.529      0.1000E-02 FIXED          0   0.0%   0.000       0.000       2.000       2.000       0.000      0.1000E-19   0.000    
   CYCLE    TIME      TIME-STEP  ELEMENT          ERROR  I-ENERGY    K-ENERGY T  K-ENERGY R  EXT-WORK     MAS.ERR     TOTAL MASS  MASS ADDED
    2530   2.530      0.1000E-02 FIXED          0   0.0%   0.000       0.000       2.000       2.000       0.000      0.1000E-19   0.000    
    2531   2.531      0.1000E-02 FIXED          0   0.0%   0.000       0.000       2.000       2.000       0.000      0.1000E-19   0.000    
    2532   2.532      0.1000E-02 FIXED          0   0.0%   0.000       0.000       2.000       2.000       0.000      0.1000E-19   0.000    
    2533   2.533      0.1000E-02 FIXED          0  -0.0%   0.000       0.000       2.000       2.000       0.000      0.1000E-19   0.000    
    2534   2.534      0.1000E-02 FIXED          0   0.0%   0.000       0.000       2.000       2.000       0.000      0.1000E-19   0.000    
    2535   2.535      0.1000E-02 FIXED          0   0.0%   0.000       0.000       2.000       2.000       0.000      0.1000E-19   0.000    
    2536   2.536      0.1000E-02 FIXED          0  -0.0%   0.000       0.000       2.000       2.000       0.000      0.1000E-19   0.000    
    2537   2.537      0.1000E-02 FIXED          0   0.0%   0.000       0.000       2.000       2.000       0.000      0.1000E-19   0.000    
    2538   2.538      0.1000E-02 FIXED          0   0.0%   0.000       0.000       2.000       2.000       0.000      0.1000E-19   0.000    
    2539   2.539      0.1000E-02 FIXED          0  -0.0%   0.000       0.000       2.000       2.000       0.000      0.1000E-19   0.000    
    2540   2.540      0.1000E-02 FIXED          0   0.0%   0.000       0.000       2.000       2.000       0.000      0.1000E-19   0.000    
    2541   2.541      0.1000E-02 FIXED          0  -0.0%   0.000       0.000       2.000       2.000       0.000      0.1000E-19   0.000    
    2542   2.542      0.1000E-02 FIXED          0   0.0%   0.000       0.000       2.000       2.000       0.000      0.1000E-19   0.000    
    2543   2.543      0.1000E-02 FIXED          0  -0.0%   0.000       0.000       2.000       2.000       0.000      0.1000E-19   0.000    
    2544   2.544      0.1000E-02 FIXED          0  -0.0%   0.000       0.000       2.000       2.000       0.000      0.1000E-19   0.000    
    2545   2.545      0.1000E-02 FIXED          0   0.0%   0.000       0.000       2.000       2.000       0.000      0.1000E-19   0.000    
    2546   2.546      0.1000E-02 FIXED          0   0.0%   0.000       0.000       2.000       2.000       0.000      0.1000E-19   0.000    
    2547   2.547      0.1000E-02 FIXED          0  -0.0%   0.000       0.000       2.000       2.000       0.000      0.1000E-19   0.000    
    2548   2.548      0.1000E-02 FIXED          0  -0.0%   0.000       0.000       2.000       2.000       0.000      0.1000E-19   0.000    
    2549   2.549      0.1000E-02 FIXED          0   0.0%   0.000       0.000       2.000       2.000       0.000      0.1000E-19   0.000    
    2550   2.550      0.1000E-02 FIXED          0   0.0%   0.000       0.000       2.000       2.000       0.000      0.1000E-19   0.000    
    2551   2.551      0.1000E-02 FIXED          0  -0.0%   0.000       0.000       2.000       2.000       0.000      0.1000E-19   0.000    
    2552   2.552      0.1000E-02 FIXED          0  -0.0%   0.000       0.000       2.000       2.000       0.000      0.1000E-19   0.000    
    2553   2.553      0.1000E-02 FIXED          0   0.0%   0.000       0.000       2.000       2.000       0.000      0.1000E-19   0.000    
    2554   2.554      0.1000E-02 FIXED          0   0.0%   0.000       0.000       2.000       2.000       0.000      0.1000E-19   0.000    
    2555   2.555      0.1000E-02 FIXED          0   0.0%   0.000       0.000       2.000       2.000       0.000      0.1000E-19   0.000    
    2556   2.556      0.1000E-02 FIXED          0   0.0%   0.000       0.000       2.000       2.000       0.000      0.1000E-19   0.000    
    2557   2.557      0.1000E-02 FIXED          0  -0.0%   0.000       0.000       2.000       2.000       0.000      0.1000E-19   0.000    
    2558   2.558      0.1000E-02 FIXED          0   0.0%   0.000       0.000       2.000       2.000       0.000      0.1000E-19   0.000    
    2559   2.559      0.1000E-02 FIXED          0  -0.0%   0.000       0.000       2.000       2.000       0.000      0.1000E-19   0.000    
    2560   2.560      0.1000E-02 FIXED          0   0.0%   0.000       0.000       2.000       2.000       0.000      0.1000E-19   0.000    
    2561   2.561      0.1000E-02 FIXED          0   0.0%   0.000       0.000       2.000       2.000       0.000      0.1000E-19   0.000    
    2562   2.562      0.1000E-02 FIXED          0   0.0%   0.000       0.000       2.000       2.000       0.000      0.1000E-19   0.000    
    2563   2.563      0.1000E-02 FIXED          0   0.0%   0.000       0.000       2.000       2.000       0.000      0.1000E-19   0.000    
    2564   2.564      0.1000E-02 FIXED          0   0.0%   0.000       0.000       2.000       2.000       0.000      0.1000E-19   0.000    
    2565   2.565      0.1000E-02 FIXED          0   0.0%   0.000       0.000       2.000       2.000       0.000      0.1000E-19   0.000    
    2566   2.566      0.1000E-02 FIXED          0  -0.0%   0.000       0.000       2.000       2.000       0.000      0.1000E-19   0.000    
    2567   2.567      0.1000E-02 FIXED          0   0.0%   0.000       0.000       2.000       2.000       0.000      0.1000E-19   0.000    
    2568   2.568      0.1000E-02 FIXED          0  -0.0%   0.000       0.000       2.000       2.000       0.000      0.1000E-19   0.000    
    2569   2.569      0.1000E-02 FIXED          0   0.0%   0.000       0.000       2.000       2.000       0.000      0.1000E-19   0.000    
    2570   2.570      0.1000E-02 FIXED          0  -0.0%   0.000       0.000       2.000       2.000       0.000      0.1000E-19   0.000    
    2571   2.571      0.1000E-02 FIXED          0   0.0%   0.000       0.000       2.000       2.000       0.000      0.1000E-19   0.000    
    2572   2.572      0.1000E-02 FIXED          0  -0.0%   0.000       0.000       2.000       2.000       0.000      0.1000E-19   0.000    
    2573   2.573      0.1000E-02 FIXED          0   0.0%   0.000       0.000       2.000       2.000       0.000      0.1000E-19   0.000    
    2574   2.574      0.1000E-02 FIXED          0   0.0%   0.000       0.000       2.000       2.000       0.000      0.1000E-19   0.000    
    2575   2.575      0.1000E-02 FIXED          0  -0.0%   0.000       0.000       2.000       2.000       0.000      0.1000E-19   0.000    
    2576   2.576      0.1000E-02 FIXED          0   0.0%   0.000       0.000       2.000       2.000       0.000      0.1000E-19   0.000    
    2577   2.577      0.1000E-02 FIXED          0  -0.0%   0.000       0.000       2.000       2.000       0.000      0.1000E-19   0.000    
    2578   2.578      0.1000E-02 FIXED          0   0.0%   0.000       0.000       2.000       2.000       0.000      0.1000E-19   0.000    
    2579   2.579      0.1000E-02 FIXED          0  -0.0%   0.000       0.000       2.000       2.000       0.000      0.1000E-19   0.000    
    2580   2.580      0.1000E-02 FIXED          0   0.0%   0.000       0.000       2.000       2.000       0.000      0.1000E-19   0.000    
    2581   2.581      0.1000E-02 FIXED          0   0.0%   0.000       0.000       2.000       2.000       0.000      0.1000E-19   0.000    
    2582   2.582      0.1000E-02 FIXED          0  -0.0%   0.000       0.000       2.000       2.000       0.000      0.1000E-19   0.000    
    2583   2.583      0.1000E-02 FIXED          0  -0.0%   0.000       0.000       2.000       2.000       0.000      0.1000E-19   0.000    
    2584   2.584      0.1000E-02 FIXED          0   0.0%   0.000       0.000       2.000       2.000       0.000      0.1000E-19   0.000    
   CYCLE    TIME      TIME-STEP  ELEMENT          ERROR  I-ENERGY    K-ENERGY T  K-ENERGY R  EXT-WORK     MAS.ERR     TOTAL MASS  MASS ADDED
    2585   2.585      0.1000E-02 FIXED          0   0.0%   0.000       0.000       2.000       2.000       0.000      0.1000E-19   0.000    
    2586   2.586      0.1000E-02 FIXED          0   0.0%   0.000       0.000       2.000       2.000       0.000      0.1000E-19   0.000    
    2587   2.587      0.1000E-02 FIXED          0  -0.0%   0.000       0.000       2.000       2.000       0.000      0.1000E-19   0.000    
    2588   2.588      0.1000E-02 FIXED          0   0.0%   0.000       0.000       2.000       2.000       0.000      0.1000E-19   0.000    
    2589   2.589      0.1000E-02 FIXED          0  -0.0%   0.000       0.000       2.000       2.000       0.000      0.1000E-19   0.000    
    2590   2.590      0.1000E-02 FIXED          0   0.0%   0.000       0.000       2.000       2.000       0.000      0.1000E-19   0.000    
    2591   2.591      0.1000E-02 FIXED          0  -0.0%   0.000       0.000       2.000       2.000       0.000      0.1000E-19   0.000    
    2592   2.592      0.1000E-02 FIXED          0   0.0%   0.000       0.000       2.000       2.000       0.000      0.1000E-19   0.000    
    2593   2.593      0.1000E-02 FIXED          0  -0.0%   0.000       0.000       2.000       2.000       0.000      0.1000E-19   0.000    
    2594   2.594      0.1000E-02 FIXED          0   0.0%   0.000       0.000       2.000       2.000       0.000      0.1000E-19   0.000    
    2595   2.595      0.1000E-02 FIXED          0  -0.0%   0.000       0.000       2.000       2.000       0.000      0.1000E-19   0.000    
    2596   2.596      0.1000E-02 FIXED          0   0.0%   0.000       0.000       2.000       2.000       0.000      0.1000E-19   0.000    
    2597   2.597      0.1000E-02 FIXED          0  -0.0%   0.000       0.000       2.000       2.000       0.000      0.1000E-19   0.000    
    2598   2.598      0.1000E-02 FIXED          0   0.0%   0.000       0.000       2.000       2.000       0.000      0.1000E-19   0.000    
    2599   2.599      0.1000E-02 FIXED          0  -0.0%   0.000       0.000       2.000       2.000       0.000      0.1000E-19   0.000    
    2600   2.600      0.1000E-02 FIXED          0  -0.0%   0.000       0.000       2.000       2.000       0.000      0.1000E-19   0.000    
    2601   2.601      0.1000E-02 FIXED          0  -0.0%   0.000       0.000       2.000       2.000       0.000      0.1000E-19   0.000    
    2602   2.602      0.1000E-02 FIXED          0  -0.0%   0.000       0.000       2.000       2.000       0.000      0.1000E-19   0.000    
    2603   2.603      0.1000E-02 FIXED          0   0.0%   0.000       0.000       2.000       2.000       0.000      0.1000E-19   0.000    
    2604   2.604      0.1000E-02 FIXED          0  -0.0%   0.000       0.000       2.000       2.000       0.000      0.1000E-19   0.000    
    2605   2.605      0.1000E-02 FIXED          0   0.0%   0.000       0.000       2.000       2.000       0.000      0.1000E-19   0.000    
    2606   2.606      0.1000E-02 FIXED          0   0.0%   0.000       0.000       2.000       2.000       0.000      0.1000E-19   0.000    
    2607   2.607      0.1000E-02 FIXED          0  -0.0%   0.000       0.000       2.000       2.000       0.000      0.1000E-19   0.000    
    2608   2.608      0.1000E-02 FIXED          0   0.0%   0.000       0.000       2.000       2.000       0.000      0.1000E-19   0.000    
    2609   2.609      0.1000E-02 FIXED          0  -0.0%   0.000       0.000       2.000       2.000       0.000      0.1000E-19   0.000    
    2610   2.610      0.1000E-02 FIXED          0   0.0%   0.000       0.000       2.000       2.000       0.000      0.1000E-19   0.000    
    2611   2.611      0.1000E-02 FIXED          0  -0.0%   0.000       0.000       2.000       2.000       0.000      0.1000E-19   0.000    
    2612   2.612      0.1000E-02 FIXED          0   0.0%   0.000       0.000       2.000       2.000       0.000      0.1000E-19   0.000    
    2613   2.613      0.1000E-02 FIXED          0   0.0%   0.000       0.000       2.000       2.000       0.000      0.1000E-19   0.000    
    2614   2.614      0.1000E-02 FIXED          0   0.0%   0.000       0.000       2.000       2.000       0.000      0.1000E-19   0.000    
    2615   2.615      0.1000E-02 FIXED          0  -0.0%   0.000       0.000       2.000       2.000       0.000      0.1000E-19   0.000    
    2616   2.616      0.1000E-02 FIXED          0   0.0%   0.000       0.000       2.000       2.000       0.000      0.1000E-19   0.000    
    2617   2.617      0.1000E-02 FIXED          0  -0.0%   0.000       0.000       2.000       2.000       0.000      0.1000E-19   0.000    
    2618   2.618      0.1000E-02 FIXED          0   0.0%   0.000       0.000       2.000       2.000       0.000      0.1000E-19   0.000    
    2619   2.619      0.1000E-02 FIXED          0   0.0%   0.000       0.000       2.000       2.000       0.000      0.1000E-19   0.000    
    2620   2.620      0.1000E-02 FIXED          0   0.0%   0.000       0.000       2.000       2.000       0.000      0.1000E-19   0.000    
    2621   2.621      0.1000E-02 FIXED          0  -0.0%   0.000       0.000       2.000       2.000       0.000      0.1000E-19   0.000    
    2622   2.622      0.1000E-02 FIXED          0  -0.0%   0.000       0.000       2.000       2.000       0.000      0.1000E-19   0.000    
    2623   2.623      0.1000E-02 FIXED          0   0.0%   0.000       0.000       2.000       2.000       0.000      0.1000E-19   0.000    
    2624   2.624      0.1000E-02 FIXED          0  -0.0%   0.000       0.000       2.000       2.000       0.000      0.1000E-19   0.000    
    2625   2.625      0.1000E-02 FIXED          0   0.0%   0.000       0.000       2.000       2.000       0.000      0.1000E-19   0.000    
    2626   2.626      0.1000E-02 FIXED          0   0.0%   0.000       0.000       2.000       2.000       0.000      0.1000E-19   0.000    
    2627   2.627      0.1000E-02 FIXED          0  -0.0%   0.000       0.000       2.000       2.000       0.000      0.1000E-19   0.000    
    2628   2.628      0.1000E-02 FIXED          0   0.0%   0.000       0.000       2.000       2.000       0.000      0.1000E-19   0.000    
    2629   2.629      0.1000E-02 FIXED          0   0.0%   0.000       0.000       2.000       2.000       0.000      0.1000E-19   0.000    
    2630   2.630      0.1000E-02 FIXED          0   0.0%   0.000       0.000       2.000       2.000       0.000      0.1000E-19   0.000    
    2631   2.631      0.1000E-02 FIXED          0  -0.0%   0.000       0.000       2.000       2.000       0.000      0.1000E-19   0.000    
    2632   2.632      0.1000E-02 FIXED          0  -0.0%   0.000       0.000       2.000       2.000       0.000      0.1000E-19   0.000    
    2633   2.633      0.1000E-02 FIXED          0   0.0%   0.000       0.000       2.000       2.000       0.000      0.1000E-19   0.000    
    2634   2.634      0.1000E-02 FIXED          0  -0.0%   0.000       0.000       2.000       2.000       0.000      0.1000E-19   0.000    
    2635   2.635      0.1000E-02 FIXED          0   0.0%   0.000       0.000       2.000       2.000       0.000      0.1000E-19   0.000    
    2636   2.636      0.1000E-02 FIXED          0   0.0%   0.000       0.000       2.000       2.000       0.000      0.1000E-19   0.000    
    2637   2.637      0.1000E-02 FIXED          0  -0.0%   0.000       0.000       2.000       2.000       0.000      0.1000E-19   0.000    
    2638   2.638      0.1000E-02 FIXED          0   0.0%   0.000       0.000       2.000       2.000       0.000      0.1000E-19   0.000    
    2639   2.639      0.1000E-02 FIXED          0   0.0%   0.000       0.000       2.000       2.000       0.000      0.1000E-19   0.000    
   CYCLE    TIME      TIME-STEP  ELEMENT          ERROR  I-ENERGY    K-ENERGY T  K-ENERGY R  EXT-WORK     MAS.ERR     TOTAL MASS  MASS ADDED
    2640   2.640      0.1000E-02 FIXED          0  -0.0%   0.000       0.000       2.000       2.000       0.000      0.1000E-19   0.000    
    2641   2.641      0.1000E-02 FIXED          0   0.0%   0.000       0.000       2.000       2.000       0.000      0.1000E-19   0.000    
    2642   2.642      0.1000E-02 FIXED          0   0.0%   0.000       0.000       2.000       2.000       0.000      0.1000E-19   0.000    
    2643   2.643      0.1000E-02 FIXED          0   0.0%   0.000       0.000       2.000       2.000       0.000      0.1000E-19   0.000    
    2644   2.644      0.1000E-02 FIXED          0  -0.0%   0.000       0.000       2.000       2.000       0.000      0.1000E-19   0.000    
    2645   2.645      0.1000E-02 FIXED          0   0.0%   0.000       0.000       2.000       2.000       0.000      0.1000E-19   0.000    
    2646   2.646      0.1000E-02 FIXED          0  -0.0%   0.000       0.000       2.000       2.000       0.000      0.1000E-19   0.000    
    2647   2.647      0.1000E-02 FIXED          0  -0.0%   0.000       0.000       2.000       2.000       0.000      0.1000E-19   0.000    
    2648   2.648      0.1000E-02 FIXED          0  -0.0%   0.000       0.000       2.000       2.000       0.000      0.1000E-19   0.000    
    2649   2.649      0.1000E-02 FIXED          0   0.0%   0.000       0.000       2.000       2.000       0.000      0.1000E-19   0.000    
    2650   2.650      0.1000E-02 FIXED          0  -0.0%   0.000       0.000       2.000       2.000       0.000      0.1000E-19   0.000    
    2651   2.651      0.1000E-02 FIXED          0   0.0%   0.000       0.000       2.000       2.000       0.000      0.1000E-19   0.000    
    2652   2.652      0.1000E-02 FIXED          0  -0.0%   0.000       0.000       2.000       2.000       0.000      0.1000E-19   0.000    
    2653   2.653      0.1000E-02 FIXED          0   0.0%   0.000       0.000       2.000       2.000       0.000      0.1000E-19   0.000    
    2654   2.654      0.1000E-02 FIXED          0   0.0%   0.000       0.000       2.000       2.000       0.000      0.1000E-19   0.000    
    2655   2.655      0.1000E-02 FIXED          0   0.0%   0.000       0.000       2.000       2.000       0.000      0.1000E-19   0.000    
    2656   2.656      0.1000E-02 FIXED          0  -0.0%   0.000       0.000       2.000       2.000       0.000      0.1000E-19   0.000    
    2657   2.657      0.1000E-02 FIXED          0   0.0%   0.000       0.000       2.000       2.000       0.000      0.1000E-19   0.000    
    2658   2.658      0.1000E-02 FIXED          0   0.0%   0.000       0.000       2.000       2.000       0.000      0.1000E-19   0.000    
    2659   2.659      0.1000E-02 FIXED          0   0.0%   0.000       0.000       2.000       2.000       0.000      0.1000E-19   0.000    
    2660   2.660      0.1000E-02 FIXED          0   0.0%   0.000       0.000       2.000       2.000       0.000      0.1000E-19   0.000    
    2661   2.661      0.1000E-02 FIXED          0  -0.0%   0.000       0.000       2.000       2.000       0.000      0.1000E-19   0.000    
    2662   2.662      0.1000E-02 FIXED          0   0.0%   0.000       0.000       2.000       2.000       0.000      0.1000E-19   0.000    
    2663   2.663      0.1000E-02 FIXED          0  -0.0%   0.000       0.000       2.000       2.000       0.000      0.1000E-19   0.000    
    2664   2.664      0.1000E-02 FIXED          0   0.0%   0.000       0.000       2.000       2.000       0.000      0.1000E-19   0.000    
    2665   2.665      0.1000E-02 FIXED          0  -0.0%   0.000       0.000       2.000       2.000       0.000      0.1000E-19   0.000    
    2666   2.666      0.1000E-02 FIXED          0   0.0%   0.000       0.000       2.000       2.000       0.000      0.1000E-19   0.000    
    2667   2.667      0.1000E-02 FIXED          0  -0.0%   0.000       0.000       2.000       2.000       0.000      0.1000E-19   0.000    
    2668   2.668      0.1000E-02 FIXED          0  -0.0%   0.000       0.000       2.000       2.000       0.000      0.1000E-19   0.000    
    2669   2.669      0.1000E-02 FIXED          0  -0.0%   0.000       0.000       2.000       2.000       0.000      0.1000E-19   0.000    
    2670   2.670      0.1000E-02 FIXED          0   0.0%   0.000       0.000       2.000       2.000       0.000      0.1000E-19   0.000    
    2671   2.671      0.1000E-02 FIXED          0   0.0%   0.000       0.000       2.000       2.000       0.000      0.1000E-19   0.000    
    2672   2.672      0.1000E-02 FIXED          0  -0.0%   0.000       0.000       2.000       2.000       0.000      0.1000E-19   0.000    
    2673   2.673      0.1000E-02 FIXED          0   0.0%   0.000       0.000       2.000       2.000       0.000      0.1000E-19   0.000    
    2674   2.674      0.1000E-02 FIXED          0  -0.0%   0.000       0.000       2.000       2.000       0.000      0.1000E-19   0.000    
    2675   2.675      0.1000E-02 FIXED          0   0.0%   0.000       0.000       2.000       2.000       0.000      0.1000E-19   0.000    
    2676   2.676      0.1000E-02 FIXED          0   0.0%   0.000       0.000       2.000       2.000       0.000      0.1000E-19   0.000    
    2677   2.677      0.1000E-02 FIXED          0   0.0%   0.000       0.000       2.000       2.000       0.000      0.1000E-19   0.000    
    2678   2.678      0.1000E-02 FIXED          0  -0.0%   0.000       0.000       2.000       2.000       0.000      0.1000E-19   0.000    
    2679   2.679      0.1000E-02 FIXED          0  -0.0%   0.000       0.000       2.000       2.000       0.000      0.1000E-19   0.000    
    2680   2.680      0.1000E-02 FIXED          0   0.0%   0.000       0.000       2.000       2.000       0.000      0.1000E-19   0.000    
    2681   2.681      0.1000E-02 FIXED          0   0.0%   0.000       0.000       2.000       2.000       0.000      0.1000E-19   0.000    
    2682   2.682      0.1000E-02 FIXED          0   0.0%   0.000       0.000       2.000       2.000       0.000      0.1000E-19   0.000    
    2683   2.683      0.1000E-02 FIXED          0   0.0%   0.000       0.000       2.000       2.000       0.000      0.1000E-19   0.000    
    2684   2.684      0.1000E-02 FIXED          0  -0.0%   0.000       0.000       2.000       2.000       0.000      0.1000E-19   0.000    
    2685   2.685      0.1000E-02 FIXED          0   0.0%   0.000       0.000       2.000       2.000       0.000      0.1000E-19   0.000    
    2686   2.686      0.1000E-02 FIXED          0  -0.0%   0.000       0.000       2.000       2.000       0.000      0.1000E-19   0.000    
    2687   2.687      0.1000E-02 FIXED          0   0.0%   0.000       0.000       2.000       2.000       0.000      0.1000E-19   0.000    
    2688   2.688      0.1000E-02 FIXED          0  -0.0%   0.000       0.000       2.000       2.000       0.000      0.1000E-19   0.000    
    2689   2.689      0.1000E-02 FIXED          0   0.0%   0.000       0.000       2.000       2.000       0.000      0.1000E-19   0.000    
    2690   2.690      0.1000E-02 FIXED          0   0.0%   0.000       0.000       2.000       2.000       0.000      0.1000E-19   0.000    
    2691   2.691      0.1000E-02 FIXED          0   0.0%   0.000       0.000       2.000       2.000       0.000      0.1000E-19   0.000    
    2692   2.692      0.1000E-02 FIXED          0  -0.0%   0.000       0.000       2.000       2.000       0.000      0.1000E-19   0.000    
    2693   2.693      0.1000E-02 FIXED          0   0.0%   0.000       0.000       2.000       2.000       0.000      0.1000E-19   0.000    
    2694   2.694      0.1000E-02 FIXED          0   0.0%   0.000       0.000       2.000       2.000       0.000      0.1000E-19   0.000    
   CYCLE    TIME      TIME-STEP  ELEMENT          ERROR  I-ENERGY    K-ENERGY T  K-ENERGY R  EXT-WORK     MAS.ERR     TOTAL MASS  MASS ADDED
    2695   2.695      0.1000E-02 FIXED          0  -0.0%   0.000       0.000       2.000       2.000       0.000      0.1000E-19   0.000    
    2696   2.696      0.1000E-02 FIXED          0  -0.0%   0.000       0.000       2.000       2.000       0.000      0.1000E-19   0.000    
    2697   2.697      0.1000E-02 FIXED          0   0.0%   0.000       0.000       2.000       2.000       0.000      0.1000E-19   0.000    
    2698   2.698      0.1000E-02 FIXED          0  -0.0%   0.000       0.000       2.000       2.000       0.000      0.1000E-19   0.000    
    2699   2.699      0.1000E-02 FIXED          0   0.0%   0.000       0.000       2.000       2.000       0.000      0.1000E-19   0.000    
    2700   2.700      0.1000E-02 FIXED          0   0.0%   0.000       0.000       2.000       2.000       0.000      0.1000E-19   0.000    
    2701   2.701      0.1000E-02 FIXED          0  -0.0%   0.000       0.000       2.000       2.000       0.000      0.1000E-19   0.000    
    2702   2.702      0.1000E-02 FIXED          0   0.0%   0.000       0.000       2.000       2.000       0.000      0.1000E-19   0.000    
    2703   2.703      0.1000E-02 FIXED          0   0.0%   0.000       0.000       2.000       2.000       0.000      0.1000E-19   0.000    
    2704   2.704      0.1000E-02 FIXED          0   0.0%   0.000       0.000       2.000       2.000       0.000      0.1000E-19   0.000    
    2705   2.705      0.1000E-02 FIXED          0  -0.0%   0.000       0.000       2.000       2.000       0.000      0.1000E-19   0.000    
    2706   2.706      0.1000E-02 FIXED          0   0.0%   0.000       0.000       2.000       2.000       0.000      0.1000E-19   0.000    
    2707   2.707      0.1000E-02 FIXED          0  -0.0%   0.000       0.000       2.000       2.000       0.000      0.1000E-19   0.000    
    2708   2.708      0.1000E-02 FIXED          0   0.0%   0.000       0.000       2.000       2.000       0.000      0.1000E-19   0.000    
    2709   2.709      0.1000E-02 FIXED          0   0.0%   0.000       0.000       2.000       2.000       0.000      0.1000E-19   0.000    
    2710   2.710      0.1000E-02 FIXED          0  -0.0%   0.000       0.000       2.000       2.000       0.000      0.1000E-19   0.000    
    2711   2.711      0.1000E-02 FIXED          0  -0.0%   0.000       0.000       2.000       2.000       0.000      0.1000E-19   0.000    
    2712   2.712      0.1000E-02 FIXED          0  -0.0%   0.000       0.000       2.000       2.000       0.000      0.1000E-19   0.000    
    2713   2.713      0.1000E-02 FIXED          0   0.0%   0.000       0.000       2.000       2.000       0.000      0.1000E-19   0.000    
    2714   2.714      0.1000E-02 FIXED          0  -0.0%   0.000       0.000       2.000       2.000       0.000      0.1000E-19   0.000    
    2715   2.715      0.1000E-02 FIXED          0  -0.0%   0.000       0.000       2.000       2.000       0.000      0.1000E-19   0.000    
    2716   2.716      0.1000E-02 FIXED          0   0.0%   0.000       0.000       2.000       2.000       0.000      0.1000E-19   0.000    
    2717   2.717      0.1000E-02 FIXED          0  -0.0%   0.000       0.000       2.000       2.000       0.000      0.1000E-19   0.000    
    2718   2.718      0.1000E-02 FIXED          0   0.0%   0.000       0.000       2.000       2.000       0.000      0.1000E-19   0.000    
    2719   2.719      0.1000E-02 FIXED          0  -0.0%   0.000       0.000       2.000       2.000       0.000      0.1000E-19   0.000    
    2720   2.720      0.1000E-02 FIXED          0  -0.0%   0.000       0.000       2.000       2.000       0.000      0.1000E-19   0.000    
    2721   2.721      0.1000E-02 FIXED          0   0.0%   0.000       0.000       2.000       2.000       0.000      0.1000E-19   0.000    
    2722   2.722      0.1000E-02 FIXED          0   0.0%   0.000       0.000       2.000       2.000       0.000      0.1000E-19   0.000    
    2723   2.723      0.1000E-02 FIXED          0   0.0%   0.000       0.000       2.000       2.000       0.000      0.1000E-19   0.000    
    2724   2.724      0.1000E-02 FIXED          0   0.0%   0.000       0.000       2.000       2.000       0.000      0.1000E-19   0.000    
    2725   2.725      0.1000E-02 FIXED          0   0.0%   0.000       0.000       2.000       2.000       0.000      0.1000E-19   0.000    
    2726   2.726      0.1000E-02 FIXED          0  -0.0%   0.000       0.000       2.000       2.000       0.000      0.1000E-19   0.000    
    2727   2.727      0.1000E-02 FIXED          0   0.0%   0.000       0.000       2.000       2.000       0.000      0.1000E-19   0.000    
    2728   2.728      0.1000E-02 FIXED          0   0.0%   0.000       0.000       2.000       2.000       0.000      0.1000E-19   0.000    
    2729   2.729      0.1000E-02 FIXED          0  -0.0%   0.000       0.000       2.000       2.000       0.000      0.1000E-19   0.000    
    2730   2.730      0.1000E-02 FIXED          0   0.0%   0.000       0.000       2.000       2.000       0.000      0.1000E-19   0.000    
    2731   2.731      0.1000E-02 FIXED          0  -0.0%   0.000       0.000       2.000       2.000       0.000      0.1000E-19   0.000    
    2732   2.732      0.1000E-02 FIXED          0  -0.0%   0.000       0.000       2.000       2.000       0.000      0.1000E-19   0.000    
    2733   2.733      0.1000E-02 FIXED          0  -0.0%   0.000       0.000       2.000       2.000       0.000      0.1000E-19   0.000    
    2734   2.734      0.1000E-02 FIXED          0  -0.0%   0.000       0.000       2.000       2.000       0.000      0.1000E-19   0.000    
    2735   2.735      0.1000E-02 FIXED          0   0.0%   0.000       0.000       2.000       2.000       0.000      0.1000E-19   0.000    
    2736   2.736      0.1000E-02 FIXED          0   0.0%   0.000       0.000       2.000       2.000       0.000      0.1000E-19   0.000    
    2737   2.737      0.1000E-02 FIXED          0  -0.0%   0.000       0.000       2.000       2.000       0.000      0.1000E-19   0.000    
    2738   2.738      0.1000E-02 FIXED          0   0.0%   0.000       0.000       2.000       2.000       0.000      0.1000E-19   0.000    
    2739   2.739      0.1000E-02 FIXED          0   0.0%   0.000       0.000       2.000       2.000       0.000      0.1000E-19   0.000    
    2740   2.740      0.1000E-02 FIXED          0  -0.0%   0.000       0.000       2.000       2.000       0.000      0.1000E-19   0.000    
    2741   2.741      0.1000E-02 FIXED          0   0.0%   0.000       0.000       2.000       2.000       0.000      0.1000E-19   0.000    
    2742   2.742      0.1000E-02 FIXED          0   0.0%   0.000       0.000       2.000       2.000       0.000      0.1000E-19   0.000    
    2743   2.743      0.1000E-02 FIXED          0  -0.0%   0.000       0.000       2.000       2.000       0.000      0.1000E-19   0.000    
    2744   2.744      0.1000E-02 FIXED          0  -0.0%   0.000       0.000       2.000       2.000       0.000      0.1000E-19   0.000    
    2745   2.745      0.1000E-02 FIXED          0   0.0%   0.000       0.000       2.000       2.000       0.000      0.1000E-19   0.000    
    2746   2.746      0.1000E-02 FIXED          0   0.0%   0.000       0.000       2.000       2.000       0.000      0.1000E-19   0.000    
    2747   2.747      0.1000E-02 FIXED          0  -0.0%   0.000       0.000       2.000       2.000       0.000      0.1000E-19   0.000    
    2748   2.748      0.1000E-02 FIXED          0  -0.0%   0.000       0.000       2.000       2.000       0.000      0.1000E-19   0.000    
    2749   2.749      0.1000E-02 FIXED          0   0.0%   0.000       0.000       2.000       2.000       0.000      0.1000E-19   0.000    
   CYCLE    TIME      TIME-STEP  ELEMENT          ERROR  I-ENERGY    K-ENERGY T  K-ENERGY R  EXT-WORK     MAS.ERR     TOTAL MASS  MASS ADDED
    2750   2.750      0.1000E-02 FIXED          0   0.0%   0.000       0.000       2.000       2.000       0.000      0.1000E-19   0.000    
    2751   2.751      0.1000E-02 FIXED          0  -0.0%   0.000       0.000       2.000       2.000       0.000      0.1000E-19   0.000    
    2752   2.752      0.1000E-02 FIXED          0   0.0%   0.000       0.000       2.000       2.000       0.000      0.1000E-19   0.000    
    2753   2.753      0.1000E-02 FIXED          0   0.0%   0.000       0.000       2.000       2.000       0.000      0.1000E-19   0.000    
    2754   2.754      0.1000E-02 FIXED          0  -0.0%   0.000       0.000       2.000       2.000       0.000      0.1000E-19   0.000    
    2755   2.755      0.1000E-02 FIXED          0   0.0%   0.000       0.000       2.000       2.000       0.000      0.1000E-19   0.000    
    2756   2.756      0.1000E-02 FIXED          0   0.0%   0.000       0.000       2.000       2.000       0.000      0.1000E-19   0.000    
    2757   2.757      0.1000E-02 FIXED          0  -0.0%   0.000       0.000       2.000       2.000       0.000      0.1000E-19   0.000    
    2758   2.758      0.1000E-02 FIXED          0   0.0%   0.000       0.000       2.000       2.000       0.000      0.1000E-19   0.000    
    2759   2.759      0.1000E-02 FIXED          0  -0.0%   0.000       0.000       2.000       2.000       0.000      0.1000E-19   0.000    
    2760   2.760      0.1000E-02 FIXED          0   0.0%   0.000       0.000       2.000       2.000       0.000      0.1000E-19   0.000    
    2761   2.761      0.1000E-02 FIXED          0   0.0%   0.000       0.000       2.000       2.000       0.000      0.1000E-19   0.000    
    2762   2.762      0.1000E-02 FIXED          0  -0.0%   0.000       0.000       2.000       2.000       0.000      0.1000E-19   0.000    
    2763   2.763      0.1000E-02 FIXED          0   0.0%   0.000       0.000       2.000       2.000       0.000      0.1000E-19   0.000    
    2764   2.764      0.1000E-02 FIXED          0  -0.0%   0.000       0.000       2.000       2.000       0.000      0.1000E-19   0.000    
    2765   2.765      0.1000E-02 FIXED          0  -0.0%   0.000       0.000       2.000       2.000       0.000      0.1000E-19   0.000    
    2766   2.766      0.1000E-02 FIXED          0  -0.0%   0.000       0.000       2.000       2.000       0.000      0.1000E-19   0.000    
    2767   2.767      0.1000E-02 FIXED          0  -0.0%   0.000       0.000       2.000       2.000       0.000      0.1000E-19   0.000    
    2768   2.768      0.1000E-02 FIXED          0   0.0%   0.000       0.000       2.000       2.000       0.000      0.1000E-19   0.000    
    2769   2.769      0.1000E-02 FIXED          0  -0.0%   0.000       0.000       2.000       2.000       0.000      0.1000E-19   0.000    
    2770   2.770      0.1000E-02 FIXED          0   0.0%   0.000       0.000       2.000       2.000       0.000      0.1000E-19   0.000    
    2771   2.771      0.1000E-02 FIXED          0   0.0%   0.000       0.000       2.000       2.000       0.000      0.1000E-19   0.000    
    2772   2.772      0.1000E-02 FIXED          0   0.0%   0.000       0.000       2.000       2.000       0.000      0.1000E-19   0.000    
    2773   2.773      0.1000E-02 FIXED          0  -0.0%   0.000       0.000       2.000       2.000       0.000      0.1000E-19   0.000    
    2774   2.774      0.1000E-02 FIXED          0   0.0%   0.000       0.000       2.000       2.000       0.000      0.1000E-19   0.000    
    2775   2.775      0.1000E-02 FIXED          0   0.0%   0.000       0.000       2.000       2.000       0.000      0.1000E-19   0.000    
    2776   2.776      0.1000E-02 FIXED          0  -0.0%   0.000       0.000       2.000       2.000       0.000      0.1000E-19   0.000    
    2777   2.777      0.1000E-02 FIXED          0   0.0%   0.000       0.000       2.000       2.000       0.000      0.1000E-19   0.000    
    2778   2.778      0.1000E-02 FIXED          0  -0.0%   0.000       0.000       2.000       2.000       0.000      0.1000E-19   0.000    
    2779   2.779      0.1000E-02 FIXED          0   0.0%   0.000       0.000       2.000       2.000       0.000      0.1000E-19   0.000    
    2780   2.780      0.1000E-02 FIXED          0   0.0%   0.000       0.000       2.000       2.000       0.000      0.1000E-19   0.000    
    2781   2.781      0.1000E-02 FIXED          0  -0.0%   0.000       0.000       2.000       2.000       0.000      0.1000E-19   0.000    
    2782   2.782      0.1000E-02 FIXED          0   0.0%   0.000       0.000       2.000       2.000       0.000      0.1000E-19   0.000    
    2783   2.783      0.1000E-02 FIXED          0  -0.0%   0.000       0.000       2.000       2.000       0.000      0.1000E-19   0.000    
    2784   2.784      0.1000E-02 FIXED          0   0.0%   0.000       0.000       2.000       2.000       0.000      0.1000E-19   0.000    
    2785   2.785      0.1000E-02 FIXED          0   0.0%   0.000       0.000       2.000       2.000       0.000      0.1000E-19   0.000    
    2786   2.786      0.1000E-02 FIXED          0   0.0%   0.000       0.000       2.000       2.000       0.000      0.1000E-19   0.000    
    2787   2.787      0.1000E-02 FIXED          0   0.0%   0.000       0.000       2.000       2.000       0.000      0.1000E-19   0.000    
    2788   2.788      0.1000E-02 FIXED          0   0.0%   0.000       0.000       2.000       2.000       0.000      0.1000E-19   0.000    
    2789   2.789      0.1000E-02 FIXED          0   0.0%   0.000       0.000       2.000       2.000       0.000      0.1000E-19   0.000    
    2790   2.790      0.1000E-02 FIXED          0  -0.0%   0.000       0.000       2.000       2.000       0.000      0.1000E-19   0.000    
    2791   2.791      0.1000E-02 FIXED          0  -0.0%   0.000       0.000       2.000       2.000       0.000      0.1000E-19   0.000    
    2792   2.792      0.1000E-02 FIXED          0   0.0%   0.000       0.000       2.000       2.000       0.000      0.1000E-19   0.000    
    2793   2.793      0.1000E-02 FIXED          0   0.0%   0.000       0.000       2.000       2.000       0.000      0.1000E-19   0.000    
    2794   2.794      0.1000E-02 FIXED          0  -0.0%   0.000       0.000       2.000       2.000       0.000      0.1000E-19   0.000    
    2795   2.795      0.1000E-02 FIXED          0  -0.0%   0.000       0.000       2.000       2.000       0.000      0.1000E-19   0.000    
    2796   2.796      0.1000E-02 FIXED          0   0.0%   0.000       0.000       2.000       2.000       0.000      0.1000E-19   0.000    
    2797   2.797      0.1000E-02 FIXED          0  -0.0%   0.000       0.000       2.000       2.000       0.000      0.1000E-19   0.000    
    2798   2.798      0.1000E-02 FIXED          0   0.0%   0.000       0.000       2.000       2.000       0.000      0.1000E-19   0.000    
    2799   2.799      0.1000E-02 FIXED          0   0.0%   0.000       0.000       2.000       2.000       0.000      0.1000E-19   0.000    
    2800   2.800      0.1000E-02 FIXED          0   0.0%   0.000       0.000       2.000       2.000       0.000      0.1000E-19   0.000    
    2801   2.801      0.1000E-02 FIXED          0  -0.0%   0.000       0.000       2.000       2.000       0.000      0.1000E-19   0.000    
    2802   2.802      0.1000E-02 FIXED          0   0.0%   0.000       0.000       2.000       2.000       0.000      0.1000E-19   0.000    
    2803   2.803      0.1000E-02 FIXED          0  -0.0%   0.000       0.000       2.000       2.000       0.000      0.1000E-19   0.000    
    2804   2.804      0.1000E-02 FIXED          0   0.0%   0.000       0.000       2.000       2.000       0.000      0.1000E-19   0.000    
   CYCLE    TIME      TIME-STEP  ELEMENT          ERROR  I-ENERGY    K-ENERGY T  K-ENERGY R  EXT-WORK     MAS.ERR     TOTAL MASS  MASS ADDED
    2805   2.805      0.1000E-02 FIXED          0   0.0%   0.000       0.000       2.000       2.000       0.000      0.1000E-19   0.000    
    2806   2.806      0.1000E-02 FIXED          0   0.0%   0.000       0.000       2.000       2.000       0.000      0.1000E-19   0.000    
    2807   2.807      0.1000E-02 FIXED          0  -0.0%   0.000       0.000       2.000       2.000       0.000      0.1000E-19   0.000    
    2808   2.808      0.1000E-02 FIXED          0   0.0%   0.000       0.000       2.000       2.000       0.000      0.1000E-19   0.000    
    2809   2.809      0.1000E-02 FIXED          0  -0.0%   0.000       0.000       2.000       2.000       0.000      0.1000E-19   0.000    
    2810   2.810      0.1000E-02 FIXED          0   0.0%   0.000       0.000       2.000       2.000       0.000      0.1000E-19   0.000    
    2811   2.811      0.1000E-02 FIXED          0   0.0%   0.000       0.000       2.000       2.000       0.000      0.1000E-19   0.000    
    2812   2.812      0.1000E-02 FIXED          0  -0.0%   0.000       0.000       2.000       2.000       0.000      0.1000E-19   0.000    
    2813   2.813      0.1000E-02 FIXED          0   0.0%   0.000       0.000       2.000       2.000       0.000      0.1000E-19   0.000    
    2814   2.814      0.1000E-02 FIXED          0   0.0%   0.000       0.000       2.000       2.000       0.000      0.1000E-19   0.000    
    2815   2.815      0.1000E-02 FIXED          0   0.0%   0.000       0.000       2.000       2.000       0.000      0.1000E-19   0.000    
    2816   2.816      0.1000E-02 FIXED          0  -0.0%   0.000       0.000       2.000       2.000       0.000      0.1000E-19   0.000    
    2817   2.817      0.1000E-02 FIXED          0   0.0%   0.000       0.000       2.000       2.000       0.000      0.1000E-19   0.000    
    2818   2.818      0.1000E-02 FIXED          0  -0.0%   0.000       0.000       2.000       2.000       0.000      0.1000E-19   0.000    
    2819   2.819      0.1000E-02 FIXED          0   0.0%   0.000       0.000       2.000       2.000       0.000      0.1000E-19   0.000    
    2820   2.820      0.1000E-02 FIXED          0  -0.0%   0.000       0.000       2.000       2.000       0.000      0.1000E-19   0.000    
    2821   2.821      0.1000E-02 FIXED          0   0.0%   0.000       0.000       2.000       2.000       0.000      0.1000E-19   0.000    
    2822   2.822      0.1000E-02 FIXED          0  -0.0%   0.000       0.000       2.000       2.000       0.000      0.1000E-19   0.000    
    2823   2.823      0.1000E-02 FIXED          0  -0.0%   0.000       0.000       2.000       2.000       0.000      0.1000E-19   0.000    
    2824   2.824      0.1000E-02 FIXED          0  -0.0%   0.000       0.000       2.000       2.000       0.000      0.1000E-19   0.000    
    2825   2.825      0.1000E-02 FIXED          0  -0.0%   0.000       0.000       2.000       2.000       0.000      0.1000E-19   0.000    
    2826   2.826      0.1000E-02 FIXED          0   0.0%   0.000       0.000       2.000       2.000       0.000      0.1000E-19   0.000    
    2827   2.827      0.1000E-02 FIXED          0  -0.0%   0.000       0.000       2.000       2.000       0.000      0.1000E-19   0.000    
    2828   2.828      0.1000E-02 FIXED          0  -0.0%   0.000       0.000       2.000       2.000       0.000      0.1000E-19   0.000    
    2829   2.829      0.1000E-02 FIXED          0   0.0%   0.000       0.000       2.000       2.000       0.000      0.1000E-19   0.000    
    2830   2.830      0.1000E-02 FIXED          0  -0.0%   0.000       0.000       2.000       2.000       0.000      0.1000E-19   0.000    
    2831   2.831      0.1000E-02 FIXED          0   0.0%   0.000       0.000       2.000       2.000       0.000      0.1000E-19   0.000    
    2832   2.832      0.1000E-02 FIXED          0  -0.0%   0.000       0.000       2.000       2.000       0.000      0.1000E-19   0.000    
    2833   2.833      0.1000E-02 FIXED          0   0.0%   0.000       0.000       2.000       2.000       0.000      0.1000E-19   0.000    
    2834   2.834      0.1000E-02 FIXED          0   0.0%   0.000       0.000       2.000       2.000       0.000      0.1000E-19   0.000    
    2835   2.835      0.1000E-02 FIXED          0  -0.0%   0.000       0.000       2.000       2.000       0.000      0.1000E-19   0.000    
    2836   2.836      0.1000E-02 FIXED          0   0.0%   0.000       0.000       2.000       2.000       0.000      0.1000E-19   0.000    
    2837   2.837      0.1000E-02 FIXED          0   0.0%   0.000       0.000       2.000       2.000       0.000      0.1000E-19   0.000    
    2838   2.838      0.1000E-02 FIXED          0   0.0%   0.000       0.000       2.000       2.000       0.000      0.1000E-19   0.000    
    2839   2.839      0.1000E-02 FIXED          0   0.0%   0.000       0.000       2.000       2.000       0.000      0.1000E-19   0.000    
    2840   2.840      0.1000E-02 FIXED          0   0.0%   0.000       0.000       2.000       2.000       0.000      0.1000E-19   0.000    
    2841   2.841      0.1000E-02 FIXED          0   0.0%   0.000       0.000       2.000       2.000       0.000      0.1000E-19   0.000    
    2842   2.842      0.1000E-02 FIXED          0   0.0%   0.000       0.000       2.000       2.000       0.000      0.1000E-19   0.000    
    2843   2.843      0.1000E-02 FIXED          0   0.0%   0.000       0.000       2.000       2.000       0.000      0.1000E-19   0.000    
    2844   2.844      0.1000E-02 FIXED          0   0.0%   0.000       0.000       2.000       2.000       0.000      0.1000E-19   0.000    
    2845   2.845      0.1000E-02 FIXED          0  -0.0%   0.000       0.000       2.000       2.000       0.000      0.1000E-19   0.000    
    2846   2.846      0.1000E-02 FIXED          0   0.0%   0.000       0.000       2.000       2.000       0.000      0.1000E-19   0.000    
    2847   2.847      0.1000E-02 FIXED          0  -0.0%   0.000       0.000       2.000       2.000       0.000      0.1000E-19   0.000    
    2848   2.848      0.1000E-02 FIXED          0   0.0%   0.000       0.000       2.000       2.000       0.000      0.1000E-19   0.000    
    2849   2.849      0.1000E-02 FIXED          0  -0.0%   0.000       0.000       2.000       2.000       0.000      0.1000E-19   0.000    
    2850   2.850      0.1000E-02 FIXED          0  -0.0%   0.000       0.000       2.000       2.000       0.000      0.1000E-19   0.000    
    2851   2.851      0.1000E-02 FIXED          0   0.0%   0.000       0.000       2.000       2.000       0.000      0.1000E-19   0.000    
    2852   2.852      0.1000E-02 FIXED          0  -0.0%   0.000       0.000       2.000       2.000       0.000      0.1000E-19   0.000    
    2853   2.853      0.1000E-02 FIXED          0   0.0%   0.000       0.000       2.000       2.000       0.000      0.1000E-19   0.000    
    2854   2.854      0.1000E-02 FIXED          0  -0.0%   0.000       0.000       2.000       2.000       0.000      0.1000E-19   0.000    
    2855   2.855      0.1000E-02 FIXED          0   0.0%   0.000       0.000       2.000       2.000       0.000      0.1000E-19   0.000    
    2856   2.856      0.1000E-02 FIXED          0   0.0%   0.000       0.000       2.000       2.000       0.000      0.1000E-19   0.000    
    2857   2.857      0.1000E-02 FIXED          0  -0.0%   0.000       0.000       2.000       2.000       0.000      0.1000E-19   0.000    
    2858   2.858      0.1000E-02 FIXED          0  -0.0%   0.000       0.000       2.000       2.000       0.000      0.1000E-19   0.000    
    2859   2.859      0.1000E-02 FIXED          0  -0.0%   0.000       0.000       2.000       2.000       0.000      0.1000E-19   0.000    
   CYCLE    TIME      TIME-STEP  ELEMENT          ERROR  I-ENERGY    K-ENERGY T  K-ENERGY R  EXT-WORK     MAS.ERR     TOTAL MASS  MASS ADDED
    2860   2.860      0.1000E-02 FIXED          0   0.0%   0.000       0.000       2.000       2.000       0.000      0.1000E-19   0.000    
    2861   2.861      0.1000E-02 FIXED          0  -0.0%   0.000       0.000       2.000       2.000       0.000      0.1000E-19   0.000    
    2862   2.862      0.1000E-02 FIXED          0   0.0%   0.000       0.000       2.000       2.000       0.000      0.1000E-19   0.000    
    2863   2.863      0.1000E-02 FIXED          0   0.0%   0.000       0.000       2.000       2.000       0.000      0.1000E-19   0.000    
    2864   2.864      0.1000E-02 FIXED          0   0.0%   0.000       0.000       2.000       2.000       0.000      0.1000E-19   0.000    
    2865   2.865      0.1000E-02 FIXED          0  -0.0%   0.000       0.000       2.000       2.000       0.000      0.1000E-19   0.000    
    2866   2.866      0.1000E-02 FIXED          0   0.0%   0.000       0.000       2.000       2.000       0.000      0.1000E-19   0.000    
    2867   2.867      0.1000E-02 FIXED          0   0.0%   0.000       0.000       2.000       2.000       0.000      0.1000E-19   0.000    
    2868   2.868      0.1000E-02 FIXED          0  -0.0%   0.000       0.000       2.000       2.000       0.000      0.1000E-19   0.000    
    2869   2.869      0.1000E-02 FIXED          0   0.0%   0.000       0.000       2.000       2.000       0.000      0.1000E-19   0.000    
    2870   2.870      0.1000E-02 FIXED          0  -0.0%   0.000       0.000       2.000       2.000       0.000      0.1000E-19   0.000    
    2871   2.871      0.1000E-02 FIXED          0  -0.0%   0.000       0.000       2.000       2.000       0.000      0.1000E-19   0.000    
    2872   2.872      0.1000E-02 FIXED          0   0.0%   0.000       0.000       2.000       2.000       0.000      0.1000E-19   0.000    
    2873   2.873      0.1000E-02 FIXED          0  -0.0%   0.000       0.000       2.000       2.000       0.000      0.1000E-19   0.000    
    2874   2.874      0.1000E-02 FIXED          0  -0.0%   0.000       0.000       2.000       2.000       0.000      0.1000E-19   0.000    
    2875   2.875      0.1000E-02 FIXED          0   0.0%   0.000       0.000       2.000       2.000       0.000      0.1000E-19   0.000    
    2876   2.876      0.1000E-02 FIXED          0  -0.0%   0.000       0.000       2.000       2.000       0.000      0.1000E-19   0.000    
    2877   2.877      0.1000E-02 FIXED          0  -0.0%   0.000       0.000       2.000       2.000       0.000      0.1000E-19   0.000    
    2878   2.878      0.1000E-02 FIXED          0   0.0%   0.000       0.000       2.000       2.000       0.000      0.1000E-19   0.000    
    2879   2.879      0.1000E-02 FIXED          0   0.0%   0.000       0.000       2.000       2.000       0.000      0.1000E-19   0.000    
    2880   2.880      0.1000E-02 FIXED          0   0.0%   0.000       0.000       2.000       2.000       0.000      0.1000E-19   0.000    
    2881   2.881      0.1000E-02 FIXED          0   0.0%   0.000       0.000       2.000       2.000       0.000      0.1000E-19   0.000    
    2882   2.882      0.1000E-02 FIXED          0   0.0%   0.000       0.000       2.000       2.000       0.000      0.1000E-19   0.000    
    2883   2.883      0.1000E-02 FIXED          0   0.0%   0.000       0.000       2.000       2.000       0.000      0.1000E-19   0.000    
    2884   2.884      0.1000E-02 FIXED          0  -0.0%   0.000       0.000       2.000       2.000       0.000      0.1000E-19   0.000    
    2885   2.885      0.1000E-02 FIXED          0   0.0%   0.000       0.000       2.000       2.000       0.000      0.1000E-19   0.000    
    2886   2.886      0.1000E-02 FIXED          0  -0.0%   0.000       0.000       2.000       2.000       0.000      0.1000E-19   0.000    
    2887   2.887      0.1000E-02 FIXED          0   0.0%   0.000       0.000       2.000       2.000       0.000      0.1000E-19   0.000    
    2888   2.888      0.1000E-02 FIXED          0   0.0%   0.000       0.000       2.000       2.000       0.000      0.1000E-19   0.000    
    2889   2.889      0.1000E-02 FIXED          0   0.0%   0.000       0.000       2.000       2.000       0.000      0.1000E-19   0.000    
    2890   2.890      0.1000E-02 FIXED          0  -0.0%   0.000       0.000       2.000       2.000       0.000      0.1000E-19   0.000    
    2891   2.891      0.1000E-02 FIXED          0   0.0%   0.000       0.000       2.000       2.000       0.000      0.1000E-19   0.000    
    2892   2.892      0.1000E-02 FIXED          0  -0.0%   0.000       0.000       2.000       2.000       0.000      0.1000E-19   0.000    
    2893   2.893      0.1000E-02 FIXED          0   0.0%   0.000       0.000       2.000       2.000       0.000      0.1000E-19   0.000    
    2894   2.894      0.1000E-02 FIXED          0   0.0%   0.000       0.000       2.000       2.000       0.000      0.1000E-19   0.000    
    2895   2.895      0.1000E-02 FIXED          0  -0.0%   0.000       0.000       2.000       2.000       0.000      0.1000E-19   0.000    
    2896   2.896      0.1000E-02 FIXED          0   0.0%   0.000       0.000       2.000       2.000       0.000      0.1000E-19   0.000    
    2897   2.897      0.1000E-02 FIXED          0   0.0%   0.000       0.000       2.000       2.000       0.000      0.1000E-19   0.000    
    2898   2.898      0.1000E-02 FIXED          0  -0.0%   0.000       0.000       2.000       2.000       0.000      0.1000E-19   0.000    
    2899   2.899      0.1000E-02 FIXED          0  -0.0%   0.000       0.000       2.000       2.000       0.000      0.1000E-19   0.000    
    2900   2.900      0.1000E-02 FIXED          0   0.0%   0.000       0.000       2.000       2.000       0.000      0.1000E-19   0.000    
    2901   2.901      0.1000E-02 FIXED          0  -0.0%   0.000       0.000       2.000       2.000       0.000      0.1000E-19   0.000    
    2902   2.902      0.1000E-02 FIXED          0   0.0%   0.000       0.000       2.000       2.000       0.000      0.1000E-19   0.000    
    2903   2.903      0.1000E-02 FIXED          0  -0.0%   0.000       0.000       2.000       2.000       0.000      0.1000E-19   0.000    
    2904   2.904      0.1000E-02 FIXED          0   0.0%   0.000       0.000       2.000       2.000       0.000      0.1000E-19   0.000    
    2905   2.905      0.1000E-02 FIXED          0   0.0%   0.000       0.000       2.000       2.000       0.000      0.1000E-19   0.000    
    2906   2.906      0.1000E-02 FIXED          0  -0.0%   0.000       0.000       2.000       2.000       0.000      0.1000E-19   0.000    
    2907   2.907      0.1000E-02 FIXED          0  -0.0%   0.000       0.000       2.000       2.000       0.000      0.1000E-19   0.000    
    2908   2.908      0.1000E-02 FIXED          0  -0.0%   0.000       0.000       2.000       2.000       0.000      0.1000E-19   0.000    
    2909   2.909      0.1000E-02 FIXED          0   0.0%   0.000       0.000       2.000       2.000       0.000      0.1000E-19   0.000    
    2910   2.910      0.1000E-02 FIXED          0  -0.0%   0.000       0.000       2.000       2.000       0.000      0.1000E-19   0.000    
    2911   2.911      0.1000E-02 FIXED          0   0.0%   0.000       0.000       2.000       2.000       0.000      0.1000E-19   0.000    
    2912   2.912      0.1000E-02 FIXED          0   0.0%   0.000       0.000       2.000       2.000       0.000      0.1000E-19   0.000    
    2913   2.913      0.1000E-02 FIXED          0  -0.0%   0.000       0.000       2.000       2.000       0.000      0.1000E-19   0.000    
    2914   2.914      0.1000E-02 FIXED          0   0.0%   0.000       0.000       2.000       2.000       0.000      0.1000E-19   0.000    
   CYCLE    TIME      TIME-STEP  ELEMENT          ERROR  I-ENERGY    K-ENERGY T  K-ENERGY R  EXT-WORK     MAS.ERR     TOTAL MASS  MASS ADDED
    2915   2.915      0.1000E-02 FIXED          0   0.0%   0.000       0.000       2.000       2.000       0.000      0.1000E-19   0.000    
    2916   2.916      0.1000E-02 FIXED          0   0.0%   0.000       0.000       2.000       2.000       0.000      0.1000E-19   0.000    
    2917   2.917      0.1000E-02 FIXED          0   0.0%   0.000       0.000       2.000       2.000       0.000      0.1000E-19   0.000    
    2918   2.918      0.1000E-02 FIXED          0   0.0%   0.000       0.000       2.000       2.000       0.000      0.1000E-19   0.000    
    2919   2.919      0.1000E-02 FIXED          0   0.0%   0.000       0.000       2.000       2.000       0.000      0.1000E-19   0.000    
    2920   2.920      0.1000E-02 FIXED          0   0.0%   0.000       0.000       2.000       2.000       0.000      0.1000E-19   0.000    
    2921   2.921      0.1000E-02 FIXED          0  -0.0%   0.000       0.000       2.000       2.000       0.000      0.1000E-19   0.000    
    2922   2.922      0.1000E-02 FIXED          0   0.0%   0.000       0.000       2.000       2.000       0.000      0.1000E-19   0.000    
    2923   2.923      0.1000E-02 FIXED          0   0.0%   0.000       0.000       2.000       2.000       0.000      0.1000E-19   0.000    
    2924   2.924      0.1000E-02 FIXED          0   0.0%   0.000       0.000       2.000       2.000       0.000      0.1000E-19   0.000    
    2925   2.925      0.1000E-02 FIXED          0  -0.0%   0.000       0.000       2.000       2.000       0.000      0.1000E-19   0.000    
    2926   2.926      0.1000E-02 FIXED          0   0.0%   0.000       0.000       2.000       2.000       0.000      0.1000E-19   0.000    
    2927   2.927      0.1000E-02 FIXED          0   0.0%   0.000       0.000       2.000       2.000       0.000      0.1000E-19   0.000    
    2928   2.928      0.1000E-02 FIXED          0   0.0%   0.000       0.000       2.000       2.000       0.000      0.1000E-19   0.000    
    2929   2.929      0.1000E-02 FIXED          0   0.0%   0.000       0.000       2.000       2.000       0.000      0.1000E-19   0.000    
    2930   2.930      0.1000E-02 FIXED          0   0.0%   0.000       0.000       2.000       2.000       0.000      0.1000E-19   0.000    
    2931   2.931      0.1000E-02 FIXED          0   0.0%   0.000       0.000       2.000       2.000       0.000      0.1000E-19   0.000    
    2932   2.932      0.1000E-02 FIXED          0   0.0%   0.000       0.000       2.000       2.000       0.000      0.1000E-19   0.000    
    2933   2.933      0.1000E-02 FIXED          0  -0.0%   0.000       0.000       2.000       2.000       0.000      0.1000E-19   0.000    
    2934   2.934      0.1000E-02 FIXED          0   0.0%   0.000       0.000       2.000       2.000       0.000      0.1000E-19   0.000    
    2935   2.935      0.1000E-02 FIXED          0   0.0%   0.000       0.000       2.000       2.000       0.000      0.1000E-19   0.000    
    2936   2.936      0.1000E-02 FIXED          0   0.0%   0.000       0.000       2.000       2.000       0.000      0.1000E-19   0.000    
    2937   2.937      0.1000E-02 FIXED          0  -0.0%   0.000       0.000       2.000       2.000       0.000      0.1000E-19   0.000    
    2938   2.938      0.1000E-02 FIXED          0  -0.0%   0.000       0.000       2.000       2.000       0.000      0.1000E-19   0.000    
    2939   2.939      0.1000E-02 FIXED          0   0.0%   0.000       0.000       2.000       2.000       0.000      0.1000E-19   0.000    
    2940   2.940      0.1000E-02 FIXED          0  -0.0%   0.000       0.000       2.000       2.000       0.000      0.1000E-19   0.000    
    2941   2.941      0.1000E-02 FIXED          0   0.0%   0.000       0.000       2.000       2.000       0.000      0.1000E-19   0.000    
    2942   2.942      0.1000E-02 FIXED          0   0.0%   0.000       0.000       2.000       2.000       0.000      0.1000E-19   0.000    
    2943   2.943      0.1000E-02 FIXED          0  -0.0%   0.000       0.000       2.000       2.000       0.000      0.1000E-19   0.000    
    2944   2.944      0.1000E-02 FIXED          0   0.0%   0.000       0.000       2.000       2.000       0.000      0.1000E-19   0.000    
    2945   2.945      0.1000E-02 FIXED          0  -0.0%   0.000       0.000       2.000       2.000       0.000      0.1000E-19   0.000    
    2946   2.946      0.1000E-02 FIXED          0   0.0%   0.000       0.000       2.000       2.000       0.000      0.1000E-19   0.000    
    2947   2.947      0.1000E-02 FIXED          0   0.0%   0.000       0.000       2.000       2.000       0.000      0.1000E-19   0.000    
    2948   2.948      0.1000E-02 FIXED          0   0.0%   0.000       0.000       2.000       2.000       0.000      0.1000E-19   0.000    
    2949   2.949      0.1000E-02 FIXED          0  -0.0%   0.000       0.000       2.000       2.000       0.000      0.1000E-19   0.000    
    2950   2.950      0.1000E-02 FIXED          0  -0.0%   0.000       0.000       2.000       2.000       0.000      0.1000E-19   0.000    
    2951   2.951      0.1000E-02 FIXED          0  -0.0%   0.000       0.000       2.000       2.000       0.000      0.1000E-19   0.000    
    2952   2.952      0.1000E-02 FIXED          0  -0.0%   0.000       0.000       2.000       2.000       0.000      0.1000E-19   0.000    
    2953   2.953      0.1000E-02 FIXED          0   0.0%   0.000       0.000       2.000       2.000       0.000      0.1000E-19   0.000    
    2954   2.954      0.1000E-02 FIXED          0   0.0%   0.000       0.000       2.000       2.000       0.000      0.1000E-19   0.000    
    2955   2.955      0.1000E-02 FIXED          0  -0.0%   0.000       0.000       2.000       2.000       0.000      0.1000E-19   0.000    
    2956   2.956      0.1000E-02 FIXED          0   0.0%   0.000       0.000       2.000       2.000       0.000      0.1000E-19   0.000    
    2957   2.957      0.1000E-02 FIXED          0   0.0%   0.000       0.000       2.000       2.000       0.000      0.1000E-19   0.000    
    2958   2.958      0.1000E-02 FIXED          0   0.0%   0.000       0.000       2.000       2.000       0.000      0.1000E-19   0.000    
    2959   2.959      0.1000E-02 FIXED          0  -0.0%   0.000       0.000       2.000       2.000       0.000      0.1000E-19   0.000    
    2960   2.960      0.1000E-02 FIXED          0  -0.0%   0.000       0.000       2.000       2.000       0.000      0.1000E-19   0.000    
    2961   2.961      0.1000E-02 FIXED          0   0.0%   0.000       0.000       2.000       2.000       0.000      0.1000E-19   0.000    
    2962   2.962      0.1000E-02 FIXED          0   0.0%   0.000       0.000       2.000       2.000       0.000      0.1000E-19   0.000    
    2963   2.963      0.1000E-02 FIXED          0  -0.0%   0.000       0.000       2.000       2.000       0.000      0.1000E-19   0.000    
    2964   2.964      0.1000E-02 FIXED          0   0.0%   0.000       0.000       2.000       2.000       0.000      0.1000E-19   0.000    
    2965   2.965      0.1000E-02 FIXED          0   0.0%   0.000       0.000       2.000       2.000       0.000      0.1000E-19   0.000    
    2966   2.966      0.1000E-02 FIXED          0  -0.0%   0.000       0.000       2.000       2.000       0.000      0.1000E-19   0.000    
    2967   2.967      0.1000E-02 FIXED          0   0.0%   0.000       0.000       2.000       2.000       0.000      0.1000E-19   0.000    
    2968   2.968      0.1000E-02 FIXED          0  -0.0%   0.000       0.000       2.000       2.000       0.000      0.1000E-19   0.000    
    2969   2.969      0.1000E-02 FIXED          0  -0.0%   0.000       0.000       2.000       2.000       0.000      0.1000E-19   0.000    
   CYCLE    TIME      TIME-STEP  ELEMENT          ERROR  I-ENERGY    K-ENERGY T  K-ENERGY R  EXT-WORK     MAS.ERR     TOTAL MASS  MASS ADDED
    2970   2.970      0.1000E-02 FIXED          0   0.0%   0.000       0.000       2.000       2.000       0.000      0.1000E-19   0.000    
    2971   2.971      0.1000E-02 FIXED          0  -0.0%   0.000       0.000       2.000       2.000       0.000      0.1000E-19   0.000    
    2972   2.972      0.1000E-02 FIXED          0  -0.0%   0.000       0.000       2.000       2.000       0.000      0.1000E-19   0.000    
    2973   2.973      0.1000E-02 FIXED          0   0.0%   0.000       0.000       2.000       2.000       0.000      0.1000E-19   0.000    
    2974   2.974      0.1000E-02 FIXED          0  -0.0%   0.000       0.000       2.000       2.000       0.000      0.1000E-19   0.000    
    2975   2.975      0.1000E-02 FIXED          0   0.0%   0.000       0.000       2.000       2.000       0.000      0.1000E-19   0.000    
    2976   2.976      0.1000E-02 FIXED          0   0.0%   0.000       0.000       2.000       2.000       0.000      0.1000E-19   0.000    
    2977   2.977      0.1000E-02 FIXED          0   0.0%   0.000       0.000       2.000       2.000       0.000      0.1000E-19   0.000    
    2978   2.978      0.1000E-02 FIXED          0   0.0%   0.000       0.000       2.000       2.000       0.000      0.1000E-19   0.000    
    2979   2.979      0.1000E-02 FIXED          0   0.0%   0.000       0.000       2.000       2.000       0.000      0.1000E-19   0.000    
    2980   2.980      0.1000E-02 FIXED          0  -0.0%   0.000       0.000       2.000       2.000       0.000      0.1000E-19   0.000    
    2981   2.981      0.1000E-02 FIXED          0  -0.0%   0.000       0.000       2.000       2.000       0.000      0.1000E-19   0.000    
    2982   2.982      0.1000E-02 FIXED          0   0.0%   0.000       0.000       2.000       2.000       0.000      0.1000E-19   0.000    
    2983   2.983      0.1000E-02 FIXED          0   0.0%   0.000       0.000       2.000       2.000       0.000      0.1000E-19   0.000    
    2984   2.984      0.1000E-02 FIXED          0   0.0%   0.000       0.000       2.000       2.000       0.000      0.1000E-19   0.000    
    2985   2.985      0.1000E-02 FIXED          0  -0.0%   0.000       0.000       2.000       2.000       0.000      0.1000E-19   0.000    
    2986   2.986      0.1000E-02 FIXED          0  -0.0%   0.000       0.000       2.000       2.000       0.000      0.1000E-19   0.000    
    2987   2.987      0.1000E-02 FIXED          0   0.0%   0.000       0.000       2.000       2.000       0.000      0.1000E-19   0.000    
    2988   2.988      0.1000E-02 FIXED          0   0.0%   0.000       0.000       2.000       2.000       0.000      0.1000E-19   0.000    
    2989   2.989      0.1000E-02 FIXED          0  -0.0%   0.000       0.000       2.000       2.000       0.000      0.1000E-19   0.000    
    2990   2.990      0.1000E-02 FIXED          0  -0.0%   0.000       0.000       2.000       2.000       0.000      0.1000E-19   0.000    
    2991   2.991      0.1000E-02 FIXED          0   0.0%   0.000       0.000       2.000       2.000       0.000      0.1000E-19   0.000    
    2992   2.992      0.1000E-02 FIXED          0  -0.0%   0.000       0.000       2.000       2.000       0.000      0.1000E-19   0.000    
    2993   2.993      0.1000E-02 FIXED          0  -0.0%   0.000       0.000       2.000       2.000       0.000      0.1000E-19   0.000    
    2994   2.994      0.1000E-02 FIXED          0  -0.0%   0.000       0.000       2.000       2.000       0.000      0.1000E-19   0.000    
    2995   2.995      0.1000E-02 FIXED          0   0.0%   0.000       0.000       2.000       2.000       0.000      0.1000E-19   0.000    
    2996   2.996      0.1000E-02 FIXED          0  -0.0%   0.000       0.000       2.000       2.000       0.000      0.1000E-19   0.000    
    2997   2.997      0.1000E-02 FIXED          0   0.0%   0.000       0.000       2.000       2.000       0.000      0.1000E-19   0.000    
    2998   2.998      0.1000E-02 FIXED          0   0.0%   0.000       0.000       2.000       2.000       0.000      0.1000E-19   0.000    
    2999   2.999      0.1000E-02 FIXED          0  -0.0%   0.000       0.000       2.000       2.000       0.000      0.1000E-19   0.000    
    3000   3.000      0.1000E-02 FIXED          0   0.0%   0.000       0.000       2.000       2.000       0.000      0.1000E-19   0.000    
    3001   3.001      0.1000E-02 FIXED          0   0.0%   0.000       0.000       2.000       2.000       0.000      0.1000E-19   0.000    
     ANIMATION FILE: BLOCKA004 WRITTEN
    3002   3.002      0.1000E-02 FIXED          0  -0.0%   0.000       0.000       2.000       2.000       0.000      0.1000E-19   0.000    
    3003   3.003      0.1000E-02 FIXED          0   0.0%   0.000       0.000       2.000       2.000       0.000      0.1000E-19   0.000    
    3004   3.004      0.1000E-02 FIXED          0   0.0%   0.000       0.000       2.000       2.000       0.000      0.1000E-19   0.000    
    3005   3.005      0.1000E-02 FIXED          0  -0.0%   0.000       0.000       2.000       2.000       0.000      0.1000E-19   0.000    
    3006   3.006      0.1000E-02 FIXED          0   0.0%   0.000       0.000       2.000       2.000       0.000      0.1000E-19   0.000    
    3007   3.007      0.1000E-02 FIXED          0   0.0%   0.000       0.000       2.000       2.000       0.000      0.1000E-19   0.000    
    3008   3.008      0.1000E-02 FIXED          0   0.0%   0.000       0.000       2.000       2.000       0.000      0.1000E-19   0.000    
    3009   3.009      0.1000E-02 FIXED          0  -0.0%   0.000       0.000       2.000       2.000       0.000      0.1000E-19   0.000    
    3010   3.010      0.1000E-02 FIXED          0  -0.0%   0.000       0.000       2.000       2.000       0.000      0.1000E-19   0.000    
    3011   3.011      0.1000E-02 FIXED          0  -0.0%   0.000       0.000       2.000       2.000       0.000      0.1000E-19   0.000    
    3012   3.012      0.1000E-02 FIXED          0  -0.0%   0.000       0.000       2.000       2.000       0.000      0.1000E-19   0.000    
    3013   3.013      0.1000E-02 FIXED          0  -0.0%   0.000       0.000       2.000       2.000       0.000      0.1000E-19   0.000    
    3014   3.014      0.1000E-02 FIXED          0   0.0%   0.000       0.000       2.000       2.000       0.000      0.1000E-19   0.000    
    3015   3.015      0.1000E-02 FIXED          0   0.0%   0.000       0.000       2.000       2.000       0.000      0.1000E-19   0.000    
    3016   3.016      0.1000E-02 FIXED          0   0.0%   0.000       0.000       2.000       2.000       0.000      0.1000E-19   0.000    
    3017   3.017      0.1000E-02 FIXED          0   0.0%   0.000       0.000       2.000       2.000       0.000      0.1000E-19   0.000    
    3018   3.018      0.1000E-02 FIXED          0  -0.0%   0.000       0.000       2.000       2.000       0.000      0.1000E-19   0.000    
    3019   3.019      0.1000E-02 FIXED          0   0.0%   0.000       0.000       2.000       2.000       0.000      0.1000E-19   0.000    
    3020   3.020      0.1000E-02 FIXED          0   0.0%   0.000       0.000       2.000       2.000       0.000      0.1000E-19   0.000    
    3021   3.021      0.1000E-02 FIXED          0  -0.0%   0.000       0.000       2.000       2.000       0.000      0.1000E-19   0.000    
    3022   3.022      0.1000E-02 FIXED          0  -0.0%   0.000       0.000       2.000       2.000       0.000      0.1000E-19   0.000    
    3023   3.023      0.1000E-02 FIXED          0   0.0%   0.000       0.000       2.000       2.000       0.000      0.1000E-19   0.000    
    3024   3.024      0.1000E-02 FIXED          0   0.0%   0.000       0.000       2.000       2.000       0.000      0.1000E-19   0.000    
   CYCLE    TIME      TIME-STEP  ELEMENT          ERROR  I-ENERGY    K-ENERGY T  K-ENERGY R  EXT-WORK     MAS.ERR     TOTAL MASS  MASS ADDED
    3025   3.025      0.1000E-02 FIXED          0  -0.0%   0.000       0.000       2.000       2.000       0.000      0.1000E-19   0.000    
    3026   3.026      0.1000E-02 FIXED          0  -0.0%   0.000       0.000       2.000       2.000       0.000      0.1000E-19   0.000    
    3027   3.027      0.1000E-02 FIXED          0   0.0%   0.000       0.000       2.000       2.000       0.000      0.1000E-19   0.000    
    3028   3.028      0.1000E-02 FIXED          0   0.0%   0.000       0.000       2.000       2.000       0.000      0.1000E-19   0.000    
    3029   3.029      0.1000E-02 FIXED          0  -0.0%   0.000       0.000       2.000       2.000       0.000      0.1000E-19   0.000    
    3030   3.030      0.1000E-02 FIXED          0   0.0%   0.000       0.000       2.000       2.000       0.000      0.1000E-19   0.000    
    3031   3.031      0.1000E-02 FIXED          0   0.0%   0.000       0.000       2.000       2.000       0.000      0.1000E-19   0.000    
    3032   3.032      0.1000E-02 FIXED          0   0.0%   0.000       0.000       2.000       2.000       0.000      0.1000E-19   0.000    
    3033   3.033      0.1000E-02 FIXED          0   0.0%   0.000       0.000       2.000       2.000       0.000      0.1000E-19   0.000    
    3034   3.034      0.1000E-02 FIXED          0   0.0%   0.000       0.000       2.000       2.000       0.000      0.1000E-19   0.000    
    3035   3.035      0.1000E-02 FIXED          0  -0.0%   0.000       0.000       2.000       2.000       0.000      0.1000E-19   0.000    
    3036   3.036      0.1000E-02 FIXED          0  -0.0%   0.000       0.000       2.000       2.000       0.000      0.1000E-19   0.000    
    3037   3.037      0.1000E-02 FIXED          0   0.0%   0.000       0.000       2.000       2.000       0.000      0.1000E-19   0.000    
    3038   3.038      0.1000E-02 FIXED          0   0.0%   0.000       0.000       2.000       2.000       0.000      0.1000E-19   0.000    
    3039   3.039      0.1000E-02 FIXED          0  -0.0%   0.000       0.000       2.000       2.000       0.000      0.1000E-19   0.000    
    3040   3.040      0.1000E-02 FIXED          0   0.0%   0.000       0.000       2.000       2.000       0.000      0.1000E-19   0.000    
    3041   3.041      0.1000E-02 FIXED          0   0.0%   0.000       0.000       2.000       2.000       0.000      0.1000E-19   0.000    
    3042   3.042      0.1000E-02 FIXED          0   0.0%   0.000       0.000       2.000       2.000       0.000      0.1000E-19   0.000    
    3043   3.043      0.1000E-02 FIXED          0  -0.0%   0.000       0.000       2.000       2.000       0.000      0.1000E-19   0.000    
    3044   3.044      0.1000E-02 FIXED          0  -0.0%   0.000       0.000       2.000       2.000       0.000      0.1000E-19   0.000    
    3045   3.045      0.1000E-02 FIXED          0   0.0%   0.000       0.000       2.000       2.000       0.000      0.1000E-19   0.000    
    3046   3.046      0.1000E-02 FIXED          0   0.0%   0.000       0.000       2.000       2.000       0.000      0.1000E-19   0.000    
    3047   3.047      0.1000E-02 FIXED          0  -0.0%   0.000       0.000       2.000       2.000       0.000      0.1000E-19   0.000    
    3048   3.048      0.1000E-02 FIXED          0   0.0%   0.000       0.000       2.000       2.000       0.000      0.1000E-19   0.000    
    3049   3.049      0.1000E-02 FIXED          0  -0.0%   0.000       0.000       2.000       2.000       0.000      0.1000E-19   0.000    
    3050   3.050      0.1000E-02 FIXED          0   0.0%   0.000       0.000       2.000       2.000       0.000      0.1000E-19   0.000    
    3051   3.051      0.1000E-02 FIXED          0   0.0%   0.000       0.000       2.000       2.000       0.000      0.1000E-19   0.000    
    3052   3.052      0.1000E-02 FIXED          0   0.0%   0.000       0.000       2.000       2.000       0.000      0.1000E-19   0.000    
    3053   3.053      0.1000E-02 FIXED          0   0.0%   0.000       0.000       2.000       2.000       0.000      0.1000E-19   0.000    
    3054   3.054      0.1000E-02 FIXED          0  -0.0%   0.000       0.000       2.000       2.000       0.000      0.1000E-19   0.000    
    3055   3.055      0.1000E-02 FIXED          0   0.0%   0.000       0.000       2.000       2.000       0.000      0.1000E-19   0.000    
    3056   3.056      0.1000E-02 FIXED          0  -0.0%   0.000       0.000       2.000       2.000       0.000      0.1000E-19   0.000    
    3057   3.057      0.1000E-02 FIXED          0   0.0%   0.000       0.000       2.000       2.000       0.000      0.1000E-19   0.000    
    3058   3.058      0.1000E-02 FIXED          0   0.0%   0.000       0.000       2.000       2.000       0.000      0.1000E-19   0.000    
    3059   3.059      0.1000E-02 FIXED          0   0.0%   0.000       0.000       2.000       2.000       0.000      0.1000E-19   0.000    
    3060   3.060      0.1000E-02 FIXED          0  -0.0%   0.000       0.000       2.000       2.000       0.000      0.1000E-19   0.000    
    3061   3.061      0.1000E-02 FIXED          0   0.0%   0.000       0.000       2.000       2.000       0.000      0.1000E-19   0.000    
    3062   3.062      0.1000E-02 FIXED          0  -0.0%   0.000       0.000       2.000       2.000       0.000      0.1000E-19   0.000    
    3063   3.063      0.1000E-02 FIXED          0   0.0%   0.000       0.000       2.000       2.000       0.000      0.1000E-19   0.000    
    3064   3.064      0.1000E-02 FIXED          0   0.0%   0.000       0.000       2.000       2.000       0.000      0.1000E-19   0.000    
    3065   3.065      0.1000E-02 FIXED          0   0.0%   0.000       0.000       2.000       2.000       0.000      0.1000E-19   0.000    
    3066   3.066      0.1000E-02 FIXED          0  -0.0%   0.000       0.000       2.000       2.000       0.000      0.1000E-19   0.000    
    3067   3.067      0.1000E-02 FIXED          0  -0.0%   0.000       0.000       2.000       2.000       0.000      0.1000E-19   0.000    
    3068   3.068      0.1000E-02 FIXED          0   0.0%   0.000       0.000       2.000       2.000       0.000      0.1000E-19   0.000    
    3069   3.069      0.1000E-02 FIXED          0   0.0%   0.000       0.000       2.000       2.000       0.000      0.1000E-19   0.000    
    3070   3.070      0.1000E-02 FIXED          0  -0.0%   0.000       0.000       2.000       2.000       0.000      0.1000E-19   0.000    
    3071   3.071      0.1000E-02 FIXED          0  -0.0%   0.000       0.000       2.000       2.000       0.000      0.1000E-19   0.000    
    3072   3.072      0.1000E-02 FIXED          0   0.0%   0.000       0.000       2.000       2.000       0.000      0.1000E-19   0.000    
    3073   3.073      0.1000E-02 FIXED          0   0.0%   0.000       0.000       2.000       2.000       0.000      0.1000E-19   0.000    
    3074   3.074      0.1000E-02 FIXED          0  -0.0%   0.000       0.000       2.000       2.000       0.000      0.1000E-19   0.000    
    3075   3.075      0.1000E-02 FIXED          0   0.0%   0.000       0.000       2.000       2.000       0.000      0.1000E-19   0.000    
    3076   3.076      0.1000E-02 FIXED          0  -0.0%   0.000       0.000       2.000       2.000       0.000      0.1000E-19   0.000    
    3077   3.077      0.1000E-02 FIXED          0   0.0%   0.000       0.000       2.000       2.000       0.000      0.1000E-19   0.000    
    3078   3.078      0.1000E-02 FIXED          0  -0.0%   0.000       0.000       2.000       2.000       0.000      0.1000E-19   0.000    
    3079   3.079      0.1000E-02 FIXED          0   0.0%   0.000       0.000       2.000       2.000       0.000      0.1000E-19   0.000    
   CYCLE    TIME      TIME-STEP  ELEMENT          ERROR  I-ENERGY    K-ENERGY T  K-ENERGY R  EXT-WORK     MAS.ERR     TOTAL MASS  MASS ADDED
    3080   3.080      0.1000E-02 FIXED          0  -0.0%   0.000       0.000       2.000       2.000       0.000      0.1000E-19   0.000    
    3081   3.081      0.1000E-02 FIXED          0   0.0%   0.000       0.000       2.000       2.000       0.000      0.1000E-19   0.000    
    3082   3.082      0.1000E-02 FIXED          0   0.0%   0.000       0.000       2.000       2.000       0.000      0.1000E-19   0.000    
    3083   3.083      0.1000E-02 FIXED          0   0.0%   0.000       0.000       2.000       2.000       0.000      0.1000E-19   0.000    
    3084   3.084      0.1000E-02 FIXED          0   0.0%   0.000       0.000       2.000       2.000       0.000      0.1000E-19   0.000    
    3085   3.085      0.1000E-02 FIXED          0   0.0%   0.000       0.000       2.000       2.000       0.000      0.1000E-19   0.000    
    3086   3.086      0.1000E-02 FIXED          0   0.0%   0.000       0.000       2.000       2.000       0.000      0.1000E-19   0.000    
    3087   3.087      0.1000E-02 FIXED          0  -0.0%   0.000       0.000       2.000       2.000       0.000      0.1000E-19   0.000    
    3088   3.088      0.1000E-02 FIXED          0   0.0%   0.000       0.000       2.000       2.000       0.000      0.1000E-19   0.000    
    3089   3.089      0.1000E-02 FIXED          0   0.0%   0.000       0.000       2.000       2.000       0.000      0.1000E-19   0.000    
    3090   3.090      0.1000E-02 FIXED          0   0.0%   0.000       0.000       2.000       2.000       0.000      0.1000E-19   0.000    
    3091   3.091      0.1000E-02 FIXED          0   0.0%   0.000       0.000       2.000       2.000       0.000      0.1000E-19   0.000    
    3092   3.092      0.1000E-02 FIXED          0  -0.0%   0.000       0.000       2.000       2.000       0.000      0.1000E-19   0.000    
    3093   3.093      0.1000E-02 FIXED          0   0.0%   0.000       0.000       2.000       2.000       0.000      0.1000E-19   0.000    
    3094   3.094      0.1000E-02 FIXED          0  -0.0%   0.000       0.000       2.000       2.000       0.000      0.1000E-19   0.000    
    3095   3.095      0.1000E-02 FIXED          0   0.0%   0.000       0.000       2.000       2.000       0.000      0.1000E-19   0.000    
    3096   3.096      0.1000E-02 FIXED          0  -0.0%   0.000       0.000       2.000       2.000       0.000      0.1000E-19   0.000    
    3097   3.097      0.1000E-02 FIXED          0  -0.0%   0.000       0.000       2.000       2.000       0.000      0.1000E-19   0.000    
    3098   3.098      0.1000E-02 FIXED          0   0.0%   0.000       0.000       2.000       2.000       0.000      0.1000E-19   0.000    
    3099   3.099      0.1000E-02 FIXED          0   0.0%   0.000       0.000       2.000       2.000       0.000      0.1000E-19   0.000    
    3100   3.100      0.1000E-02 FIXED          0   0.0%   0.000       0.000       2.000       2.000       0.000      0.1000E-19   0.000    
    3101   3.101      0.1000E-02 FIXED          0  -0.0%   0.000       0.000       2.000       2.000       0.000      0.1000E-19   0.000    
    3102   3.102      0.1000E-02 FIXED          0  -0.0%   0.000       0.000       2.000       2.000       0.000      0.1000E-19   0.000    
    3103   3.103      0.1000E-02 FIXED          0   0.0%   0.000       0.000       2.000       2.000       0.000      0.1000E-19   0.000    
    3104   3.104      0.1000E-02 FIXED          0  -0.0%   0.000       0.000       2.000       2.000       0.000      0.1000E-19   0.000    
    3105   3.105      0.1000E-02 FIXED          0  -0.0%   0.000       0.000       2.000       2.000       0.000      0.1000E-19   0.000    
    3106   3.106      0.1000E-02 FIXED          0   0.0%   0.000       0.000       2.000       2.000       0.000      0.1000E-19   0.000    
    3107   3.107      0.1000E-02 FIXED          0   0.0%   0.000       0.000       2.000       2.000       0.000      0.1000E-19   0.000    
    3108   3.108      0.1000E-02 FIXED          0   0.0%   0.000       0.000       2.000       2.000       0.000      0.1000E-19   0.000    
    3109   3.109      0.1000E-02 FIXED          0   0.0%   0.000       0.000       2.000       2.000       0.000      0.1000E-19   0.000    
    3110   3.110      0.1000E-02 FIXED          0  -0.0%   0.000       0.000       2.000       2.000       0.000      0.1000E-19   0.000    
    3111   3.111      0.1000E-02 FIXED          0   0.0%   0.000       0.000       2.000       2.000       0.000      0.1000E-19   0.000    
    3112   3.112      0.1000E-02 FIXED          0  -0.0%   0.000       0.000       2.000       2.000       0.000      0.1000E-19   0.000    
    3113   3.113      0.1000E-02 FIXED          0   0.0%   0.000       0.000       2.000       2.000       0.000      0.1000E-19   0.000    
    3114   3.114      0.1000E-02 FIXED          0   0.0%   0.000       0.000       2.000       2.000       0.000      0.1000E-19   0.000    
    3115   3.115      0.1000E-02 FIXED          0  -0.0%   0.000       0.000       2.000       2.000       0.000      0.1000E-19   0.000    
    3116   3.116      0.1000E-02 FIXED          0  -0.0%   0.000       0.000       2.000       2.000       0.000      0.1000E-19   0.000    
    3117   3.117      0.1000E-02 FIXED          0   0.0%   0.000       0.000       2.000       2.000       0.000      0.1000E-19   0.000    
    3118   3.118      0.1000E-02 FIXED          0   0.0%   0.000       0.000       2.000       2.000       0.000      0.1000E-19   0.000    
    3119   3.119      0.1000E-02 FIXED          0   0.0%   0.000       0.000       2.000       2.000       0.000      0.1000E-19   0.000    
    3120   3.120      0.1000E-02 FIXED          0  -0.0%   0.000       0.000       2.000       2.000       0.000      0.1000E-19   0.000    
    3121   3.121      0.1000E-02 FIXED          0  -0.0%   0.000       0.000       2.000       2.000       0.000      0.1000E-19   0.000    
    3122   3.122      0.1000E-02 FIXED          0   0.0%   0.000       0.000       2.000       2.000       0.000      0.1000E-19   0.000    
    3123   3.123      0.1000E-02 FIXED          0   0.0%   0.000       0.000       2.000       2.000       0.000      0.1000E-19   0.000    
    3124   3.124      0.1000E-02 FIXED          0   0.0%   0.000       0.000       2.000       2.000       0.000      0.1000E-19   0.000    
    3125   3.125      0.1000E-02 FIXED          0   0.0%   0.000       0.000       2.000       2.000       0.000      0.1000E-19   0.000    
    3126   3.126      0.1000E-02 FIXED          0  -0.0%   0.000       0.000       2.000       2.000       0.000      0.1000E-19   0.000    
    3127   3.127      0.1000E-02 FIXED          0   0.0%   0.000       0.000       2.000       2.000       0.000      0.1000E-19   0.000    
    3128   3.128      0.1000E-02 FIXED          0  -0.0%   0.000       0.000       2.000       2.000       0.000      0.1000E-19   0.000    
    3129   3.129      0.1000E-02 FIXED          0   0.0%   0.000       0.000       2.000       2.000       0.000      0.1000E-19   0.000    
    3130   3.130      0.1000E-02 FIXED          0  -0.0%   0.000       0.000       2.000       2.000       0.000      0.1000E-19   0.000    
    3131   3.131      0.1000E-02 FIXED          0   0.0%   0.000       0.000       2.000       2.000       0.000      0.1000E-19   0.000    
    3132   3.132      0.1000E-02 FIXED          0   0.0%   0.000       0.000       2.000       2.000       0.000      0.1000E-19   0.000    
    3133   3.133      0.1000E-02 FIXED          0  -0.0%   0.000       0.000       2.000       2.000       0.000      0.1000E-19   0.000    
    3134   3.134      0.1000E-02 FIXED          0   0.0%   0.000       0.000       2.000       2.000       0.000      0.1000E-19   0.000    
   CYCLE    TIME      TIME-STEP  ELEMENT          ERROR  I-ENERGY    K-ENERGY T  K-ENERGY R  EXT-WORK     MAS.ERR     TOTAL MASS  MASS ADDED
    3135   3.135      0.1000E-02 FIXED          0   0.0%   0.000       0.000       2.000       2.000       0.000      0.1000E-19   0.000    
    3136   3.136      0.1000E-02 FIXED          0  -0.0%   0.000       0.000       2.000       2.000       0.000      0.1000E-19   0.000    
    3137   3.137      0.1000E-02 FIXED          0   0.0%   0.000       0.000       2.000       2.000       0.000      0.1000E-19   0.000    
    3138   3.138      0.1000E-02 FIXED          0   0.0%   0.000       0.000       2.000       2.000       0.000      0.1000E-19   0.000    
    3139   3.139      0.1000E-02 FIXED          0  -0.0%   0.000       0.000       2.000       2.000       0.000      0.1000E-19   0.000    
    3140   3.140      0.1000E-02 FIXED          0   0.0%   0.000       0.000       2.000       2.000       0.000      0.1000E-19   0.000    
    3141   3.141      0.1000E-02 FIXED          0   0.0%   0.000       0.000       2.000       2.000       0.000      0.1000E-19   0.000    
    3142   3.142      0.1000E-02 FIXED          0  -0.0%   0.000       0.000       2.000       2.000       0.000      0.1000E-19   0.000    
    3143   3.143      0.1000E-02 FIXED          0   0.0%   0.000       0.000       2.000       2.000       0.000      0.1000E-19   0.000    
    3144   3.144      0.1000E-02 FIXED          0  -0.0%   0.000       0.000       2.000       2.000       0.000      0.1000E-19   0.000    
    3145   3.145      0.1000E-02 FIXED          0   0.0%   0.000       0.000       2.000       2.000       0.000      0.1000E-19   0.000    
    3146   3.146      0.1000E-02 FIXED          0  -0.0%   0.000       0.000       2.000       2.000       0.000      0.1000E-19   0.000    
    3147   3.147      0.1000E-02 FIXED          0   0.0%   0.000       0.000       2.000       2.000       0.000      0.1000E-19   0.000    
    3148   3.148      0.1000E-02 FIXED          0  -0.0%   0.000       0.000       2.000       2.000       0.000      0.1000E-19   0.000    
    3149   3.149      0.1000E-02 FIXED          0  -0.0%   0.000       0.000       2.000       2.000       0.000      0.1000E-19   0.000    
    3150   3.150      0.1000E-02 FIXED          0   0.0%   0.000       0.000       2.000       2.000       0.000      0.1000E-19   0.000    
    3151   3.151      0.1000E-02 FIXED          0  -0.0%   0.000       0.000       2.000       2.000       0.000      0.1000E-19   0.000    
    3152   3.152      0.1000E-02 FIXED          0   0.0%   0.000       0.000       2.000       2.000       0.000      0.1000E-19   0.000    
    3153   3.153      0.1000E-02 FIXED          0  -0.0%   0.000       0.000       2.000       2.000       0.000      0.1000E-19   0.000    
    3154   3.154      0.1000E-02 FIXED          0  -0.0%   0.000       0.000       2.000       2.000       0.000      0.1000E-19   0.000    
    3155   3.155      0.1000E-02 FIXED          0   0.0%   0.000       0.000       2.000       2.000       0.000      0.1000E-19   0.000    
    3156   3.156      0.1000E-02 FIXED          0  -0.0%   0.000       0.000       2.000       2.000       0.000      0.1000E-19   0.000    
    3157   3.157      0.1000E-02 FIXED          0   0.0%   0.000       0.000       2.000       2.000       0.000      0.1000E-19   0.000    
    3158   3.158      0.1000E-02 FIXED          0   0.0%   0.000       0.000       2.000       2.000       0.000      0.1000E-19   0.000    
    3159   3.159      0.1000E-02 FIXED          0   0.0%   0.000       0.000       2.000       2.000       0.000      0.1000E-19   0.000    
    3160   3.160      0.1000E-02 FIXED          0   0.0%   0.000       0.000       2.000       2.000       0.000      0.1000E-19   0.000    
    3161   3.161      0.1000E-02 FIXED          0  -0.0%   0.000       0.000       2.000       2.000       0.000      0.1000E-19   0.000    
    3162   3.162      0.1000E-02 FIXED          0   0.0%   0.000       0.000       2.000       2.000       0.000      0.1000E-19   0.000    
    3163   3.163      0.1000E-02 FIXED          0   0.0%   0.000       0.000       2.000       2.000       0.000      0.1000E-19   0.000    
    3164   3.164      0.1000E-02 FIXED          0  -0.0%   0.000       0.000       2.000       2.000       0.000      0.1000E-19   0.000    
    3165   3.165      0.1000E-02 FIXED          0   0.0%   0.000       0.000       2.000       2.000       0.000      0.1000E-19   0.000    
    3166   3.166      0.1000E-02 FIXED          0  -0.0%   0.000       0.000       2.000       2.000       0.000      0.1000E-19   0.000    
    3167   3.167      0.1000E-02 FIXED          0   0.0%   0.000       0.000       2.000       2.000       0.000      0.1000E-19   0.000    
    3168   3.168      0.1000E-02 FIXED          0   0.0%   0.000       0.000       2.000       2.000       0.000      0.1000E-19   0.000    
    3169   3.169      0.1000E-02 FIXED          0   0.0%   0.000       0.000       2.000       2.000       0.000      0.1000E-19   0.000    
    3170   3.170      0.1000E-02 FIXED          0   0.0%   0.000       0.000       2.000       2.000       0.000      0.1000E-19   0.000    
    3171   3.171      0.1000E-02 FIXED          0   0.0%   0.000       0.000       2.000       2.000       0.000      0.1000E-19   0.000    
    3172   3.172      0.1000E-02 FIXED          0   0.0%   0.000       0.000       2.000       2.000       0.000      0.1000E-19   0.000    
    3173   3.173      0.1000E-02 FIXED          0  -0.0%   0.000       0.000       2.000       2.000       0.000      0.1000E-19   0.000    
    3174   3.174      0.1000E-02 FIXED          0   0.0%   0.000       0.000       2.000       2.000       0.000      0.1000E-19   0.000    
    3175   3.175      0.1000E-02 FIXED          0   0.0%   0.000       0.000       2.000       2.000       0.000      0.1000E-19   0.000    
    3176   3.176      0.1000E-02 FIXED          0   0.0%   0.000       0.000       2.000       2.000       0.000      0.1000E-19   0.000    
    3177   3.177      0.1000E-02 FIXED          0  -0.0%   0.000       0.000       2.000       2.000       0.000      0.1000E-19   0.000    
    3178   3.178      0.1000E-02 FIXED          0   0.0%   0.000       0.000       2.000       2.000       0.000      0.1000E-19   0.000    
    3179   3.179      0.1000E-02 FIXED          0   0.0%   0.000       0.000       2.000       2.000       0.000      0.1000E-19   0.000    
    3180   3.180      0.1000E-02 FIXED          0   0.0%   0.000       0.000       2.000       2.000       0.000      0.1000E-19   0.000    
    3181   3.181      0.1000E-02 FIXED          0  -0.0%   0.000       0.000       2.000       2.000       0.000      0.1000E-19   0.000    
    3182   3.182      0.1000E-02 FIXED          0  -0.0%   0.000       0.000       2.000       2.000       0.000      0.1000E-19   0.000    
    3183   3.183      0.1000E-02 FIXED          0   0.0%   0.000       0.000       2.000       2.000       0.000      0.1000E-19   0.000    
    3184   3.184      0.1000E-02 FIXED          0  -0.0%   0.000       0.000       2.000       2.000       0.000      0.1000E-19   0.000    
    3185   3.185      0.1000E-02 FIXED          0   0.0%   0.000       0.000       2.000       2.000       0.000      0.1000E-19   0.000    
    3186   3.186      0.1000E-02 FIXED          0   0.0%   0.000       0.000       2.000       2.000       0.000      0.1000E-19   0.000    
    3187   3.187      0.1000E-02 FIXED          0  -0.0%   0.000       0.000       2.000       2.000       0.000      0.1000E-19   0.000    
    3188   3.188      0.1000E-02 FIXED          0   0.0%   0.000       0.000       2.000       2.000       0.000      0.1000E-19   0.000    
    3189   3.189      0.1000E-02 FIXED          0  -0.0%   0.000       0.000       2.000       2.000       0.000      0.1000E-19   0.000    
   CYCLE    TIME      TIME-STEP  ELEMENT          ERROR  I-ENERGY    K-ENERGY T  K-ENERGY R  EXT-WORK     MAS.ERR     TOTAL MASS  MASS ADDED
    3190   3.190      0.1000E-02 FIXED          0  -0.0%   0.000       0.000       2.000       2.000       0.000      0.1000E-19   0.000    
    3191   3.191      0.1000E-02 FIXED          0   0.0%   0.000       0.000       2.000       2.000       0.000      0.1000E-19   0.000    
    3192   3.192      0.1000E-02 FIXED          0   0.0%   0.000       0.000       2.000       2.000       0.000      0.1000E-19   0.000    
    3193   3.193      0.1000E-02 FIXED          0   0.0%   0.000       0.000       2.000       2.000       0.000      0.1000E-19   0.000    
    3194   3.194      0.1000E-02 FIXED          0   0.0%   0.000       0.000       2.000       2.000       0.000      0.1000E-19   0.000    
    3195   3.195      0.1000E-02 FIXED          0   0.0%   0.000       0.000       2.000       2.000       0.000      0.1000E-19   0.000    
    3196   3.196      0.1000E-02 FIXED          0  -0.0%   0.000       0.000       2.000       2.000       0.000      0.1000E-19   0.000    
    3197   3.197      0.1000E-02 FIXED          0   0.0%   0.000       0.000       2.000       2.000       0.000      0.1000E-19   0.000    
    3198   3.198      0.1000E-02 FIXED          0   0.0%   0.000       0.000       2.000       2.000       0.000      0.1000E-19   0.000    
    3199   3.199      0.1000E-02 FIXED          0   0.0%   0.000       0.000       2.000       2.000       0.000      0.1000E-19   0.000    
    3200   3.200      0.1000E-02 FIXED          0  -0.0%   0.000       0.000       2.000       2.000       0.000      0.1000E-19   0.000    
    3201   3.201      0.1000E-02 FIXED          0   0.0%   0.000       0.000       2.000       2.000       0.000      0.1000E-19   0.000    
    3202   3.202      0.1000E-02 FIXED          0  -0.0%   0.000       0.000       2.000       2.000       0.000      0.1000E-19   0.000    
    3203   3.203      0.1000E-02 FIXED          0   0.0%   0.000       0.000       2.000       2.000       0.000      0.1000E-19   0.000    
    3204   3.204      0.1000E-02 FIXED          0  -0.0%   0.000       0.000       2.000       2.000       0.000      0.1000E-19   0.000    
    3205   3.205      0.1000E-02 FIXED          0   0.0%   0.000       0.000       2.000       2.000       0.000      0.1000E-19   0.000    
    3206   3.206      0.1000E-02 FIXED          0   0.0%   0.000       0.000       2.000       2.000       0.000      0.1000E-19   0.000    
    3207   3.207      0.1000E-02 FIXED          0   0.0%   0.000       0.000       2.000       2.000       0.000      0.1000E-19   0.000    
    3208   3.208      0.1000E-02 FIXED          0   0.0%   0.000       0.000       2.000       2.000       0.000      0.1000E-19   0.000    
    3209   3.209      0.1000E-02 FIXED          0  -0.0%   0.000       0.000       2.000       2.000       0.000      0.1000E-19   0.000    
    3210   3.210      0.1000E-02 FIXED          0   0.0%   0.000       0.000       2.000       2.000       0.000      0.1000E-19   0.000    
    3211   3.211      0.1000E-02 FIXED          0  -0.0%   0.000       0.000       2.000       2.000       0.000      0.1000E-19   0.000    
    3212   3.212      0.1000E-02 FIXED          0   0.0%   0.000       0.000       2.000       2.000       0.000      0.1000E-19   0.000    
    3213   3.213      0.1000E-02 FIXED          0  -0.0%   0.000       0.000       2.000       2.000       0.000      0.1000E-19   0.000    
    3214   3.214      0.1000E-02 FIXED          0  -0.0%   0.000       0.000       2.000       2.000       0.000      0.1000E-19   0.000    
    3215   3.215      0.1000E-02 FIXED          0   0.0%   0.000       0.000       2.000       2.000       0.000      0.1000E-19   0.000    
    3216   3.216      0.1000E-02 FIXED          0  -0.0%   0.000       0.000       2.000       2.000       0.000      0.1000E-19   0.000    
    3217   3.217      0.1000E-02 FIXED          0   0.0%   0.000       0.000       2.000       2.000       0.000      0.1000E-19   0.000    
    3218   3.218      0.1000E-02 FIXED          0   0.0%   0.000       0.000       2.000       2.000       0.000      0.1000E-19   0.000    
    3219   3.219      0.1000E-02 FIXED          0  -0.0%   0.000       0.000       2.000       2.000       0.000      0.1000E-19   0.000    
    3220   3.220      0.1000E-02 FIXED          0   0.0%   0.000       0.000       2.000       2.000       0.000      0.1000E-19   0.000    
    3221   3.221      0.1000E-02 FIXED          0  -0.0%   0.000       0.000       2.000       2.000       0.000      0.1000E-19   0.000    
    3222   3.222      0.1000E-02 FIXED          0  -0.0%   0.000       0.000       2.000       2.000       0.000      0.1000E-19   0.000    
    3223   3.223      0.1000E-02 FIXED          0   0.0%   0.000       0.000       2.000       2.000       0.000      0.1000E-19   0.000    
    3224   3.224      0.1000E-02 FIXED          0   0.0%   0.000       0.000       2.000       2.000       0.000      0.1000E-19   0.000    
    3225   3.225      0.1000E-02 FIXED          0   0.0%   0.000       0.000       2.000       2.000       0.000      0.1000E-19   0.000    
    3226   3.226      0.1000E-02 FIXED          0   0.0%   0.000       0.000       2.000       2.000       0.000      0.1000E-19   0.000    
    3227   3.227      0.1000E-02 FIXED          0  -0.0%   0.000       0.000       2.000       2.000       0.000      0.1000E-19   0.000    
    3228   3.228      0.1000E-02 FIXED          0   0.0%   0.000       0.000       2.000       2.000       0.000      0.1000E-19   0.000    
    3229   3.229      0.1000E-02 FIXED          0  -0.0%   0.000       0.000       2.000       2.000       0.000      0.1000E-19   0.000    
    3230   3.230      0.1000E-02 FIXED          0   0.0%   0.000       0.000       2.000       2.000       0.000      0.1000E-19   0.000    
    3231   3.231      0.1000E-02 FIXED          0  -0.0%   0.000       0.000       2.000       2.000       0.000      0.1000E-19   0.000    
    3232   3.232      0.1000E-02 FIXED          0   0.0%   0.000       0.000       2.000       2.000       0.000      0.1000E-19   0.000    
    3233   3.233      0.1000E-02 FIXED          0   0.0%   0.000       0.000       2.000       2.000       0.000      0.1000E-19   0.000    
    3234   3.234      0.1000E-02 FIXED          0   0.0%   0.000       0.000       2.000       2.000       0.000      0.1000E-19   0.000    
    3235   3.235      0.1000E-02 FIXED          0   0.0%   0.000       0.000       2.000       2.000       0.000      0.1000E-19   0.000    
    3236   3.236      0.1000E-02 FIXED          0   0.0%   0.000       0.000       2.000       2.000       0.000      0.1000E-19   0.000    
    3237   3.237      0.1000E-02 FIXED          0   0.0%   0.000       0.000       2.000       2.000       0.000      0.1000E-19   0.000    
    3238   3.238      0.1000E-02 FIXED          0  -0.0%   0.000       0.000       2.000       2.000       0.000      0.1000E-19   0.000    
    3239   3.239      0.1000E-02 FIXED          0   0.0%   0.000       0.000       2.000       2.000       0.000      0.1000E-19   0.000    
    3240   3.240      0.1000E-02 FIXED          0  -0.0%   0.000       0.000       2.000       2.000       0.000      0.1000E-19   0.000    
    3241   3.241      0.1000E-02 FIXED          0   0.0%   0.000       0.000       2.000       2.000       0.000      0.1000E-19   0.000    
    3242   3.242      0.1000E-02 FIXED          0   0.0%   0.000       0.000       2.000       2.000       0.000      0.1000E-19   0.000    
    3243   3.243      0.1000E-02 FIXED          0   0.0%   0.000       0.000       2.000       2.000       0.000      0.1000E-19   0.000    
    3244   3.244      0.1000E-02 FIXED          0   0.0%   0.000       0.000       2.000       2.000       0.000      0.1000E-19   0.000    
   CYCLE    TIME      TIME-STEP  ELEMENT          ERROR  I-ENERGY    K-ENERGY T  K-ENERGY R  EXT-WORK     MAS.ERR     TOTAL MASS  MASS ADDED
    3245   3.245      0.1000E-02 FIXED          0  -0.0%   0.000       0.000       2.000       2.000       0.000      0.1000E-19   0.000    
    3246   3.246      0.1000E-02 FIXED          0   0.0%   0.000       0.000       2.000       2.000       0.000      0.1000E-19   0.000    
    3247   3.247      0.1000E-02 FIXED          0  -0.0%   0.000       0.000       2.000       2.000       0.000      0.1000E-19   0.000    
    3248   3.248      0.1000E-02 FIXED          0   0.0%   0.000       0.000       2.000       2.000       0.000      0.1000E-19   0.000    
    3249   3.249      0.1000E-02 FIXED          0   0.0%   0.000       0.000       2.000       2.000       0.000      0.1000E-19   0.000    
    3250   3.250      0.1000E-02 FIXED          0  -0.0%   0.000       0.000       2.000       2.000       0.000      0.1000E-19   0.000    
    3251   3.251      0.1000E-02 FIXED          0   0.0%   0.000       0.000       2.000       2.000       0.000      0.1000E-19   0.000    
    3252   3.252      0.1000E-02 FIXED          0  -0.0%   0.000       0.000       2.000       2.000       0.000      0.1000E-19   0.000    
    3253   3.253      0.1000E-02 FIXED          0  -0.0%   0.000       0.000       2.000       2.000       0.000      0.1000E-19   0.000    
    3254   3.254      0.1000E-02 FIXED          0  -0.0%   0.000       0.000       2.000       2.000       0.000      0.1000E-19   0.000    
    3255   3.255      0.1000E-02 FIXED          0   0.0%   0.000       0.000       2.000       2.000       0.000      0.1000E-19   0.000    
    3256   3.256      0.1000E-02 FIXED          0  -0.0%   0.000       0.000       2.000       2.000       0.000      0.1000E-19   0.000    
    3257   3.257      0.1000E-02 FIXED          0   0.0%   0.000       0.000       2.000       2.000       0.000      0.1000E-19   0.000    
    3258   3.258      0.1000E-02 FIXED          0   0.0%   0.000       0.000       2.000       2.000       0.000      0.1000E-19   0.000    
    3259   3.259      0.1000E-02 FIXED          0  -0.0%   0.000       0.000       2.000       2.000       0.000      0.1000E-19   0.000    
    3260   3.260      0.1000E-02 FIXED          0   0.0%   0.000       0.000       2.000       2.000       0.000      0.1000E-19   0.000    
    3261   3.261      0.1000E-02 FIXED          0   0.0%   0.000       0.000       2.000       2.000       0.000      0.1000E-19   0.000    
    3262   3.262      0.1000E-02 FIXED          0   0.0%   0.000       0.000       2.000       2.000       0.000      0.1000E-19   0.000    
    3263   3.263      0.1000E-02 FIXED          0  -0.0%   0.000       0.000       2.000       2.000       0.000      0.1000E-19   0.000    
    3264   3.264      0.1000E-02 FIXED          0  -0.0%   0.000       0.000       2.000       2.000       0.000      0.1000E-19   0.000    
    3265   3.265      0.1000E-02 FIXED          0   0.0%   0.000       0.000       2.000       2.000       0.000      0.1000E-19   0.000    
    3266   3.266      0.1000E-02 FIXED          0   0.0%   0.000       0.000       2.000       2.000       0.000      0.1000E-19   0.000    
    3267   3.267      0.1000E-02 FIXED          0   0.0%   0.000       0.000       2.000       2.000       0.000      0.1000E-19   0.000    
    3268   3.268      0.1000E-02 FIXED          0   0.0%   0.000       0.000       2.000       2.000       0.000      0.1000E-19   0.000    
    3269   3.269      0.1000E-02 FIXED          0   0.0%   0.000       0.000       2.000       2.000       0.000      0.1000E-19   0.000    
    3270   3.270      0.1000E-02 FIXED          0   0.0%   0.000       0.000       2.000       2.000       0.000      0.1000E-19   0.000    
    3271   3.271      0.1000E-02 FIXED          0  -0.0%   0.000       0.000       2.000       2.000       0.000      0.1000E-19   0.000    
    3272   3.272      0.1000E-02 FIXED          0  -0.0%   0.000       0.000       2.000       2.000       0.000      0.1000E-19   0.000    
    3273   3.273      0.1000E-02 FIXED          0  -0.0%   0.000       0.000       2.000       2.000       0.000      0.1000E-19   0.000    
    3274   3.274      0.1000E-02 FIXED          0   0.0%   0.000       0.000       2.000       2.000       0.000      0.1000E-19   0.000    
    3275   3.275      0.1000E-02 FIXED          0   0.0%   0.000       0.000       2.000       2.000       0.000      0.1000E-19   0.000    
    3276   3.276      0.1000E-02 FIXED          0  -0.0%   0.000       0.000       2.000       2.000       0.000      0.1000E-19   0.000    
    3277   3.277      0.1000E-02 FIXED          0   0.0%   0.000       0.000       2.000       2.000       0.000      0.1000E-19   0.000    
    3278   3.278      0.1000E-02 FIXED          0   0.0%   0.000       0.000       2.000       2.000       0.000      0.1000E-19   0.000    
    3279   3.279      0.1000E-02 FIXED          0  -0.0%   0.000       0.000       2.000       2.000       0.000      0.1000E-19   0.000    
    3280   3.280      0.1000E-02 FIXED          0  -0.0%   0.000       0.000       2.000       2.000       0.000      0.1000E-19   0.000    
    3281   3.281      0.1000E-02 FIXED          0  -0.0%   0.000       0.000       2.000       2.000       0.000      0.1000E-19   0.000    
    3282   3.282      0.1000E-02 FIXED          0  -0.0%   0.000       0.000       2.000       2.000       0.000      0.1000E-19   0.000    
    3283   3.283      0.1000E-02 FIXED          0   0.0%   0.000       0.000       2.000       2.000       0.000      0.1000E-19   0.000    
    3284   3.284      0.1000E-02 FIXED          0  -0.0%   0.000       0.000       2.000       2.000       0.000      0.1000E-19   0.000    
    3285   3.285      0.1000E-02 FIXED          0   0.0%   0.000       0.000       2.000       2.000       0.000      0.1000E-19   0.000    
    3286   3.286      0.1000E-02 FIXED          0  -0.0%   0.000       0.000       2.000       2.000       0.000      0.1000E-19   0.000    
    3287   3.287      0.1000E-02 FIXED          0   0.0%   0.000       0.000       2.000       2.000       0.000      0.1000E-19   0.000    
    3288   3.288      0.1000E-02 FIXED          0   0.0%   0.000       0.000       2.000       2.000       0.000      0.1000E-19   0.000    
    3289   3.289      0.1000E-02 FIXED          0  -0.0%   0.000       0.000       2.000       2.000       0.000      0.1000E-19   0.000    
    3290   3.290      0.1000E-02 FIXED          0  -0.0%   0.000       0.000       2.000       2.000       0.000      0.1000E-19   0.000    
    3291   3.291      0.1000E-02 FIXED          0   0.0%   0.000       0.000       2.000       2.000       0.000      0.1000E-19   0.000    
    3292   3.292      0.1000E-02 FIXED          0  -0.0%   0.000       0.000       2.000       2.000       0.000      0.1000E-19   0.000    
    3293   3.293      0.1000E-02 FIXED          0   0.0%   0.000       0.000       2.000       2.000       0.000      0.1000E-19   0.000    
    3294   3.294      0.1000E-02 FIXED          0   0.0%   0.000       0.000       2.000       2.000       0.000      0.1000E-19   0.000    
    3295   3.295      0.1000E-02 FIXED          0  -0.0%   0.000       0.000       2.000       2.000       0.000      0.1000E-19   0.000    
    3296   3.296      0.1000E-02 FIXED          0  -0.0%   0.000       0.000       2.000       2.000       0.000      0.1000E-19   0.000    
    3297   3.297      0.1000E-02 FIXED          0  -0.0%   0.000       0.000       2.000       2.000       0.000      0.1000E-19   0.000    
    3298   3.298      0.1000E-02 FIXED          0   0.0%   0.000       0.000       2.000       2.000       0.000      0.1000E-19   0.000    
    3299   3.299      0.1000E-02 FIXED          0   0.0%   0.000       0.000       2.000       2.000       0.000      0.1000E-19   0.000    
   CYCLE    TIME      TIME-STEP  ELEMENT          ERROR  I-ENERGY    K-ENERGY T  K-ENERGY R  EXT-WORK     MAS.ERR     TOTAL MASS  MASS ADDED
    3300   3.300      0.1000E-02 FIXED          0   0.0%   0.000       0.000       2.000       2.000       0.000      0.1000E-19   0.000    
    3301   3.301      0.1000E-02 FIXED          0   0.0%   0.000       0.000       2.000       2.000       0.000      0.1000E-19   0.000    
    3302   3.302      0.1000E-02 FIXED          0   0.0%   0.000       0.000       2.000       2.000       0.000      0.1000E-19   0.000    
    3303   3.303      0.1000E-02 FIXED          0  -0.0%   0.000       0.000       2.000       2.000       0.000      0.1000E-19   0.000    
    3304   3.304      0.1000E-02 FIXED          0   0.0%   0.000       0.000       2.000       2.000       0.000      0.1000E-19   0.000    
    3305   3.305      0.1000E-02 FIXED          0   0.0%   0.000       0.000       2.000       2.000       0.000      0.1000E-19   0.000    
    3306   3.306      0.1000E-02 FIXED          0   0.0%   0.000       0.000       2.000       2.000       0.000      0.1000E-19   0.000    
    3307   3.307      0.1000E-02 FIXED          0   0.0%   0.000       0.000       2.000       2.000       0.000      0.1000E-19   0.000    
    3308   3.308      0.1000E-02 FIXED          0   0.0%   0.000       0.000       2.000       2.000       0.000      0.1000E-19   0.000    
    3309   3.309      0.1000E-02 FIXED          0   0.0%   0.000       0.000       2.000       2.000       0.000      0.1000E-19   0.000    
    3310   3.310      0.1000E-02 FIXED          0   0.0%   0.000       0.000       2.000       2.000       0.000      0.1000E-19   0.000    
    3311   3.311      0.1000E-02 FIXED          0  -0.0%   0.000       0.000       2.000       2.000       0.000      0.1000E-19   0.000    
    3312   3.312      0.1000E-02 FIXED          0  -0.0%   0.000       0.000       2.000       2.000       0.000      0.1000E-19   0.000    
    3313   3.313      0.1000E-02 FIXED          0   0.0%   0.000       0.000       2.000       2.000       0.000      0.1000E-19   0.000    
    3314   3.314      0.1000E-02 FIXED          0   0.0%   0.000       0.000       2.000       2.000       0.000      0.1000E-19   0.000    
    3315   3.315      0.1000E-02 FIXED          0  -0.0%   0.000       0.000       2.000       2.000       0.000      0.1000E-19   0.000    
    3316   3.316      0.1000E-02 FIXED          0   0.0%   0.000       0.000       2.000       2.000       0.000      0.1000E-19   0.000    
    3317   3.317      0.1000E-02 FIXED          0   0.0%   0.000       0.000       2.000       2.000       0.000      0.1000E-19   0.000    
    3318   3.318      0.1000E-02 FIXED          0   0.0%   0.000       0.000       2.000       2.000       0.000      0.1000E-19   0.000    
    3319   3.319      0.1000E-02 FIXED          0  -0.0%   0.000       0.000       2.000       2.000       0.000      0.1000E-19   0.000    
    3320   3.320      0.1000E-02 FIXED          0   0.0%   0.000       0.000       2.000       2.000       0.000      0.1000E-19   0.000    
    3321   3.321      0.1000E-02 FIXED          0   0.0%   0.000       0.000       2.000       2.000       0.000      0.1000E-19   0.000    
    3322   3.322      0.1000E-02 FIXED          0   0.0%   0.000       0.000       2.000       2.000       0.000      0.1000E-19   0.000    
    3323   3.323      0.1000E-02 FIXED          0   0.0%   0.000       0.000       2.000       2.000       0.000      0.1000E-19   0.000    
    3324   3.324      0.1000E-02 FIXED          0   0.0%   0.000       0.000       2.000       2.000       0.000      0.1000E-19   0.000    
    3325   3.325      0.1000E-02 FIXED          0   0.0%   0.000       0.000       2.000       2.000       0.000      0.1000E-19   0.000    
    3326   3.326      0.1000E-02 FIXED          0  -0.0%   0.000       0.000       2.000       2.000       0.000      0.1000E-19   0.000    
    3327   3.327      0.1000E-02 FIXED          0   0.0%   0.000       0.000       2.000       2.000       0.000      0.1000E-19   0.000    
    3328   3.328      0.1000E-02 FIXED          0   0.0%   0.000       0.000       2.000       2.000       0.000      0.1000E-19   0.000    
    3329   3.329      0.1000E-02 FIXED          0   0.0%   0.000       0.000       2.000       2.000       0.000      0.1000E-19   0.000    
    3330   3.330      0.1000E-02 FIXED          0  -0.0%   0.000       0.000       2.000       2.000       0.000      0.1000E-19   0.000    
    3331   3.331      0.1000E-02 FIXED          0   0.0%   0.000       0.000       2.000       2.000       0.000      0.1000E-19   0.000    
    3332   3.332      0.1000E-02 FIXED          0  -0.0%   0.000       0.000       2.000       2.000       0.000      0.1000E-19   0.000    
    3333   3.333      0.1000E-02 FIXED          0   0.0%   0.000       0.000       2.000       2.000       0.000      0.1000E-19   0.000    
    3334   3.334      0.1000E-02 FIXED          0   0.0%   0.000       0.000       2.000       2.000       0.000      0.1000E-19   0.000    
    3335   3.335      0.1000E-02 FIXED          0  -0.0%   0.000       0.000       2.000       2.000       0.000      0.1000E-19   0.000    
    3336   3.336      0.1000E-02 FIXED          0   0.0%   0.000       0.000       2.000       2.000       0.000      0.1000E-19   0.000    
    3337   3.337      0.1000E-02 FIXED          0  -0.0%   0.000       0.000       2.000       2.000       0.000      0.1000E-19   0.000    
    3338   3.338      0.1000E-02 FIXED          0   0.0%   0.000       0.000       2.000       2.000       0.000      0.1000E-19   0.000    
    3339   3.339      0.1000E-02 FIXED          0   0.0%   0.000       0.000       2.000       2.000       0.000      0.1000E-19   0.000    
    3340   3.340      0.1000E-02 FIXED          0  -0.0%   0.000       0.000       2.000       2.000       0.000      0.1000E-19   0.000    
    3341   3.341      0.1000E-02 FIXED          0  -0.0%   0.000       0.000       2.000       2.000       0.000      0.1000E-19   0.000    
    3342   3.342      0.1000E-02 FIXED          0  -0.0%   0.000       0.000       2.000       2.000       0.000      0.1000E-19   0.000    
    3343   3.343      0.1000E-02 FIXED          0   0.0%   0.000       0.000       2.000       2.000       0.000      0.1000E-19   0.000    
    3344   3.344      0.1000E-02 FIXED          0  -0.0%   0.000       0.000       2.000       2.000       0.000      0.1000E-19   0.000    
    3345   3.345      0.1000E-02 FIXED          0   0.0%   0.000       0.000       2.000       2.000       0.000      0.1000E-19   0.000    
    3346   3.346      0.1000E-02 FIXED          0   0.0%   0.000       0.000       2.000       2.000       0.000      0.1000E-19   0.000    
    3347   3.347      0.1000E-02 FIXED          0   0.0%   0.000       0.000       2.000       2.000       0.000      0.1000E-19   0.000    
    3348   3.348      0.1000E-02 FIXED          0   0.0%   0.000       0.000       2.000       2.000       0.000      0.1000E-19   0.000    
    3349   3.349      0.1000E-02 FIXED          0  -0.0%   0.000       0.000       2.000       2.000       0.000      0.1000E-19   0.000    
    3350   3.350      0.1000E-02 FIXED          0   0.0%   0.000       0.000       2.000       2.000       0.000      0.1000E-19   0.000    
    3351   3.351      0.1000E-02 FIXED          0  -0.0%   0.000       0.000       2.000       2.000       0.000      0.1000E-19   0.000    
    3352   3.352      0.1000E-02 FIXED          0   0.0%   0.000       0.000       2.000       2.000       0.000      0.1000E-19   0.000    
    3353   3.353      0.1000E-02 FIXED          0  -0.0%   0.000       0.000       2.000       2.000       0.000      0.1000E-19   0.000    
    3354   3.354      0.1000E-02 FIXED          0   0.0%   0.000       0.000       2.000       2.000       0.000      0.1000E-19   0.000    
   CYCLE    TIME      TIME-STEP  ELEMENT          ERROR  I-ENERGY    K-ENERGY T  K-ENERGY R  EXT-WORK     MAS.ERR     TOTAL MASS  MASS ADDED
    3355   3.355      0.1000E-02 FIXED          0  -0.0%   0.000       0.000       2.000       2.000       0.000      0.1000E-19   0.000    
    3356   3.356      0.1000E-02 FIXED          0   0.0%   0.000       0.000       2.000       2.000       0.000      0.1000E-19   0.000    
    3357   3.357      0.1000E-02 FIXED          0   0.0%   0.000       0.000       2.000       2.000       0.000      0.1000E-19   0.000    
    3358   3.358      0.1000E-02 FIXED          0  -0.0%   0.000       0.000       2.000       2.000       0.000      0.1000E-19   0.000    
    3359   3.359      0.1000E-02 FIXED          0   0.0%   0.000       0.000       2.000       2.000       0.000      0.1000E-19   0.000    
    3360   3.360      0.1000E-02 FIXED          0  -0.0%   0.000       0.000       2.000       2.000       0.000      0.1000E-19   0.000    
    3361   3.361      0.1000E-02 FIXED          0  -0.0%   0.000       0.000       2.000       2.000       0.000      0.1000E-19   0.000    
    3362   3.362      0.1000E-02 FIXED          0   0.0%   0.000       0.000       2.000       2.000       0.000      0.1000E-19   0.000    
    3363   3.363      0.1000E-02 FIXED          0  -0.0%   0.000       0.000       2.000       2.000       0.000      0.1000E-19   0.000    
    3364   3.364      0.1000E-02 FIXED          0   0.0%   0.000       0.000       2.000       2.000       0.000      0.1000E-19   0.000    
    3365   3.365      0.1000E-02 FIXED          0  -0.0%   0.000       0.000       2.000       2.000       0.000      0.1000E-19   0.000    
    3366   3.366      0.1000E-02 FIXED          0   0.0%   0.000       0.000       2.000       2.000       0.000      0.1000E-19   0.000    
    3367   3.367      0.1000E-02 FIXED          0  -0.0%   0.000       0.000       2.000       2.000       0.000      0.1000E-19   0.000    
    3368   3.368      0.1000E-02 FIXED          0   0.0%   0.000       0.000       2.000       2.000       0.000      0.1000E-19   0.000    
    3369   3.369      0.1000E-02 FIXED          0  -0.0%   0.000       0.000       2.000       2.000       0.000      0.1000E-19   0.000    
    3370   3.370      0.1000E-02 FIXED          0  -0.0%   0.000       0.000       2.000       2.000       0.000      0.1000E-19   0.000    
    3371   3.371      0.1000E-02 FIXED          0   0.0%   0.000       0.000       2.000       2.000       0.000      0.1000E-19   0.000    
    3372   3.372      0.1000E-02 FIXED          0   0.0%   0.000       0.000       2.000       2.000       0.000      0.1000E-19   0.000    
    3373   3.373      0.1000E-02 FIXED          0  -0.0%   0.000       0.000       2.000       2.000       0.000      0.1000E-19   0.000    
    3374   3.374      0.1000E-02 FIXED          0  -0.0%   0.000       0.000       2.000       2.000       0.000      0.1000E-19   0.000    
    3375   3.375      0.1000E-02 FIXED          0   0.0%   0.000       0.000       2.000       2.000       0.000      0.1000E-19   0.000    
    3376   3.376      0.1000E-02 FIXED          0   0.0%   0.000       0.000       2.000       2.000       0.000      0.1000E-19   0.000    
    3377   3.377      0.1000E-02 FIXED          0  -0.0%   0.000       0.000       2.000       2.000       0.000      0.1000E-19   0.000    
    3378   3.378      0.1000E-02 FIXED          0   0.0%   0.000       0.000       2.000       2.000       0.000      0.1000E-19   0.000    
    3379   3.379      0.1000E-02 FIXED          0  -0.0%   0.000       0.000       2.000       2.000       0.000      0.1000E-19   0.000    
    3380   3.380      0.1000E-02 FIXED          0   0.0%   0.000       0.000       2.000       2.000       0.000      0.1000E-19   0.000    
    3381   3.381      0.1000E-02 FIXED          0  -0.0%   0.000       0.000       2.000       2.000       0.000      0.1000E-19   0.000    
    3382   3.382      0.1000E-02 FIXED          0   0.0%   0.000       0.000       2.000       2.000       0.000      0.1000E-19   0.000    
    3383   3.383      0.1000E-02 FIXED          0  -0.0%   0.000       0.000       2.000       2.000       0.000      0.1000E-19   0.000    
    3384   3.384      0.1000E-02 FIXED          0   0.0%   0.000       0.000       2.000       2.000       0.000      0.1000E-19   0.000    
    3385   3.385      0.1000E-02 FIXED          0   0.0%   0.000       0.000       2.000       2.000       0.000      0.1000E-19   0.000    
    3386   3.386      0.1000E-02 FIXED          0  -0.0%   0.000       0.000       2.000       2.000       0.000      0.1000E-19   0.000    
    3387   3.387      0.1000E-02 FIXED          0   0.0%   0.000       0.000       2.000       2.000       0.000      0.1000E-19   0.000    
    3388   3.388      0.1000E-02 FIXED          0  -0.0%   0.000       0.000       2.000       2.000       0.000      0.1000E-19   0.000    
    3389   3.389      0.1000E-02 FIXED          0   0.0%   0.000       0.000       2.000       2.000       0.000      0.1000E-19   0.000    
    3390   3.390      0.1000E-02 FIXED          0   0.0%   0.000       0.000       2.000       2.000       0.000      0.1000E-19   0.000    
    3391   3.391      0.1000E-02 FIXED          0   0.0%   0.000       0.000       2.000       2.000       0.000      0.1000E-19   0.000    
    3392   3.392      0.1000E-02 FIXED          0  -0.0%   0.000       0.000       2.000       2.000       0.000      0.1000E-19   0.000    
    3393   3.393      0.1000E-02 FIXED          0  -0.0%   0.000       0.000       2.000       2.000       0.000      0.1000E-19   0.000    
    3394   3.394      0.1000E-02 FIXED          0   0.0%   0.000       0.000       2.000       2.000       0.000      0.1000E-19   0.000    
    3395   3.395      0.1000E-02 FIXED          0  -0.0%   0.000       0.000       2.000       2.000       0.000      0.1000E-19   0.000    
    3396   3.396      0.1000E-02 FIXED          0   0.0%   0.000       0.000       2.000       2.000       0.000      0.1000E-19   0.000    
    3397   3.397      0.1000E-02 FIXED          0  -0.0%   0.000       0.000       2.000       2.000       0.000      0.1000E-19   0.000    
    3398   3.398      0.1000E-02 FIXED          0  -0.0%   0.000       0.000       2.000       2.000       0.000      0.1000E-19   0.000    
    3399   3.399      0.1000E-02 FIXED          0  -0.0%   0.000       0.000       2.000       2.000       0.000      0.1000E-19   0.000    
    3400   3.400      0.1000E-02 FIXED          0   0.0%   0.000       0.000       2.000       2.000       0.000      0.1000E-19   0.000    
    3401   3.401      0.1000E-02 FIXED          0   0.0%   0.000       0.000       2.000       2.000       0.000      0.1000E-19   0.000    
    3402   3.402      0.1000E-02 FIXED          0   0.0%   0.000       0.000       2.000       2.000       0.000      0.1000E-19   0.000    
    3403   3.403      0.1000E-02 FIXED          0  -0.0%   0.000       0.000       2.000       2.000       0.000      0.1000E-19   0.000    
    3404   3.404      0.1000E-02 FIXED          0   0.0%   0.000       0.000       2.000       2.000       0.000      0.1000E-19   0.000    
    3405   3.405      0.1000E-02 FIXED          0   0.0%   0.000       0.000       2.000       2.000       0.000      0.1000E-19   0.000    
    3406   3.406      0.1000E-02 FIXED          0   0.0%   0.000       0.000       2.000       2.000       0.000      0.1000E-19   0.000    
    3407   3.407      0.1000E-02 FIXED          0   0.0%   0.000       0.000       2.000       2.000       0.000      0.1000E-19   0.000    
    3408   3.408      0.1000E-02 FIXED          0  -0.0%   0.000       0.000       2.000       2.000       0.000      0.1000E-19   0.000    
    3409   3.409      0.1000E-02 FIXED          0  -0.0%   0.000       0.000       2.000       2.000       0.000      0.1000E-19   0.000    
   CYCLE    TIME      TIME-STEP  ELEMENT          ERROR  I-ENERGY    K-ENERGY T  K-ENERGY R  EXT-WORK     MAS.ERR     TOTAL MASS  MASS ADDED
    3410   3.410      0.1000E-02 FIXED          0  -0.0%   0.000       0.000       2.000       2.000       0.000      0.1000E-19   0.000    
    3411   3.411      0.1000E-02 FIXED          0  -0.0%   0.000       0.000       2.000       2.000       0.000      0.1000E-19   0.000    
    3412   3.412      0.1000E-02 FIXED          0   0.0%   0.000       0.000       2.000       2.000       0.000      0.1000E-19   0.000    
    3413   3.413      0.1000E-02 FIXED          0  -0.0%   0.000       0.000       2.000       2.000       0.000      0.1000E-19   0.000    
    3414   3.414      0.1000E-02 FIXED          0  -0.0%   0.000       0.000       2.000       2.000       0.000      0.1000E-19   0.000    
    3415   3.415      0.1000E-02 FIXED          0   0.0%   0.000       0.000       2.000       2.000       0.000      0.1000E-19   0.000    
    3416   3.416      0.1000E-02 FIXED          0  -0.0%   0.000       0.000       2.000       2.000       0.000      0.1000E-19   0.000    
    3417   3.417      0.1000E-02 FIXED          0   0.0%   0.000       0.000       2.000       2.000       0.000      0.1000E-19   0.000    
    3418   3.418      0.1000E-02 FIXED          0   0.0%   0.000       0.000       2.000       2.000       0.000      0.1000E-19   0.000    
    3419   3.419      0.1000E-02 FIXED          0   0.0%   0.000       0.000       2.000       2.000       0.000      0.1000E-19   0.000    
    3420   3.420      0.1000E-02 FIXED          0  -0.0%   0.000       0.000       2.000       2.000       0.000      0.1000E-19   0.000    
    3421   3.421      0.1000E-02 FIXED          0   0.0%   0.000       0.000       2.000       2.000       0.000      0.1000E-19   0.000    
    3422   3.422      0.1000E-02 FIXED          0   0.0%   0.000       0.000       2.000       2.000       0.000      0.1000E-19   0.000    
    3423   3.423      0.1000E-02 FIXED          0   0.0%   0.000       0.000       2.000       2.000       0.000      0.1000E-19   0.000    
    3424   3.424      0.1000E-02 FIXED          0   0.0%   0.000       0.000       2.000       2.000       0.000      0.1000E-19   0.000    
    3425   3.425      0.1000E-02 FIXED          0   0.0%   0.000       0.000       2.000       2.000       0.000      0.1000E-19   0.000    
    3426   3.426      0.1000E-02 FIXED          0  -0.0%   0.000       0.000       2.000       2.000       0.000      0.1000E-19   0.000    
    3427   3.427      0.1000E-02 FIXED          0   0.0%   0.000       0.000       2.000       2.000       0.000      0.1000E-19   0.000    
    3428   3.428      0.1000E-02 FIXED          0   0.0%   0.000       0.000       2.000       2.000       0.000      0.1000E-19   0.000    
    3429   3.429      0.1000E-02 FIXED          0   0.0%   0.000       0.000       2.000       2.000       0.000      0.1000E-19   0.000    
    3430   3.430      0.1000E-02 FIXED          0  -0.0%   0.000       0.000       2.000       2.000       0.000      0.1000E-19   0.000    
    3431   3.431      0.1000E-02 FIXED          0   0.0%   0.000       0.000       2.000       2.000       0.000      0.1000E-19   0.000    
    3432   3.432      0.1000E-02 FIXED          0  -0.0%   0.000       0.000       2.000       2.000       0.000      0.1000E-19   0.000    
    3433   3.433      0.1000E-02 FIXED          0  -0.0%   0.000       0.000       2.000       2.000       0.000      0.1000E-19   0.000    
    3434   3.434      0.1000E-02 FIXED          0   0.0%   0.000       0.000       2.000       2.000       0.000      0.1000E-19   0.000    
    3435   3.435      0.1000E-02 FIXED          0  -0.0%   0.000       0.000       2.000       2.000       0.000      0.1000E-19   0.000    
    3436   3.436      0.1000E-02 FIXED          0  -0.0%   0.000       0.000       2.000       2.000       0.000      0.1000E-19   0.000    
    3437   3.437      0.1000E-02 FIXED          0   0.0%   0.000       0.000       2.000       2.000       0.000      0.1000E-19   0.000    
    3438   3.438      0.1000E-02 FIXED          0  -0.0%   0.000       0.000       2.000       2.000       0.000      0.1000E-19   0.000    
    3439   3.439      0.1000E-02 FIXED          0   0.0%   0.000       0.000       2.000       2.000       0.000      0.1000E-19   0.000    
    3440   3.440      0.1000E-02 FIXED          0  -0.0%   0.000       0.000       2.000       2.000       0.000      0.1000E-19   0.000    
    3441   3.441      0.1000E-02 FIXED          0   0.0%   0.000       0.000       2.000       2.000       0.000      0.1000E-19   0.000    
    3442   3.442      0.1000E-02 FIXED          0   0.0%   0.000       0.000       2.000       2.000       0.000      0.1000E-19   0.000    
    3443   3.443      0.1000E-02 FIXED          0   0.0%   0.000       0.000       2.000       2.000       0.000      0.1000E-19   0.000    
    3444   3.444      0.1000E-02 FIXED          0   0.0%   0.000       0.000       2.000       2.000       0.000      0.1000E-19   0.000    
    3445   3.445      0.1000E-02 FIXED          0  -0.0%   0.000       0.000       2.000       2.000       0.000      0.1000E-19   0.000    
    3446   3.446      0.1000E-02 FIXED          0   0.0%   0.000       0.000       2.000       2.000       0.000      0.1000E-19   0.000    
    3447   3.447      0.1000E-02 FIXED          0  -0.0%   0.000       0.000       2.000       2.000       0.000      0.1000E-19   0.000    
    3448   3.448      0.1000E-02 FIXED          0  -0.0%   0.000       0.000       2.000       2.000       0.000      0.1000E-19   0.000    
    3449   3.449      0.1000E-02 FIXED          0   0.0%   0.000       0.000       2.000       2.000       0.000      0.1000E-19   0.000    
    3450   3.450      0.1000E-02 FIXED          0   0.0%   0.000       0.000       2.000       2.000       0.000      0.1000E-19   0.000    
    3451   3.451      0.1000E-02 FIXED          0  -0.0%   0.000       0.000       2.000       2.000       0.000      0.1000E-19   0.000    
    3452   3.452      0.1000E-02 FIXED          0  -0.0%   0.000       0.000       2.000       2.000       0.000      0.1000E-19   0.000    
    3453   3.453      0.1000E-02 FIXED          0   0.0%   0.000       0.000       2.000       2.000       0.000      0.1000E-19   0.000    
    3454   3.454      0.1000E-02 FIXED          0  -0.0%   0.000       0.000       2.000       2.000       0.000      0.1000E-19   0.000    
    3455   3.455      0.1000E-02 FIXED          0  -0.0%   0.000       0.000       2.000       2.000       0.000      0.1000E-19   0.000    
    3456   3.456      0.1000E-02 FIXED          0  -0.0%   0.000       0.000       2.000       2.000       0.000      0.1000E-19   0.000    
    3457   3.457      0.1000E-02 FIXED          0   0.0%   0.000       0.000       2.000       2.000       0.000      0.1000E-19   0.000    
    3458   3.458      0.1000E-02 FIXED          0  -0.0%   0.000       0.000       2.000       2.000       0.000      0.1000E-19   0.000    
    3459   3.459      0.1000E-02 FIXED          0  -0.0%   0.000       0.000       2.000       2.000       0.000      0.1000E-19   0.000    
    3460   3.460      0.1000E-02 FIXED          0   0.0%   0.000       0.000       2.000       2.000       0.000      0.1000E-19   0.000    
    3461   3.461      0.1000E-02 FIXED          0  -0.0%   0.000       0.000       2.000       2.000       0.000      0.1000E-19   0.000    
    3462   3.462      0.1000E-02 FIXED          0   0.0%   0.000       0.000       2.000       2.000       0.000      0.1000E-19   0.000    
    3463   3.463      0.1000E-02 FIXED          0   0.0%   0.000       0.000       2.000       2.000       0.000      0.1000E-19   0.000    
    3464   3.464      0.1000E-02 FIXED          0   0.0%   0.000       0.000       2.000       2.000       0.000      0.1000E-19   0.000    
   CYCLE    TIME      TIME-STEP  ELEMENT          ERROR  I-ENERGY    K-ENERGY T  K-ENERGY R  EXT-WORK     MAS.ERR     TOTAL MASS  MASS ADDED
    3465   3.465      0.1000E-02 FIXED          0  -0.0%   0.000       0.000       2.000       2.000       0.000      0.1000E-19   0.000    
    3466   3.466      0.1000E-02 FIXED          0  -0.0%   0.000       0.000       2.000       2.000       0.000      0.1000E-19   0.000    
    3467   3.467      0.1000E-02 FIXED          0   0.0%   0.000       0.000       2.000       2.000       0.000      0.1000E-19   0.000    
    3468   3.468      0.1000E-02 FIXED          0   0.0%   0.000       0.000       2.000       2.000       0.000      0.1000E-19   0.000    
    3469   3.469      0.1000E-02 FIXED          0  -0.0%   0.000       0.000       2.000       2.000       0.000      0.1000E-19   0.000    
    3470   3.470      0.1000E-02 FIXED          0   0.0%   0.000       0.000       2.000       2.000       0.000      0.1000E-19   0.000    
    3471   3.471      0.1000E-02 FIXED          0  -0.0%   0.000       0.000       2.000       2.000       0.000      0.1000E-19   0.000    
    3472   3.472      0.1000E-02 FIXED          0   0.0%   0.000       0.000       2.000       2.000       0.000      0.1000E-19   0.000    
    3473   3.473      0.1000E-02 FIXED          0   0.0%   0.000       0.000       2.000       2.000       0.000      0.1000E-19   0.000    
    3474   3.474      0.1000E-02 FIXED          0  -0.0%   0.000       0.000       2.000       2.000       0.000      0.1000E-19   0.000    
    3475   3.475      0.1000E-02 FIXED          0   0.0%   0.000       0.000       2.000       2.000       0.000      0.1000E-19   0.000    
    3476   3.476      0.1000E-02 FIXED          0   0.0%   0.000       0.000       2.000       2.000       0.000      0.1000E-19   0.000    
    3477   3.477      0.1000E-02 FIXED          0  -0.0%   0.000       0.000       2.000       2.000       0.000      0.1000E-19   0.000    
    3478   3.478      0.1000E-02 FIXED          0  -0.0%   0.000       0.000       2.000       2.000       0.000      0.1000E-19   0.000    
    3479   3.479      0.1000E-02 FIXED          0   0.0%   0.000       0.000       2.000       2.000       0.000      0.1000E-19   0.000    
    3480   3.480      0.1000E-02 FIXED          0  -0.0%   0.000       0.000       2.000       2.000       0.000      0.1000E-19   0.000    
    3481   3.481      0.1000E-02 FIXED          0   0.0%   0.000       0.000       2.000       2.000       0.000      0.1000E-19   0.000    
    3482   3.482      0.1000E-02 FIXED          0   0.0%   0.000       0.000       2.000       2.000       0.000      0.1000E-19   0.000    
    3483   3.483      0.1000E-02 FIXED          0  -0.0%   0.000       0.000       2.000       2.000       0.000      0.1000E-19   0.000    
    3484   3.484      0.1000E-02 FIXED          0  -0.0%   0.000       0.000       2.000       2.000       0.000      0.1000E-19   0.000    
    3485   3.485      0.1000E-02 FIXED          0   0.0%   0.000       0.000       2.000       2.000       0.000      0.1000E-19   0.000    
    3486   3.486      0.1000E-02 FIXED          0  -0.0%   0.000       0.000       2.000       2.000       0.000      0.1000E-19   0.000    
    3487   3.487      0.1000E-02 FIXED          0   0.0%   0.000       0.000       2.000       2.000       0.000      0.1000E-19   0.000    
    3488   3.488      0.1000E-02 FIXED          0   0.0%   0.000       0.000       2.000       2.000       0.000      0.1000E-19   0.000    
    3489   3.489      0.1000E-02 FIXED          0  -0.0%   0.000       0.000       2.000       2.000       0.000      0.1000E-19   0.000    
    3490   3.490      0.1000E-02 FIXED          0   0.0%   0.000       0.000       2.000       2.000       0.000      0.1000E-19   0.000    
    3491   3.491      0.1000E-02 FIXED          0   0.0%   0.000       0.000       2.000       2.000       0.000      0.1000E-19   0.000    
    3492   3.492      0.1000E-02 FIXED          0   0.0%   0.000       0.000       2.000       2.000       0.000      0.1000E-19   0.000    
    3493   3.493      0.1000E-02 FIXED          0  -0.0%   0.000       0.000       2.000       2.000       0.000      0.1000E-19   0.000    
    3494   3.494      0.1000E-02 FIXED          0   0.0%   0.000       0.000       2.000       2.000       0.000      0.1000E-19   0.000    
    3495   3.495      0.1000E-02 FIXED          0   0.0%   0.000       0.000       2.000       2.000       0.000      0.1000E-19   0.000    
    3496   3.496      0.1000E-02 FIXED          0   0.0%   0.000       0.000       2.000       2.000       0.000      0.1000E-19   0.000    
    3497   3.497      0.1000E-02 FIXED          0  -0.0%   0.000       0.000       2.000       2.000       0.000      0.1000E-19   0.000    
    3498   3.498      0.1000E-02 FIXED          0   0.0%   0.000       0.000       2.000       2.000       0.000      0.1000E-19   0.000    
    3499   3.499      0.1000E-02 FIXED          0  -0.0%   0.000       0.000       2.000       2.000       0.000      0.1000E-19   0.000    
    3500   3.500      0.1000E-02 FIXED          0   0.0%   0.000       0.000       2.000       2.000       0.000      0.1000E-19   0.000    
    3501   3.501      0.1000E-02 FIXED          0   0.0%   0.000       0.000       2.000       2.000       0.000      0.1000E-19   0.000    
    3502   3.502      0.1000E-02 FIXED          0  -0.0%   0.000       0.000       2.000       2.000       0.000      0.1000E-19   0.000    
    3503   3.503      0.1000E-02 FIXED          0  -0.0%   0.000       0.000       2.000       2.000       0.000      0.1000E-19   0.000    
    3504   3.504      0.1000E-02 FIXED          0   0.0%   0.000       0.000       2.000       2.000       0.000      0.1000E-19   0.000    
    3505   3.505      0.1000E-02 FIXED          0  -0.0%   0.000       0.000       2.000       2.000       0.000      0.1000E-19   0.000    
    3506   3.506      0.1000E-02 FIXED          0   0.0%   0.000       0.000       2.000       2.000       0.000      0.1000E-19   0.000    
    3507   3.507      0.1000E-02 FIXED          0  -0.0%   0.000       0.000       2.000       2.000       0.000      0.1000E-19   0.000    
    3508   3.508      0.1000E-02 FIXED          0  -0.0%   0.000       0.000       2.000       2.000       0.000      0.1000E-19   0.000    
    3509   3.509      0.1000E-02 FIXED          0   0.0%   0.000       0.000       2.000       2.000       0.000      0.1000E-19   0.000    
    3510   3.510      0.1000E-02 FIXED          0  -0.0%   0.000       0.000       2.000       2.000       0.000      0.1000E-19   0.000    
    3511   3.511      0.1000E-02 FIXED          0  -0.0%   0.000       0.000       2.000       2.000       0.000      0.1000E-19   0.000    
    3512   3.512      0.1000E-02 FIXED          0   0.0%   0.000       0.000       2.000       2.000       0.000      0.1000E-19   0.000    
    3513   3.513      0.1000E-02 FIXED          0  -0.0%   0.000       0.000       2.000       2.000       0.000      0.1000E-19   0.000    
    3514   3.514      0.1000E-02 FIXED          0   0.0%   0.000       0.000       2.000       2.000       0.000      0.1000E-19   0.000    
    3515   3.515      0.1000E-02 FIXED          0  -0.0%   0.000       0.000       2.000       2.000       0.000      0.1000E-19   0.000    
    3516   3.516      0.1000E-02 FIXED          0  -0.0%   0.000       0.000       2.000       2.000       0.000      0.1000E-19   0.000    
    3517   3.517      0.1000E-02 FIXED          0   0.0%   0.000       0.000       2.000       2.000       0.000      0.1000E-19   0.000    
    3518   3.518      0.1000E-02 FIXED          0   0.0%   0.000       0.000       2.000       2.000       0.000      0.1000E-19   0.000    
    3519   3.519      0.1000E-02 FIXED          0  -0.0%   0.000       0.000       2.000       2.000       0.000      0.1000E-19   0.000    
   CYCLE    TIME      TIME-STEP  ELEMENT          ERROR  I-ENERGY    K-ENERGY T  K-ENERGY R  EXT-WORK     MAS.ERR     TOTAL MASS  MASS ADDED
    3520   3.520      0.1000E-02 FIXED          0   0.0%   0.000       0.000       2.000       2.000       0.000      0.1000E-19   0.000    
    3521   3.521      0.1000E-02 FIXED          0   0.0%   0.000       0.000       2.000       2.000       0.000      0.1000E-19   0.000    
    3522   3.522      0.1000E-02 FIXED          0   0.0%   0.000       0.000       2.000       2.000       0.000      0.1000E-19   0.000    
    3523   3.523      0.1000E-02 FIXED          0  -0.0%   0.000       0.000       2.000       2.000       0.000      0.1000E-19   0.000    
    3524   3.524      0.1000E-02 FIXED          0   0.0%   0.000       0.000       2.000       2.000       0.000      0.1000E-19   0.000    
    3525   3.525      0.1000E-02 FIXED          0   0.0%   0.000       0.000       2.000       2.000       0.000      0.1000E-19   0.000    
    3526   3.526      0.1000E-02 FIXED          0   0.0%   0.000       0.000       2.000       2.000       0.000      0.1000E-19   0.000    
    3527   3.527      0.1000E-02 FIXED          0  -0.0%   0.000       0.000       2.000       2.000       0.000      0.1000E-19   0.000    
    3528   3.528      0.1000E-02 FIXED          0  -0.0%   0.000       0.000       2.000       2.000       0.000      0.1000E-19   0.000    
    3529   3.529      0.1000E-02 FIXED          0   0.0%   0.000       0.000       2.000       2.000       0.000      0.1000E-19   0.000    
    3530   3.530      0.1000E-02 FIXED          0   0.0%   0.000       0.000       2.000       2.000       0.000      0.1000E-19   0.000    
    3531   3.531      0.1000E-02 FIXED          0  -0.0%   0.000       0.000       2.000       2.000       0.000      0.1000E-19   0.000    
    3532   3.532      0.1000E-02 FIXED          0   0.0%   0.000       0.000       2.000       2.000       0.000      0.1000E-19   0.000    
    3533   3.533      0.1000E-02 FIXED          0   0.0%   0.000       0.000       2.000       2.000       0.000      0.1000E-19   0.000    
    3534   3.534      0.1000E-02 FIXED          0   0.0%   0.000       0.000       2.000       2.000       0.000      0.1000E-19   0.000    
    3535   3.535      0.1000E-02 FIXED          0   0.0%   0.000       0.000       2.000       2.000       0.000      0.1000E-19   0.000    
    3536   3.536      0.1000E-02 FIXED          0   0.0%   0.000       0.000       2.000       2.000       0.000      0.1000E-19   0.000    
    3537   3.537      0.1000E-02 FIXED          0  -0.0%   0.000       0.000       2.000       2.000       0.000      0.1000E-19   0.000    
    3538   3.538      0.1000E-02 FIXED          0   0.0%   0.000       0.000       2.000       2.000       0.000      0.1000E-19   0.000    
    3539   3.539      0.1000E-02 FIXED          0   0.0%   0.000       0.000       2.000       2.000       0.000      0.1000E-19   0.000    
    3540   3.540      0.1000E-02 FIXED          0   0.0%   0.000       0.000       2.000       2.000       0.000      0.1000E-19   0.000    
    3541   3.541      0.1000E-02 FIXED          0  -0.0%   0.000       0.000       2.000       2.000       0.000      0.1000E-19   0.000    
    3542   3.542      0.1000E-02 FIXED          0   0.0%   0.000       0.000       2.000       2.000       0.000      0.1000E-19   0.000    
    3543   3.543      0.1000E-02 FIXED          0   0.0%   0.000       0.000       2.000       2.000       0.000      0.1000E-19   0.000    
    3544   3.544      0.1000E-02 FIXED          0  -0.0%   0.000       0.000       2.000       2.000       0.000      0.1000E-19   0.000    
    3545   3.545      0.1000E-02 FIXED          0   0.0%   0.000       0.000       2.000       2.000       0.000      0.1000E-19   0.000    
    3546   3.546      0.1000E-02 FIXED          0  -0.0%   0.000       0.000       2.000       2.000       0.000      0.1000E-19   0.000    
    3547   3.547      0.1000E-02 FIXED          0   0.0%   0.000       0.000       2.000       2.000       0.000      0.1000E-19   0.000    
    3548   3.548      0.1000E-02 FIXED          0  -0.0%   0.000       0.000       2.000       2.000       0.000      0.1000E-19   0.000    
    3549   3.549      0.1000E-02 FIXED          0   0.0%   0.000       0.000       2.000       2.000       0.000      0.1000E-19   0.000    
    3550   3.550      0.1000E-02 FIXED          0  -0.0%   0.000       0.000       2.000       2.000       0.000      0.1000E-19   0.000    
    3551   3.551      0.1000E-02 FIXED          0   0.0%   0.000       0.000       2.000       2.000       0.000      0.1000E-19   0.000    
    3552   3.552      0.1000E-02 FIXED          0  -0.0%   0.000       0.000       2.000       2.000       0.000      0.1000E-19   0.000    
    3553   3.553      0.1000E-02 FIXED          0   0.0%   0.000       0.000       2.000       2.000       0.000      0.1000E-19   0.000    
    3554   3.554      0.1000E-02 FIXED          0   0.0%   0.000       0.000       2.000       2.000       0.000      0.1000E-19   0.000    
    3555   3.555      0.1000E-02 FIXED          0  -0.0%   0.000       0.000       2.000       2.000       0.000      0.1000E-19   0.000    
    3556   3.556      0.1000E-02 FIXED          0  -0.0%   0.000       0.000       2.000       2.000       0.000      0.1000E-19   0.000    
    3557   3.557      0.1000E-02 FIXED          0  -0.0%   0.000       0.000       2.000       2.000       0.000      0.1000E-19   0.000    
    3558   3.558      0.1000E-02 FIXED          0   0.0%   0.000       0.000       2.000       2.000       0.000      0.1000E-19   0.000    
    3559   3.559      0.1000E-02 FIXED          0   0.0%   0.000       0.000       2.000       2.000       0.000      0.1000E-19   0.000    
    3560   3.560      0.1000E-02 FIXED          0  -0.0%   0.000       0.000       2.000       2.000       0.000      0.1000E-19   0.000    
    3561   3.561      0.1000E-02 FIXED          0   0.0%   0.000       0.000       2.000       2.000       0.000      0.1000E-19   0.000    
    3562   3.562      0.1000E-02 FIXED          0   0.0%   0.000       0.000       2.000       2.000       0.000      0.1000E-19   0.000    
    3563   3.563      0.1000E-02 FIXED          0  -0.0%   0.000       0.000       2.000       2.000       0.000      0.1000E-19   0.000    
    3564   3.564      0.1000E-02 FIXED          0   0.0%   0.000       0.000       2.000       2.000       0.000      0.1000E-19   0.000    
    3565   3.565      0.1000E-02 FIXED          0   0.0%   0.000       0.000       2.000       2.000       0.000      0.1000E-19   0.000    
    3566   3.566      0.1000E-02 FIXED          0   0.0%   0.000       0.000       2.000       2.000       0.000      0.1000E-19   0.000    
    3567   3.567      0.1000E-02 FIXED          0  -0.0%   0.000       0.000       2.000       2.000       0.000      0.1000E-19   0.000    
    3568   3.568      0.1000E-02 FIXED          0   0.0%   0.000       0.000       2.000       2.000       0.000      0.1000E-19   0.000    
    3569   3.569      0.1000E-02 FIXED          0   0.0%   0.000       0.000       2.000       2.000       0.000      0.1000E-19   0.000    
    3570   3.570      0.1000E-02 FIXED          0   0.0%   0.000       0.000       2.000       2.000       0.000      0.1000E-19   0.000    
    3571   3.571      0.1000E-02 FIXED          0  -0.0%   0.000       0.000       2.000       2.000       0.000      0.1000E-19   0.000    
    3572   3.572      0.1000E-02 FIXED          0   0.0%   0.000       0.000       2.000       2.000       0.000      0.1000E-19   0.000    
    3573   3.573      0.1000E-02 FIXED          0   0.0%   0.000       0.000       2.000       2.000       0.000      0.1000E-19   0.000    
    3574   3.574      0.1000E-02 FIXED          0  -0.0%   0.000       0.000       2.000       2.000       0.000      0.1000E-19   0.000    
   CYCLE    TIME      TIME-STEP  ELEMENT          ERROR  I-ENERGY    K-ENERGY T  K-ENERGY R  EXT-WORK     MAS.ERR     TOTAL MASS  MASS ADDED
    3575   3.575      0.1000E-02 FIXED          0   0.0%   0.000       0.000       2.000       2.000       0.000      0.1000E-19   0.000    
    3576   3.576      0.1000E-02 FIXED          0   0.0%   0.000       0.000       2.000       2.000       0.000      0.1000E-19   0.000    
    3577   3.577      0.1000E-02 FIXED          0   0.0%   0.000       0.000       2.000       2.000       0.000      0.1000E-19   0.000    
    3578   3.578      0.1000E-02 FIXED          0   0.0%   0.000       0.000       2.000       2.000       0.000      0.1000E-19   0.000    
    3579   3.579      0.1000E-02 FIXED          0  -0.0%   0.000       0.000       2.000       2.000       0.000      0.1000E-19   0.000    
    3580   3.580      0.1000E-02 FIXED          0   0.0%   0.000       0.000       2.000       2.000       0.000      0.1000E-19   0.000    
    3581   3.581      0.1000E-02 FIXED          0   0.0%   0.000       0.000       2.000       2.000       0.000      0.1000E-19   0.000    
    3582   3.582      0.1000E-02 FIXED          0  -0.0%   0.000       0.000       2.000       2.000       0.000      0.1000E-19   0.000    
    3583   3.583      0.1000E-02 FIXED          0  -0.0%   0.000       0.000       2.000       2.000       0.000      0.1000E-19   0.000    
    3584   3.584      0.1000E-02 FIXED          0   0.0%   0.000       0.000       2.000       2.000       0.000      0.1000E-19   0.000    
    3585   3.585      0.1000E-02 FIXED          0  -0.0%   0.000       0.000       2.000       2.000       0.000      0.1000E-19   0.000    
    3586   3.586      0.1000E-02 FIXED          0   0.0%   0.000       0.000       2.000       2.000       0.000      0.1000E-19   0.000    
    3587   3.587      0.1000E-02 FIXED          0  -0.0%   0.000       0.000       2.000       2.000       0.000      0.1000E-19   0.000    
    3588   3.588      0.1000E-02 FIXED          0   0.0%   0.000       0.000       2.000       2.000       0.000      0.1000E-19   0.000    
    3589   3.589      0.1000E-02 FIXED          0  -0.0%   0.000       0.000       2.000       2.000       0.000      0.1000E-19   0.000    
    3590   3.590      0.1000E-02 FIXED          0   0.0%   0.000       0.000       2.000       2.000       0.000      0.1000E-19   0.000    
    3591   3.591      0.1000E-02 FIXED          0  -0.0%   0.000       0.000       2.000       2.000       0.000      0.1000E-19   0.000    
    3592   3.592      0.1000E-02 FIXED          0  -0.0%   0.000       0.000       2.000       2.000       0.000      0.1000E-19   0.000    
    3593   3.593      0.1000E-02 FIXED          0   0.0%   0.000       0.000       2.000       2.000       0.000      0.1000E-19   0.000    
    3594   3.594      0.1000E-02 FIXED          0   0.0%   0.000       0.000       2.000       2.000       0.000      0.1000E-19   0.000    
    3595   3.595      0.1000E-02 FIXED          0   0.0%   0.000       0.000       2.000       2.000       0.000      0.1000E-19   0.000    
    3596   3.596      0.1000E-02 FIXED          0  -0.0%   0.000       0.000       2.000       2.000       0.000      0.1000E-19   0.000    
    3597   3.597      0.1000E-02 FIXED          0   0.0%   0.000       0.000       2.000       2.000       0.000      0.1000E-19   0.000    
    3598   3.598      0.1000E-02 FIXED          0  -0.0%   0.000       0.000       2.000       2.000       0.000      0.1000E-19   0.000    
    3599   3.599      0.1000E-02 FIXED          0   0.0%   0.000       0.000       2.000       2.000       0.000      0.1000E-19   0.000    
    3600   3.600      0.1000E-02 FIXED          0  -0.0%   0.000       0.000       2.000       2.000       0.000      0.1000E-19   0.000    
    3601   3.601      0.1000E-02 FIXED          0   0.0%   0.000       0.000       2.000       2.000       0.000      0.1000E-19   0.000    
    3602   3.602      0.1000E-02 FIXED          0  -0.0%   0.000       0.000       2.000       2.000       0.000      0.1000E-19   0.000    
    3603   3.603      0.1000E-02 FIXED          0   0.0%   0.000       0.000       2.000       2.000       0.000      0.1000E-19   0.000    
    3604   3.604      0.1000E-02 FIXED          0  -0.0%   0.000       0.000       2.000       2.000       0.000      0.1000E-19   0.000    
    3605   3.605      0.1000E-02 FIXED          0   0.0%   0.000       0.000       2.000       2.000       0.000      0.1000E-19   0.000    
    3606   3.606      0.1000E-02 FIXED          0   0.0%   0.000       0.000       2.000       2.000       0.000      0.1000E-19   0.000    
    3607   3.607      0.1000E-02 FIXED          0   0.0%   0.000       0.000       2.000       2.000       0.000      0.1000E-19   0.000    
    3608   3.608      0.1000E-02 FIXED          0  -0.0%   0.000       0.000       2.000       2.000       0.000      0.1000E-19   0.000    
    3609   3.609      0.1000E-02 FIXED          0   0.0%   0.000       0.000       2.000       2.000       0.000      0.1000E-19   0.000    
    3610   3.610      0.1000E-02 FIXED          0   0.0%   0.000       0.000       2.000       2.000       0.000      0.1000E-19   0.000    
    3611   3.611      0.1000E-02 FIXED          0  -0.0%   0.000       0.000       2.000       2.000       0.000      0.1000E-19   0.000    
    3612   3.612      0.1000E-02 FIXED          0   0.0%   0.000       0.000       2.000       2.000       0.000      0.1000E-19   0.000    
    3613   3.613      0.1000E-02 FIXED          0   0.0%   0.000       0.000       2.000       2.000       0.000      0.1000E-19   0.000    
    3614   3.614      0.1000E-02 FIXED          0   0.0%   0.000       0.000       2.000       2.000       0.000      0.1000E-19   0.000    
    3615   3.615      0.1000E-02 FIXED          0  -0.0%   0.000       0.000       2.000       2.000       0.000      0.1000E-19   0.000    
    3616   3.616      0.1000E-02 FIXED          0   0.0%   0.000       0.000       2.000       2.000       0.000      0.1000E-19   0.000    
    3617   3.617      0.1000E-02 FIXED          0  -0.0%   0.000       0.000       2.000       2.000       0.000      0.1000E-19   0.000    
    3618   3.618      0.1000E-02 FIXED          0   0.0%   0.000       0.000       2.000       2.000       0.000      0.1000E-19   0.000    
    3619   3.619      0.1000E-02 FIXED          0   0.0%   0.000       0.000       2.000       2.000       0.000      0.1000E-19   0.000    
    3620   3.620      0.1000E-02 FIXED          0  -0.0%   0.000       0.000       2.000       2.000       0.000      0.1000E-19   0.000    
    3621   3.621      0.1000E-02 FIXED          0   0.0%   0.000       0.000       2.000       2.000       0.000      0.1000E-19   0.000    
    3622   3.622      0.1000E-02 FIXED          0   0.0%   0.000       0.000       2.000       2.000       0.000      0.1000E-19   0.000    
    3623   3.623      0.1000E-02 FIXED          0  -0.0%   0.000       0.000       2.000       2.000       0.000      0.1000E-19   0.000    
    3624   3.624      0.1000E-02 FIXED          0   0.0%   0.000       0.000       2.000       2.000       0.000      0.1000E-19   0.000    
    3625   3.625      0.1000E-02 FIXED          0   0.0%   0.000       0.000       2.000       2.000       0.000      0.1000E-19   0.000    
    3626   3.626      0.1000E-02 FIXED          0  -0.0%   0.000       0.000       2.000       2.000       0.000      0.1000E-19   0.000    
    3627   3.627      0.1000E-02 FIXED          0   0.0%   0.000       0.000       2.000       2.000       0.000      0.1000E-19   0.000    
    3628   3.628      0.1000E-02 FIXED          0   0.0%   0.000       0.000       2.000       2.000       0.000      0.1000E-19   0.000    
    3629   3.629      0.1000E-02 FIXED          0   0.0%   0.000       0.000       2.000       2.000       0.000      0.1000E-19   0.000    
   CYCLE    TIME      TIME-STEP  ELEMENT          ERROR  I-ENERGY    K-ENERGY T  K-ENERGY R  EXT-WORK     MAS.ERR     TOTAL MASS  MASS ADDED
    3630   3.630      0.1000E-02 FIXED          0   0.0%   0.000       0.000       2.000       2.000       0.000      0.1000E-19   0.000    
    3631   3.631      0.1000E-02 FIXED          0  -0.0%   0.000       0.000       2.000       2.000       0.000      0.1000E-19   0.000    
    3632   3.632      0.1000E-02 FIXED          0   0.0%   0.000       0.000       2.000       2.000       0.000      0.1000E-19   0.000    
    3633   3.633      0.1000E-02 FIXED          0  -0.0%   0.000       0.000       2.000       2.000       0.000      0.1000E-19   0.000    
    3634   3.634      0.1000E-02 FIXED          0   0.0%   0.000       0.000       2.000       2.000       0.000      0.1000E-19   0.000    
    3635   3.635      0.1000E-02 FIXED          0   0.0%   0.000       0.000       2.000       2.000       0.000      0.1000E-19   0.000    
    3636   3.636      0.1000E-02 FIXED          0  -0.0%   0.000       0.000       2.000       2.000       0.000      0.1000E-19   0.000    
    3637   3.637      0.1000E-02 FIXED          0   0.0%   0.000       0.000       2.000       2.000       0.000      0.1000E-19   0.000    
    3638   3.638      0.1000E-02 FIXED          0   0.0%   0.000       0.000       2.000       2.000       0.000      0.1000E-19   0.000    
    3639   3.639      0.1000E-02 FIXED          0  -0.0%   0.000       0.000       2.000       2.000       0.000      0.1000E-19   0.000    
    3640   3.640      0.1000E-02 FIXED          0  -0.0%   0.000       0.000       2.000       2.000       0.000      0.1000E-19   0.000    
    3641   3.641      0.1000E-02 FIXED          0   0.0%   0.000       0.000       2.000       2.000       0.000      0.1000E-19   0.000    
    3642   3.642      0.1000E-02 FIXED          0   0.0%   0.000       0.000       2.000       2.000       0.000      0.1000E-19   0.000    
    3643   3.643      0.1000E-02 FIXED          0   0.0%   0.000       0.000       2.000       2.000       0.000      0.1000E-19   0.000    
    3644   3.644      0.1000E-02 FIXED          0  -0.0%   0.000       0.000       2.000       2.000       0.000      0.1000E-19   0.000    
    3645   3.645      0.1000E-02 FIXED          0  -0.0%   0.000       0.000       2.000       2.000       0.000      0.1000E-19   0.000    
    3646   3.646      0.1000E-02 FIXED          0   0.0%   0.000       0.000       2.000       2.000       0.000      0.1000E-19   0.000    
    3647   3.647      0.1000E-02 FIXED          0   0.0%   0.000       0.000       2.000       2.000       0.000      0.1000E-19   0.000    
    3648   3.648      0.1000E-02 FIXED          0   0.0%   0.000       0.000       2.000       2.000       0.000      0.1000E-19   0.000    
    3649   3.649      0.1000E-02 FIXED          0   0.0%   0.000       0.000       2.000       2.000       0.000      0.1000E-19   0.000    
    3650   3.650      0.1000E-02 FIXED          0  -0.0%   0.000       0.000       2.000       2.000       0.000      0.1000E-19   0.000    
    3651   3.651      0.1000E-02 FIXED          0   0.0%   0.000       0.000       2.000       2.000       0.000      0.1000E-19   0.000    
    3652   3.652      0.1000E-02 FIXED          0  -0.0%   0.000       0.000       2.000       2.000       0.000      0.1000E-19   0.000    
    3653   3.653      0.1000E-02 FIXED          0   0.0%   0.000       0.000       2.000       2.000       0.000      0.1000E-19   0.000    
    3654   3.654      0.1000E-02 FIXED          0  -0.0%   0.000       0.000       2.000       2.000       0.000      0.1000E-19   0.000    
    3655   3.655      0.1000E-02 FIXED          0  -0.0%   0.000       0.000       2.000       2.000       0.000      0.1000E-19   0.000    
    3656   3.656      0.1000E-02 FIXED          0   0.0%   0.000       0.000       2.000       2.000       0.000      0.1000E-19   0.000    
    3657   3.657      0.1000E-02 FIXED          0  -0.0%   0.000       0.000       2.000       2.000       0.000      0.1000E-19   0.000    
    3658   3.658      0.1000E-02 FIXED          0   0.0%   0.000       0.000       2.000       2.000       0.000      0.1000E-19   0.000    
    3659   3.659      0.1000E-02 FIXED          0   0.0%   0.000       0.000       2.000       2.000       0.000      0.1000E-19   0.000    
    3660   3.660      0.1000E-02 FIXED          0  -0.0%   0.000       0.000       2.000       2.000       0.000      0.1000E-19   0.000    
    3661   3.661      0.1000E-02 FIXED          0   0.0%   0.000       0.000       2.000       2.000       0.000      0.1000E-19   0.000    
    3662   3.662      0.1000E-02 FIXED          0  -0.0%   0.000       0.000       2.000       2.000       0.000      0.1000E-19   0.000    
    3663   3.663      0.1000E-02 FIXED          0   0.0%   0.000       0.000       2.000       2.000       0.000      0.1000E-19   0.000    
    3664   3.664      0.1000E-02 FIXED          0  -0.0%   0.000       0.000       2.000       2.000       0.000      0.1000E-19   0.000    
    3665   3.665      0.1000E-02 FIXED          0   0.0%   0.000       0.000       2.000       2.000       0.000      0.1000E-19   0.000    
    3666   3.666      0.1000E-02 FIXED          0  -0.0%   0.000       0.000       2.000       2.000       0.000      0.1000E-19   0.000    
    3667   3.667      0.1000E-02 FIXED          0   0.0%   0.000       0.000       2.000       2.000       0.000      0.1000E-19   0.000    
    3668   3.668      0.1000E-02 FIXED          0   0.0%   0.000       0.000       2.000       2.000       0.000      0.1000E-19   0.000    
    3669   3.669      0.1000E-02 FIXED          0  -0.0%   0.000       0.000       2.000       2.000       0.000      0.1000E-19   0.000    
    3670   3.670      0.1000E-02 FIXED          0   0.0%   0.000       0.000       2.000       2.000       0.000      0.1000E-19   0.000    
    3671   3.671      0.1000E-02 FIXED          0  -0.0%   0.000       0.000       2.000       2.000       0.000      0.1000E-19   0.000    
    3672   3.672      0.1000E-02 FIXED          0   0.0%   0.000       0.000       2.000       2.000       0.000      0.1000E-19   0.000    
    3673   3.673      0.1000E-02 FIXED          0   0.0%   0.000       0.000       2.000       2.000       0.000      0.1000E-19   0.000    
    3674   3.674      0.1000E-02 FIXED          0   0.0%   0.000       0.000       2.000       2.000       0.000      0.1000E-19   0.000    
    3675   3.675      0.1000E-02 FIXED          0  -0.0%   0.000       0.000       2.000       2.000       0.000      0.1000E-19   0.000    
    3676   3.676      0.1000E-02 FIXED          0   0.0%   0.000       0.000       2.000       2.000       0.000      0.1000E-19   0.000    
    3677   3.677      0.1000E-02 FIXED          0  -0.0%   0.000       0.000       2.000       2.000       0.000      0.1000E-19   0.000    
    3678   3.678      0.1000E-02 FIXED          0   0.0%   0.000       0.000       2.000       2.000       0.000      0.1000E-19   0.000    
    3679   3.679      0.1000E-02 FIXED          0   0.0%   0.000       0.000       2.000       2.000       0.000      0.1000E-19   0.000    
    3680   3.680      0.1000E-02 FIXED          0   0.0%   0.000       0.000       2.000       2.000       0.000      0.1000E-19   0.000    
    3681   3.681      0.1000E-02 FIXED          0   0.0%   0.000       0.000       2.000       2.000       0.000      0.1000E-19   0.000    
    3682   3.682      0.1000E-02 FIXED          0   0.0%   0.000       0.000       2.000       2.000       0.000      0.1000E-19   0.000    
    3683   3.683      0.1000E-02 FIXED          0  -0.0%   0.000       0.000       2.000       2.000       0.000      0.1000E-19   0.000    
    3684   3.684      0.1000E-02 FIXED          0   0.0%   0.000       0.000       2.000       2.000       0.000      0.1000E-19   0.000    
   CYCLE    TIME      TIME-STEP  ELEMENT          ERROR  I-ENERGY    K-ENERGY T  K-ENERGY R  EXT-WORK     MAS.ERR     TOTAL MASS  MASS ADDED
    3685   3.685      0.1000E-02 FIXED          0  -0.0%   0.000       0.000       2.000       2.000       0.000      0.1000E-19   0.000    
    3686   3.686      0.1000E-02 FIXED          0   0.0%   0.000       0.000       2.000       2.000       0.000      0.1000E-19   0.000    
    3687   3.687      0.1000E-02 FIXED          0  -0.0%   0.000       0.000       2.000       2.000       0.000      0.1000E-19   0.000    
    3688   3.688      0.1000E-02 FIXED          0   0.0%   0.000       0.000       2.000       2.000       0.000      0.1000E-19   0.000    
    3689   3.689      0.1000E-02 FIXED          0  -0.0%   0.000       0.000       2.000       2.000       0.000      0.1000E-19   0.000    
    3690   3.690      0.1000E-02 FIXED          0   0.0%   0.000       0.000       2.000       2.000       0.000      0.1000E-19   0.000    
    3691   3.691      0.1000E-02 FIXED          0   0.0%   0.000       0.000       2.000       2.000       0.000      0.1000E-19   0.000    
    3692   3.692      0.1000E-02 FIXED          0   0.0%   0.000       0.000       2.000       2.000       0.000      0.1000E-19   0.000    
    3693   3.693      0.1000E-02 FIXED          0   0.0%   0.000       0.000       2.000       2.000       0.000      0.1000E-19   0.000    
    3694   3.694      0.1000E-02 FIXED          0   0.0%   0.000       0.000       2.000       2.000       0.000      0.1000E-19   0.000    
    3695   3.695      0.1000E-02 FIXED          0   0.0%   0.000       0.000       2.000       2.000       0.000      0.1000E-19   0.000    
    3696   3.696      0.1000E-02 FIXED          0   0.0%   0.000       0.000       2.000       2.000       0.000      0.1000E-19   0.000    
    3697   3.697      0.1000E-02 FIXED          0   0.0%   0.000       0.000       2.000       2.000       0.000      0.1000E-19   0.000    
    3698   3.698      0.1000E-02 FIXED          0  -0.0%   0.000       0.000       2.000       2.000       0.000      0.1000E-19   0.000    
    3699   3.699      0.1000E-02 FIXED          0   0.0%   0.000       0.000       2.000       2.000       0.000      0.1000E-19   0.000    
    3700   3.700      0.1000E-02 FIXED          0   0.0%   0.000       0.000       2.000       2.000       0.000      0.1000E-19   0.000    
    3701   3.701      0.1000E-02 FIXED          0   0.0%   0.000       0.000       2.000       2.000       0.000      0.1000E-19   0.000    
    3702   3.702      0.1000E-02 FIXED          0   0.0%   0.000       0.000       2.000       2.000       0.000      0.1000E-19   0.000    
    3703   3.703      0.1000E-02 FIXED          0   0.0%   0.000       0.000       2.000       2.000       0.000      0.1000E-19   0.000    
    3704   3.704      0.1000E-02 FIXED          0   0.0%   0.000       0.000       2.000       2.000       0.000      0.1000E-19   0.000    
    3705   3.705      0.1000E-02 FIXED          0   0.0%   0.000       0.000       2.000       2.000       0.000      0.1000E-19   0.000    
    3706   3.706      0.1000E-02 FIXED          0  -0.0%   0.000       0.000       2.000       2.000       0.000      0.1000E-19   0.000    
    3707   3.707      0.1000E-02 FIXED          0   0.0%   0.000       0.000       2.000       2.000       0.000      0.1000E-19   0.000    
    3708   3.708      0.1000E-02 FIXED          0   0.0%   0.000       0.000       2.000       2.000       0.000      0.1000E-19   0.000    
    3709   3.709      0.1000E-02 FIXED          0  -0.0%   0.000       0.000       2.000       2.000       0.000      0.1000E-19   0.000    
    3710   3.710      0.1000E-02 FIXED          0   0.0%   0.000       0.000       2.000       2.000       0.000      0.1000E-19   0.000    
    3711   3.711      0.1000E-02 FIXED          0  -0.0%   0.000       0.000       2.000       2.000       0.000      0.1000E-19   0.000    
    3712   3.712      0.1000E-02 FIXED          0  -0.0%   0.000       0.000       2.000       2.000       0.000      0.1000E-19   0.000    
    3713   3.713      0.1000E-02 FIXED          0   0.0%   0.000       0.000       2.000       2.000       0.000      0.1000E-19   0.000    
    3714   3.714      0.1000E-02 FIXED          0  -0.0%   0.000       0.000       2.000       2.000       0.000      0.1000E-19   0.000    
    3715   3.715      0.1000E-02 FIXED          0  -0.0%   0.000       0.000       2.000       2.000       0.000      0.1000E-19   0.000    
    3716   3.716      0.1000E-02 FIXED          0   0.0%   0.000       0.000       2.000       2.000       0.000      0.1000E-19   0.000    
    3717   3.717      0.1000E-02 FIXED          0   0.0%   0.000       0.000       2.000       2.000       0.000      0.1000E-19   0.000    
    3718   3.718      0.1000E-02 FIXED          0   0.0%   0.000       0.000       2.000       2.000       0.000      0.1000E-19   0.000    
    3719   3.719      0.1000E-02 FIXED          0   0.0%   0.000       0.000       2.000       2.000       0.000      0.1000E-19   0.000    
    3720   3.720      0.1000E-02 FIXED          0   0.0%   0.000       0.000       2.000       2.000       0.000      0.1000E-19   0.000    
    3721   3.721      0.1000E-02 FIXED          0   0.0%   0.000       0.000       2.000       2.000       0.000      0.1000E-19   0.000    
    3722   3.722      0.1000E-02 FIXED          0   0.0%   0.000       0.000       2.000       2.000       0.000      0.1000E-19   0.000    
    3723   3.723      0.1000E-02 FIXED          0  -0.0%   0.000       0.000       2.000       2.000       0.000      0.1000E-19   0.000    
    3724   3.724      0.1000E-02 FIXED          0  -0.0%   0.000       0.000       2.000       2.000       0.000      0.1000E-19   0.000    
    3725   3.725      0.1000E-02 FIXED          0  -0.0%   0.000       0.000       2.000       2.000       0.000      0.1000E-19   0.000    
    3726   3.726      0.1000E-02 FIXED          0   0.0%   0.000       0.000       2.000       2.000       0.000      0.1000E-19   0.000    
    3727   3.727      0.1000E-02 FIXED          0   0.0%   0.000       0.000       2.000       2.000       0.000      0.1000E-19   0.000    
    3728   3.728      0.1000E-02 FIXED          0   0.0%   0.000       0.000       2.000       2.000       0.000      0.1000E-19   0.000    
    3729   3.729      0.1000E-02 FIXED          0  -0.0%   0.000       0.000       2.000       2.000       0.000      0.1000E-19   0.000    
    3730   3.730      0.1000E-02 FIXED          0  -0.0%   0.000       0.000       2.000       2.000       0.000      0.1000E-19   0.000    
    3731   3.731      0.1000E-02 FIXED          0   0.0%   0.000       0.000       2.000       2.000       0.000      0.1000E-19   0.000    
    3732   3.732      0.1000E-02 FIXED          0  -0.0%   0.000       0.000       2.000       2.000       0.000      0.1000E-19   0.000    
    3733   3.733      0.1000E-02 FIXED          0   0.0%   0.000       0.000       2.000       2.000       0.000      0.1000E-19   0.000    
    3734   3.734      0.1000E-02 FIXED          0   0.0%   0.000       0.000       2.000       2.000       0.000      0.1000E-19   0.000    
    3735   3.735      0.1000E-02 FIXED          0  -0.0%   0.000       0.000       2.000       2.000       0.000      0.1000E-19   0.000    
    3736   3.736      0.1000E-02 FIXED          0   0.0%   0.000       0.000       2.000       2.000       0.000      0.1000E-19   0.000    
    3737   3.737      0.1000E-02 FIXED          0   0.0%   0.000       0.000       2.000       2.000       0.000      0.1000E-19   0.000    
    3738   3.738      0.1000E-02 FIXED          0  -0.0%   0.000       0.000       2.000       2.000       0.000      0.1000E-19   0.000    
    3739   3.739      0.1000E-02 FIXED          0   0.0%   0.000       0.000       2.000       2.000       0.000      0.1000E-19   0.000    
   CYCLE    TIME      TIME-STEP  ELEMENT          ERROR  I-ENERGY    K-ENERGY T  K-ENERGY R  EXT-WORK     MAS.ERR     TOTAL MASS  MASS ADDED
    3740   3.740      0.1000E-02 FIXED          0  -0.0%   0.000       0.000       2.000       2.000       0.000      0.1000E-19   0.000    
    3741   3.741      0.1000E-02 FIXED          0   0.0%   0.000       0.000       2.000       2.000       0.000      0.1000E-19   0.000    
    3742   3.742      0.1000E-02 FIXED          0  -0.0%   0.000       0.000       2.000       2.000       0.000      0.1000E-19   0.000    
    3743   3.743      0.1000E-02 FIXED          0   0.0%   0.000       0.000       2.000       2.000       0.000      0.1000E-19   0.000    
    3744   3.744      0.1000E-02 FIXED          0  -0.0%   0.000       0.000       2.000       2.000       0.000      0.1000E-19   0.000    
    3745   3.745      0.1000E-02 FIXED          0   0.0%   0.000       0.000       2.000       2.000       0.000      0.1000E-19   0.000    
    3746   3.746      0.1000E-02 FIXED          0   0.0%   0.000       0.000       2.000       2.000       0.000      0.1000E-19   0.000    
    3747   3.747      0.1000E-02 FIXED          0   0.0%   0.000       0.000       2.000       2.000       0.000      0.1000E-19   0.000    
    3748   3.748      0.1000E-02 FIXED          0   0.0%   0.000       0.000       2.000       2.000       0.000      0.1000E-19   0.000    
    3749   3.749      0.1000E-02 FIXED          0  -0.0%   0.000       0.000       2.000       2.000       0.000      0.1000E-19   0.000    
    3750   3.750      0.1000E-02 FIXED          0   0.0%   0.000       0.000       2.000       2.000       0.000      0.1000E-19   0.000    
    3751   3.751      0.1000E-02 FIXED          0  -0.0%   0.000       0.000       2.000       2.000       0.000      0.1000E-19   0.000    
    3752   3.752      0.1000E-02 FIXED          0  -0.0%   0.000       0.000       2.000       2.000       0.000      0.1000E-19   0.000    
    3753   3.753      0.1000E-02 FIXED          0   0.0%   0.000       0.000       2.000       2.000       0.000      0.1000E-19   0.000    
    3754   3.754      0.1000E-02 FIXED          0  -0.0%   0.000       0.000       2.000       2.000       0.000      0.1000E-19   0.000    
    3755   3.755      0.1000E-02 FIXED          0  -0.0%   0.000       0.000       2.000       2.000       0.000      0.1000E-19   0.000    
    3756   3.756      0.1000E-02 FIXED          0   0.0%   0.000       0.000       2.000       2.000       0.000      0.1000E-19   0.000    
    3757   3.757      0.1000E-02 FIXED          0   0.0%   0.000       0.000       2.000       2.000       0.000      0.1000E-19   0.000    
    3758   3.758      0.1000E-02 FIXED          0   0.0%   0.000       0.000       2.000       2.000       0.000      0.1000E-19   0.000    
    3759   3.759      0.1000E-02 FIXED          0  -0.0%   0.000       0.000       2.000       2.000       0.000      0.1000E-19   0.000    
    3760   3.760      0.1000E-02 FIXED          0   0.0%   0.000       0.000       2.000       2.000       0.000      0.1000E-19   0.000    
    3761   3.761      0.1000E-02 FIXED          0   0.0%   0.000       0.000       2.000       2.000       0.000      0.1000E-19   0.000    
    3762   3.762      0.1000E-02 FIXED          0   0.0%   0.000       0.000       2.000       2.000       0.000      0.1000E-19   0.000    
    3763   3.763      0.1000E-02 FIXED          0  -0.0%   0.000       0.000       2.000       2.000       0.000      0.1000E-19   0.000    
    3764   3.764      0.1000E-02 FIXED          0  -0.0%   0.000       0.000       2.000       2.000       0.000      0.1000E-19   0.000    
    3765   3.765      0.1000E-02 FIXED          0   0.0%   0.000       0.000       2.000       2.000       0.000      0.1000E-19   0.000    
    3766   3.766      0.1000E-02 FIXED          0  -0.0%   0.000       0.000       2.000       2.000       0.000      0.1000E-19   0.000    
    3767   3.767      0.1000E-02 FIXED          0   0.0%   0.000       0.000       2.000       2.000       0.000      0.1000E-19   0.000    
    3768   3.768      0.1000E-02 FIXED          0   0.0%   0.000       0.000       2.000       2.000       0.000      0.1000E-19   0.000    
    3769   3.769      0.1000E-02 FIXED          0   0.0%   0.000       0.000       2.000       2.000       0.000      0.1000E-19   0.000    
    3770   3.770      0.1000E-02 FIXED          0   0.0%   0.000       0.000       2.000       2.000       0.000      0.1000E-19   0.000    
    3771   3.771      0.1000E-02 FIXED          0   0.0%   0.000       0.000       2.000       2.000       0.000      0.1000E-19   0.000    
    3772   3.772      0.1000E-02 FIXED          0  -0.0%   0.000       0.000       2.000       2.000       0.000      0.1000E-19   0.000    
    3773   3.773      0.1000E-02 FIXED          0   0.0%   0.000       0.000       2.000       2.000       0.000      0.1000E-19   0.000    
    3774   3.774      0.1000E-02 FIXED          0  -0.0%   0.000       0.000       2.000       2.000       0.000      0.1000E-19   0.000    
    3775   3.775      0.1000E-02 FIXED          0   0.0%   0.000       0.000       2.000       2.000       0.000      0.1000E-19   0.000    
    3776   3.776      0.1000E-02 FIXED          0  -0.0%   0.000       0.000       2.000       2.000       0.000      0.1000E-19   0.000    
    3777   3.777      0.1000E-02 FIXED          0   0.0%   0.000       0.000       2.000       2.000       0.000      0.1000E-19   0.000    
    3778   3.778      0.1000E-02 FIXED          0  -0.0%   0.000       0.000       2.000       2.000       0.000      0.1000E-19   0.000    
    3779   3.779      0.1000E-02 FIXED          0   0.0%   0.000       0.000       2.000       2.000       0.000      0.1000E-19   0.000    
    3780   3.780      0.1000E-02 FIXED          0  -0.0%   0.000       0.000       2.000       2.000       0.000      0.1000E-19   0.000    
    3781   3.781      0.1000E-02 FIXED          0   0.0%   0.000       0.000       2.000       2.000       0.000      0.1000E-19   0.000    
    3782   3.782      0.1000E-02 FIXED          0   0.0%   0.000       0.000       2.000       2.000       0.000      0.1000E-19   0.000    
    3783   3.783      0.1000E-02 FIXED          0  -0.0%   0.000       0.000       2.000       2.000       0.000      0.1000E-19   0.000    
    3784   3.784      0.1000E-02 FIXED          0   0.0%   0.000       0.000       2.000       2.000       0.000      0.1000E-19   0.000    
    3785   3.785      0.1000E-02 FIXED          0  -0.0%   0.000       0.000       2.000       2.000       0.000      0.1000E-19   0.000    
    3786   3.786      0.1000E-02 FIXED          0  -0.0%   0.000       0.000       2.000       2.000       0.000      0.1000E-19   0.000    
    3787   3.787      0.1000E-02 FIXED          0  -0.0%   0.000       0.000       2.000       2.000       0.000      0.1000E-19   0.000    
    3788   3.788      0.1000E-02 FIXED          0   0.0%   0.000       0.000       2.000       2.000       0.000      0.1000E-19   0.000    
    3789   3.789      0.1000E-02 FIXED          0  -0.0%   0.000       0.000       2.000       2.000       0.000      0.1000E-19   0.000    
    3790   3.790      0.1000E-02 FIXED          0  -0.0%   0.000       0.000       2.000       2.000       0.000      0.1000E-19   0.000    
    3791   3.791      0.1000E-02 FIXED          0  -0.0%   0.000       0.000       2.000       2.000       0.000      0.1000E-19   0.000    
    3792   3.792      0.1000E-02 FIXED          0   0.0%   0.000       0.000       2.000       2.000       0.000      0.1000E-19   0.000    
    3793   3.793      0.1000E-02 FIXED          0  -0.0%   0.000       0.000       2.000       2.000       0.000      0.1000E-19   0.000    
    3794   3.794      0.1000E-02 FIXED          0   0.0%   0.000       0.000       2.000       2.000       0.000      0.1000E-19   0.000    
   CYCLE    TIME      TIME-STEP  ELEMENT          ERROR  I-ENERGY    K-ENERGY T  K-ENERGY R  EXT-WORK     MAS.ERR     TOTAL MASS  MASS ADDED
    3795   3.795      0.1000E-02 FIXED          0   0.0%   0.000       0.000       2.000       2.000       0.000      0.1000E-19   0.000    
    3796   3.796      0.1000E-02 FIXED          0   0.0%   0.000       0.000       2.000       2.000       0.000      0.1000E-19   0.000    
    3797   3.797      0.1000E-02 FIXED          0   0.0%   0.000       0.000       2.000       2.000       0.000      0.1000E-19   0.000    
    3798   3.798      0.1000E-02 FIXED          0  -0.0%   0.000       0.000       2.000       2.000       0.000      0.1000E-19   0.000    
    3799   3.799      0.1000E-02 FIXED          0   0.0%   0.000       0.000       2.000       2.000       0.000      0.1000E-19   0.000    
    3800   3.800      0.1000E-02 FIXED          0   0.0%   0.000       0.000       2.000       2.000       0.000      0.1000E-19   0.000    
    3801   3.801      0.1000E-02 FIXED          0   0.0%   0.000       0.000       2.000       2.000       0.000      0.1000E-19   0.000    
    3802   3.802      0.1000E-02 FIXED          0   0.0%   0.000       0.000       2.000       2.000       0.000      0.1000E-19   0.000    
    3803   3.803      0.1000E-02 FIXED          0   0.0%   0.000       0.000       2.000       2.000       0.000      0.1000E-19   0.000    
    3804   3.804      0.1000E-02 FIXED          0   0.0%   0.000       0.000       2.000       2.000       0.000      0.1000E-19   0.000    
    3805   3.805      0.1000E-02 FIXED          0   0.0%   0.000       0.000       2.000       2.000       0.000      0.1000E-19   0.000    
    3806   3.806      0.1000E-02 FIXED          0  -0.0%   0.000       0.000       2.000       2.000       0.000      0.1000E-19   0.000    
    3807   3.807      0.1000E-02 FIXED          0  -0.0%   0.000       0.000       2.000       2.000       0.000      0.1000E-19   0.000    
    3808   3.808      0.1000E-02 FIXED          0   0.0%   0.000       0.000       2.000       2.000       0.000      0.1000E-19   0.000    
    3809   3.809      0.1000E-02 FIXED          0  -0.0%   0.000       0.000       2.000       2.000       0.000      0.1000E-19   0.000    
    3810   3.810      0.1000E-02 FIXED          0   0.0%   0.000       0.000       2.000       2.000       0.000      0.1000E-19   0.000    
    3811   3.811      0.1000E-02 FIXED          0  -0.0%   0.000       0.000       2.000       2.000       0.000      0.1000E-19   0.000    
    3812   3.812      0.1000E-02 FIXED          0   0.0%   0.000       0.000       2.000       2.000       0.000      0.1000E-19   0.000    
    3813   3.813      0.1000E-02 FIXED          0  -0.0%   0.000       0.000       2.000       2.000       0.000      0.1000E-19   0.000    
    3814   3.814      0.1000E-02 FIXED          0   0.0%   0.000       0.000       2.000       2.000       0.000      0.1000E-19   0.000    
    3815   3.815      0.1000E-02 FIXED          0  -0.0%   0.000       0.000       2.000       2.000       0.000      0.1000E-19   0.000    
    3816   3.816      0.1000E-02 FIXED          0   0.0%   0.000       0.000       2.000       2.000       0.000      0.1000E-19   0.000    
    3817   3.817      0.1000E-02 FIXED          0   0.0%   0.000       0.000       2.000       2.000       0.000      0.1000E-19   0.000    
    3818   3.818      0.1000E-02 FIXED          0   0.0%   0.000       0.000       2.000       2.000       0.000      0.1000E-19   0.000    
    3819   3.819      0.1000E-02 FIXED          0  -0.0%   0.000       0.000       2.000       2.000       0.000      0.1000E-19   0.000    
    3820   3.820      0.1000E-02 FIXED          0   0.0%   0.000       0.000       2.000       2.000       0.000      0.1000E-19   0.000    
    3821   3.821      0.1000E-02 FIXED          0  -0.0%   0.000       0.000       2.000       2.000       0.000      0.1000E-19   0.000    
    3822   3.822      0.1000E-02 FIXED          0   0.0%   0.000       0.000       2.000       2.000       0.000      0.1000E-19   0.000    
    3823   3.823      0.1000E-02 FIXED          0  -0.0%   0.000       0.000       2.000       2.000       0.000      0.1000E-19   0.000    
    3824   3.824      0.1000E-02 FIXED          0   0.0%   0.000       0.000       2.000       2.000       0.000      0.1000E-19   0.000    
    3825   3.825      0.1000E-02 FIXED          0   0.0%   0.000       0.000       2.000       2.000       0.000      0.1000E-19   0.000    
    3826   3.826      0.1000E-02 FIXED          0   0.0%   0.000       0.000       2.000       2.000       0.000      0.1000E-19   0.000    
    3827   3.827      0.1000E-02 FIXED          0  -0.0%   0.000       0.000       2.000       2.000       0.000      0.1000E-19   0.000    
    3828   3.828      0.1000E-02 FIXED          0   0.0%   0.000       0.000       2.000       2.000       0.000      0.1000E-19   0.000    
    3829   3.829      0.1000E-02 FIXED          0   0.0%   0.000       0.000       2.000       2.000       0.000      0.1000E-19   0.000    
    3830   3.830      0.1000E-02 FIXED          0   0.0%   0.000       0.000       2.000       2.000       0.000      0.1000E-19   0.000    
    3831   3.831      0.1000E-02 FIXED          0  -0.0%   0.000       0.000       2.000       2.000       0.000      0.1000E-19   0.000    
    3832   3.832      0.1000E-02 FIXED          0   0.0%   0.000       0.000       2.000       2.000       0.000      0.1000E-19   0.000    
    3833   3.833      0.1000E-02 FIXED          0   0.0%   0.000       0.000       2.000       2.000       0.000      0.1000E-19   0.000    
    3834   3.834      0.1000E-02 FIXED          0  -0.0%   0.000       0.000       2.000       2.000       0.000      0.1000E-19   0.000    
    3835   3.835      0.1000E-02 FIXED          0  -0.0%   0.000       0.000       2.000       2.000       0.000      0.1000E-19   0.000    
    3836   3.836      0.1000E-02 FIXED          0  -0.0%   0.000       0.000       2.000       2.000       0.000      0.1000E-19   0.000    
    3837   3.837      0.1000E-02 FIXED          0   0.0%   0.000       0.000       2.000       2.000       0.000      0.1000E-19   0.000    
    3838   3.838      0.1000E-02 FIXED          0   0.0%   0.000       0.000       2.000       2.000       0.000      0.1000E-19   0.000    
    3839   3.839      0.1000E-02 FIXED          0   0.0%   0.000       0.000       2.000       2.000       0.000      0.1000E-19   0.000    
    3840   3.840      0.1000E-02 FIXED          0   0.0%   0.000       0.000       2.000       2.000       0.000      0.1000E-19   0.000    
    3841   3.841      0.1000E-02 FIXED          0   0.0%   0.000       0.000       2.000       2.000       0.000      0.1000E-19   0.000    
    3842   3.842      0.1000E-02 FIXED          0  -0.0%   0.000       0.000       2.000       2.000       0.000      0.1000E-19   0.000    
    3843   3.843      0.1000E-02 FIXED          0  -0.0%   0.000       0.000       2.000       2.000       0.000      0.1000E-19   0.000    
    3844   3.844      0.1000E-02 FIXED          0   0.0%   0.000       0.000       2.000       2.000       0.000      0.1000E-19   0.000    
    3845   3.845      0.1000E-02 FIXED          0   0.0%   0.000       0.000       2.000       2.000       0.000      0.1000E-19   0.000    
    3846   3.846      0.1000E-02 FIXED          0  -0.0%   0.000       0.000       2.000       2.000       0.000      0.1000E-19   0.000    
    3847   3.847      0.1000E-02 FIXED          0   0.0%   0.000       0.000       2.000       2.000       0.000      0.1000E-19   0.000    
    3848   3.848      0.1000E-02 FIXED          0  -0.0%   0.000       0.000       2.000       2.000       0.000      0.1000E-19   0.000    
    3849   3.849      0.1000E-02 FIXED          0   0.0%   0.000       0.000       2.000       2.000       0.000      0.1000E-19   0.000    
   CYCLE    TIME      TIME-STEP  ELEMENT          ERROR  I-ENERGY    K-ENERGY T  K-ENERGY R  EXT-WORK     MAS.ERR     TOTAL MASS  MASS ADDED
    3850   3.850      0.1000E-02 FIXED          0  -0.0%   0.000       0.000       2.000       2.000       0.000      0.1000E-19   0.000    
    3851   3.851      0.1000E-02 FIXED          0   0.0%   0.000       0.000       2.000       2.000       0.000      0.1000E-19   0.000    
    3852   3.852      0.1000E-02 FIXED          0   0.0%   0.000       0.000       2.000       2.000       0.000      0.1000E-19   0.000    
    3853   3.853      0.1000E-02 FIXED          0   0.0%   0.000       0.000       2.000       2.000       0.000      0.1000E-19   0.000    
    3854   3.854      0.1000E-02 FIXED          0   0.0%   0.000       0.000       2.000       2.000       0.000      0.1000E-19   0.000    
    3855   3.855      0.1000E-02 FIXED          0   0.0%   0.000       0.000       2.000       2.000       0.000      0.1000E-19   0.000    
    3856   3.856      0.1000E-02 FIXED          0  -0.0%   0.000       0.000       2.000       2.000       0.000      0.1000E-19   0.000    
    3857   3.857      0.1000E-02 FIXED          0   0.0%   0.000       0.000       2.000       2.000       0.000      0.1000E-19   0.000    
    3858   3.858      0.1000E-02 FIXED          0   0.0%   0.000       0.000       2.000       2.000       0.000      0.1000E-19   0.000    
    3859   3.859      0.1000E-02 FIXED          0  -0.0%   0.000       0.000       2.000       2.000       0.000      0.1000E-19   0.000    
    3860   3.860      0.1000E-02 FIXED          0   0.0%   0.000       0.000       2.000       2.000       0.000      0.1000E-19   0.000    
    3861   3.861      0.1000E-02 FIXED          0   0.0%   0.000       0.000       2.000       2.000       0.000      0.1000E-19   0.000    
    3862   3.862      0.1000E-02 FIXED          0   0.0%   0.000       0.000       2.000       2.000       0.000      0.1000E-19   0.000    
    3863   3.863      0.1000E-02 FIXED          0  -0.0%   0.000       0.000       2.000       2.000       0.000      0.1000E-19   0.000    
    3864   3.864      0.1000E-02 FIXED          0   0.0%   0.000       0.000       2.000       2.000       0.000      0.1000E-19   0.000    
    3865   3.865      0.1000E-02 FIXED          0   0.0%   0.000       0.000       2.000       2.000       0.000      0.1000E-19   0.000    
    3866   3.866      0.1000E-02 FIXED          0   0.0%   0.000       0.000       2.000       2.000       0.000      0.1000E-19   0.000    
    3867   3.867      0.1000E-02 FIXED          0  -0.0%   0.000       0.000       2.000       2.000       0.000      0.1000E-19   0.000    
    3868   3.868      0.1000E-02 FIXED          0   0.0%   0.000       0.000       2.000       2.000       0.000      0.1000E-19   0.000    
    3869   3.869      0.1000E-02 FIXED          0   0.0%   0.000       0.000       2.000       2.000       0.000      0.1000E-19   0.000    
    3870   3.870      0.1000E-02 FIXED          0  -0.0%   0.000       0.000       2.000       2.000       0.000      0.1000E-19   0.000    
    3871   3.871      0.1000E-02 FIXED          0   0.0%   0.000       0.000       2.000       2.000       0.000      0.1000E-19   0.000    
    3872   3.872      0.1000E-02 FIXED          0  -0.0%   0.000       0.000       2.000       2.000       0.000      0.1000E-19   0.000    
    3873   3.873      0.1000E-02 FIXED          0   0.0%   0.000       0.000       2.000       2.000       0.000      0.1000E-19   0.000    
    3874   3.874      0.1000E-02 FIXED          0  -0.0%   0.000       0.000       2.000       2.000       0.000      0.1000E-19   0.000    
    3875   3.875      0.1000E-02 FIXED          0   0.0%   0.000       0.000       2.000       2.000       0.000      0.1000E-19   0.000    
    3876   3.876      0.1000E-02 FIXED          0   0.0%   0.000       0.000       2.000       2.000       0.000      0.1000E-19   0.000    
    3877   3.877      0.1000E-02 FIXED          0   0.0%   0.000       0.000       2.000       2.000       0.000      0.1000E-19   0.000    
    3878   3.878      0.1000E-02 FIXED          0   0.0%   0.000       0.000       2.000       2.000       0.000      0.1000E-19   0.000    
    3879   3.879      0.1000E-02 FIXED          0   0.0%   0.000       0.000       2.000       2.000       0.000      0.1000E-19   0.000    
    3880   3.880      0.1000E-02 FIXED          0  -0.0%   0.000       0.000       2.000       2.000       0.000      0.1000E-19   0.000    
    3881   3.881      0.1000E-02 FIXED          0  -0.0%   0.000       0.000       2.000       2.000       0.000      0.1000E-19   0.000    
    3882   3.882      0.1000E-02 FIXED          0   0.0%   0.000       0.000       2.000       2.000       0.000      0.1000E-19   0.000    
    3883   3.883      0.1000E-02 FIXED          0  -0.0%   0.000       0.000       2.000       2.000       0.000      0.1000E-19   0.000    
    3884   3.884      0.1000E-02 FIXED          0  -0.0%   0.000       0.000       2.000       2.000       0.000      0.1000E-19   0.000    
    3885   3.885      0.1000E-02 FIXED          0   0.0%   0.000       0.000       2.000       2.000       0.000      0.1000E-19   0.000    
    3886   3.886      0.1000E-02 FIXED          0   0.0%   0.000       0.000       2.000       2.000       0.000      0.1000E-19   0.000    
    3887   3.887      0.1000E-02 FIXED          0  -0.0%   0.000       0.000       2.000       2.000       0.000      0.1000E-19   0.000    
    3888   3.888      0.1000E-02 FIXED          0   0.0%   0.000       0.000       2.000       2.000       0.000      0.1000E-19   0.000    
    3889   3.889      0.1000E-02 FIXED          0  -0.0%   0.000       0.000       2.000       2.000       0.000      0.1000E-19   0.000    
    3890   3.890      0.1000E-02 FIXED          0   0.0%   0.000       0.000       2.000       2.000       0.000      0.1000E-19   0.000    
    3891   3.891      0.1000E-02 FIXED          0   0.0%   0.000       0.000       2.000       2.000       0.000      0.1000E-19   0.000    
    3892   3.892      0.1000E-02 FIXED          0   0.0%   0.000       0.000       2.000       2.000       0.000      0.1000E-19   0.000    
    3893   3.893      0.1000E-02 FIXED          0   0.0%   0.000       0.000       2.000       2.000       0.000      0.1000E-19   0.000    
    3894   3.894      0.1000E-02 FIXED          0   0.0%   0.000       0.000       2.000       2.000       0.000      0.1000E-19   0.000    
    3895   3.895      0.1000E-02 FIXED          0   0.0%   0.000       0.000       2.000       2.000       0.000      0.1000E-19   0.000    
    3896   3.896      0.1000E-02 FIXED          0   0.0%   0.000       0.000       2.000       2.000       0.000      0.1000E-19   0.000    
    3897   3.897      0.1000E-02 FIXED          0  -0.0%   0.000       0.000       2.000       2.000       0.000      0.1000E-19   0.000    
    3898   3.898      0.1000E-02 FIXED          0   0.0%   0.000       0.000       2.000       2.000       0.000      0.1000E-19   0.000    
    3899   3.899      0.1000E-02 FIXED          0  -0.0%   0.000       0.000       2.000       2.000       0.000      0.1000E-19   0.000    
    3900   3.900      0.1000E-02 FIXED          0   0.0%   0.000       0.000       2.000       2.000       0.000      0.1000E-19   0.000    
    3901   3.901      0.1000E-02 FIXED          0   0.0%   0.000       0.000       2.000       2.000       0.000      0.1000E-19   0.000    
    3902   3.902      0.1000E-02 FIXED          0   0.0%   0.000       0.000       2.000       2.000       0.000      0.1000E-19   0.000    
    3903   3.903      0.1000E-02 FIXED          0  -0.0%   0.000       0.000       2.000       2.000       0.000      0.1000E-19   0.000    
    3904   3.904      0.1000E-02 FIXED          0  -0.0%   0.000       0.000       2.000       2.000       0.000      0.1000E-19   0.000    
   CYCLE    TIME      TIME-STEP  ELEMENT          ERROR  I-ENERGY    K-ENERGY T  K-ENERGY R  EXT-WORK     MAS.ERR     TOTAL MASS  MASS ADDED
    3905   3.905      0.1000E-02 FIXED          0  -0.0%   0.000       0.000       2.000       2.000       0.000      0.1000E-19   0.000    
    3906   3.906      0.1000E-02 FIXED          0   0.0%   0.000       0.000       2.000       2.000       0.000      0.1000E-19   0.000    
    3907   3.907      0.1000E-02 FIXED          0   0.0%   0.000       0.000       2.000       2.000       0.000      0.1000E-19   0.000    
    3908   3.908      0.1000E-02 FIXED          0  -0.0%   0.000       0.000       2.000       2.000       0.000      0.1000E-19   0.000    
    3909   3.909      0.1000E-02 FIXED          0   0.0%   0.000       0.000       2.000       2.000       0.000      0.1000E-19   0.000    
    3910   3.910      0.1000E-02 FIXED          0  -0.0%   0.000       0.000       2.000       2.000       0.000      0.1000E-19   0.000    
    3911   3.911      0.1000E-02 FIXED          0   0.0%   0.000       0.000       2.000       2.000       0.000      0.1000E-19   0.000    
    3912   3.912      0.1000E-02 FIXED          0   0.0%   0.000       0.000       2.000       2.000       0.000      0.1000E-19   0.000    
    3913   3.913      0.1000E-02 FIXED          0   0.0%   0.000       0.000       2.000       2.000       0.000      0.1000E-19   0.000    
    3914   3.914      0.1000E-02 FIXED          0   0.0%   0.000       0.000       2.000       2.000       0.000      0.1000E-19   0.000    
    3915   3.915      0.1000E-02 FIXED          0   0.0%   0.000       0.000       2.000       2.000       0.000      0.1000E-19   0.000    
    3916   3.916      0.1000E-02 FIXED          0   0.0%   0.000       0.000       2.000       2.000       0.000      0.1000E-19   0.000    
    3917   3.917      0.1000E-02 FIXED          0   0.0%   0.000       0.000       2.000       2.000       0.000      0.1000E-19   0.000    
    3918   3.918      0.1000E-02 FIXED          0   0.0%   0.000       0.000       2.000       2.000       0.000      0.1000E-19   0.000    
    3919   3.919      0.1000E-02 FIXED          0   0.0%   0.000       0.000       2.000       2.000       0.000      0.1000E-19   0.000    
    3920   3.920      0.1000E-02 FIXED          0   0.0%   0.000       0.000       2.000       2.000       0.000      0.1000E-19   0.000    
    3921   3.921      0.1000E-02 FIXED          0  -0.0%   0.000       0.000       2.000       2.000       0.000      0.1000E-19   0.000    
    3922   3.922      0.1000E-02 FIXED          0   0.0%   0.000       0.000       2.000       2.000       0.000      0.1000E-19   0.000    
    3923   3.923      0.1000E-02 FIXED          0  -0.0%   0.000       0.000       2.000       2.000       0.000      0.1000E-19   0.000    
    3924   3.924      0.1000E-02 FIXED          0   0.0%   0.000       0.000       2.000       2.000       0.000      0.1000E-19   0.000    
    3925   3.925      0.1000E-02 FIXED          0  -0.0%   0.000       0.000       2.000       2.000       0.000      0.1000E-19   0.000    
    3926   3.926      0.1000E-02 FIXED          0  -0.0%   0.000       0.000       2.000       2.000       0.000      0.1000E-19   0.000    
    3927   3.927      0.1000E-02 FIXED          0  -0.0%   0.000       0.000       2.000       2.000       0.000      0.1000E-19   0.000    
    3928   3.928      0.1000E-02 FIXED          0   0.0%   0.000       0.000       2.000       2.000       0.000      0.1000E-19   0.000    
    3929   3.929      0.1000E-02 FIXED          0  -0.0%   0.000       0.000       2.000       2.000       0.000      0.1000E-19   0.000    
    3930   3.930      0.1000E-02 FIXED          0   0.0%   0.000       0.000       2.000       2.000       0.000      0.1000E-19   0.000    
    3931   3.931      0.1000E-02 FIXED          0  -0.0%   0.000       0.000       2.000       2.000       0.000      0.1000E-19   0.000    
    3932   3.932      0.1000E-02 FIXED          0   0.0%   0.000       0.000       2.000       2.000       0.000      0.1000E-19   0.000    
    3933   3.933      0.1000E-02 FIXED          0  -0.0%   0.000       0.000       2.000       2.000       0.000      0.1000E-19   0.000    
    3934   3.934      0.1000E-02 FIXED          0  -0.0%   0.000       0.000       2.000       2.000       0.000      0.1000E-19   0.000    
    3935   3.935      0.1000E-02 FIXED          0  -0.0%   0.000       0.000       2.000       2.000       0.000      0.1000E-19   0.000    
    3936   3.936      0.1000E-02 FIXED          0   0.0%   0.000       0.000       2.000       2.000       0.000      0.1000E-19   0.000    
    3937   3.937      0.1000E-02 FIXED          0   0.0%   0.000       0.000       2.000       2.000       0.000      0.1000E-19   0.000    
    3938   3.938      0.1000E-02 FIXED          0   0.0%   0.000       0.000       2.000       2.000       0.000      0.1000E-19   0.000    
    3939   3.939      0.1000E-02 FIXED          0   0.0%   0.000       0.000       2.000       2.000       0.000      0.1000E-19   0.000    
    3940   3.940      0.1000E-02 FIXED          0   0.0%   0.000       0.000       2.000       2.000       0.000      0.1000E-19   0.000    
    3941   3.941      0.1000E-02 FIXED          0   0.0%   0.000       0.000       2.000       2.000       0.000      0.1000E-19   0.000    
    3942   3.942      0.1000E-02 FIXED          0  -0.0%   0.000       0.000       2.000       2.000       0.000      0.1000E-19   0.000    
    3943   3.943      0.1000E-02 FIXED          0   0.0%   0.000       0.000       2.000       2.000       0.000      0.1000E-19   0.000    
    3944   3.944      0.1000E-02 FIXED          0   0.0%   0.000       0.000       2.000       2.000       0.000      0.1000E-19   0.000    
    3945   3.945      0.1000E-02 FIXED          0   0.0%   0.000       0.000       2.000       2.000       0.000      0.1000E-19   0.000    
    3946   3.946      0.1000E-02 FIXED          0  -0.0%   0.000       0.000       2.000       2.000       0.000      0.1000E-19   0.000    
    3947   3.947      0.1000E-02 FIXED          0   0.0%   0.000       0.000       2.000       2.000       0.000      0.1000E-19   0.000    
    3948   3.948      0.1000E-02 FIXED          0   0.0%   0.000       0.000       2.000       2.000       0.000      0.1000E-19   0.000    
    3949   3.949      0.1000E-02 FIXED          0   0.0%   0.000       0.000       2.000       2.000       0.000      0.1000E-19   0.000    
    3950   3.950      0.1000E-02 FIXED          0  -0.0%   0.000       0.000       2.000       2.000       0.000      0.1000E-19   0.000    
    3951   3.951      0.1000E-02 FIXED          0   0.0%   0.000       0.000       2.000       2.000       0.000      0.1000E-19   0.000    
    3952   3.952      0.1000E-02 FIXED          0   0.0%   0.000       0.000       2.000       2.000       0.000      0.1000E-19   0.000    
    3953   3.953      0.1000E-02 FIXED          0  -0.0%   0.000       0.000       2.000       2.000       0.000      0.1000E-19   0.000    
    3954   3.954      0.1000E-02 FIXED          0  -0.0%   0.000       0.000       2.000       2.000       0.000      0.1000E-19   0.000    
    3955   3.955      0.1000E-02 FIXED          0   0.0%   0.000       0.000       2.000       2.000       0.000      0.1000E-19   0.000    
    3956   3.956      0.1000E-02 FIXED          0  -0.0%   0.000       0.000       2.000       2.000       0.000      0.1000E-19   0.000    
    3957   3.957      0.1000E-02 FIXED          0   0.0%   0.000       0.000       2.000       2.000       0.000      0.1000E-19   0.000    
    3958   3.958      0.1000E-02 FIXED          0  -0.0%   0.000       0.000       2.000       2.000       0.000      0.1000E-19   0.000    
    3959   3.959      0.1000E-02 FIXED          0   0.0%   0.000       0.000       2.000       2.000       0.000      0.1000E-19   0.000    
   CYCLE    TIME      TIME-STEP  ELEMENT          ERROR  I-ENERGY    K-ENERGY T  K-ENERGY R  EXT-WORK     MAS.ERR     TOTAL MASS  MASS ADDED
    3960   3.960      0.1000E-02 FIXED          0   0.0%   0.000       0.000       2.000       2.000       0.000      0.1000E-19   0.000    
    3961   3.961      0.1000E-02 FIXED          0   0.0%   0.000       0.000       2.000       2.000       0.000      0.1000E-19   0.000    
    3962   3.962      0.1000E-02 FIXED          0  -0.0%   0.000       0.000       2.000       2.000       0.000      0.1000E-19   0.000    
    3963   3.963      0.1000E-02 FIXED          0  -0.0%   0.000       0.000       2.000       2.000       0.000      0.1000E-19   0.000    
    3964   3.964      0.1000E-02 FIXED          0   0.0%   0.000       0.000       2.000       2.000       0.000      0.1000E-19   0.000    
    3965   3.965      0.1000E-02 FIXED          0  -0.0%   0.000       0.000       2.000       2.000       0.000      0.1000E-19   0.000    
    3966   3.966      0.1000E-02 FIXED          0   0.0%   0.000       0.000       2.000       2.000       0.000      0.1000E-19   0.000    
    3967   3.967      0.1000E-02 FIXED          0   0.0%   0.000       0.000       2.000       2.000       0.000      0.1000E-19   0.000    
    3968   3.968      0.1000E-02 FIXED          0  -0.0%   0.000       0.000       2.000       2.000       0.000      0.1000E-19   0.000    
    3969   3.969      0.1000E-02 FIXED          0  -0.0%   0.000       0.000       2.000       2.000       0.000      0.1000E-19   0.000    
    3970   3.970      0.1000E-02 FIXED          0   0.0%   0.000       0.000       2.000       2.000       0.000      0.1000E-19   0.000    
    3971   3.971      0.1000E-02 FIXED          0  -0.0%   0.000       0.000       2.000       2.000       0.000      0.1000E-19   0.000    
    3972   3.972      0.1000E-02 FIXED          0   0.0%   0.000       0.000       2.000       2.000       0.000      0.1000E-19   0.000    
    3973   3.973      0.1000E-02 FIXED          0  -0.0%   0.000       0.000       2.000       2.000       0.000      0.1000E-19   0.000    
    3974   3.974      0.1000E-02 FIXED          0  -0.0%   0.000       0.000       2.000       2.000       0.000      0.1000E-19   0.000    
    3975   3.975      0.1000E-02 FIXED          0   0.0%   0.000       0.000       2.000       2.000       0.000      0.1000E-19   0.000    
    3976   3.976      0.1000E-02 FIXED          0  -0.0%   0.000       0.000       2.000       2.000       0.000      0.1000E-19   0.000    
    3977   3.977      0.1000E-02 FIXED          0   0.0%   0.000       0.000       2.000       2.000       0.000      0.1000E-19   0.000    
    3978   3.978      0.1000E-02 FIXED          0   0.0%   0.000       0.000       2.000       2.000       0.000      0.1000E-19   0.000    
    3979   3.979      0.1000E-02 FIXED          0  -0.0%   0.000       0.000       2.000       2.000       0.000      0.1000E-19   0.000    
    3980   3.980      0.1000E-02 FIXED          0   0.0%   0.000       0.000       2.000       2.000       0.000      0.1000E-19   0.000    
    3981   3.981      0.1000E-02 FIXED          0  -0.0%   0.000       0.000       2.000       2.000       0.000      0.1000E-19   0.000    
    3982   3.982      0.1000E-02 FIXED          0   0.0%   0.000       0.000       2.000       2.000       0.000      0.1000E-19   0.000    
    3983   3.983      0.1000E-02 FIXED          0  -0.0%   0.000       0.000       2.000       2.000       0.000      0.1000E-19   0.000    
    3984   3.984      0.1000E-02 FIXED          0   0.0%   0.000       0.000       2.000       2.000       0.000      0.1000E-19   0.000    
    3985   3.985      0.1000E-02 FIXED          0  -0.0%   0.000       0.000       2.000       2.000       0.000      0.1000E-19   0.000    
    3986   3.986      0.1000E-02 FIXED          0   0.0%   0.000       0.000       2.000       2.000       0.000      0.1000E-19   0.000    
    3987   3.987      0.1000E-02 FIXED          0  -0.0%   0.000       0.000       2.000       2.000       0.000      0.1000E-19   0.000    
    3988   3.988      0.1000E-02 FIXED          0   0.0%   0.000       0.000       2.000       2.000       0.000      0.1000E-19   0.000    
    3989   3.989      0.1000E-02 FIXED          0   0.0%   0.000       0.000       2.000       2.000       0.000      0.1000E-19   0.000    
    3990   3.990      0.1000E-02 FIXED          0   0.0%   0.000       0.000       2.000       2.000       0.000      0.1000E-19   0.000    
    3991   3.991      0.1000E-02 FIXED          0  -0.0%   0.000       0.000       2.000       2.000       0.000      0.1000E-19   0.000    
    3992   3.992      0.1000E-02 FIXED          0  -0.0%   0.000       0.000       2.000       2.000       0.000      0.1000E-19   0.000    
    3993   3.993      0.1000E-02 FIXED          0  -0.0%   0.000       0.000       2.000       2.000       0.000      0.1000E-19   0.000    
    3994   3.994      0.1000E-02 FIXED          0   0.0%   0.000       0.000       2.000       2.000       0.000      0.1000E-19   0.000    
    3995   3.995      0.1000E-02 FIXED          0   0.0%   0.000       0.000       2.000       2.000       0.000      0.1000E-19   0.000    
    3996   3.996      0.1000E-02 FIXED          0   0.0%   0.000       0.000       2.000       2.000       0.000      0.1000E-19   0.000    
    3997   3.997      0.1000E-02 FIXED          0  -0.0%   0.000       0.000       2.000       2.000       0.000      0.1000E-19   0.000    
    3998   3.998      0.1000E-02 FIXED          0  -0.0%   0.000       0.000       2.000       2.000       0.000      0.1000E-19   0.000    
    3999   3.999      0.1000E-02 FIXED          0   0.0%   0.000       0.000       2.000       2.000       0.000      0.1000E-19   0.000    
    4000   4.000      0.1000E-02 FIXED          0  -0.0%   0.000       0.000       2.000       2.000       0.000      0.1000E-19   0.000    
    4001   4.001      0.1000E-02 FIXED          0  -0.0%   0.000       0.000       2.000       2.000       0.000      0.1000E-19   0.000    
     ANIMATION FILE: BLOCKA005 WRITTEN
    4002   4.002      0.1000E-02 FIXED          0   0.0%   0.000       0.000       2.000       2.000       0.000      0.1000E-19   0.000    
    4003   4.003      0.1000E-02 FIXED          0   0.0%   0.000       0.000       2.000       2.000       0.000      0.1000E-19   0.000    
    4004   4.004      0.1000E-02 FIXED          0  -0.0%   0.000       0.000       2.000       2.000       0.000      0.1000E-19   0.000    
    4005   4.005      0.1000E-02 FIXED          0  -0.0%   0.000       0.000       2.000       2.000       0.000      0.1000E-19   0.000    
    4006   4.006      0.1000E-02 FIXED          0   0.0%   0.000       0.000       2.000       2.000       0.000      0.1000E-19   0.000    
    4007   4.007      0.1000E-02 FIXED          0   0.0%   0.000       0.000       2.000       2.000       0.000      0.1000E-19   0.000    
    4008   4.008      0.1000E-02 FIXED          0   0.0%   0.000       0.000       2.000       2.000       0.000      0.1000E-19   0.000    
    4009   4.009      0.1000E-02 FIXED          0   0.0%   0.000       0.000       2.000       2.000       0.000      0.1000E-19   0.000    
    4010   4.010      0.1000E-02 FIXED          0  -0.0%   0.000       0.000       2.000       2.000       0.000      0.1000E-19   0.000    
    4011   4.011      0.1000E-02 FIXED          0   0.0%   0.000       0.000       2.000       2.000       0.000      0.1000E-19   0.000    
    4012   4.012      0.1000E-02 FIXED          0   0.0%   0.000       0.000       2.000       2.000       0.000      0.1000E-19   0.000    
    4013   4.013      0.1000E-02 FIXED          0  -0.0%   0.000       0.000       2.000       2.000       0.000      0.1000E-19   0.000    
    4014   4.014      0.1000E-02 FIXED          0   0.0%   0.000       0.000       2.000       2.000       0.000      0.1000E-19   0.000    
   CYCLE    TIME      TIME-STEP  ELEMENT          ERROR  I-ENERGY    K-ENERGY T  K-ENERGY R  EXT-WORK     MAS.ERR     TOTAL MASS  MASS ADDED
    4015   4.015      0.1000E-02 FIXED          0   0.0%   0.000       0.000       2.000       2.000       0.000      0.1000E-19   0.000    
    4016   4.016      0.1000E-02 FIXED          0   0.0%   0.000       0.000       2.000       2.000       0.000      0.1000E-19   0.000    
    4017   4.017      0.1000E-02 FIXED          0  -0.0%   0.000       0.000       2.000       2.000       0.000      0.1000E-19   0.000    
    4018   4.018      0.1000E-02 FIXED          0   0.0%   0.000       0.000       2.000       2.000       0.000      0.1000E-19   0.000    
    4019   4.019      0.1000E-02 FIXED          0  -0.0%   0.000       0.000       2.000       2.000       0.000      0.1000E-19   0.000    
    4020   4.020      0.1000E-02 FIXED          0   0.0%   0.000       0.000       2.000       2.000       0.000      0.1000E-19   0.000    
    4021   4.021      0.1000E-02 FIXED          0  -0.0%   0.000       0.000       2.000       2.000       0.000      0.1000E-19   0.000    
    4022   4.022      0.1000E-02 FIXED          0  -0.0%   0.000       0.000       2.000       2.000       0.000      0.1000E-19   0.000    
    4023   4.023      0.1000E-02 FIXED          0   0.0%   0.000       0.000       2.000       2.000       0.000      0.1000E-19   0.000    
    4024   4.024      0.1000E-02 FIXED          0   0.0%   0.000       0.000       2.000       2.000       0.000      0.1000E-19   0.000    
    4025   4.025      0.1000E-02 FIXED          0  -0.0%   0.000       0.000       2.000       2.000       0.000      0.1000E-19   0.000    
    4026   4.026      0.1000E-02 FIXED          0   0.0%   0.000       0.000       2.000       2.000       0.000      0.1000E-19   0.000    
    4027   4.027      0.1000E-02 FIXED          0  -0.0%   0.000       0.000       2.000       2.000       0.000      0.1000E-19   0.000    
    4028   4.028      0.1000E-02 FIXED          0   0.0%   0.000       0.000       2.000       2.000       0.000      0.1000E-19   0.000    
    4029   4.029      0.1000E-02 FIXED          0   0.0%   0.000       0.000       2.000       2.000       0.000      0.1000E-19   0.000    
    4030   4.030      0.1000E-02 FIXED          0  -0.0%   0.000       0.000       2.000       2.000       0.000      0.1000E-19   0.000    
    4031   4.031      0.1000E-02 FIXED          0  -0.0%   0.000       0.000       2.000       2.000       0.000      0.1000E-19   0.000    
    4032   4.032      0.1000E-02 FIXED          0   0.0%   0.000       0.000       2.000       2.000       0.000      0.1000E-19   0.000    
    4033   4.033      0.1000E-02 FIXED          0  -0.0%   0.000       0.000       2.000       2.000       0.000      0.1000E-19   0.000    
    4034   4.034      0.1000E-02 FIXED          0   0.0%   0.000       0.000       2.000       2.000       0.000      0.1000E-19   0.000    
    4035   4.035      0.1000E-02 FIXED          0  -0.0%   0.000       0.000       2.000       2.000       0.000      0.1000E-19   0.000    
    4036   4.036      0.1000E-02 FIXED          0  -0.0%   0.000       0.000       2.000       2.000       0.000      0.1000E-19   0.000    
    4037   4.037      0.1000E-02 FIXED          0   0.0%   0.000       0.000       2.000       2.000       0.000      0.1000E-19   0.000    
    4038   4.038      0.1000E-02 FIXED          0   0.0%   0.000       0.000       2.000       2.000       0.000      0.1000E-19   0.000    
    4039   4.039      0.1000E-02 FIXED          0  -0.0%   0.000       0.000       2.000       2.000       0.000      0.1000E-19   0.000    
    4040   4.040      0.1000E-02 FIXED          0   0.0%   0.000       0.000       2.000       2.000       0.000      0.1000E-19   0.000    
    4041   4.041      0.1000E-02 FIXED          0  -0.0%   0.000       0.000       2.000       2.000       0.000      0.1000E-19   0.000    
    4042   4.042      0.1000E-02 FIXED          0   0.0%   0.000       0.000       2.000       2.000       0.000      0.1000E-19   0.000    
    4043   4.043      0.1000E-02 FIXED          0   0.0%   0.000       0.000       2.000       2.000       0.000      0.1000E-19   0.000    
    4044   4.044      0.1000E-02 FIXED          0  -0.0%   0.000       0.000       2.000       2.000       0.000      0.1000E-19   0.000    
    4045   4.045      0.1000E-02 FIXED          0   0.0%   0.000       0.000       2.000       2.000       0.000      0.1000E-19   0.000    
    4046   4.046      0.1000E-02 FIXED          0  -0.0%   0.000       0.000       2.000       2.000       0.000      0.1000E-19   0.000    
    4047   4.047      0.1000E-02 FIXED          0   0.0%   0.000       0.000       2.000       2.000       0.000      0.1000E-19   0.000    
    4048   4.048      0.1000E-02 FIXED          0  -0.0%   0.000       0.000       2.000       2.000       0.000      0.1000E-19   0.000    
    4049   4.049      0.1000E-02 FIXED          0  -0.0%   0.000       0.000       2.000       2.000       0.000      0.1000E-19   0.000    
    4050   4.050      0.1000E-02 FIXED          0   0.0%   0.000       0.000       2.000       2.000       0.000      0.1000E-19   0.000    
    4051   4.051      0.1000E-02 FIXED          0  -0.0%   0.000       0.000       2.000       2.000       0.000      0.1000E-19   0.000    
    4052   4.052      0.1000E-02 FIXED          0   0.0%   0.000       0.000       2.000       2.000       0.000      0.1000E-19   0.000    
    4053   4.053      0.1000E-02 FIXED          0   0.0%   0.000       0.000       2.000       2.000       0.000      0.1000E-19   0.000    
    4054   4.054      0.1000E-02 FIXED          0   0.0%   0.000       0.000       2.000       2.000       0.000      0.1000E-19   0.000    
    4055   4.055      0.1000E-02 FIXED          0  -0.0%   0.000       0.000       2.000       2.000       0.000      0.1000E-19   0.000    
    4056   4.056      0.1000E-02 FIXED          0   0.0%   0.000       0.000       2.000       2.000       0.000      0.1000E-19   0.000    
    4057   4.057      0.1000E-02 FIXED          0  -0.0%   0.000       0.000       2.000       2.000       0.000      0.1000E-19   0.000    
    4058   4.058      0.1000E-02 FIXED          0  -0.0%   0.000       0.000       2.000       2.000       0.000      0.1000E-19   0.000    
    4059   4.059      0.1000E-02 FIXED          0  -0.0%   0.000       0.000       2.000       2.000       0.000      0.1000E-19   0.000    
    4060   4.060      0.1000E-02 FIXED          0   0.0%   0.000       0.000       2.000       2.000       0.000      0.1000E-19   0.000    
    4061   4.061      0.1000E-02 FIXED          0   0.0%   0.000       0.000       2.000       2.000       0.000      0.1000E-19   0.000    
    4062   4.062      0.1000E-02 FIXED          0   0.0%   0.000       0.000       2.000       2.000       0.000      0.1000E-19   0.000    
    4063   4.063      0.1000E-02 FIXED          0   0.0%   0.000       0.000       2.000       2.000       0.000      0.1000E-19   0.000    
    4064   4.064      0.1000E-02 FIXED          0  -0.0%   0.000       0.000       2.000       2.000       0.000      0.1000E-19   0.000    
    4065   4.065      0.1000E-02 FIXED          0   0.0%   0.000       0.000       2.000       2.000       0.000      0.1000E-19   0.000    
    4066   4.066      0.1000E-02 FIXED          0  -0.0%   0.000       0.000       2.000       2.000       0.000      0.1000E-19   0.000    
    4067   4.067      0.1000E-02 FIXED          0   0.0%   0.000       0.000       2.000       2.000       0.000      0.1000E-19   0.000    
    4068   4.068      0.1000E-02 FIXED          0   0.0%   0.000       0.000       2.000       2.000       0.000      0.1000E-19   0.000    
    4069   4.069      0.1000E-02 FIXED          0  -0.0%   0.000       0.000       2.000       2.000       0.000      0.1000E-19   0.000    
   CYCLE    TIME      TIME-STEP  ELEMENT          ERROR  I-ENERGY    K-ENERGY T  K-ENERGY R  EXT-WORK     MAS.ERR     TOTAL MASS  MASS ADDED
    4070   4.070      0.1000E-02 FIXED          0   0.0%   0.000       0.000       2.000       2.000       0.000      0.1000E-19   0.000    
    4071   4.071      0.1000E-02 FIXED          0   0.0%   0.000       0.000       2.000       2.000       0.000      0.1000E-19   0.000    
    4072   4.072      0.1000E-02 FIXED          0  -0.0%   0.000       0.000       2.000       2.000       0.000      0.1000E-19   0.000    
    4073   4.073      0.1000E-02 FIXED          0   0.0%   0.000       0.000       2.000       2.000       0.000      0.1000E-19   0.000    
    4074   4.074      0.1000E-02 FIXED          0  -0.0%   0.000       0.000       2.000       2.000       0.000      0.1000E-19   0.000    
    4075   4.075      0.1000E-02 FIXED          0   0.0%   0.000       0.000       2.000       2.000       0.000      0.1000E-19   0.000    
    4076   4.076      0.1000E-02 FIXED          0   0.0%   0.000       0.000       2.000       2.000       0.000      0.1000E-19   0.000    
    4077   4.077      0.1000E-02 FIXED          0  -0.0%   0.000       0.000       2.000       2.000       0.000      0.1000E-19   0.000    
    4078   4.078      0.1000E-02 FIXED          0   0.0%   0.000       0.000       2.000       2.000       0.000      0.1000E-19   0.000    
    4079   4.079      0.1000E-02 FIXED          0   0.0%   0.000       0.000       2.000       2.000       0.000      0.1000E-19   0.000    
    4080   4.080      0.1000E-02 FIXED          0  -0.0%   0.000       0.000       2.000       2.000       0.000      0.1000E-19   0.000    
    4081   4.081      0.1000E-02 FIXED          0   0.0%   0.000       0.000       2.000       2.000       0.000      0.1000E-19   0.000    
    4082   4.082      0.1000E-02 FIXED          0  -0.0%   0.000       0.000       2.000       2.000       0.000      0.1000E-19   0.000    
    4083   4.083      0.1000E-02 FIXED          0   0.0%   0.000       0.000       2.000       2.000       0.000      0.1000E-19   0.000    
    4084   4.084      0.1000E-02 FIXED          0  -0.0%   0.000       0.000       2.000       2.000       0.000      0.1000E-19   0.000    
    4085   4.085      0.1000E-02 FIXED          0   0.0%   0.000       0.000       2.000       2.000       0.000      0.1000E-19   0.000    
    4086   4.086      0.1000E-02 FIXED          0  -0.0%   0.000       0.000       2.000       2.000       0.000      0.1000E-19   0.000    
    4087   4.087      0.1000E-02 FIXED          0  -0.0%   0.000       0.000       2.000       2.000       0.000      0.1000E-19   0.000    
    4088   4.088      0.1000E-02 FIXED          0   0.0%   0.000       0.000       2.000       2.000       0.000      0.1000E-19   0.000    
    4089   4.089      0.1000E-02 FIXED          0   0.0%   0.000       0.000       2.000       2.000       0.000      0.1000E-19   0.000    
    4090   4.090      0.1000E-02 FIXED          0   0.0%   0.000       0.000       2.000       2.000       0.000      0.1000E-19   0.000    
    4091   4.091      0.1000E-02 FIXED          0  -0.0%   0.000       0.000       2.000       2.000       0.000      0.1000E-19   0.000    
    4092   4.092      0.1000E-02 FIXED          0   0.0%   0.000       0.000       2.000       2.000       0.000      0.1000E-19   0.000    
    4093   4.093      0.1000E-02 FIXED          0   0.0%   0.000       0.000       2.000       2.000       0.000      0.1000E-19   0.000    
    4094   4.094      0.1000E-02 FIXED          0   0.0%   0.000       0.000       2.000       2.000       0.000      0.1000E-19   0.000    
    4095   4.095      0.1000E-02 FIXED          0   0.0%   0.000       0.000       2.000       2.000       0.000      0.1000E-19   0.000    
    4096   4.096      0.1000E-02 FIXED          0  -0.0%   0.000       0.000       2.000       2.000       0.000      0.1000E-19   0.000    
    4097   4.097      0.1000E-02 FIXED          0   0.0%   0.000       0.000       2.000       2.000       0.000      0.1000E-19   0.000    
    4098   4.098      0.1000E-02 FIXED          0  -0.0%   0.000       0.000       2.000       2.000       0.000      0.1000E-19   0.000    
    4099   4.099      0.1000E-02 FIXED          0   0.0%   0.000       0.000       2.000       2.000       0.000      0.1000E-19   0.000    
    4100   4.100      0.1000E-02 FIXED          0   0.0%   0.000       0.000       2.000       2.000       0.000      0.1000E-19   0.000    
    4101   4.101      0.1000E-02 FIXED          0   0.0%   0.000       0.000       2.000       2.000       0.000      0.1000E-19   0.000    
    4102   4.102      0.1000E-02 FIXED          0   0.0%   0.000       0.000       2.000       2.000       0.000      0.1000E-19   0.000    
    4103   4.103      0.1000E-02 FIXED          0   0.0%   0.000       0.000       2.000       2.000       0.000      0.1000E-19   0.000    
    4104   4.104      0.1000E-02 FIXED          0  -0.0%   0.000       0.000       2.000       2.000       0.000      0.1000E-19   0.000    
    4105   4.105      0.1000E-02 FIXED          0  -0.0%   0.000       0.000       2.000       2.000       0.000      0.1000E-19   0.000    
    4106   4.106      0.1000E-02 FIXED          0  -0.0%   0.000       0.000       2.000       2.000       0.000      0.1000E-19   0.000    
    4107   4.107      0.1000E-02 FIXED          0  -0.0%   0.000       0.000       2.000       2.000       0.000      0.1000E-19   0.000    
    4108   4.108      0.1000E-02 FIXED          0   0.0%   0.000       0.000       2.000       2.000       0.000      0.1000E-19   0.000    
    4109   4.109      0.1000E-02 FIXED          0   0.0%   0.000       0.000       2.000       2.000       0.000      0.1000E-19   0.000    
    4110   4.110      0.1000E-02 FIXED          0   0.0%   0.000       0.000       2.000       2.000       0.000      0.1000E-19   0.000    
    4111   4.111      0.1000E-02 FIXED          0  -0.0%   0.000       0.000       2.000       2.000       0.000      0.1000E-19   0.000    
    4112   4.112      0.1000E-02 FIXED          0  -0.0%   0.000       0.000       2.000       2.000       0.000      0.1000E-19   0.000    
    4113   4.113      0.1000E-02 FIXED          0   0.0%   0.000       0.000       2.000       2.000       0.000      0.1000E-19   0.000    
    4114   4.114      0.1000E-02 FIXED          0  -0.0%   0.000       0.000       2.000       2.000       0.000      0.1000E-19   0.000    
    4115   4.115      0.1000E-02 FIXED          0   0.0%   0.000       0.000       2.000       2.000       0.000      0.1000E-19   0.000    
    4116   4.116      0.1000E-02 FIXED          0  -0.0%   0.000       0.000       2.000       2.000       0.000      0.1000E-19   0.000    
    4117   4.117      0.1000E-02 FIXED          0   0.0%   0.000       0.000       2.000       2.000       0.000      0.1000E-19   0.000    
    4118   4.118      0.1000E-02 FIXED          0   0.0%   0.000       0.000       2.000       2.000       0.000      0.1000E-19   0.000    
    4119   4.119      0.1000E-02 FIXED          0  -0.0%   0.000       0.000       2.000       2.000       0.000      0.1000E-19   0.000    
    4120   4.120      0.1000E-02 FIXED          0   0.0%   0.000       0.000       2.000       2.000       0.000      0.1000E-19   0.000    
    4121   4.121      0.1000E-02 FIXED          0  -0.0%   0.000       0.000       2.000       2.000       0.000      0.1000E-19   0.000    
    4122   4.122      0.1000E-02 FIXED          0   0.0%   0.000       0.000       2.000       2.000       0.000      0.1000E-19   0.000    
    4123   4.123      0.1000E-02 FIXED          0   0.0%   0.000       0.000       2.000       2.000       0.000      0.1000E-19   0.000    
    4124   4.124      0.1000E-02 FIXED          0  -0.0%   0.000       0.000       2.000       2.000       0.000      0.1000E-19   0.000    
   CYCLE    TIME      TIME-STEP  ELEMENT          ERROR  I-ENERGY    K-ENERGY T  K-ENERGY R  EXT-WORK     MAS.ERR     TOTAL MASS  MASS ADDED
    4125   4.125      0.1000E-02 FIXED          0   0.0%   0.000       0.000       2.000       2.000       0.000      0.1000E-19   0.000    
    4126   4.126      0.1000E-02 FIXED          0   0.0%   0.000       0.000       2.000       2.000       0.000      0.1000E-19   0.000    
    4127   4.127      0.1000E-02 FIXED          0  -0.0%   0.000       0.000       2.000       2.000       0.000      0.1000E-19   0.000    
    4128   4.128      0.1000E-02 FIXED          0   0.0%   0.000       0.000       2.000       2.000       0.000      0.1000E-19   0.000    
    4129   4.129      0.1000E-02 FIXED          0   0.0%   0.000       0.000       2.000       2.000       0.000      0.1000E-19   0.000    
    4130   4.130      0.1000E-02 FIXED          0  -0.0%   0.000       0.000       2.000       2.000       0.000      0.1000E-19   0.000    
    4131   4.131      0.1000E-02 FIXED          0   0.0%   0.000       0.000       2.000       2.000       0.000      0.1000E-19   0.000    
    4132   4.132      0.1000E-02 FIXED          0  -0.0%   0.000       0.000       2.000       2.000       0.000      0.1000E-19   0.000    
    4133   4.133      0.1000E-02 FIXED          0   0.0%   0.000       0.000       2.000       2.000       0.000      0.1000E-19   0.000    
    4134   4.134      0.1000E-02 FIXED          0   0.0%   0.000       0.000       2.000       2.000       0.000      0.1000E-19   0.000    
    4135   4.135      0.1000E-02 FIXED          0   0.0%   0.000       0.000       2.000       2.000       0.000      0.1000E-19   0.000    
    4136   4.136      0.1000E-02 FIXED          0   0.0%   0.000       0.000       2.000       2.000       0.000      0.1000E-19   0.000    
    4137   4.137      0.1000E-02 FIXED          0  -0.0%   0.000       0.000       2.000       2.000       0.000      0.1000E-19   0.000    
    4138   4.138      0.1000E-02 FIXED          0  -0.0%   0.000       0.000       2.000       2.000       0.000      0.1000E-19   0.000    
    4139   4.139      0.1000E-02 FIXED          0   0.0%   0.000       0.000       2.000       2.000       0.000      0.1000E-19   0.000    
    4140   4.140      0.1000E-02 FIXED          0  -0.0%   0.000       0.000       2.000       2.000       0.000      0.1000E-19   0.000    
    4141   4.141      0.1000E-02 FIXED          0   0.0%   0.000       0.000       2.000       2.000       0.000      0.1000E-19   0.000    
    4142   4.142      0.1000E-02 FIXED          0  -0.0%   0.000       0.000       2.000       2.000       0.000      0.1000E-19   0.000    
    4143   4.143      0.1000E-02 FIXED          0   0.0%   0.000       0.000       2.000       2.000       0.000      0.1000E-19   0.000    
    4144   4.144      0.1000E-02 FIXED          0  -0.0%   0.000       0.000       2.000       2.000       0.000      0.1000E-19   0.000    
    4145   4.145      0.1000E-02 FIXED          0   0.0%   0.000       0.000       2.000       2.000       0.000      0.1000E-19   0.000    
    4146   4.146      0.1000E-02 FIXED          0  -0.0%   0.000       0.000       2.000       2.000       0.000      0.1000E-19   0.000    
    4147   4.147      0.1000E-02 FIXED          0  -0.0%   0.000       0.000       2.000       2.000       0.000      0.1000E-19   0.000    
    4148   4.148      0.1000E-02 FIXED          0   0.0%   0.000       0.000       2.000       2.000       0.000      0.1000E-19   0.000    
    4149   4.149      0.1000E-02 FIXED          0  -0.0%   0.000       0.000       2.000       2.000       0.000      0.1000E-19   0.000    
    4150   4.150      0.1000E-02 FIXED          0   0.0%   0.000       0.000       2.000       2.000       0.000      0.1000E-19   0.000    
    4151   4.151      0.1000E-02 FIXED          0   0.0%   0.000       0.000       2.000       2.000       0.000      0.1000E-19   0.000    
    4152   4.152      0.1000E-02 FIXED          0  -0.0%   0.000       0.000       2.000       2.000       0.000      0.1000E-19   0.000    
    4153   4.153      0.1000E-02 FIXED          0   0.0%   0.000       0.000       2.000       2.000       0.000      0.1000E-19   0.000    
    4154   4.154      0.1000E-02 FIXED          0  -0.0%   0.000       0.000       2.000       2.000       0.000      0.1000E-19   0.000    
    4155   4.155      0.1000E-02 FIXED          0   0.0%   0.000       0.000       2.000       2.000       0.000      0.1000E-19   0.000    
    4156   4.156      0.1000E-02 FIXED          0  -0.0%   0.000       0.000       2.000       2.000       0.000      0.1000E-19   0.000    
    4157   4.157      0.1000E-02 FIXED          0   0.0%   0.000       0.000       2.000       2.000       0.000      0.1000E-19   0.000    
    4158   4.158      0.1000E-02 FIXED          0   0.0%   0.000       0.000       2.000       2.000       0.000      0.1000E-19   0.000    
    4159   4.159      0.1000E-02 FIXED          0  -0.0%   0.000       0.000       2.000       2.000       0.000      0.1000E-19   0.000    
    4160   4.160      0.1000E-02 FIXED          0   0.0%   0.000       0.000       2.000       2.000       0.000      0.1000E-19   0.000    
    4161   4.161      0.1000E-02 FIXED          0  -0.0%   0.000       0.000       2.000       2.000       0.000      0.1000E-19   0.000    
    4162   4.162      0.1000E-02 FIXED          0   0.0%   0.000       0.000       2.000       2.000       0.000      0.1000E-19   0.000    
    4163   4.163      0.1000E-02 FIXED          0   0.0%   0.000       0.000       2.000       2.000       0.000      0.1000E-19   0.000    
    4164   4.164      0.1000E-02 FIXED          0   0.0%   0.000       0.000       2.000       2.000       0.000      0.1000E-19   0.000    
    4165   4.165      0.1000E-02 FIXED          0   0.0%   0.000       0.000       2.000       2.000       0.000      0.1000E-19   0.000    
    4166   4.166      0.1000E-02 FIXED          0  -0.0%   0.000       0.000       2.000       2.000       0.000      0.1000E-19   0.000    
    4167   4.167      0.1000E-02 FIXED          0   0.0%   0.000       0.000       2.000       2.000       0.000      0.1000E-19   0.000    
    4168   4.168      0.1000E-02 FIXED          0   0.0%   0.000       0.000       2.000       2.000       0.000      0.1000E-19   0.000    
    4169   4.169      0.1000E-02 FIXED          0   0.0%   0.000       0.000       2.000       2.000       0.000      0.1000E-19   0.000    
    4170   4.170      0.1000E-02 FIXED          0  -0.0%   0.000       0.000       2.000       2.000       0.000      0.1000E-19   0.000    
    4171   4.171      0.1000E-02 FIXED          0   0.0%   0.000       0.000       2.000       2.000       0.000      0.1000E-19   0.000    
    4172   4.172      0.1000E-02 FIXED          0   0.0%   0.000       0.000       2.000       2.000       0.000      0.1000E-19   0.000    
    4173   4.173      0.1000E-02 FIXED          0   0.0%   0.000       0.000       2.000       2.000       0.000      0.1000E-19   0.000    
    4174   4.174      0.1000E-02 FIXED          0   0.0%   0.000       0.000       2.000       2.000       0.000      0.1000E-19   0.000    
    4175   4.175      0.1000E-02 FIXED          0   0.0%   0.000       0.000       2.000       2.000       0.000      0.1000E-19   0.000    
    4176   4.176      0.1000E-02 FIXED          0  -0.0%   0.000       0.000       2.000       2.000       0.000      0.1000E-19   0.000    
    4177   4.177      0.1000E-02 FIXED          0  -0.0%   0.000       0.000       2.000       2.000       0.000      0.1000E-19   0.000    
    4178   4.178      0.1000E-02 FIXED          0   0.0%   0.000       0.000       2.000       2.000       0.000      0.1000E-19   0.000    
    4179   4.179      0.1000E-02 FIXED          0  -0.0%   0.000       0.000       2.000       2.000       0.000      0.1000E-19   0.000    
   CYCLE    TIME      TIME-STEP  ELEMENT          ERROR  I-ENERGY    K-ENERGY T  K-ENERGY R  EXT-WORK     MAS.ERR     TOTAL MASS  MASS ADDED
    4180   4.180      0.1000E-02 FIXED          0   0.0%   0.000       0.000       2.000       2.000       0.000      0.1000E-19   0.000    
    4181   4.181      0.1000E-02 FIXED          0  -0.0%   0.000       0.000       2.000       2.000       0.000      0.1000E-19   0.000    
    4182   4.182      0.1000E-02 FIXED          0   0.0%   0.000       0.000       2.000       2.000       0.000      0.1000E-19   0.000    
    4183   4.183      0.1000E-02 FIXED          0  -0.0%   0.000       0.000       2.000       2.000       0.000      0.1000E-19   0.000    
    4184   4.184      0.1000E-02 FIXED          0  -0.0%   0.000       0.000       2.000       2.000       0.000      0.1000E-19   0.000    
    4185   4.185      0.1000E-02 FIXED          0   0.0%   0.000       0.000       2.000       2.000       0.000      0.1000E-19   0.000    
    4186   4.186      0.1000E-02 FIXED          0  -0.0%   0.000       0.000       2.000       2.000       0.000      0.1000E-19   0.000    
    4187   4.187      0.1000E-02 FIXED          0  -0.0%   0.000       0.000       2.000       2.000       0.000      0.1000E-19   0.000    
    4188   4.188      0.1000E-02 FIXED          0   0.0%   0.000       0.000       2.000       2.000       0.000      0.1000E-19   0.000    
    4189   4.189      0.1000E-02 FIXED          0  -0.0%   0.000       0.000       2.000       2.000       0.000      0.1000E-19   0.000    
    4190   4.190      0.1000E-02 FIXED          0   0.0%   0.000       0.000       2.000       2.000       0.000      0.1000E-19   0.000    
    4191   4.191      0.1000E-02 FIXED          0   0.0%   0.000       0.000       2.000       2.000       0.000      0.1000E-19   0.000    
    4192   4.192      0.1000E-02 FIXED          0  -0.0%   0.000       0.000       2.000       2.000       0.000      0.1000E-19   0.000    
    4193   4.193      0.1000E-02 FIXED          0   0.0%   0.000       0.000       2.000       2.000       0.000      0.1000E-19   0.000    
    4194   4.194      0.1000E-02 FIXED          0   0.0%   0.000       0.000       2.000       2.000       0.000      0.1000E-19   0.000    
    4195   4.195      0.1000E-02 FIXED          0   0.0%   0.000       0.000       2.000       2.000       0.000      0.1000E-19   0.000    
    4196   4.196      0.1000E-02 FIXED          0  -0.0%   0.000       0.000       2.000       2.000       0.000      0.1000E-19   0.000    
    4197   4.197      0.1000E-02 FIXED          0   0.0%   0.000       0.000       2.000       2.000       0.000      0.1000E-19   0.000    
    4198   4.198      0.1000E-02 FIXED          0   0.0%   0.000       0.000       2.000       2.000       0.000      0.1000E-19   0.000    
    4199   4.199      0.1000E-02 FIXED          0   0.0%   0.000       0.000       2.000       2.000       0.000      0.1000E-19   0.000    
    4200   4.200      0.1000E-02 FIXED          0  -0.0%   0.000       0.000       2.000       2.000       0.000      0.1000E-19   0.000    
    4201   4.201      0.1000E-02 FIXED          0  -0.0%   0.000       0.000       2.000       2.000       0.000      0.1000E-19   0.000    
    4202   4.202      0.1000E-02 FIXED          0   0.0%   0.000       0.000       2.000       2.000       0.000      0.1000E-19   0.000    
    4203   4.203      0.1000E-02 FIXED          0   0.0%   0.000       0.000       2.000       2.000       0.000      0.1000E-19   0.000    
    4204   4.204      0.1000E-02 FIXED          0  -0.0%   0.000       0.000       2.000       2.000       0.000      0.1000E-19   0.000    
    4205   4.205      0.1000E-02 FIXED          0   0.0%   0.000       0.000       2.000       2.000       0.000      0.1000E-19   0.000    
    4206   4.206      0.1000E-02 FIXED          0   0.0%   0.000       0.000       2.000       2.000       0.000      0.1000E-19   0.000    
    4207   4.207      0.1000E-02 FIXED          0  -0.0%   0.000       0.000       2.000       2.000       0.000      0.1000E-19   0.000    
    4208   4.208      0.1000E-02 FIXED          0  -0.0%   0.000       0.000       2.000       2.000       0.000      0.1000E-19   0.000    
    4209   4.209      0.1000E-02 FIXED          0   0.0%   0.000       0.000       2.000       2.000       0.000      0.1000E-19   0.000    
    4210   4.210      0.1000E-02 FIXED          0  -0.0%   0.000       0.000       2.000       2.000       0.000      0.1000E-19   0.000    
    4211   4.211      0.1000E-02 FIXED          0   0.0%   0.000       0.000       2.000       2.000       0.000      0.1000E-19   0.000    
    4212   4.212      0.1000E-02 FIXED          0   0.0%   0.000       0.000       2.000       2.000       0.000      0.1000E-19   0.000    
    4213   4.213      0.1000E-02 FIXED          0  -0.0%   0.000       0.000       2.000       2.000       0.000      0.1000E-19   0.000    
    4214   4.214      0.1000E-02 FIXED          0  -0.0%   0.000       0.000       2.000       2.000       0.000      0.1000E-19   0.000    
    4215   4.215      0.1000E-02 FIXED          0  -0.0%   0.000       0.000       2.000       2.000       0.000      0.1000E-19   0.000    
    4216   4.216      0.1000E-02 FIXED          0   0.0%   0.000       0.000       2.000       2.000       0.000      0.1000E-19   0.000    
    4217   4.217      0.1000E-02 FIXED          0  -0.0%   0.000       0.000       2.000       2.000       0.000      0.1000E-19   0.000    
    4218   4.218      0.1000E-02 FIXED          0  -0.0%   0.000       0.000       2.000       2.000       0.000      0.1000E-19   0.000    
    4219   4.219      0.1000E-02 FIXED          0   0.0%   0.000       0.000       2.000       2.000       0.000      0.1000E-19   0.000    
    4220   4.220      0.1000E-02 FIXED          0   0.0%   0.000       0.000       2.000       2.000       0.000      0.1000E-19   0.000    
    4221   4.221      0.1000E-02 FIXED          0   0.0%   0.000       0.000       2.000       2.000       0.000      0.1000E-19   0.000    
    4222   4.222      0.1000E-02 FIXED          0  -0.0%   0.000       0.000       2.000       2.000       0.000      0.1000E-19   0.000    
    4223   4.223      0.1000E-02 FIXED          0   0.0%   0.000       0.000       2.000       2.000       0.000      0.1000E-19   0.000    
    4224   4.224      0.1000E-02 FIXED          0   0.0%   0.000       0.000       2.000       2.000       0.000      0.1000E-19   0.000    
    4225   4.225      0.1000E-02 FIXED          0   0.0%   0.000       0.000       2.000       2.000       0.000      0.1000E-19   0.000    
    4226   4.226      0.1000E-02 FIXED          0   0.0%   0.000       0.000       2.000       2.000       0.000      0.1000E-19   0.000    
    4227   4.227      0.1000E-02 FIXED          0   0.0%   0.000       0.000       2.000       2.000       0.000      0.1000E-19   0.000    
    4228   4.228      0.1000E-02 FIXED          0  -0.0%   0.000       0.000       2.000       2.000       0.000      0.1000E-19   0.000    
    4229   4.229      0.1000E-02 FIXED          0   0.0%   0.000       0.000       2.000       2.000       0.000      0.1000E-19   0.000    
    4230   4.230      0.1000E-02 FIXED          0  -0.0%   0.000       0.000       2.000       2.000       0.000      0.1000E-19   0.000    
    4231   4.231      0.1000E-02 FIXED          0  -0.0%   0.000       0.000       2.000       2.000       0.000      0.1000E-19   0.000    
    4232   4.232      0.1000E-02 FIXED          0   0.0%   0.000       0.000       2.000       2.000       0.000      0.1000E-19   0.000    
    4233   4.233      0.1000E-02 FIXED          0  -0.0%   0.000       0.000       2.000       2.000       0.000      0.1000E-19   0.000    
    4234   4.234      0.1000E-02 FIXED          0   0.0%   0.000       0.000       2.000       2.000       0.000      0.1000E-19   0.000    
   CYCLE    TIME      TIME-STEP  ELEMENT          ERROR  I-ENERGY    K-ENERGY T  K-ENERGY R  EXT-WORK     MAS.ERR     TOTAL MASS  MASS ADDED
    4235   4.235      0.1000E-02 FIXED          0  -0.0%   0.000       0.000       2.000       2.000       0.000      0.1000E-19   0.000    
    4236   4.236      0.1000E-02 FIXED          0   0.0%   0.000       0.000       2.000       2.000       0.000      0.1000E-19   0.000    
    4237   4.237      0.1000E-02 FIXED          0  -0.0%   0.000       0.000       2.000       2.000       0.000      0.1000E-19   0.000    
    4238   4.238      0.1000E-02 FIXED          0   0.0%   0.000       0.000       2.000       2.000       0.000      0.1000E-19   0.000    
    4239   4.239      0.1000E-02 FIXED          0   0.0%   0.000       0.000       2.000       2.000       0.000      0.1000E-19   0.000    
    4240   4.240      0.1000E-02 FIXED          0   0.0%   0.000       0.000       2.000       2.000       0.000      0.1000E-19   0.000    
    4241   4.241      0.1000E-02 FIXED          0   0.0%   0.000       0.000       2.000       2.000       0.000      0.1000E-19   0.000    
    4242   4.242      0.1000E-02 FIXED          0   0.0%   0.000       0.000       2.000       2.000       0.000      0.1000E-19   0.000    
    4243   4.243      0.1000E-02 FIXED          0  -0.0%   0.000       0.000       2.000       2.000       0.000      0.1000E-19   0.000    
    4244   4.244      0.1000E-02 FIXED          0   0.0%   0.000       0.000       2.000       2.000       0.000      0.1000E-19   0.000    
    4245   4.245      0.1000E-02 FIXED          0   0.0%   0.000       0.000       2.000       2.000       0.000      0.1000E-19   0.000    
    4246   4.246      0.1000E-02 FIXED          0   0.0%   0.000       0.000       2.000       2.000       0.000      0.1000E-19   0.000    
    4247   4.247      0.1000E-02 FIXED          0   0.0%   0.000       0.000       2.000       2.000       0.000      0.1000E-19   0.000    
    4248   4.248      0.1000E-02 FIXED          0   0.0%   0.000       0.000       2.000       2.000       0.000      0.1000E-19   0.000    
    4249   4.249      0.1000E-02 FIXED          0  -0.0%   0.000       0.000       2.000       2.000       0.000      0.1000E-19   0.000    
    4250   4.250      0.1000E-02 FIXED          0   0.0%   0.000       0.000       2.000       2.000       0.000      0.1000E-19   0.000    
    4251   4.251      0.1000E-02 FIXED          0  -0.0%   0.000       0.000       2.000       2.000       0.000      0.1000E-19   0.000    
    4252   4.252      0.1000E-02 FIXED          0  -0.0%   0.000       0.000       2.000       2.000       0.000      0.1000E-19   0.000    
    4253   4.253      0.1000E-02 FIXED          0   0.0%   0.000       0.000       2.000       2.000       0.000      0.1000E-19   0.000    
    4254   4.254      0.1000E-02 FIXED          0  -0.0%   0.000       0.000       2.000       2.000       0.000      0.1000E-19   0.000    
    4255   4.255      0.1000E-02 FIXED          0   0.0%   0.000       0.000       2.000       2.000       0.000      0.1000E-19   0.000    
    4256   4.256      0.1000E-02 FIXED          0   0.0%   0.000       0.000       2.000       2.000       0.000      0.1000E-19   0.000    
    4257   4.257      0.1000E-02 FIXED          0   0.0%   0.000       0.000       2.000       2.000       0.000      0.1000E-19   0.000    
    4258   4.258      0.1000E-02 FIXED          0   0.0%   0.000       0.000       2.000       2.000       0.000      0.1000E-19   0.000    
    4259   4.259      0.1000E-02 FIXED          0  -0.0%   0.000       0.000       2.000       2.000       0.000      0.1000E-19   0.000    
    4260   4.260      0.1000E-02 FIXED          0   0.0%   0.000       0.000       2.000       2.000       0.000      0.1000E-19   0.000    
    4261   4.261      0.1000E-02 FIXED          0  -0.0%   0.000       0.000       2.000       2.000       0.000      0.1000E-19   0.000    
    4262   4.262      0.1000E-02 FIXED          0   0.0%   0.000       0.000       2.000       2.000       0.000      0.1000E-19   0.000    
    4263   4.263      0.1000E-02 FIXED          0   0.0%   0.000       0.000       2.000       2.000       0.000      0.1000E-19   0.000    
    4264   4.264      0.1000E-02 FIXED          0  -0.0%   0.000       0.000       2.000       2.000       0.000      0.1000E-19   0.000    
    4265   4.265      0.1000E-02 FIXED          0   0.0%   0.000       0.000       2.000       2.000       0.000      0.1000E-19   0.000    
    4266   4.266      0.1000E-02 FIXED          0   0.0%   0.000       0.000       2.000       2.000       0.000      0.1000E-19   0.000    
    4267   4.267      0.1000E-02 FIXED          0   0.0%   0.000       0.000       2.000       2.000       0.000      0.1000E-19   0.000    
    4268   4.268      0.1000E-02 FIXED          0   0.0%   0.000       0.000       2.000       2.000       0.000      0.1000E-19   0.000    
    4269   4.269      0.1000E-02 FIXED          0   0.0%   0.000       0.000       2.000       2.000       0.000      0.1000E-19   0.000    
    4270   4.270      0.1000E-02 FIXED          0   0.0%   0.000       0.000       2.000       2.000       0.000      0.1000E-19   0.000    
    4271   4.271      0.1000E-02 FIXED          0  -0.0%   0.000       0.000       2.000       2.000       0.000      0.1000E-19   0.000    
    4272   4.272      0.1000E-02 FIXED          0   0.0%   0.000       0.000       2.000       2.000       0.000      0.1000E-19   0.000    
    4273   4.273      0.1000E-02 FIXED          0   0.0%   0.000       0.000       2.000       2.000       0.000      0.1000E-19   0.000    
    4274   4.274      0.1000E-02 FIXED          0   0.0%   0.000       0.000       2.000       2.000       0.000      0.1000E-19   0.000    
    4275   4.275      0.1000E-02 FIXED          0   0.0%   0.000       0.000       2.000       2.000       0.000      0.1000E-19   0.000    
    4276   4.276      0.1000E-02 FIXED          0  -0.0%   0.000       0.000       2.000       2.000       0.000      0.1000E-19   0.000    
    4277   4.277      0.1000E-02 FIXED          0   0.0%   0.000       0.000       2.000       2.000       0.000      0.1000E-19   0.000    
    4278   4.278      0.1000E-02 FIXED          0   0.0%   0.000       0.000       2.000       2.000       0.000      0.1000E-19   0.000    
    4279   4.279      0.1000E-02 FIXED          0   0.0%   0.000       0.000       2.000       2.000       0.000      0.1000E-19   0.000    
    4280   4.280      0.1000E-02 FIXED          0   0.0%   0.000       0.000       2.000       2.000       0.000      0.1000E-19   0.000    
    4281   4.281      0.1000E-02 FIXED          0   0.0%   0.000       0.000       2.000       2.000       0.000      0.1000E-19   0.000    
    4282   4.282      0.1000E-02 FIXED          0   0.0%   0.000       0.000       2.000       2.000       0.000      0.1000E-19   0.000    
    4283   4.283      0.1000E-02 FIXED          0   0.0%   0.000       0.000       2.000       2.000       0.000      0.1000E-19   0.000    
    4284   4.284      0.1000E-02 FIXED          0  -0.0%   0.000       0.000       2.000       2.000       0.000      0.1000E-19   0.000    
    4285   4.285      0.1000E-02 FIXED          0   0.0%   0.000       0.000       2.000       2.000       0.000      0.1000E-19   0.000    
    4286   4.286      0.1000E-02 FIXED          0   0.0%   0.000       0.000       2.000       2.000       0.000      0.1000E-19   0.000    
    4287   4.287      0.1000E-02 FIXED          0   0.0%   0.000       0.000       2.000       2.000       0.000      0.1000E-19   0.000    
    4288   4.288      0.1000E-02 FIXED          0   0.0%   0.000       0.000       2.000       2.000       0.000      0.1000E-19   0.000    
    4289   4.289      0.1000E-02 FIXED          0   0.0%   0.000       0.000       2.000       2.000       0.000      0.1000E-19   0.000    
   CYCLE    TIME      TIME-STEP  ELEMENT          ERROR  I-ENERGY    K-ENERGY T  K-ENERGY R  EXT-WORK     MAS.ERR     TOTAL MASS  MASS ADDED
    4290   4.290      0.1000E-02 FIXED          0  -0.0%   0.000       0.000       2.000       2.000       0.000      0.1000E-19   0.000    
    4291   4.291      0.1000E-02 FIXED          0   0.0%   0.000       0.000       2.000       2.000       0.000      0.1000E-19   0.000    
    4292   4.292      0.1000E-02 FIXED          0   0.0%   0.000       0.000       2.000       2.000       0.000      0.1000E-19   0.000    
    4293   4.293      0.1000E-02 FIXED          0  -0.0%   0.000       0.000       2.000       2.000       0.000      0.1000E-19   0.000    
    4294   4.294      0.1000E-02 FIXED          0   0.0%   0.000       0.000       2.000       2.000       0.000      0.1000E-19   0.000    
    4295   4.295      0.1000E-02 FIXED          0  -0.0%   0.000       0.000       2.000       2.000       0.000      0.1000E-19   0.000    
    4296   4.296      0.1000E-02 FIXED          0   0.0%   0.000       0.000       2.000       2.000       0.000      0.1000E-19   0.000    
    4297   4.297      0.1000E-02 FIXED          0  -0.0%   0.000       0.000       2.000       2.000       0.000      0.1000E-19   0.000    
    4298   4.298      0.1000E-02 FIXED          0   0.0%   0.000       0.000       2.000       2.000       0.000      0.1000E-19   0.000    
    4299   4.299      0.1000E-02 FIXED          0  -0.0%   0.000       0.000       2.000       2.000       0.000      0.1000E-19   0.000    
    4300   4.300      0.1000E-02 FIXED          0   0.0%   0.000       0.000       2.000       2.000       0.000      0.1000E-19   0.000    
    4301   4.301      0.1000E-02 FIXED          0  -0.0%   0.000       0.000       2.000       2.000       0.000      0.1000E-19   0.000    
    4302   4.302      0.1000E-02 FIXED          0  -0.0%   0.000       0.000       2.000       2.000       0.000      0.1000E-19   0.000    
    4303   4.303      0.1000E-02 FIXED          0   0.0%   0.000       0.000       2.000       2.000       0.000      0.1000E-19   0.000    
    4304   4.304      0.1000E-02 FIXED          0  -0.0%   0.000       0.000       2.000       2.000       0.000      0.1000E-19   0.000    
    4305   4.305      0.1000E-02 FIXED          0   0.0%   0.000       0.000       2.000       2.000       0.000      0.1000E-19   0.000    
    4306   4.306      0.1000E-02 FIXED          0   0.0%   0.000       0.000       2.000       2.000       0.000      0.1000E-19   0.000    
    4307   4.307      0.1000E-02 FIXED          0  -0.0%   0.000       0.000       2.000       2.000       0.000      0.1000E-19   0.000    
    4308   4.308      0.1000E-02 FIXED          0   0.0%   0.000       0.000       2.000       2.000       0.000      0.1000E-19   0.000    
    4309   4.309      0.1000E-02 FIXED          0  -0.0%   0.000       0.000       2.000       2.000       0.000      0.1000E-19   0.000    
    4310   4.310      0.1000E-02 FIXED          0   0.0%   0.000       0.000       2.000       2.000       0.000      0.1000E-19   0.000    
    4311   4.311      0.1000E-02 FIXED          0  -0.0%   0.000       0.000       2.000       2.000       0.000      0.1000E-19   0.000    
    4312   4.312      0.1000E-02 FIXED          0  -0.0%   0.000       0.000       2.000       2.000       0.000      0.1000E-19   0.000    
    4313   4.313      0.1000E-02 FIXED          0  -0.0%   0.000       0.000       2.000       2.000       0.000      0.1000E-19   0.000    
    4314   4.314      0.1000E-02 FIXED          0   0.0%   0.000       0.000       2.000       2.000       0.000      0.1000E-19   0.000    
    4315   4.315      0.1000E-02 FIXED          0  -0.0%   0.000       0.000       2.000       2.000       0.000      0.1000E-19   0.000    
    4316   4.316      0.1000E-02 FIXED          0   0.0%   0.000       0.000       2.000       2.000       0.000      0.1000E-19   0.000    
    4317   4.317      0.1000E-02 FIXED          0   0.0%   0.000       0.000       2.000       2.000       0.000      0.1000E-19   0.000    
    4318   4.318      0.1000E-02 FIXED          0   0.0%   0.000       0.000       2.000       2.000       0.000      0.1000E-19   0.000    
    4319   4.319      0.1000E-02 FIXED          0  -0.0%   0.000       0.000       2.000       2.000       0.000      0.1000E-19   0.000    
    4320   4.320      0.1000E-02 FIXED          0   0.0%   0.000       0.000       2.000       2.000       0.000      0.1000E-19   0.000    
    4321   4.321      0.1000E-02 FIXED          0  -0.0%   0.000       0.000       2.000       2.000       0.000      0.1000E-19   0.000    
    4322   4.322      0.1000E-02 FIXED          0  -0.0%   0.000       0.000       2.000       2.000       0.000      0.1000E-19   0.000    
    4323   4.323      0.1000E-02 FIXED          0   0.0%   0.000       0.000       2.000       2.000       0.000      0.1000E-19   0.000    
    4324   4.324      0.1000E-02 FIXED          0  -0.0%   0.000       0.000       2.000       2.000       0.000      0.1000E-19   0.000    
    4325   4.325      0.1000E-02 FIXED          0   0.0%   0.000       0.000       2.000       2.000       0.000      0.1000E-19   0.000    
    4326   4.326      0.1000E-02 FIXED          0  -0.0%   0.000       0.000       2.000       2.000       0.000      0.1000E-19   0.000    
    4327   4.327      0.1000E-02 FIXED          0   0.0%   0.000       0.000       2.000       2.000       0.000      0.1000E-19   0.000    
    4328   4.328      0.1000E-02 FIXED          0   0.0%   0.000       0.000       2.000       2.000       0.000      0.1000E-19   0.000    
    4329   4.329      0.1000E-02 FIXED          0  -0.0%   0.000       0.000       2.000       2.000       0.000      0.1000E-19   0.000    
    4330   4.330      0.1000E-02 FIXED          0   0.0%   0.000       0.000       2.000       2.000       0.000      0.1000E-19   0.000    
    4331   4.331      0.1000E-02 FIXED          0  -0.0%   0.000       0.000       2.000       2.000       0.000      0.1000E-19   0.000    
    4332   4.332      0.1000E-02 FIXED          0  -0.0%   0.000       0.000       2.000       2.000       0.000      0.1000E-19   0.000    
    4333   4.333      0.1000E-02 FIXED          0  -0.0%   0.000       0.000       2.000       2.000       0.000      0.1000E-19   0.000    
    4334   4.334      0.1000E-02 FIXED          0   0.0%   0.000       0.000       2.000       2.000       0.000      0.1000E-19   0.000    
    4335   4.335      0.1000E-02 FIXED          0  -0.0%   0.000       0.000       2.000       2.000       0.000      0.1000E-19   0.000    
    4336   4.336      0.1000E-02 FIXED          0   0.0%   0.000       0.000       2.000       2.000       0.000      0.1000E-19   0.000    
    4337   4.337      0.1000E-02 FIXED          0  -0.0%   0.000       0.000       2.000       2.000       0.000      0.1000E-19   0.000    
    4338   4.338      0.1000E-02 FIXED          0  -0.0%   0.000       0.000       2.000       2.000       0.000      0.1000E-19   0.000    
    4339   4.339      0.1000E-02 FIXED          0   0.0%   0.000       0.000       2.000       2.000       0.000      0.1000E-19   0.000    
    4340   4.340      0.1000E-02 FIXED          0   0.0%   0.000       0.000       2.000       2.000       0.000      0.1000E-19   0.000    
    4341   4.341      0.1000E-02 FIXED          0   0.0%   0.000       0.000       2.000       2.000       0.000      0.1000E-19   0.000    
    4342   4.342      0.1000E-02 FIXED          0   0.0%   0.000       0.000       2.000       2.000       0.000      0.1000E-19   0.000    
    4343   4.343      0.1000E-02 FIXED          0   0.0%   0.000       0.000       2.000       2.000       0.000      0.1000E-19   0.000    
    4344   4.344      0.1000E-02 FIXED          0  -0.0%   0.000       0.000       2.000       2.000       0.000      0.1000E-19   0.000    
   CYCLE    TIME      TIME-STEP  ELEMENT          ERROR  I-ENERGY    K-ENERGY T  K-ENERGY R  EXT-WORK     MAS.ERR     TOTAL MASS  MASS ADDED
    4345   4.345      0.1000E-02 FIXED          0  -0.0%   0.000       0.000       2.000       2.000       0.000      0.1000E-19   0.000    
    4346   4.346      0.1000E-02 FIXED          0  -0.0%   0.000       0.000       2.000       2.000       0.000      0.1000E-19   0.000    
    4347   4.347      0.1000E-02 FIXED          0  -0.0%   0.000       0.000       2.000       2.000       0.000      0.1000E-19   0.000    
    4348   4.348      0.1000E-02 FIXED          0   0.0%   0.000       0.000       2.000       2.000       0.000      0.1000E-19   0.000    
    4349   4.349      0.1000E-02 FIXED          0  -0.0%   0.000       0.000       2.000       2.000       0.000      0.1000E-19   0.000    
    4350   4.350      0.1000E-02 FIXED          0   0.0%   0.000       0.000       2.000       2.000       0.000      0.1000E-19   0.000    
    4351   4.351      0.1000E-02 FIXED          0   0.0%   0.000       0.000       2.000       2.000       0.000      0.1000E-19   0.000    
    4352   4.352      0.1000E-02 FIXED          0   0.0%   0.000       0.000       2.000       2.000       0.000      0.1000E-19   0.000    
    4353   4.353      0.1000E-02 FIXED          0   0.0%   0.000       0.000       2.000       2.000       0.000      0.1000E-19   0.000    
    4354   4.354      0.1000E-02 FIXED          0   0.0%   0.000       0.000       2.000       2.000       0.000      0.1000E-19   0.000    
    4355   4.355      0.1000E-02 FIXED          0  -0.0%   0.000       0.000       2.000       2.000       0.000      0.1000E-19   0.000    
    4356   4.356      0.1000E-02 FIXED          0   0.0%   0.000       0.000       2.000       2.000       0.000      0.1000E-19   0.000    
    4357   4.357      0.1000E-02 FIXED          0  -0.0%   0.000       0.000       2.000       2.000       0.000      0.1000E-19   0.000    
    4358   4.358      0.1000E-02 FIXED          0   0.0%   0.000       0.000       2.000       2.000       0.000      0.1000E-19   0.000    
    4359   4.359      0.1000E-02 FIXED          0  -0.0%   0.000       0.000       2.000       2.000       0.000      0.1000E-19   0.000    
    4360   4.360      0.1000E-02 FIXED          0   0.0%   0.000       0.000       2.000       2.000       0.000      0.1000E-19   0.000    
    4361   4.361      0.1000E-02 FIXED          0  -0.0%   0.000       0.000       2.000       2.000       0.000      0.1000E-19   0.000    
    4362   4.362      0.1000E-02 FIXED          0   0.0%   0.000       0.000       2.000       2.000       0.000      0.1000E-19   0.000    
    4363   4.363      0.1000E-02 FIXED          0  -0.0%   0.000       0.000       2.000       2.000       0.000      0.1000E-19   0.000    
    4364   4.364      0.1000E-02 FIXED          0   0.0%   0.000       0.000       2.000       2.000       0.000      0.1000E-19   0.000    
    4365   4.365      0.1000E-02 FIXED          0   0.0%   0.000       0.000       2.000       2.000       0.000      0.1000E-19   0.000    
    4366   4.366      0.1000E-02 FIXED          0   0.0%   0.000       0.000       2.000       2.000       0.000      0.1000E-19   0.000    
    4367   4.367      0.1000E-02 FIXED          0   0.0%   0.000       0.000       2.000       2.000       0.000      0.1000E-19   0.000    
    4368   4.368      0.1000E-02 FIXED          0   0.0%   0.000       0.000       2.000       2.000       0.000      0.1000E-19   0.000    
    4369   4.369      0.1000E-02 FIXED          0  -0.0%   0.000       0.000       2.000       2.000       0.000      0.1000E-19   0.000    
    4370   4.370      0.1000E-02 FIXED          0   0.0%   0.000       0.000       2.000       2.000       0.000      0.1000E-19   0.000    
    4371   4.371      0.1000E-02 FIXED          0  -0.0%   0.000       0.000       2.000       2.000       0.000      0.1000E-19   0.000    
    4372   4.372      0.1000E-02 FIXED          0   0.0%   0.000       0.000       2.000       2.000       0.000      0.1000E-19   0.000    
    4373   4.373      0.1000E-02 FIXED          0  -0.0%   0.000       0.000       2.000       2.000       0.000      0.1000E-19   0.000    
    4374   4.374      0.1000E-02 FIXED          0  -0.0%   0.000       0.000       2.000       2.000       0.000      0.1000E-19   0.000    
    4375   4.375      0.1000E-02 FIXED          0   0.0%   0.000       0.000       2.000       2.000       0.000      0.1000E-19   0.000    
    4376   4.376      0.1000E-02 FIXED          0   0.0%   0.000       0.000       2.000       2.000       0.000      0.1000E-19   0.000    
    4377   4.377      0.1000E-02 FIXED          0  -0.0%   0.000       0.000       2.000       2.000       0.000      0.1000E-19   0.000    
    4378   4.378      0.1000E-02 FIXED          0  -0.0%   0.000       0.000       2.000       2.000       0.000      0.1000E-19   0.000    
    4379   4.379      0.1000E-02 FIXED          0   0.0%   0.000       0.000       2.000       2.000       0.000      0.1000E-19   0.000    
    4380   4.380      0.1000E-02 FIXED          0   0.0%   0.000       0.000       2.000       2.000       0.000      0.1000E-19   0.000    
    4381   4.381      0.1000E-02 FIXED          0   0.0%   0.000       0.000       2.000       2.000       0.000      0.1000E-19   0.000    
    4382   4.382      0.1000E-02 FIXED          0  -0.0%   0.000       0.000       2.000       2.000       0.000      0.1000E-19   0.000    
    4383   4.383      0.1000E-02 FIXED          0  -0.0%   0.000       0.000       2.000       2.000       0.000      0.1000E-19   0.000    
    4384   4.384      0.1000E-02 FIXED          0   0.0%   0.000       0.000       2.000       2.000       0.000      0.1000E-19   0.000    
    4385   4.385      0.1000E-02 FIXED          0   0.0%   0.000       0.000       2.000       2.000       0.000      0.1000E-19   0.000    
    4386   4.386      0.1000E-02 FIXED          0  -0.0%   0.000       0.000       2.000       2.000       0.000      0.1000E-19   0.000    
    4387   4.387      0.1000E-02 FIXED          0   0.0%   0.000       0.000       2.000       2.000       0.000      0.1000E-19   0.000    
    4388   4.388      0.1000E-02 FIXED          0  -0.0%   0.000       0.000       2.000       2.000       0.000      0.1000E-19   0.000    
    4389   4.389      0.1000E-02 FIXED          0   0.0%   0.000       0.000       2.000       2.000       0.000      0.1000E-19   0.000    
    4390   4.390      0.1000E-02 FIXED          0   0.0%   0.000       0.000       2.000       2.000       0.000      0.1000E-19   0.000    
    4391   4.391      0.1000E-02 FIXED          0  -0.0%   0.000       0.000       2.000       2.000       0.000      0.1000E-19   0.000    
    4392   4.392      0.1000E-02 FIXED          0   0.0%   0.000       0.000       2.000       2.000       0.000      0.1000E-19   0.000    
    4393   4.393      0.1000E-02 FIXED          0  -0.0%   0.000       0.000       2.000       2.000       0.000      0.1000E-19   0.000    
    4394   4.394      0.1000E-02 FIXED          0  -0.0%   0.000       0.000       2.000       2.000       0.000      0.1000E-19   0.000    
    4395   4.395      0.1000E-02 FIXED          0   0.0%   0.000       0.000       2.000       2.000       0.000      0.1000E-19   0.000    
    4396   4.396      0.1000E-02 FIXED          0  -0.0%   0.000       0.000       2.000       2.000       0.000      0.1000E-19   0.000    
    4397   4.397      0.1000E-02 FIXED          0   0.0%   0.000       0.000       2.000       2.000       0.000      0.1000E-19   0.000    
    4398   4.398      0.1000E-02 FIXED          0   0.0%   0.000       0.000       2.000       2.000       0.000      0.1000E-19   0.000    
    4399   4.399      0.1000E-02 FIXED          0   0.0%   0.000       0.000       2.000       2.000       0.000      0.1000E-19   0.000    
   CYCLE    TIME      TIME-STEP  ELEMENT          ERROR  I-ENERGY    K-ENERGY T  K-ENERGY R  EXT-WORK     MAS.ERR     TOTAL MASS  MASS ADDED
    4400   4.400      0.1000E-02 FIXED          0  -0.0%   0.000       0.000       2.000       2.000       0.000      0.1000E-19   0.000    
    4401   4.401      0.1000E-02 FIXED          0   0.0%   0.000       0.000       2.000       2.000       0.000      0.1000E-19   0.000    
    4402   4.402      0.1000E-02 FIXED          0   0.0%   0.000       0.000       2.000       2.000       0.000      0.1000E-19   0.000    
    4403   4.403      0.1000E-02 FIXED          0  -0.0%   0.000       0.000       2.000       2.000       0.000      0.1000E-19   0.000    
    4404   4.404      0.1000E-02 FIXED          0  -0.0%   0.000       0.000       2.000       2.000       0.000      0.1000E-19   0.000    
    4405   4.405      0.1000E-02 FIXED          0  -0.0%   0.000       0.000       2.000       2.000       0.000      0.1000E-19   0.000    
    4406   4.406      0.1000E-02 FIXED          0   0.0%   0.000       0.000       2.000       2.000       0.000      0.1000E-19   0.000    
    4407   4.407      0.1000E-02 FIXED          0   0.0%   0.000       0.000       2.000       2.000       0.000      0.1000E-19   0.000    
    4408   4.408      0.1000E-02 FIXED          0   0.0%   0.000       0.000       2.000       2.000       0.000      0.1000E-19   0.000    
    4409   4.409      0.1000E-02 FIXED          0   0.0%   0.000       0.000       2.000       2.000       0.000      0.1000E-19   0.000    
    4410   4.410      0.1000E-02 FIXED          0  -0.0%   0.000       0.000       2.000       2.000       0.000      0.1000E-19   0.000    
    4411   4.411      0.1000E-02 FIXED          0   0.0%   0.000       0.000       2.000       2.000       0.000      0.1000E-19   0.000    
    4412   4.412      0.1000E-02 FIXED          0   0.0%   0.000       0.000       2.000       2.000       0.000      0.1000E-19   0.000    
    4413   4.413      0.1000E-02 FIXED          0  -0.0%   0.000       0.000       2.000       2.000       0.000      0.1000E-19   0.000    
    4414   4.414      0.1000E-02 FIXED          0   0.0%   0.000       0.000       2.000       2.000       0.000      0.1000E-19   0.000    
    4415   4.415      0.1000E-02 FIXED          0   0.0%   0.000       0.000       2.000       2.000       0.000      0.1000E-19   0.000    
    4416   4.416      0.1000E-02 FIXED          0   0.0%   0.000       0.000       2.000       2.000       0.000      0.1000E-19   0.000    
    4417   4.417      0.1000E-02 FIXED          0   0.0%   0.000       0.000       2.000       2.000       0.000      0.1000E-19   0.000    
    4418   4.418      0.1000E-02 FIXED          0   0.0%   0.000       0.000       2.000       2.000       0.000      0.1000E-19   0.000    
    4419   4.419      0.1000E-02 FIXED          0  -0.0%   0.000       0.000       2.000       2.000       0.000      0.1000E-19   0.000    
    4420   4.420      0.1000E-02 FIXED          0  -0.0%   0.000       0.000       2.000       2.000       0.000      0.1000E-19   0.000    
    4421   4.421      0.1000E-02 FIXED          0  -0.0%   0.000       0.000       2.000       2.000       0.000      0.1000E-19   0.000    
    4422   4.422      0.1000E-02 FIXED          0   0.0%   0.000       0.000       2.000       2.000       0.000      0.1000E-19   0.000    
    4423   4.423      0.1000E-02 FIXED          0   0.0%   0.000       0.000       2.000       2.000       0.000      0.1000E-19   0.000    
    4424   4.424      0.1000E-02 FIXED          0  -0.0%   0.000       0.000       2.000       2.000       0.000      0.1000E-19   0.000    
    4425   4.425      0.1000E-02 FIXED          0   0.0%   0.000       0.000       2.000       2.000       0.000      0.1000E-19   0.000    
    4426   4.426      0.1000E-02 FIXED          0   0.0%   0.000       0.000       2.000       2.000       0.000      0.1000E-19   0.000    
    4427   4.427      0.1000E-02 FIXED          0   0.0%   0.000       0.000       2.000       2.000       0.000      0.1000E-19   0.000    
    4428   4.428      0.1000E-02 FIXED          0  -0.0%   0.000       0.000       2.000       2.000       0.000      0.1000E-19   0.000    
    4429   4.429      0.1000E-02 FIXED          0   0.0%   0.000       0.000       2.000       2.000       0.000      0.1000E-19   0.000    
    4430   4.430      0.1000E-02 FIXED          0   0.0%   0.000       0.000       2.000       2.000       0.000      0.1000E-19   0.000    
    4431   4.431      0.1000E-02 FIXED          0   0.0%   0.000       0.000       2.000       2.000       0.000      0.1000E-19   0.000    
    4432   4.432      0.1000E-02 FIXED          0   0.0%   0.000       0.000       2.000       2.000       0.000      0.1000E-19   0.000    
    4433   4.433      0.1000E-02 FIXED          0  -0.0%   0.000       0.000       2.000       2.000       0.000      0.1000E-19   0.000    
    4434   4.434      0.1000E-02 FIXED          0  -0.0%   0.000       0.000       2.000       2.000       0.000      0.1000E-19   0.000    
    4435   4.435      0.1000E-02 FIXED          0  -0.0%   0.000       0.000       2.000       2.000       0.000      0.1000E-19   0.000    
    4436   4.436      0.1000E-02 FIXED          0   0.0%   0.000       0.000       2.000       2.000       0.000      0.1000E-19   0.000    
    4437   4.437      0.1000E-02 FIXED          0  -0.0%   0.000       0.000       2.000       2.000       0.000      0.1000E-19   0.000    
    4438   4.438      0.1000E-02 FIXED          0   0.0%   0.000       0.000       2.000       2.000       0.000      0.1000E-19   0.000    
    4439   4.439      0.1000E-02 FIXED          0   0.0%   0.000       0.000       2.000       2.000       0.000      0.1000E-19   0.000    
    4440   4.440      0.1000E-02 FIXED          0  -0.0%   0.000       0.000       2.000       2.000       0.000      0.1000E-19   0.000    
    4441   4.441      0.1000E-02 FIXED          0   0.0%   0.000       0.000       2.000       2.000       0.000      0.1000E-19   0.000    
    4442   4.442      0.1000E-02 FIXED          0  -0.0%   0.000       0.000       2.000       2.000       0.000      0.1000E-19   0.000    
    4443   4.443      0.1000E-02 FIXED          0   0.0%   0.000       0.000       2.000       2.000       0.000      0.1000E-19   0.000    
    4444   4.444      0.1000E-02 FIXED          0   0.0%   0.000       0.000       2.000       2.000       0.000      0.1000E-19   0.000    
    4445   4.445      0.1000E-02 FIXED          0   0.0%   0.000       0.000       2.000       2.000       0.000      0.1000E-19   0.000    
    4446   4.446      0.1000E-02 FIXED          0   0.0%   0.000       0.000       2.000       2.000       0.000      0.1000E-19   0.000    
    4447   4.447      0.1000E-02 FIXED          0   0.0%   0.000       0.000       2.000       2.000       0.000      0.1000E-19   0.000    
    4448   4.448      0.1000E-02 FIXED          0   0.0%   0.000       0.000       2.000       2.000       0.000      0.1000E-19   0.000    
    4449   4.449      0.1000E-02 FIXED          0  -0.0%   0.000       0.000       2.000       2.000       0.000      0.1000E-19   0.000    
    4450   4.450      0.1000E-02 FIXED          0   0.0%   0.000       0.000       2.000       2.000       0.000      0.1000E-19   0.000    
    4451   4.451      0.1000E-02 FIXED          0   0.0%   0.000       0.000       2.000       2.000       0.000      0.1000E-19   0.000    
    4452   4.452      0.1000E-02 FIXED          0   0.0%   0.000       0.000       2.000       2.000       0.000      0.1000E-19   0.000    
    4453   4.453      0.1000E-02 FIXED          0   0.0%   0.000       0.000       2.000       2.000       0.000      0.1000E-19   0.000    
    4454   4.454      0.1000E-02 FIXED          0   0.0%   0.000       0.000       2.000       2.000       0.000      0.1000E-19   0.000    
   CYCLE    TIME      TIME-STEP  ELEMENT          ERROR  I-ENERGY    K-ENERGY T  K-ENERGY R  EXT-WORK     MAS.ERR     TOTAL MASS  MASS ADDED
    4455   4.455      0.1000E-02 FIXED          0  -0.0%   0.000       0.000       2.000       2.000       0.000      0.1000E-19   0.000    
    4456   4.456      0.1000E-02 FIXED          0   0.0%   0.000       0.000       2.000       2.000       0.000      0.1000E-19   0.000    
    4457   4.457      0.1000E-02 FIXED          0  -0.0%   0.000       0.000       2.000       2.000       0.000      0.1000E-19   0.000    
    4458   4.458      0.1000E-02 FIXED          0   0.0%   0.000       0.000       2.000       2.000       0.000      0.1000E-19   0.000    
    4459   4.459      0.1000E-02 FIXED          0   0.0%   0.000       0.000       2.000       2.000       0.000      0.1000E-19   0.000    
    4460   4.460      0.1000E-02 FIXED          0  -0.0%   0.000       0.000       2.000       2.000       0.000      0.1000E-19   0.000    
    4461   4.461      0.1000E-02 FIXED          0   0.0%   0.000       0.000       2.000       2.000       0.000      0.1000E-19   0.000    
    4462   4.462      0.1000E-02 FIXED          0  -0.0%   0.000       0.000       2.000       2.000       0.000      0.1000E-19   0.000    
    4463   4.463      0.1000E-02 FIXED          0   0.0%   0.000       0.000       2.000       2.000       0.000      0.1000E-19   0.000    
    4464   4.464      0.1000E-02 FIXED          0   0.0%   0.000       0.000       2.000       2.000       0.000      0.1000E-19   0.000    
    4465   4.465      0.1000E-02 FIXED          0   0.0%   0.000       0.000       2.000       2.000       0.000      0.1000E-19   0.000    
    4466   4.466      0.1000E-02 FIXED          0  -0.0%   0.000       0.000       2.000       2.000       0.000      0.1000E-19   0.000    
    4467   4.467      0.1000E-02 FIXED          0   0.0%   0.000       0.000       2.000       2.000       0.000      0.1000E-19   0.000    
    4468   4.468      0.1000E-02 FIXED          0  -0.0%   0.000       0.000       2.000       2.000       0.000      0.1000E-19   0.000    
    4469   4.469      0.1000E-02 FIXED          0   0.0%   0.000       0.000       2.000       2.000       0.000      0.1000E-19   0.000    
    4470   4.470      0.1000E-02 FIXED          0  -0.0%   0.000       0.000       2.000       2.000       0.000      0.1000E-19   0.000    
    4471   4.471      0.1000E-02 FIXED          0  -0.0%   0.000       0.000       2.000       2.000       0.000      0.1000E-19   0.000    
    4472   4.472      0.1000E-02 FIXED          0   0.0%   0.000       0.000       2.000       2.000       0.000      0.1000E-19   0.000    
    4473   4.473      0.1000E-02 FIXED          0  -0.0%   0.000       0.000       2.000       2.000       0.000      0.1000E-19   0.000    
    4474   4.474      0.1000E-02 FIXED          0   0.0%   0.000       0.000       2.000       2.000       0.000      0.1000E-19   0.000    
    4475   4.475      0.1000E-02 FIXED          0  -0.0%   0.000       0.000       2.000       2.000       0.000      0.1000E-19   0.000    
    4476   4.476      0.1000E-02 FIXED          0   0.0%   0.000       0.000       2.000       2.000       0.000      0.1000E-19   0.000    
    4477   4.477      0.1000E-02 FIXED          0  -0.0%   0.000       0.000       2.000       2.000       0.000      0.1000E-19   0.000    
    4478   4.478      0.1000E-02 FIXED          0   0.0%   0.000       0.000       2.000       2.000       0.000      0.1000E-19   0.000    
    4479   4.479      0.1000E-02 FIXED          0   0.0%   0.000       0.000       2.000       2.000       0.000      0.1000E-19   0.000    
    4480   4.480      0.1000E-02 FIXED          0  -0.0%   0.000       0.000       2.000       2.000       0.000      0.1000E-19   0.000    
    4481   4.481      0.1000E-02 FIXED          0   0.0%   0.000       0.000       2.000       2.000       0.000      0.1000E-19   0.000    
    4482   4.482      0.1000E-02 FIXED          0  -0.0%   0.000       0.000       2.000       2.000       0.000      0.1000E-19   0.000    
    4483   4.483      0.1000E-02 FIXED          0   0.0%   0.000       0.000       2.000       2.000       0.000      0.1000E-19   0.000    
    4484   4.484      0.1000E-02 FIXED          0   0.0%   0.000       0.000       2.000       2.000       0.000      0.1000E-19   0.000    
    4485   4.485      0.1000E-02 FIXED          0  -0.0%   0.000       0.000       2.000       2.000       0.000      0.1000E-19   0.000    
    4486   4.486      0.1000E-02 FIXED          0   0.0%   0.000       0.000       2.000       2.000       0.000      0.1000E-19   0.000    
    4487   4.487      0.1000E-02 FIXED          0  -0.0%   0.000       0.000       2.000       2.000       0.000      0.1000E-19   0.000    
    4488   4.488      0.1000E-02 FIXED          0  -0.0%   0.000       0.000       2.000       2.000       0.000      0.1000E-19   0.000    
    4489   4.489      0.1000E-02 FIXED          0   0.0%   0.000       0.000       2.000       2.000       0.000      0.1000E-19   0.000    
    4490   4.490      0.1000E-02 FIXED          0  -0.0%   0.000       0.000       2.000       2.000       0.000      0.1000E-19   0.000    
    4491   4.491      0.1000E-02 FIXED          0   0.0%   0.000       0.000       2.000       2.000       0.000      0.1000E-19   0.000    
    4492   4.492      0.1000E-02 FIXED          0  -0.0%   0.000       0.000       2.000       2.000       0.000      0.1000E-19   0.000    
    4493   4.493      0.1000E-02 FIXED          0   0.0%   0.000       0.000       2.000       2.000       0.000      0.1000E-19   0.000    
    4494   4.494      0.1000E-02 FIXED          0   0.0%   0.000       0.000       2.000       2.000       0.000      0.1000E-19   0.000    
    4495   4.495      0.1000E-02 FIXED          0  -0.0%   0.000       0.000       2.000       2.000       0.000      0.1000E-19   0.000    
    4496   4.496      0.1000E-02 FIXED          0   0.0%   0.000       0.000       2.000       2.000       0.000      0.1000E-19   0.000    
    4497   4.497      0.1000E-02 FIXED          0   0.0%   0.000       0.000       2.000       2.000       0.000      0.1000E-19   0.000    
    4498   4.498      0.1000E-02 FIXED          0  -0.0%   0.000       0.000       2.000       2.000       0.000      0.1000E-19   0.000    
    4499   4.499      0.1000E-02 FIXED          0   0.0%   0.000       0.000       2.000       2.000       0.000      0.1000E-19   0.000    
    4500   4.500      0.1000E-02 FIXED          0   0.0%   0.000       0.000       2.000       2.000       0.000      0.1000E-19   0.000    
    4501   4.501      0.1000E-02 FIXED          0   0.0%   0.000       0.000       2.000       2.000       0.000      0.1000E-19   0.000    
    4502   4.502      0.1000E-02 FIXED          0  -0.0%   0.000       0.000       2.000       2.000       0.000      0.1000E-19   0.000    
    4503   4.503      0.1000E-02 FIXED          0   0.0%   0.000       0.000       2.000       2.000       0.000      0.1000E-19   0.000    
    4504   4.504      0.1000E-02 FIXED          0  -0.0%   0.000       0.000       2.000       2.000       0.000      0.1000E-19   0.000    
    4505   4.505      0.1000E-02 FIXED          0   0.0%   0.000       0.000       2.000       2.000       0.000      0.1000E-19   0.000    
    4506   4.506      0.1000E-02 FIXED          0  -0.0%   0.000       0.000       2.000       2.000       0.000      0.1000E-19   0.000    
    4507   4.507      0.1000E-02 FIXED          0  -0.0%   0.000       0.000       2.000       2.000       0.000      0.1000E-19   0.000    
    4508   4.508      0.1000E-02 FIXED          0   0.0%   0.000       0.000       2.000       2.000       0.000      0.1000E-19   0.000    
    4509   4.509      0.1000E-02 FIXED          0  -0.0%   0.000       0.000       2.000       2.000       0.000      0.1000E-19   0.000    
   CYCLE    TIME      TIME-STEP  ELEMENT          ERROR  I-ENERGY    K-ENERGY T  K-ENERGY R  EXT-WORK     MAS.ERR     TOTAL MASS  MASS ADDED
    4510   4.510      0.1000E-02 FIXED          0   0.0%   0.000       0.000       2.000       2.000       0.000      0.1000E-19   0.000    
    4511   4.511      0.1000E-02 FIXED          0   0.0%   0.000       0.000       2.000       2.000       0.000      0.1000E-19   0.000    
    4512   4.512      0.1000E-02 FIXED          0   0.0%   0.000       0.000       2.000       2.000       0.000      0.1000E-19   0.000    
    4513   4.513      0.1000E-02 FIXED          0   0.0%   0.000       0.000       2.000       2.000       0.000      0.1000E-19   0.000    
    4514   4.514      0.1000E-02 FIXED          0   0.0%   0.000       0.000       2.000       2.000       0.000      0.1000E-19   0.000    
    4515   4.515      0.1000E-02 FIXED          0  -0.0%   0.000       0.000       2.000       2.000       0.000      0.1000E-19   0.000    
    4516   4.516      0.1000E-02 FIXED          0   0.0%   0.000       0.000       2.000       2.000       0.000      0.1000E-19   0.000    
    4517   4.517      0.1000E-02 FIXED          0   0.0%   0.000       0.000       2.000       2.000       0.000      0.1000E-19   0.000    
    4518   4.518      0.1000E-02 FIXED          0   0.0%   0.000       0.000       2.000       2.000       0.000      0.1000E-19   0.000    
    4519   4.519      0.1000E-02 FIXED          0   0.0%   0.000       0.000       2.000       2.000       0.000      0.1000E-19   0.000    
    4520   4.520      0.1000E-02 FIXED          0  -0.0%   0.000       0.000       2.000       2.000       0.000      0.1000E-19   0.000    
    4521   4.521      0.1000E-02 FIXED          0  -0.0%   0.000       0.000       2.000       2.000       0.000      0.1000E-19   0.000    
    4522   4.522      0.1000E-02 FIXED          0  -0.0%   0.000       0.000       2.000       2.000       0.000      0.1000E-19   0.000    
    4523   4.523      0.1000E-02 FIXED          0   0.0%   0.000       0.000       2.000       2.000       0.000      0.1000E-19   0.000    
    4524   4.524      0.1000E-02 FIXED          0  -0.0%   0.000       0.000       2.000       2.000       0.000      0.1000E-19   0.000    
    4525   4.525      0.1000E-02 FIXED          0   0.0%   0.000       0.000       2.000       2.000       0.000      0.1000E-19   0.000    
    4526   4.526      0.1000E-02 FIXED          0   0.0%   0.000       0.000       2.000       2.000       0.000      0.1000E-19   0.000    
    4527   4.527      0.1000E-02 FIXED          0   0.0%   0.000       0.000       2.000       2.000       0.000      0.1000E-19   0.000    
    4528   4.528      0.1000E-02 FIXED          0   0.0%   0.000       0.000       2.000       2.000       0.000      0.1000E-19   0.000    
    4529   4.529      0.1000E-02 FIXED          0   0.0%   0.000       0.000       2.000       2.000       0.000      0.1000E-19   0.000    
    4530   4.530      0.1000E-02 FIXED          0   0.0%   0.000       0.000       2.000       2.000       0.000      0.1000E-19   0.000    
    4531   4.531      0.1000E-02 FIXED          0  -0.0%   0.000       0.000       2.000       2.000       0.000      0.1000E-19   0.000    
    4532   4.532      0.1000E-02 FIXED          0  -0.0%   0.000       0.000       2.000       2.000       0.000      0.1000E-19   0.000    
    4533   4.533      0.1000E-02 FIXED          0  -0.0%   0.000       0.000       2.000       2.000       0.000      0.1000E-19   0.000    
    4534   4.534      0.1000E-02 FIXED          0   0.0%   0.000       0.000       2.000       2.000       0.000      0.1000E-19   0.000    
    4535   4.535      0.1000E-02 FIXED          0  -0.0%   0.000       0.000       2.000       2.000       0.000      0.1000E-19   0.000    
    4536   4.536      0.1000E-02 FIXED          0   0.0%   0.000       0.000       2.000       2.000       0.000      0.1000E-19   0.000    
    4537   4.537      0.1000E-02 FIXED          0  -0.0%   0.000       0.000       2.000       2.000       0.000      0.1000E-19   0.000    
    4538   4.538      0.1000E-02 FIXED          0   0.0%   0.000       0.000       2.000       2.000       0.000      0.1000E-19   0.000    
    4539   4.539      0.1000E-02 FIXED          0  -0.0%   0.000       0.000       2.000       2.000       0.000      0.1000E-19   0.000    
    4540   4.540      0.1000E-02 FIXED          0   0.0%   0.000       0.000       2.000       2.000       0.000      0.1000E-19   0.000    
    4541   4.541      0.1000E-02 FIXED          0  -0.0%   0.000       0.000       2.000       2.000       0.000      0.1000E-19   0.000    
    4542   4.542      0.1000E-02 FIXED          0   0.0%   0.000       0.000       2.000       2.000       0.000      0.1000E-19   0.000    
    4543   4.543      0.1000E-02 FIXED          0  -0.0%   0.000       0.000       2.000       2.000       0.000      0.1000E-19   0.000    
    4544   4.544      0.1000E-02 FIXED          0   0.0%   0.000       0.000       2.000       2.000       0.000      0.1000E-19   0.000    
    4545   4.545      0.1000E-02 FIXED          0   0.0%   0.000       0.000       2.000       2.000       0.000      0.1000E-19   0.000    
    4546   4.546      0.1000E-02 FIXED          0  -0.0%   0.000       0.000       2.000       2.000       0.000      0.1000E-19   0.000    
    4547   4.547      0.1000E-02 FIXED          0   0.0%   0.000       0.000       2.000       2.000       0.000      0.1000E-19   0.000    
    4548   4.548      0.1000E-02 FIXED          0  -0.0%   0.000       0.000       2.000       2.000       0.000      0.1000E-19   0.000    
    4549   4.549      0.1000E-02 FIXED          0   0.0%   0.000       0.000       2.000       2.000       0.000      0.1000E-19   0.000    
    4550   4.550      0.1000E-02 FIXED          0   0.0%   0.000       0.000       2.000       2.000       0.000      0.1000E-19   0.000    
    4551   4.551      0.1000E-02 FIXED          0   0.0%   0.000       0.000       2.000       2.000       0.000      0.1000E-19   0.000    
    4552   4.552      0.1000E-02 FIXED          0   0.0%   0.000       0.000       2.000       2.000       0.000      0.1000E-19   0.000    
    4553   4.553      0.1000E-02 FIXED          0   0.0%   0.000       0.000       2.000       2.000       0.000      0.1000E-19   0.000    
    4554   4.554      0.1000E-02 FIXED          0  -0.0%   0.000       0.000       2.000       2.000       0.000      0.1000E-19   0.000    
    4555   4.555      0.1000E-02 FIXED          0   0.0%   0.000       0.000       2.000       2.000       0.000      0.1000E-19   0.000    
    4556   4.556      0.1000E-02 FIXED          0   0.0%   0.000       0.000       2.000       2.000       0.000      0.1000E-19   0.000    
    4557   4.557      0.1000E-02 FIXED          0  -0.0%   0.000       0.000       2.000       2.000       0.000      0.1000E-19   0.000    
    4558   4.558      0.1000E-02 FIXED          0   0.0%   0.000       0.000       2.000       2.000       0.000      0.1000E-19   0.000    
    4559   4.559      0.1000E-02 FIXED          0   0.0%   0.000       0.000       2.000       2.000       0.000      0.1000E-19   0.000    
    4560   4.560      0.1000E-02 FIXED          0   0.0%   0.000       0.000       2.000       2.000       0.000      0.1000E-19   0.000    
    4561   4.561      0.1000E-02 FIXED          0   0.0%   0.000       0.000       2.000       2.000       0.000      0.1000E-19   0.000    
    4562   4.562      0.1000E-02 FIXED          0  -0.0%   0.000       0.000       2.000       2.000       0.000      0.1000E-19   0.000    
    4563   4.563      0.1000E-02 FIXED          0   0.0%   0.000       0.000       2.000       2.000       0.000      0.1000E-19   0.000    
    4564   4.564      0.1000E-02 FIXED          0   0.0%   0.000       0.000       2.000       2.000       0.000      0.1000E-19   0.000    
   CYCLE    TIME      TIME-STEP  ELEMENT          ERROR  I-ENERGY    K-ENERGY T  K-ENERGY R  EXT-WORK     MAS.ERR     TOTAL MASS  MASS ADDED
    4565   4.565      0.1000E-02 FIXED          0   0.0%   0.000       0.000       2.000       2.000       0.000      0.1000E-19   0.000    
    4566   4.566      0.1000E-02 FIXED          0   0.0%   0.000       0.000       2.000       2.000       0.000      0.1000E-19   0.000    
    4567   4.567      0.1000E-02 FIXED          0  -0.0%   0.000       0.000       2.000       2.000       0.000      0.1000E-19   0.000    
    4568   4.568      0.1000E-02 FIXED          0   0.0%   0.000       0.000       2.000       2.000       0.000      0.1000E-19   0.000    
    4569   4.569      0.1000E-02 FIXED          0  -0.0%   0.000       0.000       2.000       2.000       0.000      0.1000E-19   0.000    
    4570   4.570      0.1000E-02 FIXED          0   0.0%   0.000       0.000       2.000       2.000       0.000      0.1000E-19   0.000    
    4571   4.571      0.1000E-02 FIXED          0   0.0%   0.000       0.000       2.000       2.000       0.000      0.1000E-19   0.000    
    4572   4.572      0.1000E-02 FIXED          0  -0.0%   0.000       0.000       2.000       2.000       0.000      0.1000E-19   0.000    
    4573   4.573      0.1000E-02 FIXED          0   0.0%   0.000       0.000       2.000       2.000       0.000      0.1000E-19   0.000    
    4574   4.574      0.1000E-02 FIXED          0  -0.0%   0.000       0.000       2.000       2.000       0.000      0.1000E-19   0.000    
    4575   4.575      0.1000E-02 FIXED          0   0.0%   0.000       0.000       2.000       2.000       0.000      0.1000E-19   0.000    
    4576   4.576      0.1000E-02 FIXED          0  -0.0%   0.000       0.000       2.000       2.000       0.000      0.1000E-19   0.000    
    4577   4.577      0.1000E-02 FIXED          0   0.0%   0.000       0.000       2.000       2.000       0.000      0.1000E-19   0.000    
    4578   4.578      0.1000E-02 FIXED          0   0.0%   0.000       0.000       2.000       2.000       0.000      0.1000E-19   0.000    
    4579   4.579      0.1000E-02 FIXED          0  -0.0%   0.000       0.000       2.000       2.000       0.000      0.1000E-19   0.000    
    4580   4.580      0.1000E-02 FIXED          0   0.0%   0.000       0.000       2.000       2.000       0.000      0.1000E-19   0.000    
    4581   4.581      0.1000E-02 FIXED          0   0.0%   0.000       0.000       2.000       2.000       0.000      0.1000E-19   0.000    
    4582   4.582      0.1000E-02 FIXED          0   0.0%   0.000       0.000       2.000       2.000       0.000      0.1000E-19   0.000    
    4583   4.583      0.1000E-02 FIXED          0   0.0%   0.000       0.000       2.000       2.000       0.000      0.1000E-19   0.000    
    4584   4.584      0.1000E-02 FIXED          0   0.0%   0.000       0.000       2.000       2.000       0.000      0.1000E-19   0.000    
    4585   4.585      0.1000E-02 FIXED          0   0.0%   0.000       0.000       2.000       2.000       0.000      0.1000E-19   0.000    
    4586   4.586      0.1000E-02 FIXED          0   0.0%   0.000       0.000       2.000       2.000       0.000      0.1000E-19   0.000    
    4587   4.587      0.1000E-02 FIXED          0   0.0%   0.000       0.000       2.000       2.000       0.000      0.1000E-19   0.000    
    4588   4.588      0.1000E-02 FIXED          0  -0.0%   0.000       0.000       2.000       2.000       0.000      0.1000E-19   0.000    
    4589   4.589      0.1000E-02 FIXED          0  -0.0%   0.000       0.000       2.000       2.000       0.000      0.1000E-19   0.000    
    4590   4.590      0.1000E-02 FIXED          0   0.0%   0.000       0.000       2.000       2.000       0.000      0.1000E-19   0.000    
    4591   4.591      0.1000E-02 FIXED          0   0.0%   0.000       0.000       2.000       2.000       0.000      0.1000E-19   0.000    
    4592   4.592      0.1000E-02 FIXED          0  -0.0%   0.000       0.000       2.000       2.000       0.000      0.1000E-19   0.000    
    4593   4.593      0.1000E-02 FIXED          0   0.0%   0.000       0.000       2.000       2.000       0.000      0.1000E-19   0.000    
    4594   4.594      0.1000E-02 FIXED          0   0.0%   0.000       0.000       2.000       2.000       0.000      0.1000E-19   0.000    
    4595   4.595      0.1000E-02 FIXED          0  -0.0%   0.000       0.000       2.000       2.000       0.000      0.1000E-19   0.000    
    4596   4.596      0.1000E-02 FIXED          0   0.0%   0.000       0.000       2.000       2.000       0.000      0.1000E-19   0.000    
    4597   4.597      0.1000E-02 FIXED          0   0.0%   0.000       0.000       2.000       2.000       0.000      0.1000E-19   0.000    
    4598   4.598      0.1000E-02 FIXED          0   0.0%   0.000       0.000       2.000       2.000       0.000      0.1000E-19   0.000    
    4599   4.599      0.1000E-02 FIXED          0   0.0%   0.000       0.000       2.000       2.000       0.000      0.1000E-19   0.000    
    4600   4.600      0.1000E-02 FIXED          0   0.0%   0.000       0.000       2.000       2.000       0.000      0.1000E-19   0.000    
    4601   4.601      0.1000E-02 FIXED          0   0.0%   0.000       0.000       2.000       2.000       0.000      0.1000E-19   0.000    
    4602   4.602      0.1000E-02 FIXED          0  -0.0%   0.000       0.000       2.000       2.000       0.000      0.1000E-19   0.000    
    4603   4.603      0.1000E-02 FIXED          0   0.0%   0.000       0.000       2.000       2.000       0.000      0.1000E-19   0.000    
    4604   4.604      0.1000E-02 FIXED          0  -0.0%   0.000       0.000       2.000       2.000       0.000      0.1000E-19   0.000    
    4605   4.605      0.1000E-02 FIXED          0  -0.0%   0.000       0.000       2.000       2.000       0.000      0.1000E-19   0.000    
    4606   4.606      0.1000E-02 FIXED          0   0.0%   0.000       0.000       2.000       2.000       0.000      0.1000E-19   0.000    
    4607   4.607      0.1000E-02 FIXED          0  -0.0%   0.000       0.000       2.000       2.000       0.000      0.1000E-19   0.000    
    4608   4.608      0.1000E-02 FIXED          0   0.0%   0.000       0.000       2.000       2.000       0.000      0.1000E-19   0.000    
    4609   4.609      0.1000E-02 FIXED          0  -0.0%   0.000       0.000       2.000       2.000       0.000      0.1000E-19   0.000    
    4610   4.610      0.1000E-02 FIXED          0   0.0%   0.000       0.000       2.000       2.000       0.000      0.1000E-19   0.000    
    4611   4.611      0.1000E-02 FIXED          0  -0.0%   0.000       0.000       2.000       2.000       0.000      0.1000E-19   0.000    
    4612   4.612      0.1000E-02 FIXED          0  -0.0%   0.000       0.000       2.000       2.000       0.000      0.1000E-19   0.000    
    4613   4.613      0.1000E-02 FIXED          0   0.0%   0.000       0.000       2.000       2.000       0.000      0.1000E-19   0.000    
    4614   4.614      0.1000E-02 FIXED          0  -0.0%   0.000       0.000       2.000       2.000       0.000      0.1000E-19   0.000    
    4615   4.615      0.1000E-02 FIXED          0   0.0%   0.000       0.000       2.000       2.000       0.000      0.1000E-19   0.000    
    4616   4.616      0.1000E-02 FIXED          0  -0.0%   0.000       0.000       2.000       2.000       0.000      0.1000E-19   0.000    
    4617   4.617      0.1000E-02 FIXED          0   0.0%   0.000       0.000       2.000       2.000       0.000      0.1000E-19   0.000    
    4618   4.618      0.1000E-02 FIXED          0   0.0%   0.000       0.000       2.000       2.000       0.000      0.1000E-19   0.000    
    4619   4.619      0.1000E-02 FIXED          0   0.0%   0.000       0.000       2.000       2.000       0.000      0.1000E-19   0.000    
   CYCLE    TIME      TIME-STEP  ELEMENT          ERROR  I-ENERGY    K-ENERGY T  K-ENERGY R  EXT-WORK     MAS.ERR     TOTAL MASS  MASS ADDED
    4620   4.620      0.1000E-02 FIXED          0   0.0%   0.000       0.000       2.000       2.000       0.000      0.1000E-19   0.000    
    4621   4.621      0.1000E-02 FIXED          0   0.0%   0.000       0.000       2.000       2.000       0.000      0.1000E-19   0.000    
    4622   4.622      0.1000E-02 FIXED          0  -0.0%   0.000       0.000       2.000       2.000       0.000      0.1000E-19   0.000    
    4623   4.623      0.1000E-02 FIXED          0  -0.0%   0.000       0.000       2.000       2.000       0.000      0.1000E-19   0.000    
    4624   4.624      0.1000E-02 FIXED          0   0.0%   0.000       0.000       2.000       2.000       0.000      0.1000E-19   0.000    
    4625   4.625      0.1000E-02 FIXED          0  -0.0%   0.000       0.000       2.000       2.000       0.000      0.1000E-19   0.000    
    4626   4.626      0.1000E-02 FIXED          0   0.0%   0.000       0.000       2.000       2.000       0.000      0.1000E-19   0.000    
    4627   4.627      0.1000E-02 FIXED          0   0.0%   0.000       0.000       2.000       2.000       0.000      0.1000E-19   0.000    
    4628   4.628      0.1000E-02 FIXED          0   0.0%   0.000       0.000       2.000       2.000       0.000      0.1000E-19   0.000    
    4629   4.629      0.1000E-02 FIXED          0   0.0%   0.000       0.000       2.000       2.000       0.000      0.1000E-19   0.000    
    4630   4.630      0.1000E-02 FIXED          0   0.0%   0.000       0.000       2.000       2.000       0.000      0.1000E-19   0.000    
    4631   4.631      0.1000E-02 FIXED          0  -0.0%   0.000       0.000       2.000       2.000       0.000      0.1000E-19   0.000    
    4632   4.632      0.1000E-02 FIXED          0   0.0%   0.000       0.000       2.000       2.000       0.000      0.1000E-19   0.000    
    4633   4.633      0.1000E-02 FIXED          0   0.0%   0.000       0.000       2.000       2.000       0.000      0.1000E-19   0.000    
    4634   4.634      0.1000E-02 FIXED          0   0.0%   0.000       0.000       2.000       2.000       0.000      0.1000E-19   0.000    
    4635   4.635      0.1000E-02 FIXED          0  -0.0%   0.000       0.000       2.000       2.000       0.000      0.1000E-19   0.000    
    4636   4.636      0.1000E-02 FIXED          0   0.0%   0.000       0.000       2.000       2.000       0.000      0.1000E-19   0.000    
    4637   4.637      0.1000E-02 FIXED          0   0.0%   0.000       0.000       2.000       2.000       0.000      0.1000E-19   0.000    
    4638   4.638      0.1000E-02 FIXED          0   0.0%   0.000       0.000       2.000       2.000       0.000      0.1000E-19   0.000    
    4639   4.639      0.1000E-02 FIXED          0   0.0%   0.000       0.000       2.000       2.000       0.000      0.1000E-19   0.000    
    4640   4.640      0.1000E-02 FIXED          0   0.0%   0.000       0.000       2.000       2.000       0.000      0.1000E-19   0.000    
    4641   4.641      0.1000E-02 FIXED          0   0.0%   0.000       0.000       2.000       2.000       0.000      0.1000E-19   0.000    
    4642   4.642      0.1000E-02 FIXED          0   0.0%   0.000       0.000       2.000       2.000       0.000      0.1000E-19   0.000    
    4643   4.643      0.1000E-02 FIXED          0  -0.0%   0.000       0.000       2.000       2.000       0.000      0.1000E-19   0.000    
    4644   4.644      0.1000E-02 FIXED          0   0.0%   0.000       0.000       2.000       2.000       0.000      0.1000E-19   0.000    
    4645   4.645      0.1000E-02 FIXED          0   0.0%   0.000       0.000       2.000       2.000       0.000      0.1000E-19   0.000    
    4646   4.646      0.1000E-02 FIXED          0   0.0%   0.000       0.000       2.000       2.000       0.000      0.1000E-19   0.000    
    4647   4.647      0.1000E-02 FIXED          0   0.0%   0.000       0.000       2.000       2.000       0.000      0.1000E-19   0.000    
    4648   4.648      0.1000E-02 FIXED          0  -0.0%   0.000       0.000       2.000       2.000       0.000      0.1000E-19   0.000    
    4649   4.649      0.1000E-02 FIXED          0   0.0%   0.000       0.000       2.000       2.000       0.000      0.1000E-19   0.000    
    4650   4.650      0.1000E-02 FIXED          0  -0.0%   0.000       0.000       2.000       2.000       0.000      0.1000E-19   0.000    
    4651   4.651      0.1000E-02 FIXED          0   0.0%   0.000       0.000       2.000       2.000       0.000      0.1000E-19   0.000    
    4652   4.652      0.1000E-02 FIXED          0   0.0%   0.000       0.000       2.000       2.000       0.000      0.1000E-19   0.000    
    4653   4.653      0.1000E-02 FIXED          0  -0.0%   0.000       0.000       2.000       2.000       0.000      0.1000E-19   0.000    
    4654   4.654      0.1000E-02 FIXED          0   0.0%   0.000       0.000       2.000       2.000       0.000      0.1000E-19   0.000    
    4655   4.655      0.1000E-02 FIXED          0  -0.0%   0.000       0.000       2.000       2.000       0.000      0.1000E-19   0.000    
    4656   4.656      0.1000E-02 FIXED          0   0.0%   0.000       0.000       2.000       2.000       0.000      0.1000E-19   0.000    
    4657   4.657      0.1000E-02 FIXED          0   0.0%   0.000       0.000       2.000       2.000       0.000      0.1000E-19   0.000    
    4658   4.658      0.1000E-02 FIXED          0   0.0%   0.000       0.000       2.000       2.000       0.000      0.1000E-19   0.000    
    4659   4.659      0.1000E-02 FIXED          0   0.0%   0.000       0.000       2.000       2.000       0.000      0.1000E-19   0.000    
    4660   4.660      0.1000E-02 FIXED          0   0.0%   0.000       0.000       2.000       2.000       0.000      0.1000E-19   0.000    
    4661   4.661      0.1000E-02 FIXED          0   0.0%   0.000       0.000       2.000       2.000       0.000      0.1000E-19   0.000    
    4662   4.662      0.1000E-02 FIXED          0  -0.0%   0.000       0.000       2.000       2.000       0.000      0.1000E-19   0.000    
    4663   4.663      0.1000E-02 FIXED          0   0.0%   0.000       0.000       2.000       2.000       0.000      0.1000E-19   0.000    
    4664   4.664      0.1000E-02 FIXED          0   0.0%   0.000       0.000       2.000       2.000       0.000      0.1000E-19   0.000    
    4665   4.665      0.1000E-02 FIXED          0   0.0%   0.000       0.000       2.000       2.000       0.000      0.1000E-19   0.000    
    4666   4.666      0.1000E-02 FIXED          0   0.0%   0.000       0.000       2.000       2.000       0.000      0.1000E-19   0.000    
    4667   4.667      0.1000E-02 FIXED          0   0.0%   0.000       0.000       2.000       2.000       0.000      0.1000E-19   0.000    
    4668   4.668      0.1000E-02 FIXED          0   0.0%   0.000       0.000       2.000       2.000       0.000      0.1000E-19   0.000    
    4669   4.669      0.1000E-02 FIXED          0   0.0%   0.000       0.000       2.000       2.000       0.000      0.1000E-19   0.000    
    4670   4.670      0.1000E-02 FIXED          0   0.0%   0.000       0.000       2.000       2.000       0.000      0.1000E-19   0.000    
    4671   4.671      0.1000E-02 FIXED          0   0.0%   0.000       0.000       2.000       2.000       0.000      0.1000E-19   0.000    
    4672   4.672      0.1000E-02 FIXED          0   0.0%   0.000       0.000       2.000       2.000       0.000      0.1000E-19   0.000    
    4673   4.673      0.1000E-02 FIXED          0   0.0%   0.000       0.000       2.000       2.000       0.000      0.1000E-19   0.000    
    4674   4.674      0.1000E-02 FIXED          0   0.0%   0.000       0.000       2.000       2.000       0.000      0.1000E-19   0.000    
   CYCLE    TIME      TIME-STEP  ELEMENT          ERROR  I-ENERGY    K-ENERGY T  K-ENERGY R  EXT-WORK     MAS.ERR     TOTAL MASS  MASS ADDED
    4675   4.675      0.1000E-02 FIXED          0  -0.0%   0.000       0.000       2.000       2.000       0.000      0.1000E-19   0.000    
    4676   4.676      0.1000E-02 FIXED          0   0.0%   0.000       0.000       2.000       2.000       0.000      0.1000E-19   0.000    
    4677   4.677      0.1000E-02 FIXED          0  -0.0%   0.000       0.000       2.000       2.000       0.000      0.1000E-19   0.000    
    4678   4.678      0.1000E-02 FIXED          0   0.0%   0.000       0.000       2.000       2.000       0.000      0.1000E-19   0.000    
    4679   4.679      0.1000E-02 FIXED          0   0.0%   0.000       0.000       2.000       2.000       0.000      0.1000E-19   0.000    
    4680   4.680      0.1000E-02 FIXED          0   0.0%   0.000       0.000       2.000       2.000       0.000      0.1000E-19   0.000    
    4681   4.681      0.1000E-02 FIXED          0  -0.0%   0.000       0.000       2.000       2.000       0.000      0.1000E-19   0.000    
    4682   4.682      0.1000E-02 FIXED          0   0.0%   0.000       0.000       2.000       2.000       0.000      0.1000E-19   0.000    
    4683   4.683      0.1000E-02 FIXED          0  -0.0%   0.000       0.000       2.000       2.000       0.000      0.1000E-19   0.000    
    4684   4.684      0.1000E-02 FIXED          0  -0.0%   0.000       0.000       2.000       2.000       0.000      0.1000E-19   0.000    
    4685   4.685      0.1000E-02 FIXED          0   0.0%   0.000       0.000       2.000       2.000       0.000      0.1000E-19   0.000    
    4686   4.686      0.1000E-02 FIXED          0   0.0%   0.000       0.000       2.000       2.000       0.000      0.1000E-19   0.000    
    4687   4.687      0.1000E-02 FIXED          0   0.0%   0.000       0.000       2.000       2.000       0.000      0.1000E-19   0.000    
    4688   4.688      0.1000E-02 FIXED          0   0.0%   0.000       0.000       2.000       2.000       0.000      0.1000E-19   0.000    
    4689   4.689      0.1000E-02 FIXED          0  -0.0%   0.000       0.000       2.000       2.000       0.000      0.1000E-19   0.000    
    4690   4.690      0.1000E-02 FIXED          0  -0.0%   0.000       0.000       2.000       2.000       0.000      0.1000E-19   0.000    
    4691   4.691      0.1000E-02 FIXED          0  -0.0%   0.000       0.000       2.000       2.000       0.000      0.1000E-19   0.000    
    4692   4.692      0.1000E-02 FIXED          0   0.0%   0.000       0.000       2.000       2.000       0.000      0.1000E-19   0.000    
    4693   4.693      0.1000E-02 FIXED          0  -0.0%   0.000       0.000       2.000       2.000       0.000      0.1000E-19   0.000    
    4694   4.694      0.1000E-02 FIXED          0   0.0%   0.000       0.000       2.000       2.000       0.000      0.1000E-19   0.000    
    4695   4.695      0.1000E-02 FIXED          0   0.0%   0.000       0.000       2.000       2.000       0.000      0.1000E-19   0.000    
    4696   4.696      0.1000E-02 FIXED          0  -0.0%   0.000       0.000       2.000       2.000       0.000      0.1000E-19   0.000    
    4697   4.697      0.1000E-02 FIXED          0  -0.0%   0.000       0.000       2.000       2.000       0.000      0.1000E-19   0.000    
    4698   4.698      0.1000E-02 FIXED          0   0.0%   0.000       0.000       2.000       2.000       0.000      0.1000E-19   0.000    
    4699   4.699      0.1000E-02 FIXED          0   0.0%   0.000       0.000       2.000       2.000       0.000      0.1000E-19   0.000    
    4700   4.700      0.1000E-02 FIXED          0   0.0%   0.000       0.000       2.000       2.000       0.000      0.1000E-19   0.000    
    4701   4.701      0.1000E-02 FIXED          0   0.0%   0.000       0.000       2.000       2.000       0.000      0.1000E-19   0.000    
    4702   4.702      0.1000E-02 FIXED          0  -0.0%   0.000       0.000       2.000       2.000       0.000      0.1000E-19   0.000    
    4703   4.703      0.1000E-02 FIXED          0   0.0%   0.000       0.000       2.000       2.000       0.000      0.1000E-19   0.000    
    4704   4.704      0.1000E-02 FIXED          0   0.0%   0.000       0.000       2.000       2.000       0.000      0.1000E-19   0.000    
    4705   4.705      0.1000E-02 FIXED          0  -0.0%   0.000       0.000       2.000       2.000       0.000      0.1000E-19   0.000    
    4706   4.706      0.1000E-02 FIXED          0  -0.0%   0.000       0.000       2.000       2.000       0.000      0.1000E-19   0.000    
    4707   4.707      0.1000E-02 FIXED          0  -0.0%   0.000       0.000       2.000       2.000       0.000      0.1000E-19   0.000    
    4708   4.708      0.1000E-02 FIXED          0  -0.0%   0.000       0.000       2.000       2.000       0.000      0.1000E-19   0.000    
    4709   4.709      0.1000E-02 FIXED          0   0.0%   0.000       0.000       2.000       2.000       0.000      0.1000E-19   0.000    
    4710   4.710      0.1000E-02 FIXED          0  -0.0%   0.000       0.000       2.000       2.000       0.000      0.1000E-19   0.000    
    4711   4.711      0.1000E-02 FIXED          0   0.0%   0.000       0.000       2.000       2.000       0.000      0.1000E-19   0.000    
    4712   4.712      0.1000E-02 FIXED          0   0.0%   0.000       0.000       2.000       2.000       0.000      0.1000E-19   0.000    
    4713   4.713      0.1000E-02 FIXED          0  -0.0%   0.000       0.000       2.000       2.000       0.000      0.1000E-19   0.000    
    4714   4.714      0.1000E-02 FIXED          0   0.0%   0.000       0.000       2.000       2.000       0.000      0.1000E-19   0.000    
    4715   4.715      0.1000E-02 FIXED          0  -0.0%   0.000       0.000       2.000       2.000       0.000      0.1000E-19   0.000    
    4716   4.716      0.1000E-02 FIXED          0   0.0%   0.000       0.000       2.000       2.000       0.000      0.1000E-19   0.000    
    4717   4.717      0.1000E-02 FIXED          0  -0.0%   0.000       0.000       2.000       2.000       0.000      0.1000E-19   0.000    
    4718   4.718      0.1000E-02 FIXED          0  -0.0%   0.000       0.000       2.000       2.000       0.000      0.1000E-19   0.000    
    4719   4.719      0.1000E-02 FIXED          0  -0.0%   0.000       0.000       2.000       2.000       0.000      0.1000E-19   0.000    
    4720   4.720      0.1000E-02 FIXED          0   0.0%   0.000       0.000       2.000       2.000       0.000      0.1000E-19   0.000    
    4721   4.721      0.1000E-02 FIXED          0  -0.0%   0.000       0.000       2.000       2.000       0.000      0.1000E-19   0.000    
    4722   4.722      0.1000E-02 FIXED          0   0.0%   0.000       0.000       2.000       2.000       0.000      0.1000E-19   0.000    
    4723   4.723      0.1000E-02 FIXED          0   0.0%   0.000       0.000       2.000       2.000       0.000      0.1000E-19   0.000    
    4724   4.724      0.1000E-02 FIXED          0   0.0%   0.000       0.000       2.000       2.000       0.000      0.1000E-19   0.000    
    4725   4.725      0.1000E-02 FIXED          0  -0.0%   0.000       0.000       2.000       2.000       0.000      0.1000E-19   0.000    
    4726   4.726      0.1000E-02 FIXED          0   0.0%   0.000       0.000       2.000       2.000       0.000      0.1000E-19   0.000    
    4727   4.727      0.1000E-02 FIXED          0   0.0%   0.000       0.000       2.000       2.000       0.000      0.1000E-19   0.000    
    4728   4.728      0.1000E-02 FIXED          0  -0.0%   0.000       0.000       2.000       2.000       0.000      0.1000E-19   0.000    
    4729   4.729      0.1000E-02 FIXED          0  -0.0%   0.000       0.000       2.000       2.000       0.000      0.1000E-19   0.000    
   CYCLE    TIME      TIME-STEP  ELEMENT          ERROR  I-ENERGY    K-ENERGY T  K-ENERGY R  EXT-WORK     MAS.ERR     TOTAL MASS  MASS ADDED
    4730   4.730      0.1000E-02 FIXED          0   0.0%   0.000       0.000       2.000       2.000       0.000      0.1000E-19   0.000    
    4731   4.731      0.1000E-02 FIXED          0   0.0%   0.000       0.000       2.000       2.000       0.000      0.1000E-19   0.000    
    4732   4.732      0.1000E-02 FIXED          0  -0.0%   0.000       0.000       2.000       2.000       0.000      0.1000E-19   0.000    
    4733   4.733      0.1000E-02 FIXED          0   0.0%   0.000       0.000       2.000       2.000       0.000      0.1000E-19   0.000    
    4734   4.734      0.1000E-02 FIXED          0   0.0%   0.000       0.000       2.000       2.000       0.000      0.1000E-19   0.000    
    4735   4.735      0.1000E-02 FIXED          0   0.0%   0.000       0.000       2.000       2.000       0.000      0.1000E-19   0.000    
    4736   4.736      0.1000E-02 FIXED          0   0.0%   0.000       0.000       2.000       2.000       0.000      0.1000E-19   0.000    
    4737   4.737      0.1000E-02 FIXED          0  -0.0%   0.000       0.000       2.000       2.000       0.000      0.1000E-19   0.000    
    4738   4.738      0.1000E-02 FIXED          0   0.0%   0.000       0.000       2.000       2.000       0.000      0.1000E-19   0.000    
    4739   4.739      0.1000E-02 FIXED          0  -0.0%   0.000       0.000       2.000       2.000       0.000      0.1000E-19   0.000    
    4740   4.740      0.1000E-02 FIXED          0   0.0%   0.000       0.000       2.000       2.000       0.000      0.1000E-19   0.000    
    4741   4.741      0.1000E-02 FIXED          0   0.0%   0.000       0.000       2.000       2.000       0.000      0.1000E-19   0.000    
    4742   4.742      0.1000E-02 FIXED          0  -0.0%   0.000       0.000       2.000       2.000       0.000      0.1000E-19   0.000    
    4743   4.743      0.1000E-02 FIXED          0   0.0%   0.000       0.000       2.000       2.000       0.000      0.1000E-19   0.000    
    4744   4.744      0.1000E-02 FIXED          0  -0.0%   0.000       0.000       2.000       2.000       0.000      0.1000E-19   0.000    
    4745   4.745      0.1000E-02 FIXED          0   0.0%   0.000       0.000       2.000       2.000       0.000      0.1000E-19   0.000    
    4746   4.746      0.1000E-02 FIXED          0  -0.0%   0.000       0.000       2.000       2.000       0.000      0.1000E-19   0.000    
    4747   4.747      0.1000E-02 FIXED          0  -0.0%   0.000       0.000       2.000       2.000       0.000      0.1000E-19   0.000    
    4748   4.748      0.1000E-02 FIXED          0   0.0%   0.000       0.000       2.000       2.000       0.000      0.1000E-19   0.000    
    4749   4.749      0.1000E-02 FIXED          0  -0.0%   0.000       0.000       2.000       2.000       0.000      0.1000E-19   0.000    
    4750   4.750      0.1000E-02 FIXED          0   0.0%   0.000       0.000       2.000       2.000       0.000      0.1000E-19   0.000    
    4751   4.751      0.1000E-02 FIXED          0  -0.0%   0.000       0.000       2.000       2.000       0.000      0.1000E-19   0.000    
    4752   4.752      0.1000E-02 FIXED          0   0.0%   0.000       0.000       2.000       2.000       0.000      0.1000E-19   0.000    
    4753   4.753      0.1000E-02 FIXED          0  -0.0%   0.000       0.000       2.000       2.000       0.000      0.1000E-19   0.000    
    4754   4.754      0.1000E-02 FIXED          0   0.0%   0.000       0.000       2.000       2.000       0.000      0.1000E-19   0.000    
    4755   4.755      0.1000E-02 FIXED          0  -0.0%   0.000       0.000       2.000       2.000       0.000      0.1000E-19   0.000    
    4756   4.756      0.1000E-02 FIXED          0   0.0%   0.000       0.000       2.000       2.000       0.000      0.1000E-19   0.000    
    4757   4.757      0.1000E-02 FIXED          0   0.0%   0.000       0.000       2.000       2.000       0.000      0.1000E-19   0.000    
    4758   4.758      0.1000E-02 FIXED          0   0.0%   0.000       0.000       2.000       2.000       0.000      0.1000E-19   0.000    
    4759   4.759      0.1000E-02 FIXED          0  -0.0%   0.000       0.000       2.000       2.000       0.000      0.1000E-19   0.000    
    4760   4.760      0.1000E-02 FIXED          0  -0.0%   0.000       0.000       2.000       2.000       0.000      0.1000E-19   0.000    
    4761   4.761      0.1000E-02 FIXED          0   0.0%   0.000       0.000       2.000       2.000       0.000      0.1000E-19   0.000    
    4762   4.762      0.1000E-02 FIXED          0   0.0%   0.000       0.000       2.000       2.000       0.000      0.1000E-19   0.000    
    4763   4.763      0.1000E-02 FIXED          0  -0.0%   0.000       0.000       2.000       2.000       0.000      0.1000E-19   0.000    
    4764   4.764      0.1000E-02 FIXED          0  -0.0%   0.000       0.000       2.000       2.000       0.000      0.1000E-19   0.000    
    4765   4.765      0.1000E-02 FIXED          0  -0.0%   0.000       0.000       2.000       2.000       0.000      0.1000E-19   0.000    
    4766   4.766      0.1000E-02 FIXED          0  -0.0%   0.000       0.000       2.000       2.000       0.000      0.1000E-19   0.000    
    4767   4.767      0.1000E-02 FIXED          0   0.0%   0.000       0.000       2.000       2.000       0.000      0.1000E-19   0.000    
    4768   4.768      0.1000E-02 FIXED          0  -0.0%   0.000       0.000       2.000       2.000       0.000      0.1000E-19   0.000    
    4769   4.769      0.1000E-02 FIXED          0   0.0%   0.000       0.000       2.000       2.000       0.000      0.1000E-19   0.000    
    4770   4.770      0.1000E-02 FIXED          0   0.0%   0.000       0.000       2.000       2.000       0.000      0.1000E-19   0.000    
    4771   4.771      0.1000E-02 FIXED          0   0.0%   0.000       0.000       2.000       2.000       0.000      0.1000E-19   0.000    
    4772   4.772      0.1000E-02 FIXED          0   0.0%   0.000       0.000       2.000       2.000       0.000      0.1000E-19   0.000    
    4773   4.773      0.1000E-02 FIXED          0  -0.0%   0.000       0.000       2.000       2.000       0.000      0.1000E-19   0.000    
    4774   4.774      0.1000E-02 FIXED          0   0.0%   0.000       0.000       2.000       2.000       0.000      0.1000E-19   0.000    
    4775   4.775      0.1000E-02 FIXED          0  -0.0%   0.000       0.000       2.000       2.000       0.000      0.1000E-19   0.000    
    4776   4.776      0.1000E-02 FIXED          0  -0.0%   0.000       0.000       2.000       2.000       0.000      0.1000E-19   0.000    
    4777   4.777      0.1000E-02 FIXED          0   0.0%   0.000       0.000       2.000       2.000       0.000      0.1000E-19   0.000    
    4778   4.778      0.1000E-02 FIXED          0  -0.0%   0.000       0.000       2.000       2.000       0.000      0.1000E-19   0.000    
    4779   4.779      0.1000E-02 FIXED          0  -0.0%   0.000       0.000       2.000       2.000       0.000      0.1000E-19   0.000    
    4780   4.780      0.1000E-02 FIXED          0  -0.0%   0.000       0.000       2.000       2.000       0.000      0.1000E-19   0.000    
    4781   4.781      0.1000E-02 FIXED          0   0.0%   0.000       0.000       2.000       2.000       0.000      0.1000E-19   0.000    
    4782   4.782      0.1000E-02 FIXED          0   0.0%   0.000       0.000       2.000       2.000       0.000      0.1000E-19   0.000    
    4783   4.783      0.1000E-02 FIXED          0   0.0%   0.000       0.000       2.000       2.000       0.000      0.1000E-19   0.000    
    4784   4.784      0.1000E-02 FIXED          0  -0.0%   0.000       0.000       2.000       2.000       0.000      0.1000E-19   0.000    
   CYCLE    TIME      TIME-STEP  ELEMENT          ERROR  I-ENERGY    K-ENERGY T  K-ENERGY R  EXT-WORK     MAS.ERR     TOTAL MASS  MASS ADDED
    4785   4.785      0.1000E-02 FIXED          0  -0.0%   0.000       0.000       2.000       2.000       0.000      0.1000E-19   0.000    
    4786   4.786      0.1000E-02 FIXED          0   0.0%   0.000       0.000       2.000       2.000       0.000      0.1000E-19   0.000    
    4787   4.787      0.1000E-02 FIXED          0  -0.0%   0.000       0.000       2.000       2.000       0.000      0.1000E-19   0.000    
    4788   4.788      0.1000E-02 FIXED          0   0.0%   0.000       0.000       2.000       2.000       0.000      0.1000E-19   0.000    
    4789   4.789      0.1000E-02 FIXED          0   0.0%   0.000       0.000       2.000       2.000       0.000      0.1000E-19   0.000    
    4790   4.790      0.1000E-02 FIXED          0  -0.0%   0.000       0.000       2.000       2.000       0.000      0.1000E-19   0.000    
    4791   4.791      0.1000E-02 FIXED          0   0.0%   0.000       0.000       2.000       2.000       0.000      0.1000E-19   0.000    
    4792   4.792      0.1000E-02 FIXED          0  -0.0%   0.000       0.000       2.000       2.000       0.000      0.1000E-19   0.000    
    4793   4.793      0.1000E-02 FIXED          0   0.0%   0.000       0.000       2.000       2.000       0.000      0.1000E-19   0.000    
    4794   4.794      0.1000E-02 FIXED          0   0.0%   0.000       0.000       2.000       2.000       0.000      0.1000E-19   0.000    
    4795   4.795      0.1000E-02 FIXED          0   0.0%   0.000       0.000       2.000       2.000       0.000      0.1000E-19   0.000    
    4796   4.796      0.1000E-02 FIXED          0  -0.0%   0.000       0.000       2.000       2.000       0.000      0.1000E-19   0.000    
    4797   4.797      0.1000E-02 FIXED          0   0.0%   0.000       0.000       2.000       2.000       0.000      0.1000E-19   0.000    
    4798   4.798      0.1000E-02 FIXED          0   0.0%   0.000       0.000       2.000       2.000       0.000      0.1000E-19   0.000    
    4799   4.799      0.1000E-02 FIXED          0  -0.0%   0.000       0.000       2.000       2.000       0.000      0.1000E-19   0.000    
    4800   4.800      0.1000E-02 FIXED          0   0.0%   0.000       0.000       2.000       2.000       0.000      0.1000E-19   0.000    
    4801   4.801      0.1000E-02 FIXED          0  -0.0%   0.000       0.000       2.000       2.000       0.000      0.1000E-19   0.000    
    4802   4.802      0.1000E-02 FIXED          0   0.0%   0.000       0.000       2.000       2.000       0.000      0.1000E-19   0.000    
    4803   4.803      0.1000E-02 FIXED          0  -0.0%   0.000       0.000       2.000       2.000       0.000      0.1000E-19   0.000    
    4804   4.804      0.1000E-02 FIXED          0  -0.0%   0.000       0.000       2.000       2.000       0.000      0.1000E-19   0.000    
    4805   4.805      0.1000E-02 FIXED          0  -0.0%   0.000       0.000       2.000       2.000       0.000      0.1000E-19   0.000    
    4806   4.806      0.1000E-02 FIXED          0   0.0%   0.000       0.000       2.000       2.000       0.000      0.1000E-19   0.000    
    4807   4.807      0.1000E-02 FIXED          0   0.0%   0.000       0.000       2.000       2.000       0.000      0.1000E-19   0.000    
    4808   4.808      0.1000E-02 FIXED          0   0.0%   0.000       0.000       2.000       2.000       0.000      0.1000E-19   0.000    
    4809   4.809      0.1000E-02 FIXED          0   0.0%   0.000       0.000       2.000       2.000       0.000      0.1000E-19   0.000    
    4810   4.810      0.1000E-02 FIXED          0  -0.0%   0.000       0.000       2.000       2.000       0.000      0.1000E-19   0.000    
    4811   4.811      0.1000E-02 FIXED          0   0.0%   0.000       0.000       2.000       2.000       0.000      0.1000E-19   0.000    
    4812   4.812      0.1000E-02 FIXED          0  -0.0%   0.000       0.000       2.000       2.000       0.000      0.1000E-19   0.000    
    4813   4.813      0.1000E-02 FIXED          0   0.0%   0.000       0.000       2.000       2.000       0.000      0.1000E-19   0.000    
    4814   4.814      0.1000E-02 FIXED          0  -0.0%   0.000       0.000       2.000       2.000       0.000      0.1000E-19   0.000    
    4815   4.815      0.1000E-02 FIXED          0   0.0%   0.000       0.000       2.000       2.000       0.000      0.1000E-19   0.000    
    4816   4.816      0.1000E-02 FIXED          0   0.0%   0.000       0.000       2.000       2.000       0.000      0.1000E-19   0.000    
    4817   4.817      0.1000E-02 FIXED          0   0.0%   0.000       0.000       2.000       2.000       0.000      0.1000E-19   0.000    
    4818   4.818      0.1000E-02 FIXED          0   0.0%   0.000       0.000       2.000       2.000       0.000      0.1000E-19   0.000    
    4819   4.819      0.1000E-02 FIXED          0   0.0%   0.000       0.000       2.000       2.000       0.000      0.1000E-19   0.000    
    4820   4.820      0.1000E-02 FIXED          0  -0.0%   0.000       0.000       2.000       2.000       0.000      0.1000E-19   0.000    
    4821   4.821      0.1000E-02 FIXED          0  -0.0%   0.000       0.000       2.000       2.000       0.000      0.1000E-19   0.000    
    4822   4.822      0.1000E-02 FIXED          0   0.0%   0.000       0.000       2.000       2.000       0.000      0.1000E-19   0.000    
    4823   4.823      0.1000E-02 FIXED          0   0.0%   0.000       0.000       2.000       2.000       0.000      0.1000E-19   0.000    
    4824   4.824      0.1000E-02 FIXED          0   0.0%   0.000       0.000       2.000       2.000       0.000      0.1000E-19   0.000    
    4825   4.825      0.1000E-02 FIXED          0  -0.0%   0.000       0.000       2.000       2.000       0.000      0.1000E-19   0.000    
    4826   4.826      0.1000E-02 FIXED          0  -0.0%   0.000       0.000       2.000       2.000       0.000      0.1000E-19   0.000    
    4827   4.827      0.1000E-02 FIXED          0   0.0%   0.000       0.000       2.000       2.000       0.000      0.1000E-19   0.000    
    4828   4.828      0.1000E-02 FIXED          0   0.0%   0.000       0.000       2.000       2.000       0.000      0.1000E-19   0.000    
    4829   4.829      0.1000E-02 FIXED          0  -0.0%   0.000       0.000       2.000       2.000       0.000      0.1000E-19   0.000    
    4830   4.830      0.1000E-02 FIXED          0   0.0%   0.000       0.000       2.000       2.000       0.000      0.1000E-19   0.000    
    4831   4.831      0.1000E-02 FIXED          0  -0.0%   0.000       0.000       2.000       2.000       0.000      0.1000E-19   0.000    
    4832   4.832      0.1000E-02 FIXED          0   0.0%   0.000       0.000       2.000       2.000       0.000      0.1000E-19   0.000    
    4833   4.833      0.1000E-02 FIXED          0   0.0%   0.000       0.000       2.000       2.000       0.000      0.1000E-19   0.000    
    4834   4.834      0.1000E-02 FIXED          0   0.0%   0.000       0.000       2.000       2.000       0.000      0.1000E-19   0.000    
    4835   4.835      0.1000E-02 FIXED          0   0.0%   0.000       0.000       2.000       2.000       0.000      0.1000E-19   0.000    
    4836   4.836      0.1000E-02 FIXED          0  -0.0%   0.000       0.000       2.000       2.000       0.000      0.1000E-19   0.000    
    4837   4.837      0.1000E-02 FIXED          0  -0.0%   0.000       0.000       2.000       2.000       0.000      0.1000E-19   0.000    
    4838   4.838      0.1000E-02 FIXED          0   0.0%   0.000       0.000       2.000       2.000       0.000      0.1000E-19   0.000    
    4839   4.839      0.1000E-02 FIXED          0  -0.0%   0.000       0.000       2.000       2.000       0.000      0.1000E-19   0.000    
   CYCLE    TIME      TIME-STEP  ELEMENT          ERROR  I-ENERGY    K-ENERGY T  K-ENERGY R  EXT-WORK     MAS.ERR     TOTAL MASS  MASS ADDED
    4840   4.840      0.1000E-02 FIXED          0   0.0%   0.000       0.000       2.000       2.000       0.000      0.1000E-19   0.000    
    4841   4.841      0.1000E-02 FIXED          0  -0.0%   0.000       0.000       2.000       2.000       0.000      0.1000E-19   0.000    
    4842   4.842      0.1000E-02 FIXED          0   0.0%   0.000       0.000       2.000       2.000       0.000      0.1000E-19   0.000    
    4843   4.843      0.1000E-02 FIXED          0   0.0%   0.000       0.000       2.000       2.000       0.000      0.1000E-19   0.000    
    4844   4.844      0.1000E-02 FIXED          0   0.0%   0.000       0.000       2.000       2.000       0.000      0.1000E-19   0.000    
    4845   4.845      0.1000E-02 FIXED          0   0.0%   0.000       0.000       2.000       2.000       0.000      0.1000E-19   0.000    
    4846   4.846      0.1000E-02 FIXED          0  -0.0%   0.000       0.000       2.000       2.000       0.000      0.1000E-19   0.000    
    4847   4.847      0.1000E-02 FIXED          0   0.0%   0.000       0.000       2.000       2.000       0.000      0.1000E-19   0.000    
    4848   4.848      0.1000E-02 FIXED          0   0.0%   0.000       0.000       2.000       2.000       0.000      0.1000E-19   0.000    
    4849   4.849      0.1000E-02 FIXED          0  -0.0%   0.000       0.000       2.000       2.000       0.000      0.1000E-19   0.000    
    4850   4.850      0.1000E-02 FIXED          0  -0.0%   0.000       0.000       2.000       2.000       0.000      0.1000E-19   0.000    
    4851   4.851      0.1000E-02 FIXED          0   0.0%   0.000       0.000       2.000       2.000       0.000      0.1000E-19   0.000    
    4852   4.852      0.1000E-02 FIXED          0   0.0%   0.000       0.000       2.000       2.000       0.000      0.1000E-19   0.000    
    4853   4.853      0.1000E-02 FIXED          0  -0.0%   0.000       0.000       2.000       2.000       0.000      0.1000E-19   0.000    
    4854   4.854      0.1000E-02 FIXED          0   0.0%   0.000       0.000       2.000       2.000       0.000      0.1000E-19   0.000    
    4855   4.855      0.1000E-02 FIXED          0  -0.0%   0.000       0.000       2.000       2.000       0.000      0.1000E-19   0.000    
    4856   4.856      0.1000E-02 FIXED          0   0.0%   0.000       0.000       2.000       2.000       0.000      0.1000E-19   0.000    
    4857   4.857      0.1000E-02 FIXED          0   0.0%   0.000       0.000       2.000       2.000       0.000      0.1000E-19   0.000    
    4858   4.858      0.1000E-02 FIXED          0   0.0%   0.000       0.000       2.000       2.000       0.000      0.1000E-19   0.000    
    4859   4.859      0.1000E-02 FIXED          0   0.0%   0.000       0.000       2.000       2.000       0.000      0.1000E-19   0.000    
    4860   4.860      0.1000E-02 FIXED          0   0.0%   0.000       0.000       2.000       2.000       0.000      0.1000E-19   0.000    
    4861   4.861      0.1000E-02 FIXED          0  -0.0%   0.000       0.000       2.000       2.000       0.000      0.1000E-19   0.000    
    4862   4.862      0.1000E-02 FIXED          0  -0.0%   0.000       0.000       2.000       2.000       0.000      0.1000E-19   0.000    
    4863   4.863      0.1000E-02 FIXED          0   0.0%   0.000       0.000       2.000       2.000       0.000      0.1000E-19   0.000    
    4864   4.864      0.1000E-02 FIXED          0   0.0%   0.000       0.000       2.000       2.000       0.000      0.1000E-19   0.000    
    4865   4.865      0.1000E-02 FIXED          0  -0.0%   0.000       0.000       2.000       2.000       0.000      0.1000E-19   0.000    
    4866   4.866      0.1000E-02 FIXED          0   0.0%   0.000       0.000       2.000       2.000       0.000      0.1000E-19   0.000    
    4867   4.867      0.1000E-02 FIXED          0   0.0%   0.000       0.000       2.000       2.000       0.000      0.1000E-19   0.000    
    4868   4.868      0.1000E-02 FIXED          0  -0.0%   0.000       0.000       2.000       2.000       0.000      0.1000E-19   0.000    
    4869   4.869      0.1000E-02 FIXED          0  -0.0%   0.000       0.000       2.000       2.000       0.000      0.1000E-19   0.000    
    4870   4.870      0.1000E-02 FIXED          0   0.0%   0.000       0.000       2.000       2.000       0.000      0.1000E-19   0.000    
    4871   4.871      0.1000E-02 FIXED          0  -0.0%   0.000       0.000       2.000       2.000       0.000      0.1000E-19   0.000    
    4872   4.872      0.1000E-02 FIXED          0   0.0%   0.000       0.000       2.000       2.000       0.000      0.1000E-19   0.000    
    4873   4.873      0.1000E-02 FIXED          0  -0.0%   0.000       0.000       2.000       2.000       0.000      0.1000E-19   0.000    
    4874   4.874      0.1000E-02 FIXED          0  -0.0%   0.000       0.000       2.000       2.000       0.000      0.1000E-19   0.000    
    4875   4.875      0.1000E-02 FIXED          0  -0.0%   0.000       0.000       2.000       2.000       0.000      0.1000E-19   0.000    
    4876   4.876      0.1000E-02 FIXED          0   0.0%   0.000       0.000       2.000       2.000       0.000      0.1000E-19   0.000    
    4877   4.877      0.1000E-02 FIXED          0   0.0%   0.000       0.000       2.000       2.000       0.000      0.1000E-19   0.000    
    4878   4.878      0.1000E-02 FIXED          0   0.0%   0.000       0.000       2.000       2.000       0.000      0.1000E-19   0.000    
    4879   4.879      0.1000E-02 FIXED          0   0.0%   0.000       0.000       2.000       2.000       0.000      0.1000E-19   0.000    
    4880   4.880      0.1000E-02 FIXED          0  -0.0%   0.000       0.000       2.000       2.000       0.000      0.1000E-19   0.000    
    4881   4.881      0.1000E-02 FIXED          0   0.0%   0.000       0.000       2.000       2.000       0.000      0.1000E-19   0.000    
    4882   4.882      0.1000E-02 FIXED          0  -0.0%   0.000       0.000       2.000       2.000       0.000      0.1000E-19   0.000    
    4883   4.883      0.1000E-02 FIXED          0   0.0%   0.000       0.000       2.000       2.000       0.000      0.1000E-19   0.000    
    4884   4.884      0.1000E-02 FIXED          0  -0.0%   0.000       0.000       2.000       2.000       0.000      0.1000E-19   0.000    
    4885   4.885      0.1000E-02 FIXED          0   0.0%   0.000       0.000       2.000       2.000       0.000      0.1000E-19   0.000    
    4886   4.886      0.1000E-02 FIXED          0  -0.0%   0.000       0.000       2.000       2.000       0.000      0.1000E-19   0.000    
    4887   4.887      0.1000E-02 FIXED          0   0.0%   0.000       0.000       2.000       2.000       0.000      0.1000E-19   0.000    
    4888   4.888      0.1000E-02 FIXED          0  -0.0%   0.000       0.000       2.000       2.000       0.000      0.1000E-19   0.000    
    4889   4.889      0.1000E-02 FIXED          0  -0.0%   0.000       0.000       2.000       2.000       0.000      0.1000E-19   0.000    
    4890   4.890      0.1000E-02 FIXED          0   0.0%   0.000       0.000       2.000       2.000       0.000      0.1000E-19   0.000    
    4891   4.891      0.1000E-02 FIXED          0   0.0%   0.000       0.000       2.000       2.000       0.000      0.1000E-19   0.000    
    4892   4.892      0.1000E-02 FIXED          0   0.0%   0.000       0.000       2.000       2.000       0.000      0.1000E-19   0.000    
    4893   4.893      0.1000E-02 FIXED          0  -0.0%   0.000       0.000       2.000       2.000       0.000      0.1000E-19   0.000    
    4894   4.894      0.1000E-02 FIXED          0   0.0%   0.000       0.000       2.000       2.000       0.000      0.1000E-19   0.000    
   CYCLE    TIME      TIME-STEP  ELEMENT          ERROR  I-ENERGY    K-ENERGY T  K-ENERGY R  EXT-WORK     MAS.ERR     TOTAL MASS  MASS ADDED
    4895   4.895      0.1000E-02 FIXED          0   0.0%   0.000       0.000       2.000       2.000       0.000      0.1000E-19   0.000    
    4896   4.896      0.1000E-02 FIXED          0   0.0%   0.000       0.000       2.000       2.000       0.000      0.1000E-19   0.000    
    4897   4.897      0.1000E-02 FIXED          0  -0.0%   0.000       0.000       2.000       2.000       0.000      0.1000E-19   0.000    
    4898   4.898      0.1000E-02 FIXED          0  -0.0%   0.000       0.000       2.000       2.000       0.000      0.1000E-19   0.000    
    4899   4.899      0.1000E-02 FIXED          0   0.0%   0.000       0.000       2.000       2.000       0.000      0.1000E-19   0.000    
    4900   4.900      0.1000E-02 FIXED          0   0.0%   0.000       0.000       2.000       2.000       0.000      0.1000E-19   0.000    
    4901   4.901      0.1000E-02 FIXED          0   0.0%   0.000       0.000       2.000       2.000       0.000      0.1000E-19   0.000    
    4902   4.902      0.1000E-02 FIXED          0  -0.0%   0.000       0.000       2.000       2.000       0.000      0.1000E-19   0.000    
    4903   4.903      0.1000E-02 FIXED          0   0.0%   0.000       0.000       2.000       2.000       0.000      0.1000E-19   0.000    
    4904   4.904      0.1000E-02 FIXED          0  -0.0%   0.000       0.000       2.000       2.000       0.000      0.1000E-19   0.000    
    4905   4.905      0.1000E-02 FIXED          0  -0.0%   0.000       0.000       2.000       2.000       0.000      0.1000E-19   0.000    
    4906   4.906      0.1000E-02 FIXED          0  -0.0%   0.000       0.000       2.000       2.000       0.000      0.1000E-19   0.000    
    4907   4.907      0.1000E-02 FIXED          0   0.0%   0.000       0.000       2.000       2.000       0.000      0.1000E-19   0.000    
    4908   4.908      0.1000E-02 FIXED          0   0.0%   0.000       0.000       2.000       2.000       0.000      0.1000E-19   0.000    
    4909   4.909      0.1000E-02 FIXED          0   0.0%   0.000       0.000       2.000       2.000       0.000      0.1000E-19   0.000    
    4910   4.910      0.1000E-02 FIXED          0  -0.0%   0.000       0.000       2.000       2.000       0.000      0.1000E-19   0.000    
    4911   4.911      0.1000E-02 FIXED          0   0.0%   0.000       0.000       2.000       2.000       0.000      0.1000E-19   0.000    
    4912   4.912      0.1000E-02 FIXED          0  -0.0%   0.000       0.000       2.000       2.000       0.000      0.1000E-19   0.000    
    4913   4.913      0.1000E-02 FIXED          0   0.0%   0.000       0.000       2.000       2.000       0.000      0.1000E-19   0.000    
    4914   4.914      0.1000E-02 FIXED          0   0.0%   0.000       0.000       2.000       2.000       0.000      0.1000E-19   0.000    
    4915   4.915      0.1000E-02 FIXED          0   0.0%   0.000       0.000       2.000       2.000       0.000      0.1000E-19   0.000    
    4916   4.916      0.1000E-02 FIXED          0  -0.0%   0.000       0.000       2.000       2.000       0.000      0.1000E-19   0.000    
    4917   4.917      0.1000E-02 FIXED          0  -0.0%   0.000       0.000       2.000       2.000       0.000      0.1000E-19   0.000    
    4918   4.918      0.1000E-02 FIXED          0  -0.0%   0.000       0.000       2.000       2.000       0.000      0.1000E-19   0.000    
    4919   4.919      0.1000E-02 FIXED          0  -0.0%   0.000       0.000       2.000       2.000       0.000      0.1000E-19   0.000    
    4920   4.920      0.1000E-02 FIXED          0   0.0%   0.000       0.000       2.000       2.000       0.000      0.1000E-19   0.000    
    4921   4.921      0.1000E-02 FIXED          0   0.0%   0.000       0.000       2.000       2.000       0.000      0.1000E-19   0.000    
    4922   4.922      0.1000E-02 FIXED          0   0.0%   0.000       0.000       2.000       2.000       0.000      0.1000E-19   0.000    
    4923   4.923      0.1000E-02 FIXED          0   0.0%   0.000       0.000       2.000       2.000       0.000      0.1000E-19   0.000    
    4924   4.924      0.1000E-02 FIXED          0   0.0%   0.000       0.000       2.000       2.000       0.000      0.1000E-19   0.000    
    4925   4.925      0.1000E-02 FIXED          0  -0.0%   0.000       0.000       2.000       2.000       0.000      0.1000E-19   0.000    
    4926   4.926      0.1000E-02 FIXED          0   0.0%   0.000       0.000       2.000       2.000       0.000      0.1000E-19   0.000    
    4927   4.927      0.1000E-02 FIXED          0  -0.0%   0.000       0.000       2.000       2.000       0.000      0.1000E-19   0.000    
    4928   4.928      0.1000E-02 FIXED          0  -0.0%   0.000       0.000       2.000       2.000       0.000      0.1000E-19   0.000    
    4929   4.929      0.1000E-02 FIXED          0   0.0%   0.000       0.000       2.000       2.000       0.000      0.1000E-19   0.000    
    4930   4.930      0.1000E-02 FIXED          0  -0.0%   0.000       0.000       2.000       2.000       0.000      0.1000E-19   0.000    
    4931   4.931      0.1000E-02 FIXED          0   0.0%   0.000       0.000       2.000       2.000       0.000      0.1000E-19   0.000    
    4932   4.932      0.1000E-02 FIXED          0  -0.0%   0.000       0.000       2.000       2.000       0.000      0.1000E-19   0.000    
    4933   4.933      0.1000E-02 FIXED          0   0.0%   0.000       0.000       2.000       2.000       0.000      0.1000E-19   0.000    
    4934   4.934      0.1000E-02 FIXED          0  -0.0%   0.000       0.000       2.000       2.000       0.000      0.1000E-19   0.000    
    4935   4.935      0.1000E-02 FIXED          0  -0.0%   0.000       0.000       2.000       2.000       0.000      0.1000E-19   0.000    
    4936   4.936      0.1000E-02 FIXED          0   0.0%   0.000       0.000       2.000       2.000       0.000      0.1000E-19   0.000    
    4937   4.937      0.1000E-02 FIXED          0  -0.0%   0.000       0.000       2.000       2.000       0.000      0.1000E-19   0.000    
    4938   4.938      0.1000E-02 FIXED          0   0.0%   0.000       0.000       2.000       2.000       0.000      0.1000E-19   0.000    
    4939   4.939      0.1000E-02 FIXED          0  -0.0%   0.000       0.000       2.000       2.000       0.000      0.1000E-19   0.000    
    4940   4.940      0.1000E-02 FIXED          0   0.0%   0.000       0.000       2.000       2.000       0.000      0.1000E-19   0.000    
    4941   4.941      0.1000E-02 FIXED          0   0.0%   0.000       0.000       2.000       2.000       0.000      0.1000E-19   0.000    
    4942   4.942      0.1000E-02 FIXED          0  -0.0%   0.000       0.000       2.000       2.000       0.000      0.1000E-19   0.000    
    4943   4.943      0.1000E-02 FIXED          0   0.0%   0.000       0.000       2.000       2.000       0.000      0.1000E-19   0.000    
    4944   4.944      0.1000E-02 FIXED          0   0.0%   0.000       0.000       2.000       2.000       0.000      0.1000E-19   0.000    
    4945   4.945      0.1000E-02 FIXED          0   0.0%   0.000       0.000       2.000       2.000       0.000      0.1000E-19   0.000    
    4946   4.946      0.1000E-02 FIXED          0   0.0%   0.000       0.000       2.000       2.000       0.000      0.1000E-19   0.000    
    4947   4.947      0.1000E-02 FIXED          0  -0.0%   0.000       0.000       2.000       2.000       0.000      0.1000E-19   0.000    
    4948   4.948      0.1000E-02 FIXED          0  -0.0%   0.000       0.000       2.000       2.000       0.000      0.1000E-19   0.000    
    4949   4.949      0.1000E-02 FIXED          0  -0.0%   0.000       0.000       2.000       2.000       0.000      0.1000E-19   0.000    
   CYCLE    TIME      TIME-STEP  ELEMENT          ERROR  I-ENERGY    K-ENERGY T  K-ENERGY R  EXT-WORK     MAS.ERR     TOTAL MASS  MASS ADDED
    4950   4.950      0.1000E-02 FIXED          0  -0.0%   0.000       0.000       2.000       2.000       0.000      0.1000E-19   0.000    
    4951   4.951      0.1000E-02 FIXED          0   0.0%   0.000       0.000       2.000       2.000       0.000      0.1000E-19   0.000    
    4952   4.952      0.1000E-02 FIXED          0   0.0%   0.000       0.000       2.000       2.000       0.000      0.1000E-19   0.000    
    4953   4.953      0.1000E-02 FIXED          0  -0.0%   0.000       0.000       2.000       2.000       0.000      0.1000E-19   0.000    
    4954   4.954      0.1000E-02 FIXED          0  -0.0%   0.000       0.000       2.000       2.000       0.000      0.1000E-19   0.000    
    4955   4.955      0.1000E-02 FIXED          0   0.0%   0.000       0.000       2.000       2.000       0.000      0.1000E-19   0.000    
    4956   4.956      0.1000E-02 FIXED          0  -0.0%   0.000       0.000       2.000       2.000       0.000      0.1000E-19   0.000    
    4957   4.957      0.1000E-02 FIXED          0   0.0%   0.000       0.000       2.000       2.000       0.000      0.1000E-19   0.000    
    4958   4.958      0.1000E-02 FIXED          0   0.0%   0.000       0.000       2.000       2.000       0.000      0.1000E-19   0.000    
    4959   4.959      0.1000E-02 FIXED          0  -0.0%   0.000       0.000       2.000       2.000       0.000      0.1000E-19   0.000    
    4960   4.960      0.1000E-02 FIXED          0  -0.0%   0.000       0.000       2.000       2.000       0.000      0.1000E-19   0.000    
    4961   4.961      0.1000E-02 FIXED          0   0.0%   0.000       0.000       2.000       2.000       0.000      0.1000E-19   0.000    
    4962   4.962      0.1000E-02 FIXED          0  -0.0%   0.000       0.000       2.000       2.000       0.000      0.1000E-19   0.000    
    4963   4.963      0.1000E-02 FIXED          0   0.0%   0.000       0.000       2.000       2.000       0.000      0.1000E-19   0.000    
    4964   4.964      0.1000E-02 FIXED          0  -0.0%   0.000       0.000       2.000       2.000       0.000      0.1000E-19   0.000    
    4965   4.965      0.1000E-02 FIXED          0   0.0%   0.000       0.000       2.000       2.000       0.000      0.1000E-19   0.000    
    4966   4.966      0.1000E-02 FIXED          0   0.0%   0.000       0.000       2.000       2.000       0.000      0.1000E-19   0.000    
    4967   4.967      0.1000E-02 FIXED          0  -0.0%   0.000       0.000       2.000       2.000       0.000      0.1000E-19   0.000    
    4968   4.968      0.1000E-02 FIXED          0  -0.0%   0.000       0.000       2.000       2.000       0.000      0.1000E-19   0.000    
    4969   4.969      0.1000E-02 FIXED          0   0.0%   0.000       0.000       2.000       2.000       0.000      0.1000E-19   0.000    
    4970   4.970      0.1000E-02 FIXED          0   0.0%   0.000       0.000       2.000       2.000       0.000      0.1000E-19   0.000    
    4971   4.971      0.1000E-02 FIXED          0  -0.0%   0.000       0.000       2.000       2.000       0.000      0.1000E-19   0.000    
    4972   4.972      0.1000E-02 FIXED          0   0.0%   0.000       0.000       2.000       2.000       0.000      0.1000E-19   0.000    
    4973   4.973      0.1000E-02 FIXED          0  -0.0%   0.000       0.000       2.000       2.000       0.000      0.1000E-19   0.000    
    4974   4.974      0.1000E-02 FIXED          0   0.0%   0.000       0.000       2.000       2.000       0.000      0.1000E-19   0.000    
    4975   4.975      0.1000E-02 FIXED          0  -0.0%   0.000       0.000       2.000       2.000       0.000      0.1000E-19   0.000    
    4976   4.976      0.1000E-02 FIXED          0   0.0%   0.000       0.000       2.000       2.000       0.000      0.1000E-19   0.000    
    4977   4.977      0.1000E-02 FIXED          0  -0.0%   0.000       0.000       2.000       2.000       0.000      0.1000E-19   0.000    
    4978   4.978      0.1000E-02 FIXED          0   0.0%   0.000       0.000       2.000       2.000       0.000      0.1000E-19   0.000    
    4979   4.979      0.1000E-02 FIXED          0   0.0%   0.000       0.000       2.000       2.000       0.000      0.1000E-19   0.000    
    4980   4.980      0.1000E-02 FIXED          0   0.0%   0.000       0.000       2.000       2.000       0.000      0.1000E-19   0.000    
    4981   4.981      0.1000E-02 FIXED          0  -0.0%   0.000       0.000       2.000       2.000       0.000      0.1000E-19   0.000    
    4982   4.982      0.1000E-02 FIXED          0   0.0%   0.000       0.000       2.000       2.000       0.000      0.1000E-19   0.000    
    4983   4.983      0.1000E-02 FIXED          0   0.0%   0.000       0.000       2.000       2.000       0.000      0.1000E-19   0.000    
    4984   4.984      0.1000E-02 FIXED          0   0.0%   0.000       0.000       2.000       2.000       0.000      0.1000E-19   0.000    
    4985   4.985      0.1000E-02 FIXED          0  -0.0%   0.000       0.000       2.000       2.000       0.000      0.1000E-19   0.000    
    4986   4.986      0.1000E-02 FIXED          0   0.0%   0.000       0.000       2.000       2.000       0.000      0.1000E-19   0.000    
    4987   4.987      0.1000E-02 FIXED          0   0.0%   0.000       0.000       2.000       2.000       0.000      0.1000E-19   0.000    
    4988   4.988      0.1000E-02 FIXED          0   0.0%   0.000       0.000       2.000       2.000       0.000      0.1000E-19   0.000    
    4989   4.989      0.1000E-02 FIXED          0   0.0%   0.000       0.000       2.000       2.000       0.000      0.1000E-19   0.000    
    4990   4.990      0.1000E-02 FIXED          0   0.0%   0.000       0.000       2.000       2.000       0.000      0.1000E-19   0.000    
    4991   4.991      0.1000E-02 FIXED          0   0.0%   0.000       0.000       2.000       2.000       0.000      0.1000E-19   0.000    
    4992   4.992      0.1000E-02 FIXED          0  -0.0%   0.000       0.000       2.000       2.000       0.000      0.1000E-19   0.000    
    4993   4.993      0.1000E-02 FIXED          0   0.0%   0.000       0.000       2.000       2.000       0.000      0.1000E-19   0.000    
    4994   4.994      0.1000E-02 FIXED          0   0.0%   0.000       0.000       2.000       2.000       0.000      0.1000E-19   0.000    
    4995   4.995      0.1000E-02 FIXED          0   0.0%   0.000       0.000       2.000       2.000       0.000      0.1000E-19   0.000    
    4996   4.996      0.1000E-02 FIXED          0   0.0%   0.000       0.000       2.000       2.000       0.000      0.1000E-19   0.000    
    4997   4.997      0.1000E-02 FIXED          0   0.0%   0.000       0.000       2.000       2.000       0.000      0.1000E-19   0.000    
    4998   4.998      0.1000E-02 FIXED          0   0.0%   0.000       0.000       2.000       2.000       0.000      0.1000E-19   0.000    
    4999   4.999      0.1000E-02 FIXED          0  -0.0%   0.000       0.000       2.000       2.000       0.000      0.1000E-19   0.000    
    5000   5.000      0.1000E-02 FIXED          0   0.0%   0.000       0.000       2.000       2.000       0.000      0.1000E-19   0.000    
     ANIMATION FILE: BLOCKA006 WRITTEN
    5001   5.001      0.1000E-02 FIXED          0   0.0%   0.000       0.000       2.000       2.000       0.000      0.1000E-19   0.000    
    5002   5.002      0.1000E-02 FIXED          0  -0.0%   0.000       0.000       2.000       2.000       0.000      0.1000E-19   0.000    
    5003   5.003      0.1000E-02 FIXED          0   0.0%   0.000       0.000       2.000       2.000       0.000      0.1000E-19   0.000    
    5004   5.004      0.1000E-02 FIXED          0  -0.0%   0.000       0.000       2.000       2.000       0.000      0.1000E-19   0.000    
   CYCLE    TIME      TIME-STEP  ELEMENT          ERROR  I-ENERGY    K-ENERGY T  K-ENERGY R  EXT-WORK     MAS.ERR     TOTAL MASS  MASS ADDED
    5005   5.005      0.1000E-02 FIXED          0   0.0%   0.000       0.000       2.000       2.000       0.000      0.1000E-19   0.000    
    5006   5.006      0.1000E-02 FIXED          0  -0.0%   0.000       0.000       2.000       2.000       0.000      0.1000E-19   0.000    
    5007   5.007      0.1000E-02 FIXED          0  -0.0%   0.000       0.000       2.000       2.000       0.000      0.1000E-19   0.000    
    5008   5.008      0.1000E-02 FIXED          0   0.0%   0.000       0.000       2.000       2.000       0.000      0.1000E-19   0.000    
    5009   5.009      0.1000E-02 FIXED          0  -0.0%   0.000       0.000       2.000       2.000       0.000      0.1000E-19   0.000    
    5010   5.010      0.1000E-02 FIXED          0   0.0%   0.000       0.000       2.000       2.000       0.000      0.1000E-19   0.000    
    5011   5.011      0.1000E-02 FIXED          0   0.0%   0.000       0.000       2.000       2.000       0.000      0.1000E-19   0.000    
    5012   5.012      0.1000E-02 FIXED          0  -0.0%   0.000       0.000       2.000       2.000       0.000      0.1000E-19   0.000    
    5013   5.013      0.1000E-02 FIXED          0   0.0%   0.000       0.000       2.000       2.000       0.000      0.1000E-19   0.000    
    5014   5.014      0.1000E-02 FIXED          0  -0.0%   0.000       0.000       2.000       2.000       0.000      0.1000E-19   0.000    
    5015   5.015      0.1000E-02 FIXED          0   0.0%   0.000       0.000       2.000       2.000       0.000      0.1000E-19   0.000    
    5016   5.016      0.1000E-02 FIXED          0   0.0%   0.000       0.000       2.000       2.000       0.000      0.1000E-19   0.000    
    5017   5.017      0.1000E-02 FIXED          0  -0.0%   0.000       0.000       2.000       2.000       0.000      0.1000E-19   0.000    
    5018   5.018      0.1000E-02 FIXED          0   0.0%   0.000       0.000       2.000       2.000       0.000      0.1000E-19   0.000    
    5019   5.019      0.1000E-02 FIXED          0   0.0%   0.000       0.000       2.000       2.000       0.000      0.1000E-19   0.000    
    5020   5.020      0.1000E-02 FIXED          0   0.0%   0.000       0.000       2.000       2.000       0.000      0.1000E-19   0.000    
    5021   5.021      0.1000E-02 FIXED          0  -0.0%   0.000       0.000       2.000       2.000       0.000      0.1000E-19   0.000    
    5022   5.022      0.1000E-02 FIXED          0   0.0%   0.000       0.000       2.000       2.000       0.000      0.1000E-19   0.000    
    5023   5.023      0.1000E-02 FIXED          0  -0.0%   0.000       0.000       2.000       2.000       0.000      0.1000E-19   0.000    
    5024   5.024      0.1000E-02 FIXED          0   0.0%   0.000       0.000       2.000       2.000       0.000      0.1000E-19   0.000    
    5025   5.025      0.1000E-02 FIXED          0   0.0%   0.000       0.000       2.000       2.000       0.000      0.1000E-19   0.000    
    5026   5.026      0.1000E-02 FIXED          0   0.0%   0.000       0.000       2.000       2.000       0.000      0.1000E-19   0.000    
    5027   5.027      0.1000E-02 FIXED          0  -0.0%   0.000       0.000       2.000       2.000       0.000      0.1000E-19   0.000    
    5028   5.028      0.1000E-02 FIXED          0   0.0%   0.000       0.000       2.000       2.000       0.000      0.1000E-19   0.000    
    5029   5.029      0.1000E-02 FIXED          0   0.0%   0.000       0.000       2.000       2.000       0.000      0.1000E-19   0.000    
    5030   5.030      0.1000E-02 FIXED          0  -0.0%   0.000       0.000       2.000       2.000       0.000      0.1000E-19   0.000    
    5031   5.031      0.1000E-02 FIXED          0   0.0%   0.000       0.000       2.000       2.000       0.000      0.1000E-19   0.000    
    5032   5.032      0.1000E-02 FIXED          0  -0.0%   0.000       0.000       2.000       2.000       0.000      0.1000E-19   0.000    
    5033   5.033      0.1000E-02 FIXED          0   0.0%   0.000       0.000       2.000       2.000       0.000      0.1000E-19   0.000    
    5034   5.034      0.1000E-02 FIXED          0  -0.0%   0.000       0.000       2.000       2.000       0.000      0.1000E-19   0.000    
    5035   5.035      0.1000E-02 FIXED          0   0.0%   0.000       0.000       2.000       2.000       0.000      0.1000E-19   0.000    
    5036   5.036      0.1000E-02 FIXED          0   0.0%   0.000       0.000       2.000       2.000       0.000      0.1000E-19   0.000    
    5037   5.037      0.1000E-02 FIXED          0  -0.0%   0.000       0.000       2.000       2.000       0.000      0.1000E-19   0.000    
    5038   5.038      0.1000E-02 FIXED          0  -0.0%   0.000       0.000       2.000       2.000       0.000      0.1000E-19   0.000    
    5039   5.039      0.1000E-02 FIXED          0   0.0%   0.000       0.000       2.000       2.000       0.000      0.1000E-19   0.000    
    5040   5.040      0.1000E-02 FIXED          0  -0.0%   0.000       0.000       2.000       2.000       0.000      0.1000E-19   0.000    
    5041   5.041      0.1000E-02 FIXED          0   0.0%   0.000       0.000       2.000       2.000       0.000      0.1000E-19   0.000    
    5042   5.042      0.1000E-02 FIXED          0   0.0%   0.000       0.000       2.000       2.000       0.000      0.1000E-19   0.000    
    5043   5.043      0.1000E-02 FIXED          0  -0.0%   0.000       0.000       2.000       2.000       0.000      0.1000E-19   0.000    
    5044   5.044      0.1000E-02 FIXED          0   0.0%   0.000       0.000       2.000       2.000       0.000      0.1000E-19   0.000    
    5045   5.045      0.1000E-02 FIXED          0  -0.0%   0.000       0.000       2.000       2.000       0.000      0.1000E-19   0.000    
    5046   5.046      0.1000E-02 FIXED          0   0.0%   0.000       0.000       2.000       2.000       0.000      0.1000E-19   0.000    
    5047   5.047      0.1000E-02 FIXED          0   0.0%   0.000       0.000       2.000       2.000       0.000      0.1000E-19   0.000    
    5048   5.048      0.1000E-02 FIXED          0  -0.0%   0.000       0.000       2.000       2.000       0.000      0.1000E-19   0.000    
    5049   5.049      0.1000E-02 FIXED          0   0.0%   0.000       0.000       2.000       2.000       0.000      0.1000E-19   0.000    
    5050   5.050      0.1000E-02 FIXED          0  -0.0%   0.000       0.000       2.000       2.000       0.000      0.1000E-19   0.000    
    5051   5.051      0.1000E-02 FIXED          0   0.0%   0.000       0.000       2.000       2.000       0.000      0.1000E-19   0.000    
    5052   5.052      0.1000E-02 FIXED          0   0.0%   0.000       0.000       2.000       2.000       0.000      0.1000E-19   0.000    
    5053   5.053      0.1000E-02 FIXED          0  -0.0%   0.000       0.000       2.000       2.000       0.000      0.1000E-19   0.000    
    5054   5.054      0.1000E-02 FIXED          0   0.0%   0.000       0.000       2.000       2.000       0.000      0.1000E-19   0.000    
    5055   5.055      0.1000E-02 FIXED          0   0.0%   0.000       0.000       2.000       2.000       0.000      0.1000E-19   0.000    
    5056   5.056      0.1000E-02 FIXED          0   0.0%   0.000       0.000       2.000       2.000       0.000      0.1000E-19   0.000    
    5057   5.057      0.1000E-02 FIXED          0  -0.0%   0.000       0.000       2.000       2.000       0.000      0.1000E-19   0.000    
    5058   5.058      0.1000E-02 FIXED          0   0.0%   0.000       0.000       2.000       2.000       0.000      0.1000E-19   0.000    
    5059   5.059      0.1000E-02 FIXED          0  -0.0%   0.000       0.000       2.000       2.000       0.000      0.1000E-19   0.000    
   CYCLE    TIME      TIME-STEP  ELEMENT          ERROR  I-ENERGY    K-ENERGY T  K-ENERGY R  EXT-WORK     MAS.ERR     TOTAL MASS  MASS ADDED
    5060   5.060      0.1000E-02 FIXED          0   0.0%   0.000       0.000       2.000       2.000       0.000      0.1000E-19   0.000    
    5061   5.061      0.1000E-02 FIXED          0  -0.0%   0.000       0.000       2.000       2.000       0.000      0.1000E-19   0.000    
    5062   5.062      0.1000E-02 FIXED          0   0.0%   0.000       0.000       2.000       2.000       0.000      0.1000E-19   0.000    
    5063   5.063      0.1000E-02 FIXED          0   0.0%   0.000       0.000       2.000       2.000       0.000      0.1000E-19   0.000    
    5064   5.064      0.1000E-02 FIXED          0  -0.0%   0.000       0.000       2.000       2.000       0.000      0.1000E-19   0.000    
    5065   5.065      0.1000E-02 FIXED          0  -0.0%   0.000       0.000       2.000       2.000       0.000      0.1000E-19   0.000    
    5066   5.066      0.1000E-02 FIXED          0   0.0%   0.000       0.000       2.000       2.000       0.000      0.1000E-19   0.000    
    5067   5.067      0.1000E-02 FIXED          0   0.0%   0.000       0.000       2.000       2.000       0.000      0.1000E-19   0.000    
    5068   5.068      0.1000E-02 FIXED          0   0.0%   0.000       0.000       2.000       2.000       0.000      0.1000E-19   0.000    
    5069   5.069      0.1000E-02 FIXED          0   0.0%   0.000       0.000       2.000       2.000       0.000      0.1000E-19   0.000    
    5070   5.070      0.1000E-02 FIXED          0   0.0%   0.000       0.000       2.000       2.000       0.000      0.1000E-19   0.000    
    5071   5.071      0.1000E-02 FIXED          0   0.0%   0.000       0.000       2.000       2.000       0.000      0.1000E-19   0.000    
    5072   5.072      0.1000E-02 FIXED          0   0.0%   0.000       0.000       2.000       2.000       0.000      0.1000E-19   0.000    
    5073   5.073      0.1000E-02 FIXED          0   0.0%   0.000       0.000       2.000       2.000       0.000      0.1000E-19   0.000    
    5074   5.074      0.1000E-02 FIXED          0  -0.0%   0.000       0.000       2.000       2.000       0.000      0.1000E-19   0.000    
    5075   5.075      0.1000E-02 FIXED          0  -0.0%   0.000       0.000       2.000       2.000       0.000      0.1000E-19   0.000    
    5076   5.076      0.1000E-02 FIXED          0   0.0%   0.000       0.000       2.000       2.000       0.000      0.1000E-19   0.000    
    5077   5.077      0.1000E-02 FIXED          0   0.0%   0.000       0.000       2.000       2.000       0.000      0.1000E-19   0.000    
    5078   5.078      0.1000E-02 FIXED          0   0.0%   0.000       0.000       2.000       2.000       0.000      0.1000E-19   0.000    
    5079   5.079      0.1000E-02 FIXED          0  -0.0%   0.000       0.000       2.000       2.000       0.000      0.1000E-19   0.000    
    5080   5.080      0.1000E-02 FIXED          0   0.0%   0.000       0.000       2.000       2.000       0.000      0.1000E-19   0.000    
    5081   5.081      0.1000E-02 FIXED          0   0.0%   0.000       0.000       2.000       2.000       0.000      0.1000E-19   0.000    
    5082   5.082      0.1000E-02 FIXED          0  -0.0%   0.000       0.000       2.000       2.000       0.000      0.1000E-19   0.000    
    5083   5.083      0.1000E-02 FIXED          0   0.0%   0.000       0.000       2.000       2.000       0.000      0.1000E-19   0.000    
    5084   5.084      0.1000E-02 FIXED          0   0.0%   0.000       0.000       2.000       2.000       0.000      0.1000E-19   0.000    
    5085   5.085      0.1000E-02 FIXED          0  -0.0%   0.000       0.000       2.000       2.000       0.000      0.1000E-19   0.000    
    5086   5.086      0.1000E-02 FIXED          0  -0.0%   0.000       0.000       2.000       2.000       0.000      0.1000E-19   0.000    
    5087   5.087      0.1000E-02 FIXED          0  -0.0%   0.000       0.000       2.000       2.000       0.000      0.1000E-19   0.000    
    5088   5.088      0.1000E-02 FIXED          0   0.0%   0.000       0.000       2.000       2.000       0.000      0.1000E-19   0.000    
    5089   5.089      0.1000E-02 FIXED          0  -0.0%   0.000       0.000       2.000       2.000       0.000      0.1000E-19   0.000    
    5090   5.090      0.1000E-02 FIXED          0   0.0%   0.000       0.000       2.000       2.000       0.000      0.1000E-19   0.000    
    5091   5.091      0.1000E-02 FIXED          0  -0.0%   0.000       0.000       2.000       2.000       0.000      0.1000E-19   0.000    
    5092   5.092      0.1000E-02 FIXED          0   0.0%   0.000       0.000       2.000       2.000       0.000      0.1000E-19   0.000    
    5093   5.093      0.1000E-02 FIXED          0  -0.0%   0.000       0.000       2.000       2.000       0.000      0.1000E-19   0.000    
    5094   5.094      0.1000E-02 FIXED          0   0.0%   0.000       0.000       2.000       2.000       0.000      0.1000E-19   0.000    
    5095   5.095      0.1000E-02 FIXED          0  -0.0%   0.000       0.000       2.000       2.000       0.000      0.1000E-19   0.000    
    5096   5.096      0.1000E-02 FIXED          0  -0.0%   0.000       0.000       2.000       2.000       0.000      0.1000E-19   0.000    
    5097   5.097      0.1000E-02 FIXED          0   0.0%   0.000       0.000       2.000       2.000       0.000      0.1000E-19   0.000    
    5098   5.098      0.1000E-02 FIXED          0   0.0%   0.000       0.000       2.000       2.000       0.000      0.1000E-19   0.000    
    5099   5.099      0.1000E-02 FIXED          0   0.0%   0.000       0.000       2.000       2.000       0.000      0.1000E-19   0.000    
    5100   5.100      0.1000E-02 FIXED          0   0.0%   0.000       0.000       2.000       2.000       0.000      0.1000E-19   0.000    
    5101   5.101      0.1000E-02 FIXED          0   0.0%   0.000       0.000       2.000       2.000       0.000      0.1000E-19   0.000    
    5102   5.102      0.1000E-02 FIXED          0   0.0%   0.000       0.000       2.000       2.000       0.000      0.1000E-19   0.000    
    5103   5.103      0.1000E-02 FIXED          0   0.0%   0.000       0.000       2.000       2.000       0.000      0.1000E-19   0.000    
    5104   5.104      0.1000E-02 FIXED          0  -0.0%   0.000       0.000       2.000       2.000       0.000      0.1000E-19   0.000    
    5105   5.105      0.1000E-02 FIXED          0   0.0%   0.000       0.000       2.000       2.000       0.000      0.1000E-19   0.000    
    5106   5.106      0.1000E-02 FIXED          0  -0.0%   0.000       0.000       2.000       2.000       0.000      0.1000E-19   0.000    
    5107   5.107      0.1000E-02 FIXED          0   0.0%   0.000       0.000       2.000       2.000       0.000      0.1000E-19   0.000    
    5108   5.108      0.1000E-02 FIXED          0  -0.0%   0.000       0.000       2.000       2.000       0.000      0.1000E-19   0.000    
    5109   5.109      0.1000E-02 FIXED          0   0.0%   0.000       0.000       2.000       2.000       0.000      0.1000E-19   0.000    
    5110   5.110      0.1000E-02 FIXED          0  -0.0%   0.000       0.000       2.000       2.000       0.000      0.1000E-19   0.000    
    5111   5.111      0.1000E-02 FIXED          0   0.0%   0.000       0.000       2.000       2.000       0.000      0.1000E-19   0.000    
    5112   5.112      0.1000E-02 FIXED          0  -0.0%   0.000       0.000       2.000       2.000       0.000      0.1000E-19   0.000    
    5113   5.113      0.1000E-02 FIXED          0   0.0%   0.000       0.000       2.000       2.000       0.000      0.1000E-19   0.000    
    5114   5.114      0.1000E-02 FIXED          0  -0.0%   0.000       0.000       2.000       2.000       0.000      0.1000E-19   0.000    
   CYCLE    TIME      TIME-STEP  ELEMENT          ERROR  I-ENERGY    K-ENERGY T  K-ENERGY R  EXT-WORK     MAS.ERR     TOTAL MASS  MASS ADDED
    5115   5.115      0.1000E-02 FIXED          0   0.0%   0.000       0.000       2.000       2.000       0.000      0.1000E-19   0.000    
    5116   5.116      0.1000E-02 FIXED          0  -0.0%   0.000       0.000       2.000       2.000       0.000      0.1000E-19   0.000    
    5117   5.117      0.1000E-02 FIXED          0   0.0%   0.000       0.000       2.000       2.000       0.000      0.1000E-19   0.000    
    5118   5.118      0.1000E-02 FIXED          0   0.0%   0.000       0.000       2.000       2.000       0.000      0.1000E-19   0.000    
    5119   5.119      0.1000E-02 FIXED          0  -0.0%   0.000       0.000       2.000       2.000       0.000      0.1000E-19   0.000    
    5120   5.120      0.1000E-02 FIXED          0  -0.0%   0.000       0.000       2.000       2.000       0.000      0.1000E-19   0.000    
    5121   5.121      0.1000E-02 FIXED          0   0.0%   0.000       0.000       2.000       2.000       0.000      0.1000E-19   0.000    
    5122   5.122      0.1000E-02 FIXED          0  -0.0%   0.000       0.000       2.000       2.000       0.000      0.1000E-19   0.000    
    5123   5.123      0.1000E-02 FIXED          0   0.0%   0.000       0.000       2.000       2.000       0.000      0.1000E-19   0.000    
    5124   5.124      0.1000E-02 FIXED          0   0.0%   0.000       0.000       2.000       2.000       0.000      0.1000E-19   0.000    
    5125   5.125      0.1000E-02 FIXED          0   0.0%   0.000       0.000       2.000       2.000       0.000      0.1000E-19   0.000    
    5126   5.126      0.1000E-02 FIXED          0   0.0%   0.000       0.000       2.000       2.000       0.000      0.1000E-19   0.000    
    5127   5.127      0.1000E-02 FIXED          0   0.0%   0.000       0.000       2.000       2.000       0.000      0.1000E-19   0.000    
    5128   5.128      0.1000E-02 FIXED          0  -0.0%   0.000       0.000       2.000       2.000       0.000      0.1000E-19   0.000    
    5129   5.129      0.1000E-02 FIXED          0   0.0%   0.000       0.000       2.000       2.000       0.000      0.1000E-19   0.000    
    5130   5.130      0.1000E-02 FIXED          0  -0.0%   0.000       0.000       2.000       2.000       0.000      0.1000E-19   0.000    
    5131   5.131      0.1000E-02 FIXED          0   0.0%   0.000       0.000       2.000       2.000       0.000      0.1000E-19   0.000    
    5132   5.132      0.1000E-02 FIXED          0   0.0%   0.000       0.000       2.000       2.000       0.000      0.1000E-19   0.000    
    5133   5.133      0.1000E-02 FIXED          0  -0.0%   0.000       0.000       2.000       2.000       0.000      0.1000E-19   0.000    
    5134   5.134      0.1000E-02 FIXED          0   0.0%   0.000       0.000       2.000       2.000       0.000      0.1000E-19   0.000    
    5135   5.135      0.1000E-02 FIXED          0   0.0%   0.000       0.000       2.000       2.000       0.000      0.1000E-19   0.000    
    5136   5.136      0.1000E-02 FIXED          0   0.0%   0.000       0.000       2.000       2.000       0.000      0.1000E-19   0.000    
    5137   5.137      0.1000E-02 FIXED          0   0.0%   0.000       0.000       2.000       2.000       0.000      0.1000E-19   0.000    
    5138   5.138      0.1000E-02 FIXED          0   0.0%   0.000       0.000       2.000       2.000       0.000      0.1000E-19   0.000    
    5139   5.139      0.1000E-02 FIXED          0  -0.0%   0.000       0.000       2.000       2.000       0.000      0.1000E-19   0.000    
    5140   5.140      0.1000E-02 FIXED          0   0.0%   0.000       0.000       2.000       2.000       0.000      0.1000E-19   0.000    
    5141   5.141      0.1000E-02 FIXED          0   0.0%   0.000       0.000       2.000       2.000       0.000      0.1000E-19   0.000    
    5142   5.142      0.1000E-02 FIXED          0   0.0%   0.000       0.000       2.000       2.000       0.000      0.1000E-19   0.000    
    5143   5.143      0.1000E-02 FIXED          0  -0.0%   0.000       0.000       2.000       2.000       0.000      0.1000E-19   0.000    
    5144   5.144      0.1000E-02 FIXED          0  -0.0%   0.000       0.000       2.000       2.000       0.000      0.1000E-19   0.000    
    5145   5.145      0.1000E-02 FIXED          0   0.0%   0.000       0.000       2.000       2.000       0.000      0.1000E-19   0.000    
    5146   5.146      0.1000E-02 FIXED          0   0.0%   0.000       0.000       2.000       2.000       0.000      0.1000E-19   0.000    
    5147   5.147      0.1000E-02 FIXED          0   0.0%   0.000       0.000       2.000       2.000       0.000      0.1000E-19   0.000    
    5148   5.148      0.1000E-02 FIXED          0   0.0%   0.000       0.000       2.000       2.000       0.000      0.1000E-19   0.000    
    5149   5.149      0.1000E-02 FIXED          0   0.0%   0.000       0.000       2.000       2.000       0.000      0.1000E-19   0.000    
    5150   5.150      0.1000E-02 FIXED          0   0.0%   0.000       0.000       2.000       2.000       0.000      0.1000E-19   0.000    
    5151   5.151      0.1000E-02 FIXED          0  -0.0%   0.000       0.000       2.000       2.000       0.000      0.1000E-19   0.000    
    5152   5.152      0.1000E-02 FIXED          0   0.0%   0.000       0.000       2.000       2.000       0.000      0.1000E-19   0.000    
    5153   5.153      0.1000E-02 FIXED          0  -0.0%   0.000       0.000       2.000       2.000       0.000      0.1000E-19   0.000    
    5154   5.154      0.1000E-02 FIXED          0   0.0%   0.000       0.000       2.000       2.000       0.000      0.1000E-19   0.000    
    5155   5.155      0.1000E-02 FIXED          0  -0.0%   0.000       0.000       2.000       2.000       0.000      0.1000E-19   0.000    
    5156   5.156      0.1000E-02 FIXED          0  -0.0%   0.000       0.000       2.000       2.000       0.000      0.1000E-19   0.000    
    5157   5.157      0.1000E-02 FIXED          0   0.0%   0.000       0.000       2.000       2.000       0.000      0.1000E-19   0.000    
    5158   5.158      0.1000E-02 FIXED          0  -0.0%   0.000       0.000       2.000       2.000       0.000      0.1000E-19   0.000    
    5159   5.159      0.1000E-02 FIXED          0   0.0%   0.000       0.000       2.000       2.000       0.000      0.1000E-19   0.000    
    5160   5.160      0.1000E-02 FIXED          0  -0.0%   0.000       0.000       2.000       2.000       0.000      0.1000E-19   0.000    
    5161   5.161      0.1000E-02 FIXED          0   0.0%   0.000       0.000       2.000       2.000       0.000      0.1000E-19   0.000    
    5162   5.162      0.1000E-02 FIXED          0  -0.0%   0.000       0.000       2.000       2.000       0.000      0.1000E-19   0.000    
    5163   5.163      0.1000E-02 FIXED          0   0.0%   0.000       0.000       2.000       2.000       0.000      0.1000E-19   0.000    
    5164   5.164      0.1000E-02 FIXED          0   0.0%   0.000       0.000       2.000       2.000       0.000      0.1000E-19   0.000    
    5165   5.165      0.1000E-02 FIXED          0  -0.0%   0.000       0.000       2.000       2.000       0.000      0.1000E-19   0.000    
    5166   5.166      0.1000E-02 FIXED          0   0.0%   0.000       0.000       2.000       2.000       0.000      0.1000E-19   0.000    
    5167   5.167      0.1000E-02 FIXED          0  -0.0%   0.000       0.000       2.000       2.000       0.000      0.1000E-19   0.000    
    5168   5.168      0.1000E-02 FIXED          0   0.0%   0.000       0.000       2.000       2.000       0.000      0.1000E-19   0.000    
    5169   5.169      0.1000E-02 FIXED          0  -0.0%   0.000       0.000       2.000       2.000       0.000      0.1000E-19   0.000    
   CYCLE    TIME      TIME-STEP  ELEMENT          ERROR  I-ENERGY    K-ENERGY T  K-ENERGY R  EXT-WORK     MAS.ERR     TOTAL MASS  MASS ADDED
    5170   5.170      0.1000E-02 FIXED          0   0.0%   0.000       0.000       2.000       2.000       0.000      0.1000E-19   0.000    
    5171   5.171      0.1000E-02 FIXED          0   0.0%   0.000       0.000       2.000       2.000       0.000      0.1000E-19   0.000    
    5172   5.172      0.1000E-02 FIXED          0  -0.0%   0.000       0.000       2.000       2.000       0.000      0.1000E-19   0.000    
    5173   5.173      0.1000E-02 FIXED          0   0.0%   0.000       0.000       2.000       2.000       0.000      0.1000E-19   0.000    
    5174   5.174      0.1000E-02 FIXED          0   0.0%   0.000       0.000       2.000       2.000       0.000      0.1000E-19   0.000    
    5175   5.175      0.1000E-02 FIXED          0   0.0%   0.000       0.000       2.000       2.000       0.000      0.1000E-19   0.000    
    5176   5.176      0.1000E-02 FIXED          0   0.0%   0.000       0.000       2.000       2.000       0.000      0.1000E-19   0.000    
    5177   5.177      0.1000E-02 FIXED          0   0.0%   0.000       0.000       2.000       2.000       0.000      0.1000E-19   0.000    
    5178   5.178      0.1000E-02 FIXED          0  -0.0%   0.000       0.000       2.000       2.000       0.000      0.1000E-19   0.000    
    5179   5.179      0.1000E-02 FIXED          0   0.0%   0.000       0.000       2.000       2.000       0.000      0.1000E-19   0.000    
    5180   5.180      0.1000E-02 FIXED          0   0.0%   0.000       0.000       2.000       2.000       0.000      0.1000E-19   0.000    
    5181   5.181      0.1000E-02 FIXED          0  -0.0%   0.000       0.000       2.000       2.000       0.000      0.1000E-19   0.000    
    5182   5.182      0.1000E-02 FIXED          0   0.0%   0.000       0.000       2.000       2.000       0.000      0.1000E-19   0.000    
    5183   5.183      0.1000E-02 FIXED          0  -0.0%   0.000       0.000       2.000       2.000       0.000      0.1000E-19   0.000    
    5184   5.184      0.1000E-02 FIXED          0   0.0%   0.000       0.000       2.000       2.000       0.000      0.1000E-19   0.000    
    5185   5.185      0.1000E-02 FIXED          0   0.0%   0.000       0.000       2.000       2.000       0.000      0.1000E-19   0.000    
    5186   5.186      0.1000E-02 FIXED          0  -0.0%   0.000       0.000       2.000       2.000       0.000      0.1000E-19   0.000    
    5187   5.187      0.1000E-02 FIXED          0  -0.0%   0.000       0.000       2.000       2.000       0.000      0.1000E-19   0.000    
    5188   5.188      0.1000E-02 FIXED          0   0.0%   0.000       0.000       2.000       2.000       0.000      0.1000E-19   0.000    
    5189   5.189      0.1000E-02 FIXED          0  -0.0%   0.000       0.000       2.000       2.000       0.000      0.1000E-19   0.000    
    5190   5.190      0.1000E-02 FIXED          0  -0.0%   0.000       0.000       2.000       2.000       0.000      0.1000E-19   0.000    
    5191   5.191      0.1000E-02 FIXED          0   0.0%   0.000       0.000       2.000       2.000       0.000      0.1000E-19   0.000    
    5192   5.192      0.1000E-02 FIXED          0   0.0%   0.000       0.000       2.000       2.000       0.000      0.1000E-19   0.000    
    5193   5.193      0.1000E-02 FIXED          0  -0.0%   0.000       0.000       2.000       2.000       0.000      0.1000E-19   0.000    
    5194   5.194      0.1000E-02 FIXED          0   0.0%   0.000       0.000       2.000       2.000       0.000      0.1000E-19   0.000    
    5195   5.195      0.1000E-02 FIXED          0   0.0%   0.000       0.000       2.000       2.000       0.000      0.1000E-19   0.000    
    5196   5.196      0.1000E-02 FIXED          0   0.0%   0.000       0.000       2.000       2.000       0.000      0.1000E-19   0.000    
    5197   5.197      0.1000E-02 FIXED          0   0.0%   0.000       0.000       2.000       2.000       0.000      0.1000E-19   0.000    
    5198   5.198      0.1000E-02 FIXED          0  -0.0%   0.000       0.000       2.000       2.000       0.000      0.1000E-19   0.000    
    5199   5.199      0.1000E-02 FIXED          0   0.0%   0.000       0.000       2.000       2.000       0.000      0.1000E-19   0.000    
    5200   5.200      0.1000E-02 FIXED          0   0.0%   0.000       0.000       2.000       2.000       0.000      0.1000E-19   0.000    
    5201   5.201      0.1000E-02 FIXED          0  -0.0%   0.000       0.000       2.000       2.000       0.000      0.1000E-19   0.000    
    5202   5.202      0.1000E-02 FIXED          0   0.0%   0.000       0.000       2.000       2.000       0.000      0.1000E-19   0.000    
    5203   5.203      0.1000E-02 FIXED          0   0.0%   0.000       0.000       2.000       2.000       0.000      0.1000E-19   0.000    
    5204   5.204      0.1000E-02 FIXED          0  -0.0%   0.000       0.000       2.000       2.000       0.000      0.1000E-19   0.000    
    5205   5.205      0.1000E-02 FIXED          0   0.0%   0.000       0.000       2.000       2.000       0.000      0.1000E-19   0.000    
    5206   5.206      0.1000E-02 FIXED          0   0.0%   0.000       0.000       2.000       2.000       0.000      0.1000E-19   0.000    
    5207   5.207      0.1000E-02 FIXED          0   0.0%   0.000       0.000       2.000       2.000       0.000      0.1000E-19   0.000    
    5208   5.208      0.1000E-02 FIXED          0  -0.0%   0.000       0.000       2.000       2.000       0.000      0.1000E-19   0.000    
    5209   5.209      0.1000E-02 FIXED          0   0.0%   0.000       0.000       2.000       2.000       0.000      0.1000E-19   0.000    
    5210   5.210      0.1000E-02 FIXED          0  -0.0%   0.000       0.000       2.000       2.000       0.000      0.1000E-19   0.000    
    5211   5.211      0.1000E-02 FIXED          0   0.0%   0.000       0.000       2.000       2.000       0.000      0.1000E-19   0.000    
    5212   5.212      0.1000E-02 FIXED          0   0.0%   0.000       0.000       2.000       2.000       0.000      0.1000E-19   0.000    
    5213   5.213      0.1000E-02 FIXED          0   0.0%   0.000       0.000       2.000       2.000       0.000      0.1000E-19   0.000    
    5214   5.214      0.1000E-02 FIXED          0  -0.0%   0.000       0.000       2.000       2.000       0.000      0.1000E-19   0.000    
    5215   5.215      0.1000E-02 FIXED          0   0.0%   0.000       0.000       2.000       2.000       0.000      0.1000E-19   0.000    
    5216   5.216      0.1000E-02 FIXED          0   0.0%   0.000       0.000       2.000       2.000       0.000      0.1000E-19   0.000    
    5217   5.217      0.1000E-02 FIXED          0   0.0%   0.000       0.000       2.000       2.000       0.000      0.1000E-19   0.000    
    5218   5.218      0.1000E-02 FIXED          0  -0.0%   0.000       0.000       2.000       2.000       0.000      0.1000E-19   0.000    
    5219   5.219      0.1000E-02 FIXED          0   0.0%   0.000       0.000       2.000       2.000       0.000      0.1000E-19   0.000    
    5220   5.220      0.1000E-02 FIXED          0   0.0%   0.000       0.000       2.000       2.000       0.000      0.1000E-19   0.000    
    5221   5.221      0.1000E-02 FIXED          0  -0.0%   0.000       0.000       2.000       2.000       0.000      0.1000E-19   0.000    
    5222   5.222      0.1000E-02 FIXED          0   0.0%   0.000       0.000       2.000       2.000       0.000      0.1000E-19   0.000    
    5223   5.223      0.1000E-02 FIXED          0   0.0%   0.000       0.000       2.000       2.000       0.000      0.1000E-19   0.000    
    5224   5.224      0.1000E-02 FIXED          0   0.0%   0.000       0.000       2.000       2.000       0.000      0.1000E-19   0.000    
   CYCLE    TIME      TIME-STEP  ELEMENT          ERROR  I-ENERGY    K-ENERGY T  K-ENERGY R  EXT-WORK     MAS.ERR     TOTAL MASS  MASS ADDED
    5225   5.225      0.1000E-02 FIXED          0  -0.0%   0.000       0.000       2.000       2.000       0.000      0.1000E-19   0.000    
    5226   5.226      0.1000E-02 FIXED          0  -0.0%   0.000       0.000       2.000       2.000       0.000      0.1000E-19   0.000    
    5227   5.227      0.1000E-02 FIXED          0   0.0%   0.000       0.000       2.000       2.000       0.000      0.1000E-19   0.000    
    5228   5.228      0.1000E-02 FIXED          0   0.0%   0.000       0.000       2.000       2.000       0.000      0.1000E-19   0.000    
    5229   5.229      0.1000E-02 FIXED          0   0.0%   0.000       0.000       2.000       2.000       0.000      0.1000E-19   0.000    
    5230   5.230      0.1000E-02 FIXED          0  -0.0%   0.000       0.000       2.000       2.000       0.000      0.1000E-19   0.000    
    5231   5.231      0.1000E-02 FIXED          0  -0.0%   0.000       0.000       2.000       2.000       0.000      0.1000E-19   0.000    
    5232   5.232      0.1000E-02 FIXED          0   0.0%   0.000       0.000       2.000       2.000       0.000      0.1000E-19   0.000    
    5233   5.233      0.1000E-02 FIXED          0   0.0%   0.000       0.000       2.000       2.000       0.000      0.1000E-19   0.000    
    5234   5.234      0.1000E-02 FIXED          0   0.0%   0.000       0.000       2.000       2.000       0.000      0.1000E-19   0.000    
    5235   5.235      0.1000E-02 FIXED          0   0.0%   0.000       0.000       2.000       2.000       0.000      0.1000E-19   0.000    
    5236   5.236      0.1000E-02 FIXED          0   0.0%   0.000       0.000       2.000       2.000       0.000      0.1000E-19   0.000    
    5237   5.237      0.1000E-02 FIXED          0  -0.0%   0.000       0.000       2.000       2.000       0.000      0.1000E-19   0.000    
    5238   5.238      0.1000E-02 FIXED          0   0.0%   0.000       0.000       2.000       2.000       0.000      0.1000E-19   0.000    
    5239   5.239      0.1000E-02 FIXED          0   0.0%   0.000       0.000       2.000       2.000       0.000      0.1000E-19   0.000    
    5240   5.240      0.1000E-02 FIXED          0   0.0%   0.000       0.000       2.000       2.000       0.000      0.1000E-19   0.000    
    5241   5.241      0.1000E-02 FIXED          0   0.0%   0.000       0.000       2.000       2.000       0.000      0.1000E-19   0.000    
    5242   5.242      0.1000E-02 FIXED          0  -0.0%   0.000       0.000       2.000       2.000       0.000      0.1000E-19   0.000    
    5243   5.243      0.1000E-02 FIXED          0   0.0%   0.000       0.000       2.000       2.000       0.000      0.1000E-19   0.000    
    5244   5.244      0.1000E-02 FIXED          0  -0.0%   0.000       0.000       2.000       2.000       0.000      0.1000E-19   0.000    
    5245   5.245      0.1000E-02 FIXED          0   0.0%   0.000       0.000       2.000       2.000       0.000      0.1000E-19   0.000    
    5246   5.246      0.1000E-02 FIXED          0   0.0%   0.000       0.000       2.000       2.000       0.000      0.1000E-19   0.000    
    5247   5.247      0.1000E-02 FIXED          0   0.0%   0.000       0.000       2.000       2.000       0.000      0.1000E-19   0.000    
    5248   5.248      0.1000E-02 FIXED          0  -0.0%   0.000       0.000       2.000       2.000       0.000      0.1000E-19   0.000    
    5249   5.249      0.1000E-02 FIXED          0  -0.0%   0.000       0.000       2.000       2.000       0.000      0.1000E-19   0.000    
    5250   5.250      0.1000E-02 FIXED          0   0.0%   0.000       0.000       2.000       2.000       0.000      0.1000E-19   0.000    
    5251   5.251      0.1000E-02 FIXED          0  -0.0%   0.000       0.000       2.000       2.000       0.000      0.1000E-19   0.000    
    5252   5.252      0.1000E-02 FIXED          0   0.0%   0.000       0.000       2.000       2.000       0.000      0.1000E-19   0.000    
    5253   5.253      0.1000E-02 FIXED          0  -0.0%   0.000       0.000       2.000       2.000       0.000      0.1000E-19   0.000    
    5254   5.254      0.1000E-02 FIXED          0  -0.0%   0.000       0.000       2.000       2.000       0.000      0.1000E-19   0.000    
    5255   5.255      0.1000E-02 FIXED          0   0.0%   0.000       0.000       2.000       2.000       0.000      0.1000E-19   0.000    
    5256   5.256      0.1000E-02 FIXED          0   0.0%   0.000       0.000       2.000       2.000       0.000      0.1000E-19   0.000    
    5257   5.257      0.1000E-02 FIXED          0  -0.0%   0.000       0.000       2.000       2.000       0.000      0.1000E-19   0.000    
    5258   5.258      0.1000E-02 FIXED          0   0.0%   0.000       0.000       2.000       2.000       0.000      0.1000E-19   0.000    
    5259   5.259      0.1000E-02 FIXED          0   0.0%   0.000       0.000       2.000       2.000       0.000      0.1000E-19   0.000    
    5260   5.260      0.1000E-02 FIXED          0   0.0%   0.000       0.000       2.000       2.000       0.000      0.1000E-19   0.000    
    5261   5.261      0.1000E-02 FIXED          0  -0.0%   0.000       0.000       2.000       2.000       0.000      0.1000E-19   0.000    
    5262   5.262      0.1000E-02 FIXED          0   0.0%   0.000       0.000       2.000       2.000       0.000      0.1000E-19   0.000    
    5263   5.263      0.1000E-02 FIXED          0   0.0%   0.000       0.000       2.000       2.000       0.000      0.1000E-19   0.000    
    5264   5.264      0.1000E-02 FIXED          0  -0.0%   0.000       0.000       2.000       2.000       0.000      0.1000E-19   0.000    
    5265   5.265      0.1000E-02 FIXED          0   0.0%   0.000       0.000       2.000       2.000       0.000      0.1000E-19   0.000    
    5266   5.266      0.1000E-02 FIXED          0  -0.0%   0.000       0.000       2.000       2.000       0.000      0.1000E-19   0.000    
    5267   5.267      0.1000E-02 FIXED          0  -0.0%   0.000       0.000       2.000       2.000       0.000      0.1000E-19   0.000    
    5268   5.268      0.1000E-02 FIXED          0   0.0%   0.000       0.000       2.000       2.000       0.000      0.1000E-19   0.000    
    5269   5.269      0.1000E-02 FIXED          0   0.0%   0.000       0.000       2.000       2.000       0.000      0.1000E-19   0.000    
    5270   5.270      0.1000E-02 FIXED          0  -0.0%   0.000       0.000       2.000       2.000       0.000      0.1000E-19   0.000    
    5271   5.271      0.1000E-02 FIXED          0  -0.0%   0.000       0.000       2.000       2.000       0.000      0.1000E-19   0.000    
    5272   5.272      0.1000E-02 FIXED          0  -0.0%   0.000       0.000       2.000       2.000       0.000      0.1000E-19   0.000    
    5273   5.273      0.1000E-02 FIXED          0  -0.0%   0.000       0.000       2.000       2.000       0.000      0.1000E-19   0.000    
    5274   5.274      0.1000E-02 FIXED          0   0.0%   0.000       0.000       2.000       2.000       0.000      0.1000E-19   0.000    
    5275   5.275      0.1000E-02 FIXED          0   0.0%   0.000       0.000       2.000       2.000       0.000      0.1000E-19   0.000    
    5276   5.276      0.1000E-02 FIXED          0  -0.0%   0.000       0.000       2.000       2.000       0.000      0.1000E-19   0.000    
    5277   5.277      0.1000E-02 FIXED          0   0.0%   0.000       0.000       2.000       2.000       0.000      0.1000E-19   0.000    
    5278   5.278      0.1000E-02 FIXED          0  -0.0%   0.000       0.000       2.000       2.000       0.000      0.1000E-19   0.000    
    5279   5.279      0.1000E-02 FIXED          0   0.0%   0.000       0.000       2.000       2.000       0.000      0.1000E-19   0.000    
   CYCLE    TIME      TIME-STEP  ELEMENT          ERROR  I-ENERGY    K-ENERGY T  K-ENERGY R  EXT-WORK     MAS.ERR     TOTAL MASS  MASS ADDED
    5280   5.280      0.1000E-02 FIXED          0  -0.0%   0.000       0.000       2.000       2.000       0.000      0.1000E-19   0.000    
    5281   5.281      0.1000E-02 FIXED          0   0.0%   0.000       0.000       2.000       2.000       0.000      0.1000E-19   0.000    
    5282   5.282      0.1000E-02 FIXED          0   0.0%   0.000       0.000       2.000       2.000       0.000      0.1000E-19   0.000    
    5283   5.283      0.1000E-02 FIXED          0   0.0%   0.000       0.000       2.000       2.000       0.000      0.1000E-19   0.000    
    5284   5.284      0.1000E-02 FIXED          0  -0.0%   0.000       0.000       2.000       2.000       0.000      0.1000E-19   0.000    
    5285   5.285      0.1000E-02 FIXED          0  -0.0%   0.000       0.000       2.000       2.000       0.000      0.1000E-19   0.000    
    5286   5.286      0.1000E-02 FIXED          0  -0.0%   0.000       0.000       2.000       2.000       0.000      0.1000E-19   0.000    
    5287   5.287      0.1000E-02 FIXED          0   0.0%   0.000       0.000       2.000       2.000       0.000      0.1000E-19   0.000    
    5288   5.288      0.1000E-02 FIXED          0  -0.0%   0.000       0.000       2.000       2.000       0.000      0.1000E-19   0.000    
    5289   5.289      0.1000E-02 FIXED          0   0.0%   0.000       0.000       2.000       2.000       0.000      0.1000E-19   0.000    
    5290   5.290      0.1000E-02 FIXED          0  -0.0%   0.000       0.000       2.000       2.000       0.000      0.1000E-19   0.000    
    5291   5.291      0.1000E-02 FIXED          0   0.0%   0.000       0.000       2.000       2.000       0.000      0.1000E-19   0.000    
    5292   5.292      0.1000E-02 FIXED          0  -0.0%   0.000       0.000       2.000       2.000       0.000      0.1000E-19   0.000    
    5293   5.293      0.1000E-02 FIXED          0   0.0%   0.000       0.000       2.000       2.000       0.000      0.1000E-19   0.000    
    5294   5.294      0.1000E-02 FIXED          0  -0.0%   0.000       0.000       2.000       2.000       0.000      0.1000E-19   0.000    
    5295   5.295      0.1000E-02 FIXED          0  -0.0%   0.000       0.000       2.000       2.000       0.000      0.1000E-19   0.000    
    5296   5.296      0.1000E-02 FIXED          0   0.0%   0.000       0.000       2.000       2.000       0.000      0.1000E-19   0.000    
    5297   5.297      0.1000E-02 FIXED          0   0.0%   0.000       0.000       2.000       2.000       0.000      0.1000E-19   0.000    
    5298   5.298      0.1000E-02 FIXED          0  -0.0%   0.000       0.000       2.000       2.000       0.000      0.1000E-19   0.000    
    5299   5.299      0.1000E-02 FIXED          0   0.0%   0.000       0.000       2.000       2.000       0.000      0.1000E-19   0.000    
    5300   5.300      0.1000E-02 FIXED          0   0.0%   0.000       0.000       2.000       2.000       0.000      0.1000E-19   0.000    
    5301   5.301      0.1000E-02 FIXED          0  -0.0%   0.000       0.000       2.000       2.000       0.000      0.1000E-19   0.000    
    5302   5.302      0.1000E-02 FIXED          0  -0.0%   0.000       0.000       2.000       2.000       0.000      0.1000E-19   0.000    
    5303   5.303      0.1000E-02 FIXED          0   0.0%   0.000       0.000       2.000       2.000       0.000      0.1000E-19   0.000    
    5304   5.304      0.1000E-02 FIXED          0  -0.0%   0.000       0.000       2.000       2.000       0.000      0.1000E-19   0.000    
    5305   5.305      0.1000E-02 FIXED          0   0.0%   0.000       0.000       2.000       2.000       0.000      0.1000E-19   0.000    
    5306   5.306      0.1000E-02 FIXED          0  -0.0%   0.000       0.000       2.000       2.000       0.000      0.1000E-19   0.000    
    5307   5.307      0.1000E-02 FIXED          0   0.0%   0.000       0.000       2.000       2.000       0.000      0.1000E-19   0.000    
    5308   5.308      0.1000E-02 FIXED          0  -0.0%   0.000       0.000       2.000       2.000       0.000      0.1000E-19   0.000    
    5309   5.309      0.1000E-02 FIXED          0   0.0%   0.000       0.000       2.000       2.000       0.000      0.1000E-19   0.000    
    5310   5.310      0.1000E-02 FIXED          0  -0.0%   0.000       0.000       2.000       2.000       0.000      0.1000E-19   0.000    
    5311   5.311      0.1000E-02 FIXED          0   0.0%   0.000       0.000       2.000       2.000       0.000      0.1000E-19   0.000    
    5312   5.312      0.1000E-02 FIXED          0  -0.0%   0.000       0.000       2.000       2.000       0.000      0.1000E-19   0.000    
    5313   5.313      0.1000E-02 FIXED          0   0.0%   0.000       0.000       2.000       2.000       0.000      0.1000E-19   0.000    
    5314   5.314      0.1000E-02 FIXED          0   0.0%   0.000       0.000       2.000       2.000       0.000      0.1000E-19   0.000    
    5315   5.315      0.1000E-02 FIXED          0  -0.0%   0.000       0.000       2.000       2.000       0.000      0.1000E-19   0.000    
    5316   5.316      0.1000E-02 FIXED          0   0.0%   0.000       0.000       2.000       2.000       0.000      0.1000E-19   0.000    
    5317   5.317      0.1000E-02 FIXED          0  -0.0%   0.000       0.000       2.000       2.000       0.000      0.1000E-19   0.000    
    5318   5.318      0.1000E-02 FIXED          0   0.0%   0.000       0.000       2.000       2.000       0.000      0.1000E-19   0.000    
    5319   5.319      0.1000E-02 FIXED          0  -0.0%   0.000       0.000       2.000       2.000       0.000      0.1000E-19   0.000    
    5320   5.320      0.1000E-02 FIXED          0   0.0%   0.000       0.000       2.000       2.000       0.000      0.1000E-19   0.000    
    5321   5.321      0.1000E-02 FIXED          0   0.0%   0.000       0.000       2.000       2.000       0.000      0.1000E-19   0.000    
    5322   5.322      0.1000E-02 FIXED          0  -0.0%   0.000       0.000       2.000       2.000       0.000      0.1000E-19   0.000    
    5323   5.323      0.1000E-02 FIXED          0  -0.0%   0.000       0.000       2.000       2.000       0.000      0.1000E-19   0.000    
    5324   5.324      0.1000E-02 FIXED          0   0.0%   0.000       0.000       2.000       2.000       0.000      0.1000E-19   0.000    
    5325   5.325      0.1000E-02 FIXED          0  -0.0%   0.000       0.000       2.000       2.000       0.000      0.1000E-19   0.000    
    5326   5.326      0.1000E-02 FIXED          0   0.0%   0.000       0.000       2.000       2.000       0.000      0.1000E-19   0.000    
    5327   5.327      0.1000E-02 FIXED          0  -0.0%   0.000       0.000       2.000       2.000       0.000      0.1000E-19   0.000    
    5328   5.328      0.1000E-02 FIXED          0   0.0%   0.000       0.000       2.000       2.000       0.000      0.1000E-19   0.000    
    5329   5.329      0.1000E-02 FIXED          0   0.0%   0.000       0.000       2.000       2.000       0.000      0.1000E-19   0.000    
    5330   5.330      0.1000E-02 FIXED          0   0.0%   0.000       0.000       2.000       2.000       0.000      0.1000E-19   0.000    
    5331   5.331      0.1000E-02 FIXED          0   0.0%   0.000       0.000       2.000       2.000       0.000      0.1000E-19   0.000    
    5332   5.332      0.1000E-02 FIXED          0  -0.0%   0.000       0.000       2.000       2.000       0.000      0.1000E-19   0.000    
    5333   5.333      0.1000E-02 FIXED          0   0.0%   0.000       0.000       2.000       2.000       0.000      0.1000E-19   0.000    
    5334   5.334      0.1000E-02 FIXED          0   0.0%   0.000       0.000       2.000       2.000       0.000      0.1000E-19   0.000    
   CYCLE    TIME      TIME-STEP  ELEMENT          ERROR  I-ENERGY    K-ENERGY T  K-ENERGY R  EXT-WORK     MAS.ERR     TOTAL MASS  MASS ADDED
    5335   5.335      0.1000E-02 FIXED          0   0.0%   0.000       0.000       2.000       2.000       0.000      0.1000E-19   0.000    
    5336   5.336      0.1000E-02 FIXED          0   0.0%   0.000       0.000       2.000       2.000       0.000      0.1000E-19   0.000    
    5337   5.337      0.1000E-02 FIXED          0  -0.0%   0.000       0.000       2.000       2.000       0.000      0.1000E-19   0.000    
    5338   5.338      0.1000E-02 FIXED          0   0.0%   0.000       0.000       2.000       2.000       0.000      0.1000E-19   0.000    
    5339   5.339      0.1000E-02 FIXED          0   0.0%   0.000       0.000       2.000       2.000       0.000      0.1000E-19   0.000    
    5340   5.340      0.1000E-02 FIXED          0  -0.0%   0.000       0.000       2.000       2.000       0.000      0.1000E-19   0.000    
    5341   5.341      0.1000E-02 FIXED          0  -0.0%   0.000       0.000       2.000       2.000       0.000      0.1000E-19   0.000    
    5342   5.342      0.1000E-02 FIXED          0   0.0%   0.000       0.000       2.000       2.000       0.000      0.1000E-19   0.000    
    5343   5.343      0.1000E-02 FIXED          0   0.0%   0.000       0.000       2.000       2.000       0.000      0.1000E-19   0.000    
    5344   5.344      0.1000E-02 FIXED          0  -0.0%   0.000       0.000       2.000       2.000       0.000      0.1000E-19   0.000    
    5345   5.345      0.1000E-02 FIXED          0  -0.0%   0.000       0.000       2.000       2.000       0.000      0.1000E-19   0.000    
    5346   5.346      0.1000E-02 FIXED          0   0.0%   0.000       0.000       2.000       2.000       0.000      0.1000E-19   0.000    
    5347   5.347      0.1000E-02 FIXED          0   0.0%   0.000       0.000       2.000       2.000       0.000      0.1000E-19   0.000    
    5348   5.348      0.1000E-02 FIXED          0   0.0%   0.000       0.000       2.000       2.000       0.000      0.1000E-19   0.000    
    5349   5.349      0.1000E-02 FIXED          0  -0.0%   0.000       0.000       2.000       2.000       0.000      0.1000E-19   0.000    
    5350   5.350      0.1000E-02 FIXED          0  -0.0%   0.000       0.000       2.000       2.000       0.000      0.1000E-19   0.000    
    5351   5.351      0.1000E-02 FIXED          0   0.0%   0.000       0.000       2.000       2.000       0.000      0.1000E-19   0.000    
    5352   5.352      0.1000E-02 FIXED          0  -0.0%   0.000       0.000       2.000       2.000       0.000      0.1000E-19   0.000    
    5353   5.353      0.1000E-02 FIXED          0  -0.0%   0.000       0.000       2.000       2.000       0.000      0.1000E-19   0.000    
    5354   5.354      0.1000E-02 FIXED          0  -0.0%   0.000       0.000       2.000       2.000       0.000      0.1000E-19   0.000    
    5355   5.355      0.1000E-02 FIXED          0  -0.0%   0.000       0.000       2.000       2.000       0.000      0.1000E-19   0.000    
    5356   5.356      0.1000E-02 FIXED          0   0.0%   0.000       0.000       2.000       2.000       0.000      0.1000E-19   0.000    
    5357   5.357      0.1000E-02 FIXED          0  -0.0%   0.000       0.000       2.000       2.000       0.000      0.1000E-19   0.000    
    5358   5.358      0.1000E-02 FIXED          0   0.0%   0.000       0.000       2.000       2.000       0.000      0.1000E-19   0.000    
    5359   5.359      0.1000E-02 FIXED          0   0.0%   0.000       0.000       2.000       2.000       0.000      0.1000E-19   0.000    
    5360   5.360      0.1000E-02 FIXED          0   0.0%   0.000       0.000       2.000       2.000       0.000      0.1000E-19   0.000    
    5361   5.361      0.1000E-02 FIXED          0   0.0%   0.000       0.000       2.000       2.000       0.000      0.1000E-19   0.000    
    5362   5.362      0.1000E-02 FIXED          0   0.0%   0.000       0.000       2.000       2.000       0.000      0.1000E-19   0.000    
    5363   5.363      0.1000E-02 FIXED          0  -0.0%   0.000       0.000       2.000       2.000       0.000      0.1000E-19   0.000    
    5364   5.364      0.1000E-02 FIXED          0  -0.0%   0.000       0.000       2.000       2.000       0.000      0.1000E-19   0.000    
    5365   5.365      0.1000E-02 FIXED          0   0.0%   0.000       0.000       2.000       2.000       0.000      0.1000E-19   0.000    
    5366   5.366      0.1000E-02 FIXED          0  -0.0%   0.000       0.000       2.000       2.000       0.000      0.1000E-19   0.000    
    5367   5.367      0.1000E-02 FIXED          0   0.0%   0.000       0.000       2.000       2.000       0.000      0.1000E-19   0.000    
    5368   5.368      0.1000E-02 FIXED          0   0.0%   0.000       0.000       2.000       2.000       0.000      0.1000E-19   0.000    
    5369   5.369      0.1000E-02 FIXED          0   0.0%   0.000       0.000       2.000       2.000       0.000      0.1000E-19   0.000    
    5370   5.370      0.1000E-02 FIXED          0  -0.0%   0.000       0.000       2.000       2.000       0.000      0.1000E-19   0.000    
    5371   5.371      0.1000E-02 FIXED          0   0.0%   0.000       0.000       2.000       2.000       0.000      0.1000E-19   0.000    
    5372   5.372      0.1000E-02 FIXED          0   0.0%   0.000       0.000       2.000       2.000       0.000      0.1000E-19   0.000    
    5373   5.373      0.1000E-02 FIXED          0   0.0%   0.000       0.000       2.000       2.000       0.000      0.1000E-19   0.000    
    5374   5.374      0.1000E-02 FIXED          0  -0.0%   0.000       0.000       2.000       2.000       0.000      0.1000E-19   0.000    
    5375   5.375      0.1000E-02 FIXED          0  -0.0%   0.000       0.000       2.000       2.000       0.000      0.1000E-19   0.000    
    5376   5.376      0.1000E-02 FIXED          0   0.0%   0.000       0.000       2.000       2.000       0.000      0.1000E-19   0.000    
    5377   5.377      0.1000E-02 FIXED          0  -0.0%   0.000       0.000       2.000       2.000       0.000      0.1000E-19   0.000    
    5378   5.378      0.1000E-02 FIXED          0  -0.0%   0.000       0.000       2.000       2.000       0.000      0.1000E-19   0.000    
    5379   5.379      0.1000E-02 FIXED          0  -0.0%   0.000       0.000       2.000       2.000       0.000      0.1000E-19   0.000    
    5380   5.380      0.1000E-02 FIXED          0   0.0%   0.000       0.000       2.000       2.000       0.000      0.1000E-19   0.000    
    5381   5.381      0.1000E-02 FIXED          0   0.0%   0.000       0.000       2.000       2.000       0.000      0.1000E-19   0.000    
    5382   5.382      0.1000E-02 FIXED          0  -0.0%   0.000       0.000       2.000       2.000       0.000      0.1000E-19   0.000    
    5383   5.383      0.1000E-02 FIXED          0   0.0%   0.000       0.000       2.000       2.000       0.000      0.1000E-19   0.000    
    5384   5.384      0.1000E-02 FIXED          0   0.0%   0.000       0.000       2.000       2.000       0.000      0.1000E-19   0.000    
    5385   5.385      0.1000E-02 FIXED          0   0.0%   0.000       0.000       2.000       2.000       0.000      0.1000E-19   0.000    
    5386   5.386      0.1000E-02 FIXED          0  -0.0%   0.000       0.000       2.000       2.000       0.000      0.1000E-19   0.000    
    5387   5.387      0.1000E-02 FIXED          0  -0.0%   0.000       0.000       2.000       2.000       0.000      0.1000E-19   0.000    
    5388   5.388      0.1000E-02 FIXED          0  -0.0%   0.000       0.000       2.000       2.000       0.000      0.1000E-19   0.000    
    5389   5.389      0.1000E-02 FIXED          0   0.0%   0.000       0.000       2.000       2.000       0.000      0.1000E-19   0.000    
   CYCLE    TIME      TIME-STEP  ELEMENT          ERROR  I-ENERGY    K-ENERGY T  K-ENERGY R  EXT-WORK     MAS.ERR     TOTAL MASS  MASS ADDED
    5390   5.390      0.1000E-02 FIXED          0  -0.0%   0.000       0.000       2.000       2.000       0.000      0.1000E-19   0.000    
    5391   5.391      0.1000E-02 FIXED          0   0.0%   0.000       0.000       2.000       2.000       0.000      0.1000E-19   0.000    
    5392   5.392      0.1000E-02 FIXED          0   0.0%   0.000       0.000       2.000       2.000       0.000      0.1000E-19   0.000    
    5393   5.393      0.1000E-02 FIXED          0  -0.0%   0.000       0.000       2.000       2.000       0.000      0.1000E-19   0.000    
    5394   5.394      0.1000E-02 FIXED          0   0.0%   0.000       0.000       2.000       2.000       0.000      0.1000E-19   0.000    
    5395   5.395      0.1000E-02 FIXED          0   0.0%   0.000       0.000       2.000       2.000       0.000      0.1000E-19   0.000    
    5396   5.396      0.1000E-02 FIXED          0  -0.0%   0.000       0.000       2.000       2.000       0.000      0.1000E-19   0.000    
    5397   5.397      0.1000E-02 FIXED          0   0.0%   0.000       0.000       2.000       2.000       0.000      0.1000E-19   0.000    
    5398   5.398      0.1000E-02 FIXED          0  -0.0%   0.000       0.000       2.000       2.000       0.000      0.1000E-19   0.000    
    5399   5.399      0.1000E-02 FIXED          0   0.0%   0.000       0.000       2.000       2.000       0.000      0.1000E-19   0.000    
    5400   5.400      0.1000E-02 FIXED          0  -0.0%   0.000       0.000       2.000       2.000       0.000      0.1000E-19   0.000    
    5401   5.401      0.1000E-02 FIXED          0   0.0%   0.000       0.000       2.000       2.000       0.000      0.1000E-19   0.000    
    5402   5.402      0.1000E-02 FIXED          0  -0.0%   0.000       0.000       2.000       2.000       0.000      0.1000E-19   0.000    
    5403   5.403      0.1000E-02 FIXED          0   0.0%   0.000       0.000       2.000       2.000       0.000      0.1000E-19   0.000    
    5404   5.404      0.1000E-02 FIXED          0   0.0%   0.000       0.000       2.000       2.000       0.000      0.1000E-19   0.000    
    5405   5.405      0.1000E-02 FIXED          0  -0.0%   0.000       0.000       2.000       2.000       0.000      0.1000E-19   0.000    
    5406   5.406      0.1000E-02 FIXED          0   0.0%   0.000       0.000       2.000       2.000       0.000      0.1000E-19   0.000    
    5407   5.407      0.1000E-02 FIXED          0   0.0%   0.000       0.000       2.000       2.000       0.000      0.1000E-19   0.000    
    5408   5.408      0.1000E-02 FIXED          0   0.0%   0.000       0.000       2.000       2.000       0.000      0.1000E-19   0.000    
    5409   5.409      0.1000E-02 FIXED          0  -0.0%   0.000       0.000       2.000       2.000       0.000      0.1000E-19   0.000    
    5410   5.410      0.1000E-02 FIXED          0  -0.0%   0.000       0.000       2.000       2.000       0.000      0.1000E-19   0.000    
    5411   5.411      0.1000E-02 FIXED          0   0.0%   0.000       0.000       2.000       2.000       0.000      0.1000E-19   0.000    
    5412   5.412      0.1000E-02 FIXED          0  -0.0%   0.000       0.000       2.000       2.000       0.000      0.1000E-19   0.000    
    5413   5.413      0.1000E-02 FIXED          0  -0.0%   0.000       0.000       2.000       2.000       0.000      0.1000E-19   0.000    
    5414   5.414      0.1000E-02 FIXED          0  -0.0%   0.000       0.000       2.000       2.000       0.000      0.1000E-19   0.000    
    5415   5.415      0.1000E-02 FIXED          0   0.0%   0.000       0.000       2.000       2.000       0.000      0.1000E-19   0.000    
    5416   5.416      0.1000E-02 FIXED          0  -0.0%   0.000       0.000       2.000       2.000       0.000      0.1000E-19   0.000    
    5417   5.417      0.1000E-02 FIXED          0  -0.0%   0.000       0.000       2.000       2.000       0.000      0.1000E-19   0.000    
    5418   5.418      0.1000E-02 FIXED          0   0.0%   0.000       0.000       2.000       2.000       0.000      0.1000E-19   0.000    
    5419   5.419      0.1000E-02 FIXED          0   0.0%   0.000       0.000       2.000       2.000       0.000      0.1000E-19   0.000    
    5420   5.420      0.1000E-02 FIXED          0   0.0%   0.000       0.000       2.000       2.000       0.000      0.1000E-19   0.000    
    5421   5.421      0.1000E-02 FIXED          0  -0.0%   0.000       0.000       2.000       2.000       0.000      0.1000E-19   0.000    
    5422   5.422      0.1000E-02 FIXED          0  -0.0%   0.000       0.000       2.000       2.000       0.000      0.1000E-19   0.000    
    5423   5.423      0.1000E-02 FIXED          0   0.0%   0.000       0.000       2.000       2.000       0.000      0.1000E-19   0.000    
    5424   5.424      0.1000E-02 FIXED          0  -0.0%   0.000       0.000       2.000       2.000       0.000      0.1000E-19   0.000    
    5425   5.425      0.1000E-02 FIXED          0   0.0%   0.000       0.000       2.000       2.000       0.000      0.1000E-19   0.000    
    5426   5.426      0.1000E-02 FIXED          0  -0.0%   0.000       0.000       2.000       2.000       0.000      0.1000E-19   0.000    
    5427   5.427      0.1000E-02 FIXED          0  -0.0%   0.000       0.000       2.000       2.000       0.000      0.1000E-19   0.000    
    5428   5.428      0.1000E-02 FIXED          0   0.0%   0.000       0.000       2.000       2.000       0.000      0.1000E-19   0.000    
    5429   5.429      0.1000E-02 FIXED          0  -0.0%   0.000       0.000       2.000       2.000       0.000      0.1000E-19   0.000    
    5430   5.430      0.1000E-02 FIXED          0  -0.0%   0.000       0.000       2.000       2.000       0.000      0.1000E-19   0.000    
    5431   5.431      0.1000E-02 FIXED          0   0.0%   0.000       0.000       2.000       2.000       0.000      0.1000E-19   0.000    
    5432   5.432      0.1000E-02 FIXED          0   0.0%   0.000       0.000       2.000       2.000       0.000      0.1000E-19   0.000    
    5433   5.433      0.1000E-02 FIXED          0   0.0%   0.000       0.000       2.000       2.000       0.000      0.1000E-19   0.000    
    5434   5.434      0.1000E-02 FIXED          0   0.0%   0.000       0.000       2.000       2.000       0.000      0.1000E-19   0.000    
    5435   5.435      0.1000E-02 FIXED          0   0.0%   0.000       0.000       2.000       2.000       0.000      0.1000E-19   0.000    
    5436   5.436      0.1000E-02 FIXED          0  -0.0%   0.000       0.000       2.000       2.000       0.000      0.1000E-19   0.000    
    5437   5.437      0.1000E-02 FIXED          0   0.0%   0.000       0.000       2.000       2.000       0.000      0.1000E-19   0.000    
    5438   5.438      0.1000E-02 FIXED          0   0.0%   0.000       0.000       2.000       2.000       0.000      0.1000E-19   0.000    
    5439   5.439      0.1000E-02 FIXED          0   0.0%   0.000       0.000       2.000       2.000       0.000      0.1000E-19   0.000    
    5440   5.440      0.1000E-02 FIXED          0   0.0%   0.000       0.000       2.000       2.000       0.000      0.1000E-19   0.000    
    5441   5.441      0.1000E-02 FIXED          0   0.0%   0.000       0.000       2.000       2.000       0.000      0.1000E-19   0.000    
    5442   5.442      0.1000E-02 FIXED          0  -0.0%   0.000       0.000       2.000       2.000       0.000      0.1000E-19   0.000    
    5443   5.443      0.1000E-02 FIXED          0  -0.0%   0.000       0.000       2.000       2.000       0.000      0.1000E-19   0.000    
    5444   5.444      0.1000E-02 FIXED          0   0.0%   0.000       0.000       2.000       2.000       0.000      0.1000E-19   0.000    
   CYCLE    TIME      TIME-STEP  ELEMENT          ERROR  I-ENERGY    K-ENERGY T  K-ENERGY R  EXT-WORK     MAS.ERR     TOTAL MASS  MASS ADDED
    5445   5.445      0.1000E-02 FIXED          0   0.0%   0.000       0.000       2.000       2.000       0.000      0.1000E-19   0.000    
    5446   5.446      0.1000E-02 FIXED          0   0.0%   0.000       0.000       2.000       2.000       0.000      0.1000E-19   0.000    
    5447   5.447      0.1000E-02 FIXED          0   0.0%   0.000       0.000       2.000       2.000       0.000      0.1000E-19   0.000    
    5448   5.448      0.1000E-02 FIXED          0  -0.0%   0.000       0.000       2.000       2.000       0.000      0.1000E-19   0.000    
    5449   5.449      0.1000E-02 FIXED          0   0.0%   0.000       0.000       2.000       2.000       0.000      0.1000E-19   0.000    
    5450   5.450      0.1000E-02 FIXED          0   0.0%   0.000       0.000       2.000       2.000       0.000      0.1000E-19   0.000    
    5451   5.451      0.1000E-02 FIXED          0  -0.0%   0.000       0.000       2.000       2.000       0.000      0.1000E-19   0.000    
    5452   5.452      0.1000E-02 FIXED          0   0.0%   0.000       0.000       2.000       2.000       0.000      0.1000E-19   0.000    
    5453   5.453      0.1000E-02 FIXED          0  -0.0%   0.000       0.000       2.000       2.000       0.000      0.1000E-19   0.000    
    5454   5.454      0.1000E-02 FIXED          0   0.0%   0.000       0.000       2.000       2.000       0.000      0.1000E-19   0.000    
    5455   5.455      0.1000E-02 FIXED          0   0.0%   0.000       0.000       2.000       2.000       0.000      0.1000E-19   0.000    
    5456   5.456      0.1000E-02 FIXED          0   0.0%   0.000       0.000       2.000       2.000       0.000      0.1000E-19   0.000    
    5457   5.457      0.1000E-02 FIXED          0   0.0%   0.000       0.000       2.000       2.000       0.000      0.1000E-19   0.000    
    5458   5.458      0.1000E-02 FIXED          0   0.0%   0.000       0.000       2.000       2.000       0.000      0.1000E-19   0.000    
    5459   5.459      0.1000E-02 FIXED          0  -0.0%   0.000       0.000       2.000       2.000       0.000      0.1000E-19   0.000    
    5460   5.460      0.1000E-02 FIXED          0  -0.0%   0.000       0.000       2.000       2.000       0.000      0.1000E-19   0.000    
    5461   5.461      0.1000E-02 FIXED          0   0.0%   0.000       0.000       2.000       2.000       0.000      0.1000E-19   0.000    
    5462   5.462      0.1000E-02 FIXED          0   0.0%   0.000       0.000       2.000       2.000       0.000      0.1000E-19   0.000    
    5463   5.463      0.1000E-02 FIXED          0  -0.0%   0.000       0.000       2.000       2.000       0.000      0.1000E-19   0.000    
    5464   5.464      0.1000E-02 FIXED          0  -0.0%   0.000       0.000       2.000       2.000       0.000      0.1000E-19   0.000    
    5465   5.465      0.1000E-02 FIXED          0   0.0%   0.000       0.000       2.000       2.000       0.000      0.1000E-19   0.000    
    5466   5.466      0.1000E-02 FIXED          0  -0.0%   0.000       0.000       2.000       2.000       0.000      0.1000E-19   0.000    
    5467   5.467      0.1000E-02 FIXED          0  -0.0%   0.000       0.000       2.000       2.000       0.000      0.1000E-19   0.000    
    5468   5.468      0.1000E-02 FIXED          0   0.0%   0.000       0.000       2.000       2.000       0.000      0.1000E-19   0.000    
    5469   5.469      0.1000E-02 FIXED          0   0.0%   0.000       0.000       2.000       2.000       0.000      0.1000E-19   0.000    
    5470   5.470      0.1000E-02 FIXED          0  -0.0%   0.000       0.000       2.000       2.000       0.000      0.1000E-19   0.000    
    5471   5.471      0.1000E-02 FIXED          0  -0.0%   0.000       0.000       2.000       2.000       0.000      0.1000E-19   0.000    
    5472   5.472      0.1000E-02 FIXED          0   0.0%   0.000       0.000       2.000       2.000       0.000      0.1000E-19   0.000    
    5473   5.473      0.1000E-02 FIXED          0   0.0%   0.000       0.000       2.000       2.000       0.000      0.1000E-19   0.000    
    5474   5.474      0.1000E-02 FIXED          0  -0.0%   0.000       0.000       2.000       2.000       0.000      0.1000E-19   0.000    
    5475   5.475      0.1000E-02 FIXED          0  -0.0%   0.000       0.000       2.000       2.000       0.000      0.1000E-19   0.000    
    5476   5.476      0.1000E-02 FIXED          0   0.0%   0.000       0.000       2.000       2.000       0.000      0.1000E-19   0.000    
    5477   5.477      0.1000E-02 FIXED          0   0.0%   0.000       0.000       2.000       2.000       0.000      0.1000E-19   0.000    
    5478   5.478      0.1000E-02 FIXED          0  -0.0%   0.000       0.000       2.000       2.000       0.000      0.1000E-19   0.000    
    5479   5.479      0.1000E-02 FIXED          0  -0.0%   0.000       0.000       2.000       2.000       0.000      0.1000E-19   0.000    
    5480   5.480      0.1000E-02 FIXED          0   0.0%   0.000       0.000       2.000       2.000       0.000      0.1000E-19   0.000    
    5481   5.481      0.1000E-02 FIXED          0  -0.0%   0.000       0.000       2.000       2.000       0.000      0.1000E-19   0.000    
    5482   5.482      0.1000E-02 FIXED          0   0.0%   0.000       0.000       2.000       2.000       0.000      0.1000E-19   0.000    
    5483   5.483      0.1000E-02 FIXED          0  -0.0%   0.000       0.000       2.000       2.000       0.000      0.1000E-19   0.000    
    5484   5.484      0.1000E-02 FIXED          0   0.0%   0.000       0.000       2.000       2.000       0.000      0.1000E-19   0.000    
    5485   5.485      0.1000E-02 FIXED          0   0.0%   0.000       0.000       2.000       2.000       0.000      0.1000E-19   0.000    
    5486   5.486      0.1000E-02 FIXED          0  -0.0%   0.000       0.000       2.000       2.000       0.000      0.1000E-19   0.000    
    5487   5.487      0.1000E-02 FIXED          0  -0.0%   0.000       0.000       2.000       2.000       0.000      0.1000E-19   0.000    
    5488   5.488      0.1000E-02 FIXED          0   0.0%   0.000       0.000       2.000       2.000       0.000      0.1000E-19   0.000    
    5489   5.489      0.1000E-02 FIXED          0  -0.0%   0.000       0.000       2.000       2.000       0.000      0.1000E-19   0.000    
    5490   5.490      0.1000E-02 FIXED          0   0.0%   0.000       0.000       2.000       2.000       0.000      0.1000E-19   0.000    
    5491   5.491      0.1000E-02 FIXED          0   0.0%   0.000       0.000       2.000       2.000       0.000      0.1000E-19   0.000    
    5492   5.492      0.1000E-02 FIXED          0   0.0%   0.000       0.000       2.000       2.000       0.000      0.1000E-19   0.000    
    5493   5.493      0.1000E-02 FIXED          0   0.0%   0.000       0.000       2.000       2.000       0.000      0.1000E-19   0.000    
    5494   5.494      0.1000E-02 FIXED          0  -0.0%   0.000       0.000       2.000       2.000       0.000      0.1000E-19   0.000    
    5495   5.495      0.1000E-02 FIXED          0  -0.0%   0.000       0.000       2.000       2.000       0.000      0.1000E-19   0.000    
    5496   5.496      0.1000E-02 FIXED          0  -0.0%   0.000       0.000       2.000       2.000       0.000      0.1000E-19   0.000    
    5497   5.497      0.1000E-02 FIXED          0  -0.0%   0.000       0.000       2.000       2.000       0.000      0.1000E-19   0.000    
    5498   5.498      0.1000E-02 FIXED          0  -0.0%   0.000       0.000       2.000       2.000       0.000      0.1000E-19   0.000    
    5499   5.499      0.1000E-02 FIXED          0  -0.0%   0.000       0.000       2.000       2.000       0.000      0.1000E-19   0.000    
   CYCLE    TIME      TIME-STEP  ELEMENT          ERROR  I-ENERGY    K-ENERGY T  K-ENERGY R  EXT-WORK     MAS.ERR     TOTAL MASS  MASS ADDED
    5500   5.500      0.1000E-02 FIXED          0  -0.0%   0.000       0.000       2.000       2.000       0.000      0.1000E-19   0.000    
    5501   5.501      0.1000E-02 FIXED          0   0.0%   0.000       0.000       2.000       2.000       0.000      0.1000E-19   0.000    
    5502   5.502      0.1000E-02 FIXED          0   0.0%   0.000       0.000       2.000       2.000       0.000      0.1000E-19   0.000    
    5503   5.503      0.1000E-02 FIXED          0   0.0%   0.000       0.000       2.000       2.000       0.000      0.1000E-19   0.000    
    5504   5.504      0.1000E-02 FIXED          0  -0.0%   0.000       0.000       2.000       2.000       0.000      0.1000E-19   0.000    
    5505   5.505      0.1000E-02 FIXED          0   0.0%   0.000       0.000       2.000       2.000       0.000      0.1000E-19   0.000    
    5506   5.506      0.1000E-02 FIXED          0   0.0%   0.000       0.000       2.000       2.000       0.000      0.1000E-19   0.000    
    5507   5.507      0.1000E-02 FIXED          0   0.0%   0.000       0.000       2.000       2.000       0.000      0.1000E-19   0.000    
    5508   5.508      0.1000E-02 FIXED          0  -0.0%   0.000       0.000       2.000       2.000       0.000      0.1000E-19   0.000    
    5509   5.509      0.1000E-02 FIXED          0   0.0%   0.000       0.000       2.000       2.000       0.000      0.1000E-19   0.000    
    5510   5.510      0.1000E-02 FIXED          0   0.0%   0.000       0.000       2.000       2.000       0.000      0.1000E-19   0.000    
    5511   5.511      0.1000E-02 FIXED          0   0.0%   0.000       0.000       2.000       2.000       0.000      0.1000E-19   0.000    
    5512   5.512      0.1000E-02 FIXED          0  -0.0%   0.000       0.000       2.000       2.000       0.000      0.1000E-19   0.000    
    5513   5.513      0.1000E-02 FIXED          0   0.0%   0.000       0.000       2.000       2.000       0.000      0.1000E-19   0.000    
    5514   5.514      0.1000E-02 FIXED          0  -0.0%   0.000       0.000       2.000       2.000       0.000      0.1000E-19   0.000    
    5515   5.515      0.1000E-02 FIXED          0  -0.0%   0.000       0.000       2.000       2.000       0.000      0.1000E-19   0.000    
    5516   5.516      0.1000E-02 FIXED          0   0.0%   0.000       0.000       2.000       2.000       0.000      0.1000E-19   0.000    
    5517   5.517      0.1000E-02 FIXED          0   0.0%   0.000       0.000       2.000       2.000       0.000      0.1000E-19   0.000    
    5518   5.518      0.1000E-02 FIXED          0   0.0%   0.000       0.000       2.000       2.000       0.000      0.1000E-19   0.000    
    5519   5.519      0.1000E-02 FIXED          0  -0.0%   0.000       0.000       2.000       2.000       0.000      0.1000E-19   0.000    
    5520   5.520      0.1000E-02 FIXED          0  -0.0%   0.000       0.000       2.000       2.000       0.000      0.1000E-19   0.000    
    5521   5.521      0.1000E-02 FIXED          0  -0.0%   0.000       0.000       2.000       2.000       0.000      0.1000E-19   0.000    
    5522   5.522      0.1000E-02 FIXED          0   0.0%   0.000       0.000       2.000       2.000       0.000      0.1000E-19   0.000    
    5523   5.523      0.1000E-02 FIXED          0  -0.0%   0.000       0.000       2.000       2.000       0.000      0.1000E-19   0.000    
    5524   5.524      0.1000E-02 FIXED          0  -0.0%   0.000       0.000       2.000       2.000       0.000      0.1000E-19   0.000    
    5525   5.525      0.1000E-02 FIXED          0  -0.0%   0.000       0.000       2.000       2.000       0.000      0.1000E-19   0.000    
    5526   5.526      0.1000E-02 FIXED          0   0.0%   0.000       0.000       2.000       2.000       0.000      0.1000E-19   0.000    
    5527   5.527      0.1000E-02 FIXED          0  -0.0%   0.000       0.000       2.000       2.000       0.000      0.1000E-19   0.000    
    5528   5.528      0.1000E-02 FIXED          0   0.0%   0.000       0.000       2.000       2.000       0.000      0.1000E-19   0.000    
    5529   5.529      0.1000E-02 FIXED          0  -0.0%   0.000       0.000       2.000       2.000       0.000      0.1000E-19   0.000    
    5530   5.530      0.1000E-02 FIXED          0   0.0%   0.000       0.000       2.000       2.000       0.000      0.1000E-19   0.000    
    5531   5.531      0.1000E-02 FIXED          0   0.0%   0.000       0.000       2.000       2.000       0.000      0.1000E-19   0.000    
    5532   5.532      0.1000E-02 FIXED          0   0.0%   0.000       0.000       2.000       2.000       0.000      0.1000E-19   0.000    
    5533   5.533      0.1000E-02 FIXED          0   0.0%   0.000       0.000       2.000       2.000       0.000      0.1000E-19   0.000    
    5534   5.534      0.1000E-02 FIXED          0   0.0%   0.000       0.000       2.000       2.000       0.000      0.1000E-19   0.000    
    5535   5.535      0.1000E-02 FIXED          0  -0.0%   0.000       0.000       2.000       2.000       0.000      0.1000E-19   0.000    
    5536   5.536      0.1000E-02 FIXED          0  -0.0%   0.000       0.000       2.000       2.000       0.000      0.1000E-19   0.000    
    5537   5.537      0.1000E-02 FIXED          0   0.0%   0.000       0.000       2.000       2.000       0.000      0.1000E-19   0.000    
    5538   5.538      0.1000E-02 FIXED          0  -0.0%   0.000       0.000       2.000       2.000       0.000      0.1000E-19   0.000    
    5539   5.539      0.1000E-02 FIXED          0   0.0%   0.000       0.000       2.000       2.000       0.000      0.1000E-19   0.000    
    5540   5.540      0.1000E-02 FIXED          0  -0.0%   0.000       0.000       2.000       2.000       0.000      0.1000E-19   0.000    
    5541   5.541      0.1000E-02 FIXED          0   0.0%   0.000       0.000       2.000       2.000       0.000      0.1000E-19   0.000    
    5542   5.542      0.1000E-02 FIXED          0   0.0%   0.000       0.000       2.000       2.000       0.000      0.1000E-19   0.000    
    5543   5.543      0.1000E-02 FIXED          0  -0.0%   0.000       0.000       2.000       2.000       0.000      0.1000E-19   0.000    
    5544   5.544      0.1000E-02 FIXED          0   0.0%   0.000       0.000       2.000       2.000       0.000      0.1000E-19   0.000    
    5545   5.545      0.1000E-02 FIXED          0   0.0%   0.000       0.000       2.000       2.000       0.000      0.1000E-19   0.000    
    5546   5.546      0.1000E-02 FIXED          0  -0.0%   0.000       0.000       2.000       2.000       0.000      0.1000E-19   0.000    
    5547   5.547      0.1000E-02 FIXED          0   0.0%   0.000       0.000       2.000       2.000       0.000      0.1000E-19   0.000    
    5548   5.548      0.1000E-02 FIXED          0   0.0%   0.000       0.000       2.000       2.000       0.000      0.1000E-19   0.000    
    5549   5.549      0.1000E-02 FIXED          0   0.0%   0.000       0.000       2.000       2.000       0.000      0.1000E-19   0.000    
    5550   5.550      0.1000E-02 FIXED          0   0.0%   0.000       0.000       2.000       2.000       0.000      0.1000E-19   0.000    
    5551   5.551      0.1000E-02 FIXED          0  -0.0%   0.000       0.000       2.000       2.000       0.000      0.1000E-19   0.000    
    5552   5.552      0.1000E-02 FIXED          0   0.0%   0.000       0.000       2.000       2.000       0.000      0.1000E-19   0.000    
    5553   5.553      0.1000E-02 FIXED          0   0.0%   0.000       0.000       2.000       2.000       0.000      0.1000E-19   0.000    
    5554   5.554      0.1000E-02 FIXED          0   0.0%   0.000       0.000       2.000       2.000       0.000      0.1000E-19   0.000    
   CYCLE    TIME      TIME-STEP  ELEMENT          ERROR  I-ENERGY    K-ENERGY T  K-ENERGY R  EXT-WORK     MAS.ERR     TOTAL MASS  MASS ADDED
    5555   5.555      0.1000E-02 FIXED          0  -0.0%   0.000       0.000       2.000       2.000       0.000      0.1000E-19   0.000    
    5556   5.556      0.1000E-02 FIXED          0  -0.0%   0.000       0.000       2.000       2.000       0.000      0.1000E-19   0.000    
    5557   5.557      0.1000E-02 FIXED          0   0.0%   0.000       0.000       2.000       2.000       0.000      0.1000E-19   0.000    
    5558   5.558      0.1000E-02 FIXED          0   0.0%   0.000       0.000       2.000       2.000       0.000      0.1000E-19   0.000    
    5559   5.559      0.1000E-02 FIXED          0  -0.0%   0.000       0.000       2.000       2.000       0.000      0.1000E-19   0.000    
    5560   5.560      0.1000E-02 FIXED          0   0.0%   0.000       0.000       2.000       2.000       0.000      0.1000E-19   0.000    
    5561   5.561      0.1000E-02 FIXED          0   0.0%   0.000       0.000       2.000       2.000       0.000      0.1000E-19   0.000    
    5562   5.562      0.1000E-02 FIXED          0   0.0%   0.000       0.000       2.000       2.000       0.000      0.1000E-19   0.000    
    5563   5.563      0.1000E-02 FIXED          0  -0.0%   0.000       0.000       2.000       2.000       0.000      0.1000E-19   0.000    
    5564   5.564      0.1000E-02 FIXED          0  -0.0%   0.000       0.000       2.000       2.000       0.000      0.1000E-19   0.000    
    5565   5.565      0.1000E-02 FIXED          0   0.0%   0.000       0.000       2.000       2.000       0.000      0.1000E-19   0.000    
    5566   5.566      0.1000E-02 FIXED          0   0.0%   0.000       0.000       2.000       2.000       0.000      0.1000E-19   0.000    
    5567   5.567      0.1000E-02 FIXED          0   0.0%   0.000       0.000       2.000       2.000       0.000      0.1000E-19   0.000    
    5568   5.568      0.1000E-02 FIXED          0   0.0%   0.000       0.000       2.000       2.000       0.000      0.1000E-19   0.000    
    5569   5.569      0.1000E-02 FIXED          0   0.0%   0.000       0.000       2.000       2.000       0.000      0.1000E-19   0.000    
    5570   5.570      0.1000E-02 FIXED          0  -0.0%   0.000       0.000       2.000       2.000       0.000      0.1000E-19   0.000    
    5571   5.571      0.1000E-02 FIXED          0  -0.0%   0.000       0.000       2.000       2.000       0.000      0.1000E-19   0.000    
    5572   5.572      0.1000E-02 FIXED          0  -0.0%   0.000       0.000       2.000       2.000       0.000      0.1000E-19   0.000    
    5573   5.573      0.1000E-02 FIXED          0  -0.0%   0.000       0.000       2.000       2.000       0.000      0.1000E-19   0.000    
    5574   5.574      0.1000E-02 FIXED          0   0.0%   0.000       0.000       2.000       2.000       0.000      0.1000E-19   0.000    
    5575   5.575      0.1000E-02 FIXED          0  -0.0%   0.000       0.000       2.000       2.000       0.000      0.1000E-19   0.000    
    5576   5.576      0.1000E-02 FIXED          0   0.0%   0.000       0.000       2.000       2.000       0.000      0.1000E-19   0.000    
    5577   5.577      0.1000E-02 FIXED          0  -0.0%   0.000       0.000       2.000       2.000       0.000      0.1000E-19   0.000    
    5578   5.578      0.1000E-02 FIXED          0   0.0%   0.000       0.000       2.000       2.000       0.000      0.1000E-19   0.000    
    5579   5.579      0.1000E-02 FIXED          0   0.0%   0.000       0.000       2.000       2.000       0.000      0.1000E-19   0.000    
    5580   5.580      0.1000E-02 FIXED          0   0.0%   0.000       0.000       2.000       2.000       0.000      0.1000E-19   0.000    
    5581   5.581      0.1000E-02 FIXED          0   0.0%   0.000       0.000       2.000       2.000       0.000      0.1000E-19   0.000    
    5582   5.582      0.1000E-02 FIXED          0   0.0%   0.000       0.000       2.000       2.000       0.000      0.1000E-19   0.000    
    5583   5.583      0.1000E-02 FIXED          0   0.0%   0.000       0.000       2.000       2.000       0.000      0.1000E-19   0.000    
    5584   5.584      0.1000E-02 FIXED          0  -0.0%   0.000       0.000       2.000       2.000       0.000      0.1000E-19   0.000    
    5585   5.585      0.1000E-02 FIXED          0  -0.0%   0.000       0.000       2.000       2.000       0.000      0.1000E-19   0.000    
    5586   5.586      0.1000E-02 FIXED          0   0.0%   0.000       0.000       2.000       2.000       0.000      0.1000E-19   0.000    
    5587   5.587      0.1000E-02 FIXED          0  -0.0%   0.000       0.000       2.000       2.000       0.000      0.1000E-19   0.000    
    5588   5.588      0.1000E-02 FIXED          0  -0.0%   0.000       0.000       2.000       2.000       0.000      0.1000E-19   0.000    
    5589   5.589      0.1000E-02 FIXED          0  -0.0%   0.000       0.000       2.000       2.000       0.000      0.1000E-19   0.000    
    5590   5.590      0.1000E-02 FIXED          0   0.0%   0.000       0.000       2.000       2.000       0.000      0.1000E-19   0.000    
    5591   5.591      0.1000E-02 FIXED          0   0.0%   0.000       0.000       2.000       2.000       0.000      0.1000E-19   0.000    
    5592   5.592      0.1000E-02 FIXED          0  -0.0%   0.000       0.000       2.000       2.000       0.000      0.1000E-19   0.000    
    5593   5.593      0.1000E-02 FIXED          0   0.0%   0.000       0.000       2.000       2.000       0.000      0.1000E-19   0.000    
    5594   5.594      0.1000E-02 FIXED          0  -0.0%   0.000       0.000       2.000       2.000       0.000      0.1000E-19   0.000    
    5595   5.595      0.1000E-02 FIXED          0   0.0%   0.000       0.000       2.000       2.000       0.000      0.1000E-19   0.000    
    5596   5.596      0.1000E-02 FIXED          0  -0.0%   0.000       0.000       2.000       2.000       0.000      0.1000E-19   0.000    
    5597   5.597      0.1000E-02 FIXED          0  -0.0%   0.000       0.000       2.000       2.000       0.000      0.1000E-19   0.000    
    5598   5.598      0.1000E-02 FIXED          0  -0.0%   0.000       0.000       2.000       2.000       0.000      0.1000E-19   0.000    
    5599   5.599      0.1000E-02 FIXED          0   0.0%   0.000       0.000       2.000       2.000       0.000      0.1000E-19   0.000    
    5600   5.600      0.1000E-02 FIXED          0   0.0%   0.000       0.000       2.000       2.000       0.000      0.1000E-19   0.000    
    5601   5.601      0.1000E-02 FIXED          0  -0.0%   0.000       0.000       2.000       2.000       0.000      0.1000E-19   0.000    
    5602   5.602      0.1000E-02 FIXED          0   0.0%   0.000       0.000       2.000       2.000       0.000      0.1000E-19   0.000    
    5603   5.603      0.1000E-02 FIXED          0   0.0%   0.000       0.000       2.000       2.000       0.000      0.1000E-19   0.000    
    5604   5.604      0.1000E-02 FIXED          0   0.0%   0.000       0.000       2.000       2.000       0.000      0.1000E-19   0.000    
    5605   5.605      0.1000E-02 FIXED          0   0.0%   0.000       0.000       2.000       2.000       0.000      0.1000E-19   0.000    
    5606   5.606      0.1000E-02 FIXED          0   0.0%   0.000       0.000       2.000       2.000       0.000      0.1000E-19   0.000    
    5607   5.607      0.1000E-02 FIXED          0   0.0%   0.000       0.000       2.000       2.000       0.000      0.1000E-19   0.000    
    5608   5.608      0.1000E-02 FIXED          0   0.0%   0.000       0.000       2.000       2.000       0.000      0.1000E-19   0.000    
    5609   5.609      0.1000E-02 FIXED          0  -0.0%   0.000       0.000       2.000       2.000       0.000      0.1000E-19   0.000    
   CYCLE    TIME      TIME-STEP  ELEMENT          ERROR  I-ENERGY    K-ENERGY T  K-ENERGY R  EXT-WORK     MAS.ERR     TOTAL MASS  MASS ADDED
    5610   5.610      0.1000E-02 FIXED          0   0.0%   0.000       0.000       2.000       2.000       0.000      0.1000E-19   0.000    
    5611   5.611      0.1000E-02 FIXED          0  -0.0%   0.000       0.000       2.000       2.000       0.000      0.1000E-19   0.000    
    5612   5.612      0.1000E-02 FIXED          0   0.0%   0.000       0.000       2.000       2.000       0.000      0.1000E-19   0.000    
    5613   5.613      0.1000E-02 FIXED          0   0.0%   0.000       0.000       2.000       2.000       0.000      0.1000E-19   0.000    
    5614   5.614      0.1000E-02 FIXED          0  -0.0%   0.000       0.000       2.000       2.000       0.000      0.1000E-19   0.000    
    5615   5.615      0.1000E-02 FIXED          0  -0.0%   0.000       0.000       2.000       2.000       0.000      0.1000E-19   0.000    
    5616   5.616      0.1000E-02 FIXED          0   0.0%   0.000       0.000       2.000       2.000       0.000      0.1000E-19   0.000    
    5617   5.617      0.1000E-02 FIXED          0  -0.0%   0.000       0.000       2.000       2.000       0.000      0.1000E-19   0.000    
    5618   5.618      0.1000E-02 FIXED          0   0.0%   0.000       0.000       2.000       2.000       0.000      0.1000E-19   0.000    
    5619   5.619      0.1000E-02 FIXED          0   0.0%   0.000       0.000       2.000       2.000       0.000      0.1000E-19   0.000    
    5620   5.620      0.1000E-02 FIXED          0  -0.0%   0.000       0.000       2.000       2.000       0.000      0.1000E-19   0.000    
    5621   5.621      0.1000E-02 FIXED          0   0.0%   0.000       0.000       2.000       2.000       0.000      0.1000E-19   0.000    
    5622   5.622      0.1000E-02 FIXED          0  -0.0%   0.000       0.000       2.000       2.000       0.000      0.1000E-19   0.000    
    5623   5.623      0.1000E-02 FIXED          0   0.0%   0.000       0.000       2.000       2.000       0.000      0.1000E-19   0.000    
    5624   5.624      0.1000E-02 FIXED          0  -0.0%   0.000       0.000       2.000       2.000       0.000      0.1000E-19   0.000    
    5625   5.625      0.1000E-02 FIXED          0   0.0%   0.000       0.000       2.000       2.000       0.000      0.1000E-19   0.000    
    5626   5.626      0.1000E-02 FIXED          0  -0.0%   0.000       0.000       2.000       2.000       0.000      0.1000E-19   0.000    
    5627   5.627      0.1000E-02 FIXED          0   0.0%   0.000       0.000       2.000       2.000       0.000      0.1000E-19   0.000    
    5628   5.628      0.1000E-02 FIXED          0   0.0%   0.000       0.000       2.000       2.000       0.000      0.1000E-19   0.000    
    5629   5.629      0.1000E-02 FIXED          0   0.0%   0.000       0.000       2.000       2.000       0.000      0.1000E-19   0.000    
    5630   5.630      0.1000E-02 FIXED          0  -0.0%   0.000       0.000       2.000       2.000       0.000      0.1000E-19   0.000    
    5631   5.631      0.1000E-02 FIXED          0   0.0%   0.000       0.000       2.000       2.000       0.000      0.1000E-19   0.000    
    5632   5.632      0.1000E-02 FIXED          0   0.0%   0.000       0.000       2.000       2.000       0.000      0.1000E-19   0.000    
    5633   5.633      0.1000E-02 FIXED          0   0.0%   0.000       0.000       2.000       2.000       0.000      0.1000E-19   0.000    
    5634   5.634      0.1000E-02 FIXED          0  -0.0%   0.000       0.000       2.000       2.000       0.000      0.1000E-19   0.000    
    5635   5.635      0.1000E-02 FIXED          0   0.0%   0.000       0.000       2.000       2.000       0.000      0.1000E-19   0.000    
    5636   5.636      0.1000E-02 FIXED          0  -0.0%   0.000       0.000       2.000       2.000       0.000      0.1000E-19   0.000    
    5637   5.637      0.1000E-02 FIXED          0  -0.0%   0.000       0.000       2.000       2.000       0.000      0.1000E-19   0.000    
    5638   5.638      0.1000E-02 FIXED          0  -0.0%   0.000       0.000       2.000       2.000       0.000      0.1000E-19   0.000    
    5639   5.639      0.1000E-02 FIXED          0  -0.0%   0.000       0.000       2.000       2.000       0.000      0.1000E-19   0.000    
    5640   5.640      0.1000E-02 FIXED          0  -0.0%   0.000       0.000       2.000       2.000       0.000      0.1000E-19   0.000    
    5641   5.641      0.1000E-02 FIXED          0  -0.0%   0.000       0.000       2.000       2.000       0.000      0.1000E-19   0.000    
    5642   5.642      0.1000E-02 FIXED          0   0.0%   0.000       0.000       2.000       2.000       0.000      0.1000E-19   0.000    
    5643   5.643      0.1000E-02 FIXED          0  -0.0%   0.000       0.000       2.000       2.000       0.000      0.1000E-19   0.000    
    5644   5.644      0.1000E-02 FIXED          0   0.0%   0.000       0.000       2.000       2.000       0.000      0.1000E-19   0.000    
    5645   5.645      0.1000E-02 FIXED          0   0.0%   0.000       0.000       2.000       2.000       0.000      0.1000E-19   0.000    
    5646   5.646      0.1000E-02 FIXED          0  -0.0%   0.000       0.000       2.000       2.000       0.000      0.1000E-19   0.000    
    5647   5.647      0.1000E-02 FIXED          0   0.0%   0.000       0.000       2.000       2.000       0.000      0.1000E-19   0.000    
    5648   5.648      0.1000E-02 FIXED          0   0.0%   0.000       0.000       2.000       2.000       0.000      0.1000E-19   0.000    
    5649   5.649      0.1000E-02 FIXED          0   0.0%   0.000       0.000       2.000       2.000       0.000      0.1000E-19   0.000    
    5650   5.650      0.1000E-02 FIXED          0  -0.0%   0.000       0.000       2.000       2.000       0.000      0.1000E-19   0.000    
    5651   5.651      0.1000E-02 FIXED          0   0.0%   0.000       0.000       2.000       2.000       0.000      0.1000E-19   0.000    
    5652   5.652      0.1000E-02 FIXED          0   0.0%   0.000       0.000       2.000       2.000       0.000      0.1000E-19   0.000    
    5653   5.653      0.1000E-02 FIXED          0  -0.0%   0.000       0.000       2.000       2.000       0.000      0.1000E-19   0.000    
    5654   5.654      0.1000E-02 FIXED          0  -0.0%   0.000       0.000       2.000       2.000       0.000      0.1000E-19   0.000    
    5655   5.655      0.1000E-02 FIXED          0   0.0%   0.000       0.000       2.000       2.000       0.000      0.1000E-19   0.000    
    5656   5.656      0.1000E-02 FIXED          0  -0.0%   0.000       0.000       2.000       2.000       0.000      0.1000E-19   0.000    
    5657   5.657      0.1000E-02 FIXED          0  -0.0%   0.000       0.000       2.000       2.000       0.000      0.1000E-19   0.000    
    5658   5.658      0.1000E-02 FIXED          0   0.0%   0.000       0.000       2.000       2.000       0.000      0.1000E-19   0.000    
    5659   5.659      0.1000E-02 FIXED          0   0.0%   0.000       0.000       2.000       2.000       0.000      0.1000E-19   0.000    
    5660   5.660      0.1000E-02 FIXED          0   0.0%   0.000       0.000       2.000       2.000       0.000      0.1000E-19   0.000    
    5661   5.661      0.1000E-02 FIXED          0   0.0%   0.000       0.000       2.000       2.000       0.000      0.1000E-19   0.000    
    5662   5.662      0.1000E-02 FIXED          0   0.0%   0.000       0.000       2.000       2.000       0.000      0.1000E-19   0.000    
    5663   5.663      0.1000E-02 FIXED          0  -0.0%   0.000       0.000       2.000       2.000       0.000      0.1000E-19   0.000    
    5664   5.664      0.1000E-02 FIXED          0   0.0%   0.000       0.000       2.000       2.000       0.000      0.1000E-19   0.000    
   CYCLE    TIME      TIME-STEP  ELEMENT          ERROR  I-ENERGY    K-ENERGY T  K-ENERGY R  EXT-WORK     MAS.ERR     TOTAL MASS  MASS ADDED
    5665   5.665      0.1000E-02 FIXED          0  -0.0%   0.000       0.000       2.000       2.000       0.000      0.1000E-19   0.000    
    5666   5.666      0.1000E-02 FIXED          0   0.0%   0.000       0.000       2.000       2.000       0.000      0.1000E-19   0.000    
    5667   5.667      0.1000E-02 FIXED          0   0.0%   0.000       0.000       2.000       2.000       0.000      0.1000E-19   0.000    
    5668   5.668      0.1000E-02 FIXED          0  -0.0%   0.000       0.000       2.000       2.000       0.000      0.1000E-19   0.000    
    5669   5.669      0.1000E-02 FIXED          0  -0.0%   0.000       0.000       2.000       2.000       0.000      0.1000E-19   0.000    
    5670   5.670      0.1000E-02 FIXED          0  -0.0%   0.000       0.000       2.000       2.000       0.000      0.1000E-19   0.000    
    5671   5.671      0.1000E-02 FIXED          0   0.0%   0.000       0.000       2.000       2.000       0.000      0.1000E-19   0.000    
    5672   5.672      0.1000E-02 FIXED          0  -0.0%   0.000       0.000       2.000       2.000       0.000      0.1000E-19   0.000    
    5673   5.673      0.1000E-02 FIXED          0   0.0%   0.000       0.000       2.000       2.000       0.000      0.1000E-19   0.000    
    5674   5.674      0.1000E-02 FIXED          0  -0.0%   0.000       0.000       2.000       2.000       0.000      0.1000E-19   0.000    
    5675   5.675      0.1000E-02 FIXED          0   0.0%   0.000       0.000       2.000       2.000       0.000      0.1000E-19   0.000    
    5676   5.676      0.1000E-02 FIXED          0   0.0%   0.000       0.000       2.000       2.000       0.000      0.1000E-19   0.000    
    5677   5.677      0.1000E-02 FIXED          0   0.0%   0.000       0.000       2.000       2.000       0.000      0.1000E-19   0.000    
    5678   5.678      0.1000E-02 FIXED          0   0.0%   0.000       0.000       2.000       2.000       0.000      0.1000E-19   0.000    
    5679   5.679      0.1000E-02 FIXED          0   0.0%   0.000       0.000       2.000       2.000       0.000      0.1000E-19   0.000    
    5680   5.680      0.1000E-02 FIXED          0  -0.0%   0.000       0.000       2.000       2.000       0.000      0.1000E-19   0.000    
    5681   5.681      0.1000E-02 FIXED          0   0.0%   0.000       0.000       2.000       2.000       0.000      0.1000E-19   0.000    
    5682   5.682      0.1000E-02 FIXED          0  -0.0%   0.000       0.000       2.000       2.000       0.000      0.1000E-19   0.000    
    5683   5.683      0.1000E-02 FIXED          0  -0.0%   0.000       0.000       2.000       2.000       0.000      0.1000E-19   0.000    
    5684   5.684      0.1000E-02 FIXED          0   0.0%   0.000       0.000       2.000       2.000       0.000      0.1000E-19   0.000    
    5685   5.685      0.1000E-02 FIXED          0  -0.0%   0.000       0.000       2.000       2.000       0.000      0.1000E-19   0.000    
    5686   5.686      0.1000E-02 FIXED          0   0.0%   0.000       0.000       2.000       2.000       0.000      0.1000E-19   0.000    
    5687   5.687      0.1000E-02 FIXED          0   0.0%   0.000       0.000       2.000       2.000       0.000      0.1000E-19   0.000    
    5688   5.688      0.1000E-02 FIXED          0   0.0%   0.000       0.000       2.000       2.000       0.000      0.1000E-19   0.000    
    5689   5.689      0.1000E-02 FIXED          0   0.0%   0.000       0.000       2.000       2.000       0.000      0.1000E-19   0.000    
    5690   5.690      0.1000E-02 FIXED          0   0.0%   0.000       0.000       2.000       2.000       0.000      0.1000E-19   0.000    
    5691   5.691      0.1000E-02 FIXED          0   0.0%   0.000       0.000       2.000       2.000       0.000      0.1000E-19   0.000    
    5692   5.692      0.1000E-02 FIXED          0   0.0%   0.000       0.000       2.000       2.000       0.000      0.1000E-19   0.000    
    5693   5.693      0.1000E-02 FIXED          0   0.0%   0.000       0.000       2.000       2.000       0.000      0.1000E-19   0.000    
    5694   5.694      0.1000E-02 FIXED          0  -0.0%   0.000       0.000       2.000       2.000       0.000      0.1000E-19   0.000    
    5695   5.695      0.1000E-02 FIXED          0  -0.0%   0.000       0.000       2.000       2.000       0.000      0.1000E-19   0.000    
    5696   5.696      0.1000E-02 FIXED          0  -0.0%   0.000       0.000       2.000       2.000       0.000      0.1000E-19   0.000    
    5697   5.697      0.1000E-02 FIXED          0   0.0%   0.000       0.000       2.000       2.000       0.000      0.1000E-19   0.000    
    5698   5.698      0.1000E-02 FIXED          0   0.0%   0.000       0.000       2.000       2.000       0.000      0.1000E-19   0.000    
    5699   5.699      0.1000E-02 FIXED          0  -0.0%   0.000       0.000       2.000       2.000       0.000      0.1000E-19   0.000    
    5700   5.700      0.1000E-02 FIXED          0   0.0%   0.000       0.000       2.000       2.000       0.000      0.1000E-19   0.000    
    5701   5.701      0.1000E-02 FIXED          0  -0.0%   0.000       0.000       2.000       2.000       0.000      0.1000E-19   0.000    
    5702   5.702      0.1000E-02 FIXED          0   0.0%   0.000       0.000       2.000       2.000       0.000      0.1000E-19   0.000    
    5703   5.703      0.1000E-02 FIXED          0   0.0%   0.000       0.000       2.000       2.000       0.000      0.1000E-19   0.000    
    5704   5.704      0.1000E-02 FIXED          0   0.0%   0.000       0.000       2.000       2.000       0.000      0.1000E-19   0.000    
    5705   5.705      0.1000E-02 FIXED          0   0.0%   0.000       0.000       2.000       2.000       0.000      0.1000E-19   0.000    
    5706   5.706      0.1000E-02 FIXED          0   0.0%   0.000       0.000       2.000       2.000       0.000      0.1000E-19   0.000    
    5707   5.707      0.1000E-02 FIXED          0  -0.0%   0.000       0.000       2.000       2.000       0.000      0.1000E-19   0.000    
    5708   5.708      0.1000E-02 FIXED          0   0.0%   0.000       0.000       2.000       2.000       0.000      0.1000E-19   0.000    
    5709   5.709      0.1000E-02 FIXED          0   0.0%   0.000       0.000       2.000       2.000       0.000      0.1000E-19   0.000    
    5710   5.710      0.1000E-02 FIXED          0   0.0%   0.000       0.000       2.000       2.000       0.000      0.1000E-19   0.000    
    5711   5.711      0.1000E-02 FIXED          0  -0.0%   0.000       0.000       2.000       2.000       0.000      0.1000E-19   0.000    
    5712   5.712      0.1000E-02 FIXED          0   0.0%   0.000       0.000       2.000       2.000       0.000      0.1000E-19   0.000    
    5713   5.713      0.1000E-02 FIXED          0  -0.0%   0.000       0.000       2.000       2.000       0.000      0.1000E-19   0.000    
    5714   5.714      0.1000E-02 FIXED          0   0.0%   0.000       0.000       2.000       2.000       0.000      0.1000E-19   0.000    
    5715   5.715      0.1000E-02 FIXED          0   0.0%   0.000       0.000       2.000       2.000       0.000      0.1000E-19   0.000    
    5716   5.716      0.1000E-02 FIXED          0   0.0%   0.000       0.000       2.000       2.000       0.000      0.1000E-19   0.000    
    5717   5.717      0.1000E-02 FIXED          0   0.0%   0.000       0.000       2.000       2.000       0.000      0.1000E-19   0.000    
    5718   5.718      0.1000E-02 FIXED          0  -0.0%   0.000       0.000       2.000       2.000       0.000      0.1000E-19   0.000    
    5719   5.719      0.1000E-02 FIXED          0   0.0%   0.000       0.000       2.000       2.000       0.000      0.1000E-19   0.000    
   CYCLE    TIME      TIME-STEP  ELEMENT          ERROR  I-ENERGY    K-ENERGY T  K-ENERGY R  EXT-WORK     MAS.ERR     TOTAL MASS  MASS ADDED
    5720   5.720      0.1000E-02 FIXED          0   0.0%   0.000       0.000       2.000       2.000       0.000      0.1000E-19   0.000    
    5721   5.721      0.1000E-02 FIXED          0   0.0%   0.000       0.000       2.000       2.000       0.000      0.1000E-19   0.000    
    5722   5.722      0.1000E-02 FIXED          0   0.0%   0.000       0.000       2.000       2.000       0.000      0.1000E-19   0.000    
    5723   5.723      0.1000E-02 FIXED          0  -0.0%   0.000       0.000       2.000       2.000       0.000      0.1000E-19   0.000    
    5724   5.724      0.1000E-02 FIXED          0   0.0%   0.000       0.000       2.000       2.000       0.000      0.1000E-19   0.000    
    5725   5.725      0.1000E-02 FIXED          0  -0.0%   0.000       0.000       2.000       2.000       0.000      0.1000E-19   0.000    
    5726   5.726      0.1000E-02 FIXED          0   0.0%   0.000       0.000       2.000       2.000       0.000      0.1000E-19   0.000    
    5727   5.727      0.1000E-02 FIXED          0   0.0%   0.000       0.000       2.000       2.000       0.000      0.1000E-19   0.000    
    5728   5.728      0.1000E-02 FIXED          0  -0.0%   0.000       0.000       2.000       2.000       0.000      0.1000E-19   0.000    
    5729   5.729      0.1000E-02 FIXED          0   0.0%   0.000       0.000       2.000       2.000       0.000      0.1000E-19   0.000    
    5730   5.730      0.1000E-02 FIXED          0   0.0%   0.000       0.000       2.000       2.000       0.000      0.1000E-19   0.000    
    5731   5.731      0.1000E-02 FIXED          0   0.0%   0.000       0.000       2.000       2.000       0.000      0.1000E-19   0.000    
    5732   5.732      0.1000E-02 FIXED          0  -0.0%   0.000       0.000       2.000       2.000       0.000      0.1000E-19   0.000    
    5733   5.733      0.1000E-02 FIXED          0   0.0%   0.000       0.000       2.000       2.000       0.000      0.1000E-19   0.000    
    5734   5.734      0.1000E-02 FIXED          0  -0.0%   0.000       0.000       2.000       2.000       0.000      0.1000E-19   0.000    
    5735   5.735      0.1000E-02 FIXED          0   0.0%   0.000       0.000       2.000       2.000       0.000      0.1000E-19   0.000    
    5736   5.736      0.1000E-02 FIXED          0   0.0%   0.000       0.000       2.000       2.000       0.000      0.1000E-19   0.000    
    5737   5.737      0.1000E-02 FIXED          0   0.0%   0.000       0.000       2.000       2.000       0.000      0.1000E-19   0.000    
    5738   5.738      0.1000E-02 FIXED          0  -0.0%   0.000       0.000       2.000       2.000       0.000      0.1000E-19   0.000    
    5739   5.739      0.1000E-02 FIXED          0   0.0%   0.000       0.000       2.000       2.000       0.000      0.1000E-19   0.000    
    5740   5.740      0.1000E-02 FIXED          0   0.0%   0.000       0.000       2.000       2.000       0.000      0.1000E-19   0.000    
    5741   5.741      0.1000E-02 FIXED          0  -0.0%   0.000       0.000       2.000       2.000       0.000      0.1000E-19   0.000    
    5742   5.742      0.1000E-02 FIXED          0   0.0%   0.000       0.000       2.000       2.000       0.000      0.1000E-19   0.000    
    5743   5.743      0.1000E-02 FIXED          0   0.0%   0.000       0.000       2.000       2.000       0.000      0.1000E-19   0.000    
    5744   5.744      0.1000E-02 FIXED          0   0.0%   0.000       0.000       2.000       2.000       0.000      0.1000E-19   0.000    
    5745   5.745      0.1000E-02 FIXED          0  -0.0%   0.000       0.000       2.000       2.000       0.000      0.1000E-19   0.000    
    5746   5.746      0.1000E-02 FIXED          0  -0.0%   0.000       0.000       2.000       2.000       0.000      0.1000E-19   0.000    
    5747   5.747      0.1000E-02 FIXED          0  -0.0%   0.000       0.000       2.000       2.000       0.000      0.1000E-19   0.000    
    5748   5.748      0.1000E-02 FIXED          0  -0.0%   0.000       0.000       2.000       2.000       0.000      0.1000E-19   0.000    
    5749   5.749      0.1000E-02 FIXED          0  -0.0%   0.000       0.000       2.000       2.000       0.000      0.1000E-19   0.000    
    5750   5.750      0.1000E-02 FIXED          0   0.0%   0.000       0.000       2.000       2.000       0.000      0.1000E-19   0.000    
    5751   5.751      0.1000E-02 FIXED          0  -0.0%   0.000       0.000       2.000       2.000       0.000      0.1000E-19   0.000    
    5752   5.752      0.1000E-02 FIXED          0   0.0%   0.000       0.000       2.000       2.000       0.000      0.1000E-19   0.000    
    5753   5.753      0.1000E-02 FIXED          0  -0.0%   0.000       0.000       2.000       2.000       0.000      0.1000E-19   0.000    
    5754   5.754      0.1000E-02 FIXED          0   0.0%   0.000       0.000       2.000       2.000       0.000      0.1000E-19   0.000    
    5755   5.755      0.1000E-02 FIXED          0   0.0%   0.000       0.000       2.000       2.000       0.000      0.1000E-19   0.000    
    5756   5.756      0.1000E-02 FIXED          0   0.0%   0.000       0.000       2.000       2.000       0.000      0.1000E-19   0.000    
    5757   5.757      0.1000E-02 FIXED          0   0.0%   0.000       0.000       2.000       2.000       0.000      0.1000E-19   0.000    
    5758   5.758      0.1000E-02 FIXED          0  -0.0%   0.000       0.000       2.000       2.000       0.000      0.1000E-19   0.000    
    5759   5.759      0.1000E-02 FIXED          0   0.0%   0.000       0.000       2.000       2.000       0.000      0.1000E-19   0.000    
    5760   5.760      0.1000E-02 FIXED          0  -0.0%   0.000       0.000       2.000       2.000       0.000      0.1000E-19   0.000    
    5761   5.761      0.1000E-02 FIXED          0   0.0%   0.000       0.000       2.000       2.000       0.000      0.1000E-19   0.000    
    5762   5.762      0.1000E-02 FIXED          0   0.0%   0.000       0.000       2.000       2.000       0.000      0.1000E-19   0.000    
    5763   5.763      0.1000E-02 FIXED          0  -0.0%   0.000       0.000       2.000       2.000       0.000      0.1000E-19   0.000    
    5764   5.764      0.1000E-02 FIXED          0   0.0%   0.000       0.000       2.000       2.000       0.000      0.1000E-19   0.000    
    5765   5.765      0.1000E-02 FIXED          0  -0.0%   0.000       0.000       2.000       2.000       0.000      0.1000E-19   0.000    
    5766   5.766      0.1000E-02 FIXED          0   0.0%   0.000       0.000       2.000       2.000       0.000      0.1000E-19   0.000    
    5767   5.767      0.1000E-02 FIXED          0  -0.0%   0.000       0.000       2.000       2.000       0.000      0.1000E-19   0.000    
    5768   5.768      0.1000E-02 FIXED          0  -0.0%   0.000       0.000       2.000       2.000       0.000      0.1000E-19   0.000    
    5769   5.769      0.1000E-02 FIXED          0   0.0%   0.000       0.000       2.000       2.000       0.000      0.1000E-19   0.000    
    5770   5.770      0.1000E-02 FIXED          0  -0.0%   0.000       0.000       2.000       2.000       0.000      0.1000E-19   0.000    
    5771   5.771      0.1000E-02 FIXED          0   0.0%   0.000       0.000       2.000       2.000       0.000      0.1000E-19   0.000    
    5772   5.772      0.1000E-02 FIXED          0   0.0%   0.000       0.000       2.000       2.000       0.000      0.1000E-19   0.000    
    5773   5.773      0.1000E-02 FIXED          0   0.0%   0.000       0.000       2.000       2.000       0.000      0.1000E-19   0.000    
    5774   5.774      0.1000E-02 FIXED          0  -0.0%   0.000       0.000       2.000       2.000       0.000      0.1000E-19   0.000    
   CYCLE    TIME      TIME-STEP  ELEMENT          ERROR  I-ENERGY    K-ENERGY T  K-ENERGY R  EXT-WORK     MAS.ERR     TOTAL MASS  MASS ADDED
    5775   5.775      0.1000E-02 FIXED          0   0.0%   0.000       0.000       2.000       2.000       0.000      0.1000E-19   0.000    
    5776   5.776      0.1000E-02 FIXED          0   0.0%   0.000       0.000       2.000       2.000       0.000      0.1000E-19   0.000    
    5777   5.777      0.1000E-02 FIXED          0  -0.0%   0.000       0.000       2.000       2.000       0.000      0.1000E-19   0.000    
    5778   5.778      0.1000E-02 FIXED          0   0.0%   0.000       0.000       2.000       2.000       0.000      0.1000E-19   0.000    
    5779   5.779      0.1000E-02 FIXED          0   0.0%   0.000       0.000       2.000       2.000       0.000      0.1000E-19   0.000    
    5780   5.780      0.1000E-02 FIXED          0   0.0%   0.000       0.000       2.000       2.000       0.000      0.1000E-19   0.000    
    5781   5.781      0.1000E-02 FIXED          0   0.0%   0.000       0.000       2.000       2.000       0.000      0.1000E-19   0.000    
    5782   5.782      0.1000E-02 FIXED          0   0.0%   0.000       0.000       2.000       2.000       0.000      0.1000E-19   0.000    
    5783   5.783      0.1000E-02 FIXED          0  -0.0%   0.000       0.000       2.000       2.000       0.000      0.1000E-19   0.000    
    5784   5.784      0.1000E-02 FIXED          0  -0.0%   0.000       0.000       2.000       2.000       0.000      0.1000E-19   0.000    
    5785   5.785      0.1000E-02 FIXED          0   0.0%   0.000       0.000       2.000       2.000       0.000      0.1000E-19   0.000    
    5786   5.786      0.1000E-02 FIXED          0  -0.0%   0.000       0.000       2.000       2.000       0.000      0.1000E-19   0.000    
    5787   5.787      0.1000E-02 FIXED          0   0.0%   0.000       0.000       2.000       2.000       0.000      0.1000E-19   0.000    
    5788   5.788      0.1000E-02 FIXED          0   0.0%   0.000       0.000       2.000       2.000       0.000      0.1000E-19   0.000    
    5789   5.789      0.1000E-02 FIXED          0   0.0%   0.000       0.000       2.000       2.000       0.000      0.1000E-19   0.000    
    5790   5.790      0.1000E-02 FIXED          0  -0.0%   0.000       0.000       2.000       2.000       0.000      0.1000E-19   0.000    
    5791   5.791      0.1000E-02 FIXED          0   0.0%   0.000       0.000       2.000       2.000       0.000      0.1000E-19   0.000    
    5792   5.792      0.1000E-02 FIXED          0   0.0%   0.000       0.000       2.000       2.000       0.000      0.1000E-19   0.000    
    5793   5.793      0.1000E-02 FIXED          0   0.0%   0.000       0.000       2.000       2.000       0.000      0.1000E-19   0.000    
    5794   5.794      0.1000E-02 FIXED          0  -0.0%   0.000       0.000       2.000       2.000       0.000      0.1000E-19   0.000    
    5795   5.795      0.1000E-02 FIXED          0   0.0%   0.000       0.000       2.000       2.000       0.000      0.1000E-19   0.000    
    5796   5.796      0.1000E-02 FIXED          0   0.0%   0.000       0.000       2.000       2.000       0.000      0.1000E-19   0.000    
    5797   5.797      0.1000E-02 FIXED          0   0.0%   0.000       0.000       2.000       2.000       0.000      0.1000E-19   0.000    
    5798   5.798      0.1000E-02 FIXED          0  -0.0%   0.000       0.000       2.000       2.000       0.000      0.1000E-19   0.000    
    5799   5.799      0.1000E-02 FIXED          0   0.0%   0.000       0.000       2.000       2.000       0.000      0.1000E-19   0.000    
    5800   5.800      0.1000E-02 FIXED          0   0.0%   0.000       0.000       2.000       2.000       0.000      0.1000E-19   0.000    
    5801   5.801      0.1000E-02 FIXED          0   0.0%   0.000       0.000       2.000       2.000       0.000      0.1000E-19   0.000    
    5802   5.802      0.1000E-02 FIXED          0  -0.0%   0.000       0.000       2.000       2.000       0.000      0.1000E-19   0.000    
    5803   5.803      0.1000E-02 FIXED          0   0.0%   0.000       0.000       2.000       2.000       0.000      0.1000E-19   0.000    
    5804   5.804      0.1000E-02 FIXED          0   0.0%   0.000       0.000       2.000       2.000       0.000      0.1000E-19   0.000    
    5805   5.805      0.1000E-02 FIXED          0  -0.0%   0.000       0.000       2.000       2.000       0.000      0.1000E-19   0.000    
    5806   5.806      0.1000E-02 FIXED          0   0.0%   0.000       0.000       2.000       2.000       0.000      0.1000E-19   0.000    
    5807   5.807      0.1000E-02 FIXED          0   0.0%   0.000       0.000       2.000       2.000       0.000      0.1000E-19   0.000    
    5808   5.808      0.1000E-02 FIXED          0   0.0%   0.000       0.000       2.000       2.000       0.000      0.1000E-19   0.000    
    5809   5.809      0.1000E-02 FIXED          0   0.0%   0.000       0.000       2.000       2.000       0.000      0.1000E-19   0.000    
    5810   5.810      0.1000E-02 FIXED          0   0.0%   0.000       0.000       2.000       2.000       0.000      0.1000E-19   0.000    
    5811   5.811      0.1000E-02 FIXED          0  -0.0%   0.000       0.000       2.000       2.000       0.000      0.1000E-19   0.000    
    5812   5.812      0.1000E-02 FIXED          0  -0.0%   0.000       0.000       2.000       2.000       0.000      0.1000E-19   0.000    
    5813   5.813      0.1000E-02 FIXED          0   0.0%   0.000       0.000       2.000       2.000       0.000      0.1000E-19   0.000    
    5814   5.814      0.1000E-02 FIXED          0  -0.0%   0.000       0.000       2.000       2.000       0.000      0.1000E-19   0.000    
    5815   5.815      0.1000E-02 FIXED          0   0.0%   0.000       0.000       2.000       2.000       0.000      0.1000E-19   0.000    
    5816   5.816      0.1000E-02 FIXED          0   0.0%   0.000       0.000       2.000       2.000       0.000      0.1000E-19   0.000    
    5817   5.817      0.1000E-02 FIXED          0  -0.0%   0.000       0.000       2.000       2.000       0.000      0.1000E-19   0.000    
    5818   5.818      0.1000E-02 FIXED          0   0.0%   0.000       0.000       2.000       2.000       0.000      0.1000E-19   0.000    
    5819   5.819      0.1000E-02 FIXED          0   0.0%   0.000       0.000       2.000       2.000       0.000      0.1000E-19   0.000    
    5820   5.820      0.1000E-02 FIXED          0   0.0%   0.000       0.000       2.000       2.000       0.000      0.1000E-19   0.000    
    5821   5.821      0.1000E-02 FIXED          0   0.0%   0.000       0.000       2.000       2.000       0.000      0.1000E-19   0.000    
    5822   5.822      0.1000E-02 FIXED          0   0.0%   0.000       0.000       2.000       2.000       0.000      0.1000E-19   0.000    
    5823   5.823      0.1000E-02 FIXED          0  -0.0%   0.000       0.000       2.000       2.000       0.000      0.1000E-19   0.000    
    5824   5.824      0.1000E-02 FIXED          0   0.0%   0.000       0.000       2.000       2.000       0.000      0.1000E-19   0.000    
    5825   5.825      0.1000E-02 FIXED          0   0.0%   0.000       0.000       2.000       2.000       0.000      0.1000E-19   0.000    
    5826   5.826      0.1000E-02 FIXED          0   0.0%   0.000       0.000       2.000       2.000       0.000      0.1000E-19   0.000    
    5827   5.827      0.1000E-02 FIXED          0   0.0%   0.000       0.000       2.000       2.000       0.000      0.1000E-19   0.000    
    5828   5.828      0.1000E-02 FIXED          0  -0.0%   0.000       0.000       2.000       2.000       0.000      0.1000E-19   0.000    
    5829   5.829      0.1000E-02 FIXED          0  -0.0%   0.000       0.000       2.000       2.000       0.000      0.1000E-19   0.000    
   CYCLE    TIME      TIME-STEP  ELEMENT          ERROR  I-ENERGY    K-ENERGY T  K-ENERGY R  EXT-WORK     MAS.ERR     TOTAL MASS  MASS ADDED
    5830   5.830      0.1000E-02 FIXED          0   0.0%   0.000       0.000       2.000       2.000       0.000      0.1000E-19   0.000    
    5831   5.831      0.1000E-02 FIXED          0   0.0%   0.000       0.000       2.000       2.000       0.000      0.1000E-19   0.000    
    5832   5.832      0.1000E-02 FIXED          0   0.0%   0.000       0.000       2.000       2.000       0.000      0.1000E-19   0.000    
    5833   5.833      0.1000E-02 FIXED          0  -0.0%   0.000       0.000       2.000       2.000       0.000      0.1000E-19   0.000    
    5834   5.834      0.1000E-02 FIXED          0  -0.0%   0.000       0.000       2.000       2.000       0.000      0.1000E-19   0.000    
    5835   5.835      0.1000E-02 FIXED          0   0.0%   0.000       0.000       2.000       2.000       0.000      0.1000E-19   0.000    
    5836   5.836      0.1000E-02 FIXED          0   0.0%   0.000       0.000       2.000       2.000       0.000      0.1000E-19   0.000    
    5837   5.837      0.1000E-02 FIXED          0   0.0%   0.000       0.000       2.000       2.000       0.000      0.1000E-19   0.000    
    5838   5.838      0.1000E-02 FIXED          0  -0.0%   0.000       0.000       2.000       2.000       0.000      0.1000E-19   0.000    
    5839   5.839      0.1000E-02 FIXED          0   0.0%   0.000       0.000       2.000       2.000       0.000      0.1000E-19   0.000    
    5840   5.840      0.1000E-02 FIXED          0   0.0%   0.000       0.000       2.000       2.000       0.000      0.1000E-19   0.000    
    5841   5.841      0.1000E-02 FIXED          0  -0.0%   0.000       0.000       2.000       2.000       0.000      0.1000E-19   0.000    
    5842   5.842      0.1000E-02 FIXED          0   0.0%   0.000       0.000       2.000       2.000       0.000      0.1000E-19   0.000    
    5843   5.843      0.1000E-02 FIXED          0   0.0%   0.000       0.000       2.000       2.000       0.000      0.1000E-19   0.000    
    5844   5.844      0.1000E-02 FIXED          0   0.0%   0.000       0.000       2.000       2.000       0.000      0.1000E-19   0.000    
    5845   5.845      0.1000E-02 FIXED          0   0.0%   0.000       0.000       2.000       2.000       0.000      0.1000E-19   0.000    
    5846   5.846      0.1000E-02 FIXED          0   0.0%   0.000       0.000       2.000       2.000       0.000      0.1000E-19   0.000    
    5847   5.847      0.1000E-02 FIXED          0  -0.0%   0.000       0.000       2.000       2.000       0.000      0.1000E-19   0.000    
    5848   5.848      0.1000E-02 FIXED          0   0.0%   0.000       0.000       2.000       2.000       0.000      0.1000E-19   0.000    
    5849   5.849      0.1000E-02 FIXED          0   0.0%   0.000       0.000       2.000       2.000       0.000      0.1000E-19   0.000    
    5850   5.850      0.1000E-02 FIXED          0   0.0%   0.000       0.000       2.000       2.000       0.000      0.1000E-19   0.000    
    5851   5.851      0.1000E-02 FIXED          0   0.0%   0.000       0.000       2.000       2.000       0.000      0.1000E-19   0.000    
    5852   5.852      0.1000E-02 FIXED          0   0.0%   0.000       0.000       2.000       2.000       0.000      0.1000E-19   0.000    
    5853   5.853      0.1000E-02 FIXED          0  -0.0%   0.000       0.000       2.000       2.000       0.000      0.1000E-19   0.000    
    5854   5.854      0.1000E-02 FIXED          0   0.0%   0.000       0.000       2.000       2.000       0.000      0.1000E-19   0.000    
    5855   5.855      0.1000E-02 FIXED          0  -0.0%   0.000       0.000       2.000       2.000       0.000      0.1000E-19   0.000    
    5856   5.856      0.1000E-02 FIXED          0   0.0%   0.000       0.000       2.000       2.000       0.000      0.1000E-19   0.000    
    5857   5.857      0.1000E-02 FIXED          0  -0.0%   0.000       0.000       2.000       2.000       0.000      0.1000E-19   0.000    
    5858   5.858      0.1000E-02 FIXED          0  -0.0%   0.000       0.000       2.000       2.000       0.000      0.1000E-19   0.000    
    5859   5.859      0.1000E-02 FIXED          0  -0.0%   0.000       0.000       2.000       2.000       0.000      0.1000E-19   0.000    
    5860   5.860      0.1000E-02 FIXED          0  -0.0%   0.000       0.000       2.000       2.000       0.000      0.1000E-19   0.000    
    5861   5.861      0.1000E-02 FIXED          0   0.0%   0.000       0.000       2.000       2.000       0.000      0.1000E-19   0.000    
    5862   5.862      0.1000E-02 FIXED          0   0.0%   0.000       0.000       2.000       2.000       0.000      0.1000E-19   0.000    
    5863   5.863      0.1000E-02 FIXED          0   0.0%   0.000       0.000       2.000       2.000       0.000      0.1000E-19   0.000    
    5864   5.864      0.1000E-02 FIXED          0   0.0%   0.000       0.000       2.000       2.000       0.000      0.1000E-19   0.000    
    5865   5.865      0.1000E-02 FIXED          0   0.0%   0.000       0.000       2.000       2.000       0.000      0.1000E-19   0.000    
    5866   5.866      0.1000E-02 FIXED          0   0.0%   0.000       0.000       2.000       2.000       0.000      0.1000E-19   0.000    
    5867   5.867      0.1000E-02 FIXED          0  -0.0%   0.000       0.000       2.000       2.000       0.000      0.1000E-19   0.000    
    5868   5.868      0.1000E-02 FIXED          0   0.0%   0.000       0.000       2.000       2.000       0.000      0.1000E-19   0.000    
    5869   5.869      0.1000E-02 FIXED          0  -0.0%   0.000       0.000       2.000       2.000       0.000      0.1000E-19   0.000    
    5870   5.870      0.1000E-02 FIXED          0  -0.0%   0.000       0.000       2.000       2.000       0.000      0.1000E-19   0.000    
    5871   5.871      0.1000E-02 FIXED          0   0.0%   0.000       0.000       2.000       2.000       0.000      0.1000E-19   0.000    
    5872   5.872      0.1000E-02 FIXED          0   0.0%   0.000       0.000       2.000       2.000       0.000      0.1000E-19   0.000    
    5873   5.873      0.1000E-02 FIXED          0   0.0%   0.000       0.000       2.000       2.000       0.000      0.1000E-19   0.000    
    5874   5.874      0.1000E-02 FIXED          0  -0.0%   0.000       0.000       2.000       2.000       0.000      0.1000E-19   0.000    
    5875   5.875      0.1000E-02 FIXED          0   0.0%   0.000       0.000       2.000       2.000       0.000      0.1000E-19   0.000    
    5876   5.876      0.1000E-02 FIXED          0   0.0%   0.000       0.000       2.000       2.000       0.000      0.1000E-19   0.000    
    5877   5.877      0.1000E-02 FIXED          0  -0.0%   0.000       0.000       2.000       2.000       0.000      0.1000E-19   0.000    
    5878   5.878      0.1000E-02 FIXED          0   0.0%   0.000       0.000       2.000       2.000       0.000      0.1000E-19   0.000    
    5879   5.879      0.1000E-02 FIXED          0   0.0%   0.000       0.000       2.000       2.000       0.000      0.1000E-19   0.000    
    5880   5.880      0.1000E-02 FIXED          0   0.0%   0.000       0.000       2.000       2.000       0.000      0.1000E-19   0.000    
    5881   5.881      0.1000E-02 FIXED          0   0.0%   0.000       0.000       2.000       2.000       0.000      0.1000E-19   0.000    
    5882   5.882      0.1000E-02 FIXED          0  -0.0%   0.000       0.000       2.000       2.000       0.000      0.1000E-19   0.000    
    5883   5.883      0.1000E-02 FIXED          0  -0.0%   0.000       0.000       2.000       2.000       0.000      0.1000E-19   0.000    
    5884   5.884      0.1000E-02 FIXED          0   0.0%   0.000       0.000       2.000       2.000       0.000      0.1000E-19   0.000    
   CYCLE    TIME      TIME-STEP  ELEMENT          ERROR  I-ENERGY    K-ENERGY T  K-ENERGY R  EXT-WORK     MAS.ERR     TOTAL MASS  MASS ADDED
    5885   5.885      0.1000E-02 FIXED          0   0.0%   0.000       0.000       2.000       2.000       0.000      0.1000E-19   0.000    
    5886   5.886      0.1000E-02 FIXED          0  -0.0%   0.000       0.000       2.000       2.000       0.000      0.1000E-19   0.000    
    5887   5.887      0.1000E-02 FIXED          0   0.0%   0.000       0.000       2.000       2.000       0.000      0.1000E-19   0.000    
    5888   5.888      0.1000E-02 FIXED          0  -0.0%   0.000       0.000       2.000       2.000       0.000      0.1000E-19   0.000    
    5889   5.889      0.1000E-02 FIXED          0   0.0%   0.000       0.000       2.000       2.000       0.000      0.1000E-19   0.000    
    5890   5.890      0.1000E-02 FIXED          0   0.0%   0.000       0.000       2.000       2.000       0.000      0.1000E-19   0.000    
    5891   5.891      0.1000E-02 FIXED          0  -0.0%   0.000       0.000       2.000       2.000       0.000      0.1000E-19   0.000    
    5892   5.892      0.1000E-02 FIXED          0   0.0%   0.000       0.000       2.000       2.000       0.000      0.1000E-19   0.000    
    5893   5.893      0.1000E-02 FIXED          0  -0.0%   0.000       0.000       2.000       2.000       0.000      0.1000E-19   0.000    
    5894   5.894      0.1000E-02 FIXED          0   0.0%   0.000       0.000       2.000       2.000       0.000      0.1000E-19   0.000    
    5895   5.895      0.1000E-02 FIXED          0   0.0%   0.000       0.000       2.000       2.000       0.000      0.1000E-19   0.000    
    5896   5.896      0.1000E-02 FIXED          0   0.0%   0.000       0.000       2.000       2.000       0.000      0.1000E-19   0.000    
    5897   5.897      0.1000E-02 FIXED          0  -0.0%   0.000       0.000       2.000       2.000       0.000      0.1000E-19   0.000    
    5898   5.898      0.1000E-02 FIXED          0  -0.0%   0.000       0.000       2.000       2.000       0.000      0.1000E-19   0.000    
    5899   5.899      0.1000E-02 FIXED          0   0.0%   0.000       0.000       2.000       2.000       0.000      0.1000E-19   0.000    
    5900   5.900      0.1000E-02 FIXED          0  -0.0%   0.000       0.000       2.000       2.000       0.000      0.1000E-19   0.000    
    5901   5.901      0.1000E-02 FIXED          0   0.0%   0.000       0.000       2.000       2.000       0.000      0.1000E-19   0.000    
    5902   5.902      0.1000E-02 FIXED          0   0.0%   0.000       0.000       2.000       2.000       0.000      0.1000E-19   0.000    
    5903   5.903      0.1000E-02 FIXED          0   0.0%   0.000       0.000       2.000       2.000       0.000      0.1000E-19   0.000    
    5904   5.904      0.1000E-02 FIXED          0  -0.0%   0.000       0.000       2.000       2.000       0.000      0.1000E-19   0.000    
    5905   5.905      0.1000E-02 FIXED          0  -0.0%   0.000       0.000       2.000       2.000       0.000      0.1000E-19   0.000    
    5906   5.906      0.1000E-02 FIXED          0  -0.0%   0.000       0.000       2.000       2.000       0.000      0.1000E-19   0.000    
    5907   5.907      0.1000E-02 FIXED          0   0.0%   0.000       0.000       2.000       2.000       0.000      0.1000E-19   0.000    
    5908   5.908      0.1000E-02 FIXED          0   0.0%   0.000       0.000       2.000       2.000       0.000      0.1000E-19   0.000    
    5909   5.909      0.1000E-02 FIXED          0   0.0%   0.000       0.000       2.000       2.000       0.000      0.1000E-19   0.000    
    5910   5.910      0.1000E-02 FIXED          0   0.0%   0.000       0.000       2.000       2.000       0.000      0.1000E-19   0.000    
    5911   5.911      0.1000E-02 FIXED          0  -0.0%   0.000       0.000       2.000       2.000       0.000      0.1000E-19   0.000    
    5912   5.912      0.1000E-02 FIXED          0   0.0%   0.000       0.000       2.000       2.000       0.000      0.1000E-19   0.000    
    5913   5.913      0.1000E-02 FIXED          0  -0.0%   0.000       0.000       2.000       2.000       0.000      0.1000E-19   0.000    
    5914   5.914      0.1000E-02 FIXED          0   0.0%   0.000       0.000       2.000       2.000       0.000      0.1000E-19   0.000    
    5915   5.915      0.1000E-02 FIXED          0   0.0%   0.000       0.000       2.000       2.000       0.000      0.1000E-19   0.000    
    5916   5.916      0.1000E-02 FIXED          0   0.0%   0.000       0.000       2.000       2.000       0.000      0.1000E-19   0.000    
    5917   5.917      0.1000E-02 FIXED          0   0.0%   0.000       0.000       2.000       2.000       0.000      0.1000E-19   0.000    
    5918   5.918      0.1000E-02 FIXED          0   0.0%   0.000       0.000       2.000       2.000       0.000      0.1000E-19   0.000    
    5919   5.919      0.1000E-02 FIXED          0  -0.0%   0.000       0.000       2.000       2.000       0.000      0.1000E-19   0.000    
    5920   5.920      0.1000E-02 FIXED          0   0.0%   0.000       0.000       2.000       2.000       0.000      0.1000E-19   0.000    
    5921   5.921      0.1000E-02 FIXED          0   0.0%   0.000       0.000       2.000       2.000       0.000      0.1000E-19   0.000    
    5922   5.922      0.1000E-02 FIXED          0   0.0%   0.000       0.000       2.000       2.000       0.000      0.1000E-19   0.000    
    5923   5.923      0.1000E-02 FIXED          0   0.0%   0.000       0.000       2.000       2.000       0.000      0.1000E-19   0.000    
    5924   5.924      0.1000E-02 FIXED          0  -0.0%   0.000       0.000       2.000       2.000       0.000      0.1000E-19   0.000    
    5925   5.925      0.1000E-02 FIXED          0   0.0%   0.000       0.000       2.000       2.000       0.000      0.1000E-19   0.000    
    5926   5.926      0.1000E-02 FIXED          0   0.0%   0.000       0.000       2.000       2.000       0.000      0.1000E-19   0.000    
    5927   5.927      0.1000E-02 FIXED          0  -0.0%   0.000       0.000       2.000       2.000       0.000      0.1000E-19   0.000    
    5928   5.928      0.1000E-02 FIXED          0  -0.0%   0.000       0.000       2.000       2.000       0.000      0.1000E-19   0.000    
    5929   5.929      0.1000E-02 FIXED          0   0.0%   0.000       0.000       2.000       2.000       0.000      0.1000E-19   0.000    
    5930   5.930      0.1000E-02 FIXED          0  -0.0%   0.000       0.000       2.000       2.000       0.000      0.1000E-19   0.000    
    5931   5.931      0.1000E-02 FIXED          0   0.0%   0.000       0.000       2.000       2.000       0.000      0.1000E-19   0.000    
    5932   5.932      0.1000E-02 FIXED          0  -0.0%   0.000       0.000       2.000       2.000       0.000      0.1000E-19   0.000    
    5933   5.933      0.1000E-02 FIXED          0   0.0%   0.000       0.000       2.000       2.000       0.000      0.1000E-19   0.000    
    5934   5.934      0.1000E-02 FIXED          0   0.0%   0.000       0.000       2.000       2.000       0.000      0.1000E-19   0.000    
    5935   5.935      0.1000E-02 FIXED          0   0.0%   0.000       0.000       2.000       2.000       0.000      0.1000E-19   0.000    
    5936   5.936      0.1000E-02 FIXED          0   0.0%   0.000       0.000       2.000       2.000       0.000      0.1000E-19   0.000    
    5937   5.937      0.1000E-02 FIXED          0   0.0%   0.000       0.000       2.000       2.000       0.000      0.1000E-19   0.000    
    5938   5.938      0.1000E-02 FIXED          0  -0.0%   0.000       0.000       2.000       2.000       0.000      0.1000E-19   0.000    
    5939   5.939      0.1000E-02 FIXED          0   0.0%   0.000       0.000       2.000       2.000       0.000      0.1000E-19   0.000    
   CYCLE    TIME      TIME-STEP  ELEMENT          ERROR  I-ENERGY    K-ENERGY T  K-ENERGY R  EXT-WORK     MAS.ERR     TOTAL MASS  MASS ADDED
    5940   5.940      0.1000E-02 FIXED          0  -0.0%   0.000       0.000       2.000       2.000       0.000      0.1000E-19   0.000    
    5941   5.941      0.1000E-02 FIXED          0  -0.0%   0.000       0.000       2.000       2.000       0.000      0.1000E-19   0.000    
    5942   5.942      0.1000E-02 FIXED          0   0.0%   0.000       0.000       2.000       2.000       0.000      0.1000E-19   0.000    
    5943   5.943      0.1000E-02 FIXED          0  -0.0%   0.000       0.000       2.000       2.000       0.000      0.1000E-19   0.000    
    5944   5.944      0.1000E-02 FIXED          0   0.0%   0.000       0.000       2.000       2.000       0.000      0.1000E-19   0.000    
    5945   5.945      0.1000E-02 FIXED          0  -0.0%   0.000       0.000       2.000       2.000       0.000      0.1000E-19   0.000    
    5946   5.946      0.1000E-02 FIXED          0   0.0%   0.000       0.000       2.000       2.000       0.000      0.1000E-19   0.000    
    5947   5.947      0.1000E-02 FIXED          0   0.0%   0.000       0.000       2.000       2.000       0.000      0.1000E-19   0.000    
    5948   5.948      0.1000E-02 FIXED          0  -0.0%   0.000       0.000       2.000       2.000       0.000      0.1000E-19   0.000    
    5949   5.949      0.1000E-02 FIXED          0   0.0%   0.000       0.000       2.000       2.000       0.000      0.1000E-19   0.000    
    5950   5.950      0.1000E-02 FIXED          0  -0.0%   0.000       0.000       2.000       2.000       0.000      0.1000E-19   0.000    
    5951   5.951      0.1000E-02 FIXED          0   0.0%   0.000       0.000       2.000       2.000       0.000      0.1000E-19   0.000    
    5952   5.952      0.1000E-02 FIXED          0  -0.0%   0.000       0.000       2.000       2.000       0.000      0.1000E-19   0.000    
    5953   5.953      0.1000E-02 FIXED          0   0.0%   0.000       0.000       2.000       2.000       0.000      0.1000E-19   0.000    
    5954   5.954      0.1000E-02 FIXED          0  -0.0%   0.000       0.000       2.000       2.000       0.000      0.1000E-19   0.000    
    5955   5.955      0.1000E-02 FIXED          0   0.0%   0.000       0.000       2.000       2.000       0.000      0.1000E-19   0.000    
    5956   5.956      0.1000E-02 FIXED          0  -0.0%   0.000       0.000       2.000       2.000       0.000      0.1000E-19   0.000    
    5957   5.957      0.1000E-02 FIXED          0   0.0%   0.000       0.000       2.000       2.000       0.000      0.1000E-19   0.000    
    5958   5.958      0.1000E-02 FIXED          0  -0.0%   0.000       0.000       2.000       2.000       0.000      0.1000E-19   0.000    
    5959   5.959      0.1000E-02 FIXED          0   0.0%   0.000       0.000       2.000       2.000       0.000      0.1000E-19   0.000    
    5960   5.960      0.1000E-02 FIXED          0  -0.0%   0.000       0.000       2.000       2.000       0.000      0.1000E-19   0.000    
    5961   5.961      0.1000E-02 FIXED          0  -0.0%   0.000       0.000       2.000       2.000       0.000      0.1000E-19   0.000    
    5962   5.962      0.1000E-02 FIXED          0   0.0%   0.000       0.000       2.000       2.000       0.000      0.1000E-19   0.000    
    5963   5.963      0.1000E-02 FIXED          0  -0.0%   0.000       0.000       2.000       2.000       0.000      0.1000E-19   0.000    
    5964   5.964      0.1000E-02 FIXED          0  -0.0%   0.000       0.000       2.000       2.000       0.000      0.1000E-19   0.000    
    5965   5.965      0.1000E-02 FIXED          0   0.0%   0.000       0.000       2.000       2.000       0.000      0.1000E-19   0.000    
    5966   5.966      0.1000E-02 FIXED          0   0.0%   0.000       0.000       2.000       2.000       0.000      0.1000E-19   0.000    
    5967   5.967      0.1000E-02 FIXED          0   0.0%   0.000       0.000       2.000       2.000       0.000      0.1000E-19   0.000    
    5968   5.968      0.1000E-02 FIXED          0  -0.0%   0.000       0.000       2.000       2.000       0.000      0.1000E-19   0.000    
    5969   5.969      0.1000E-02 FIXED          0   0.0%   0.000       0.000       2.000       2.000       0.000      0.1000E-19   0.000    
    5970   5.970      0.1000E-02 FIXED          0  -0.0%   0.000       0.000       2.000       2.000       0.000      0.1000E-19   0.000    
    5971   5.971      0.1000E-02 FIXED          0  -0.0%   0.000       0.000       2.000       2.000       0.000      0.1000E-19   0.000    
    5972   5.972      0.1000E-02 FIXED          0   0.0%   0.000       0.000       2.000       2.000       0.000      0.1000E-19   0.000    
    5973   5.973      0.1000E-02 FIXED          0   0.0%   0.000       0.000       2.000       2.000       0.000      0.1000E-19   0.000    
    5974   5.974      0.1000E-02 FIXED          0  -0.0%   0.000       0.000       2.000       2.000       0.000      0.1000E-19   0.000    
    5975   5.975      0.1000E-02 FIXED          0   0.0%   0.000       0.000       2.000       2.000       0.000      0.1000E-19   0.000    
    5976   5.976      0.1000E-02 FIXED          0   0.0%   0.000       0.000       2.000       2.000       0.000      0.1000E-19   0.000    
    5977   5.977      0.1000E-02 FIXED          0   0.0%   0.000       0.000       2.000       2.000       0.000      0.1000E-19   0.000    
    5978   5.978      0.1000E-02 FIXED          0   0.0%   0.000       0.000       2.000       2.000       0.000      0.1000E-19   0.000    
    5979   5.979      0.1000E-02 FIXED          0   0.0%   0.000       0.000       2.000       2.000       0.000      0.1000E-19   0.000    
    5980   5.980      0.1000E-02 FIXED          0  -0.0%   0.000       0.000       2.000       2.000       0.000      0.1000E-19   0.000    
    5981   5.981      0.1000E-02 FIXED          0   0.0%   0.000       0.000       2.000       2.000       0.000      0.1000E-19   0.000    
    5982   5.982      0.1000E-02 FIXED          0   0.0%   0.000       0.000       2.000       2.000       0.000      0.1000E-19   0.000    
    5983   5.983      0.1000E-02 FIXED          0  -0.0%   0.000       0.000       2.000       2.000       0.000      0.1000E-19   0.000    
    5984   5.984      0.1000E-02 FIXED          0   0.0%   0.000       0.000       2.000       2.000       0.000      0.1000E-19   0.000    
    5985   5.985      0.1000E-02 FIXED          0   0.0%   0.000       0.000       2.000       2.000       0.000      0.1000E-19   0.000    
    5986   5.986      0.1000E-02 FIXED          0  -0.0%   0.000       0.000       2.000       2.000       0.000      0.1000E-19   0.000    
    5987   5.987      0.1000E-02 FIXED          0   0.0%   0.000       0.000       2.000       2.000       0.000      0.1000E-19   0.000    
    5988   5.988      0.1000E-02 FIXED          0   0.0%   0.000       0.000       2.000       2.000       0.000      0.1000E-19   0.000    
    5989   5.989      0.1000E-02 FIXED          0  -0.0%   0.000       0.000       2.000       2.000       0.000      0.1000E-19   0.000    
    5990   5.990      0.1000E-02 FIXED          0   0.0%   0.000       0.000       2.000       2.000       0.000      0.1000E-19   0.000    
    5991   5.991      0.1000E-02 FIXED          0   0.0%   0.000       0.000       2.000       2.000       0.000      0.1000E-19   0.000    
    5992   5.992      0.1000E-02 FIXED          0   0.0%   0.000       0.000       2.000       2.000       0.000      0.1000E-19   0.000    
    5993   5.993      0.1000E-02 FIXED          0  -0.0%   0.000       0.000       2.000       2.000       0.000      0.1000E-19   0.000    
    5994   5.994      0.1000E-02 FIXED          0  -0.0%   0.000       0.000       2.000       2.000       0.000      0.1000E-19   0.000    
   CYCLE    TIME      TIME-STEP  ELEMENT          ERROR  I-ENERGY    K-ENERGY T  K-ENERGY R  EXT-WORK     MAS.ERR     TOTAL MASS  MASS ADDED
    5995   5.995      0.1000E-02 FIXED          0   0.0%   0.000       0.000       2.000       2.000       0.000      0.1000E-19   0.000    
    5996   5.996      0.1000E-02 FIXED          0  -0.0%   0.000       0.000       2.000       2.000       0.000      0.1000E-19   0.000    
    5997   5.997      0.1000E-02 FIXED          0   0.0%   0.000       0.000       2.000       2.000       0.000      0.1000E-19   0.000    
    5998   5.998      0.1000E-02 FIXED          0   0.0%   0.000       0.000       2.000       2.000       0.000      0.1000E-19   0.000    
    5999   5.999      0.1000E-02 FIXED          0  -0.0%   0.000       0.000       2.000       2.000       0.000      0.1000E-19   0.000    
    6000   6.000      0.1000E-02 FIXED          0   0.0%   0.000       0.000       2.000       2.000       0.000      0.1000E-19   0.000    
     ANIMATION FILE: BLOCKA007 WRITTEN
    6001   6.001      0.1000E-02 FIXED          0  -0.0%   0.000       0.000       2.000       2.000       0.000      0.1000E-19   0.000    
    6002   6.002      0.1000E-02 FIXED          0   0.0%   0.000       0.000       2.000       2.000       0.000      0.1000E-19   0.000    
    6003   6.003      0.1000E-02 FIXED          0   0.0%   0.000       0.000       2.000       2.000       0.000      0.1000E-19   0.000    
    6004   6.004      0.1000E-02 FIXED          0  -0.0%   0.000       0.000       2.000       2.000       0.000      0.1000E-19   0.000    
    6005   6.005      0.1000E-02 FIXED          0   0.0%   0.000       0.000       2.000       2.000       0.000      0.1000E-19   0.000    
    6006   6.006      0.1000E-02 FIXED          0   0.0%   0.000       0.000       2.000       2.000       0.000      0.1000E-19   0.000    
    6007   6.007      0.1000E-02 FIXED          0   0.0%   0.000       0.000       2.000       2.000       0.000      0.1000E-19   0.000    
    6008   6.008      0.1000E-02 FIXED          0   0.0%   0.000       0.000       2.000       2.000       0.000      0.1000E-19   0.000    
    6009   6.009      0.1000E-02 FIXED          0  -0.0%   0.000       0.000       2.000       2.000       0.000      0.1000E-19   0.000    
    6010   6.010      0.1000E-02 FIXED          0   0.0%   0.000       0.000       2.000       2.000       0.000      0.1000E-19   0.000    
    6011   6.011      0.1000E-02 FIXED          0   0.0%   0.000       0.000       2.000       2.000       0.000      0.1000E-19   0.000    
    6012   6.012      0.1000E-02 FIXED          0  -0.0%   0.000       0.000       2.000       2.000       0.000      0.1000E-19   0.000    
    6013   6.013      0.1000E-02 FIXED          0   0.0%   0.000       0.000       2.000       2.000       0.000      0.1000E-19   0.000    
    6014   6.014      0.1000E-02 FIXED          0   0.0%   0.000       0.000       2.000       2.000       0.000      0.1000E-19   0.000    
    6015   6.015      0.1000E-02 FIXED          0  -0.0%   0.000       0.000       2.000       2.000       0.000      0.1000E-19   0.000    
    6016   6.016      0.1000E-02 FIXED          0   0.0%   0.000       0.000       2.000       2.000       0.000      0.1000E-19   0.000    
    6017   6.017      0.1000E-02 FIXED          0   0.0%   0.000       0.000       2.000       2.000       0.000      0.1000E-19   0.000    
    6018   6.018      0.1000E-02 FIXED          0   0.0%   0.000       0.000       2.000       2.000       0.000      0.1000E-19   0.000    
    6019   6.019      0.1000E-02 FIXED          0  -0.0%   0.000       0.000       2.000       2.000       0.000      0.1000E-19   0.000    
    6020   6.020      0.1000E-02 FIXED          0  -0.0%   0.000       0.000       2.000       2.000       0.000      0.1000E-19   0.000    
    6021   6.021      0.1000E-02 FIXED          0  -0.0%   0.000       0.000       2.000       2.000       0.000      0.1000E-19   0.000    
    6022   6.022      0.1000E-02 FIXED          0   0.0%   0.000       0.000       2.000       2.000       0.000      0.1000E-19   0.000    
    6023   6.023      0.1000E-02 FIXED          0  -0.0%   0.000       0.000       2.000       2.000       0.000      0.1000E-19   0.000    
    6024   6.024      0.1000E-02 FIXED          0   0.0%   0.000       0.000       2.000       2.000       0.000      0.1000E-19   0.000    
    6025   6.025      0.1000E-02 FIXED          0   0.0%   0.000       0.000       2.000       2.000       0.000      0.1000E-19   0.000    
    6026   6.026      0.1000E-02 FIXED          0  -0.0%   0.000       0.000       2.000       2.000       0.000      0.1000E-19   0.000    
    6027   6.027      0.1000E-02 FIXED          0   0.0%   0.000       0.000       2.000       2.000       0.000      0.1000E-19   0.000    
    6028   6.028      0.1000E-02 FIXED          0   0.0%   0.000       0.000       2.000       2.000       0.000      0.1000E-19   0.000    
    6029   6.029      0.1000E-02 FIXED          0  -0.0%   0.000       0.000       2.000       2.000       0.000      0.1000E-19   0.000    
    6030   6.030      0.1000E-02 FIXED          0   0.0%   0.000       0.000       2.000       2.000       0.000      0.1000E-19   0.000    
    6031   6.031      0.1000E-02 FIXED          0   0.0%   0.000       0.000       2.000       2.000       0.000      0.1000E-19   0.000    
    6032   6.032      0.1000E-02 FIXED          0  -0.0%   0.000       0.000       2.000       2.000       0.000      0.1000E-19   0.000    
    6033   6.033      0.1000E-02 FIXED          0   0.0%   0.000       0.000       2.000       2.000       0.000      0.1000E-19   0.000    
    6034   6.034      0.1000E-02 FIXED          0  -0.0%   0.000       0.000       2.000       2.000       0.000      0.1000E-19   0.000    
    6035   6.035      0.1000E-02 FIXED          0   0.0%   0.000       0.000       2.000       2.000       0.000      0.1000E-19   0.000    
    6036   6.036      0.1000E-02 FIXED          0   0.0%   0.000       0.000       2.000       2.000       0.000      0.1000E-19   0.000    
    6037   6.037      0.1000E-02 FIXED          0   0.0%   0.000       0.000       2.000       2.000       0.000      0.1000E-19   0.000    
    6038   6.038      0.1000E-02 FIXED          0   0.0%   0.000       0.000       2.000       2.000       0.000      0.1000E-19   0.000    
    6039   6.039      0.1000E-02 FIXED          0   0.0%   0.000       0.000       2.000       2.000       0.000      0.1000E-19   0.000    
    6040   6.040      0.1000E-02 FIXED          0  -0.0%   0.000       0.000       2.000       2.000       0.000      0.1000E-19   0.000    
    6041   6.041      0.1000E-02 FIXED          0   0.0%   0.000       0.000       2.000       2.000       0.000      0.1000E-19   0.000    
    6042   6.042      0.1000E-02 FIXED          0  -0.0%   0.000       0.000       2.000       2.000       0.000      0.1000E-19   0.000    
    6043   6.043      0.1000E-02 FIXED          0   0.0%   0.000       0.000       2.000       2.000       0.000      0.1000E-19   0.000    
    6044   6.044      0.1000E-02 FIXED          0   0.0%   0.000       0.000       2.000       2.000       0.000      0.1000E-19   0.000    
    6045   6.045      0.1000E-02 FIXED          0  -0.0%   0.000       0.000       2.000       2.000       0.000      0.1000E-19   0.000    
    6046   6.046      0.1000E-02 FIXED          0   0.0%   0.000       0.000       2.000       2.000       0.000      0.1000E-19   0.000    
    6047   6.047      0.1000E-02 FIXED          0  -0.0%   0.000       0.000       2.000       2.000       0.000      0.1000E-19   0.000    
    6048   6.048      0.1000E-02 FIXED          0   0.0%   0.000       0.000       2.000       2.000       0.000      0.1000E-19   0.000    
    6049   6.049      0.1000E-02 FIXED          0   0.0%   0.000       0.000       2.000       2.000       0.000      0.1000E-19   0.000    
   CYCLE    TIME      TIME-STEP  ELEMENT          ERROR  I-ENERGY    K-ENERGY T  K-ENERGY R  EXT-WORK     MAS.ERR     TOTAL MASS  MASS ADDED
    6050   6.050      0.1000E-02 FIXED          0  -0.0%   0.000       0.000       2.000       2.000       0.000      0.1000E-19   0.000    
    6051   6.051      0.1000E-02 FIXED          0  -0.0%   0.000       0.000       2.000       2.000       0.000      0.1000E-19   0.000    
    6052   6.052      0.1000E-02 FIXED          0   0.0%   0.000       0.000       2.000       2.000       0.000      0.1000E-19   0.000    
    6053   6.053      0.1000E-02 FIXED          0   0.0%   0.000       0.000       2.000       2.000       0.000      0.1000E-19   0.000    
    6054   6.054      0.1000E-02 FIXED          0   0.0%   0.000       0.000       2.000       2.000       0.000      0.1000E-19   0.000    
    6055   6.055      0.1000E-02 FIXED          0  -0.0%   0.000       0.000       2.000       2.000       0.000      0.1000E-19   0.000    
    6056   6.056      0.1000E-02 FIXED          0   0.0%   0.000       0.000       2.000       2.000       0.000      0.1000E-19   0.000    
    6057   6.057      0.1000E-02 FIXED          0   0.0%   0.000       0.000       2.000       2.000       0.000      0.1000E-19   0.000    
    6058   6.058      0.1000E-02 FIXED          0  -0.0%   0.000       0.000       2.000       2.000       0.000      0.1000E-19   0.000    
    6059   6.059      0.1000E-02 FIXED          0   0.0%   0.000       0.000       2.000       2.000       0.000      0.1000E-19   0.000    
    6060   6.060      0.1000E-02 FIXED          0   0.0%   0.000       0.000       2.000       2.000       0.000      0.1000E-19   0.000    
    6061   6.061      0.1000E-02 FIXED          0   0.0%   0.000       0.000       2.000       2.000       0.000      0.1000E-19   0.000    
    6062   6.062      0.1000E-02 FIXED          0  -0.0%   0.000       0.000       2.000       2.000       0.000      0.1000E-19   0.000    
    6063   6.063      0.1000E-02 FIXED          0   0.0%   0.000       0.000       2.000       2.000       0.000      0.1000E-19   0.000    
    6064   6.064      0.1000E-02 FIXED          0   0.0%   0.000       0.000       2.000       2.000       0.000      0.1000E-19   0.000    
    6065   6.065      0.1000E-02 FIXED          0   0.0%   0.000       0.000       2.000       2.000       0.000      0.1000E-19   0.000    
    6066   6.066      0.1000E-02 FIXED          0  -0.0%   0.000       0.000       2.000       2.000       0.000      0.1000E-19   0.000    
    6067   6.067      0.1000E-02 FIXED          0   0.0%   0.000       0.000       2.000       2.000       0.000      0.1000E-19   0.000    
    6068   6.068      0.1000E-02 FIXED          0   0.0%   0.000       0.000       2.000       2.000       0.000      0.1000E-19   0.000    
    6069   6.069      0.1000E-02 FIXED          0   0.0%   0.000       0.000       2.000       2.000       0.000      0.1000E-19   0.000    
    6070   6.070      0.1000E-02 FIXED          0  -0.0%   0.000       0.000       2.000       2.000       0.000      0.1000E-19   0.000    
    6071   6.071      0.1000E-02 FIXED          0   0.0%   0.000       0.000       2.000       2.000       0.000      0.1000E-19   0.000    
    6072   6.072      0.1000E-02 FIXED          0   0.0%   0.000       0.000       2.000       2.000       0.000      0.1000E-19   0.000    
    6073   6.073      0.1000E-02 FIXED          0   0.0%   0.000       0.000       2.000       2.000       0.000      0.1000E-19   0.000    
    6074   6.074      0.1000E-02 FIXED          0  -0.0%   0.000       0.000       2.000       2.000       0.000      0.1000E-19   0.000    
    6075   6.075      0.1000E-02 FIXED          0   0.0%   0.000       0.000       2.000       2.000       0.000      0.1000E-19   0.000    
    6076   6.076      0.1000E-02 FIXED          0  -0.0%   0.000       0.000       2.000       2.000       0.000      0.1000E-19   0.000    
    6077   6.077      0.1000E-02 FIXED          0   0.0%   0.000       0.000       2.000       2.000       0.000      0.1000E-19   0.000    
    6078   6.078      0.1000E-02 FIXED          0  -0.0%   0.000       0.000       2.000       2.000       0.000      0.1000E-19   0.000    
    6079   6.079      0.1000E-02 FIXED          0  -0.0%   0.000       0.000       2.000       2.000       0.000      0.1000E-19   0.000    
    6080   6.080      0.1000E-02 FIXED          0   0.0%   0.000       0.000       2.000       2.000       0.000      0.1000E-19   0.000    
    6081   6.081      0.1000E-02 FIXED          0   0.0%   0.000       0.000       2.000       2.000       0.000      0.1000E-19   0.000    
    6082   6.082      0.1000E-02 FIXED          0  -0.0%   0.000       0.000       2.000       2.000       0.000      0.1000E-19   0.000    
    6083   6.083      0.1000E-02 FIXED          0   0.0%   0.000       0.000       2.000       2.000       0.000      0.1000E-19   0.000    
    6084   6.084      0.1000E-02 FIXED          0   0.0%   0.000       0.000       2.000       2.000       0.000      0.1000E-19   0.000    
    6085   6.085      0.1000E-02 FIXED          0   0.0%   0.000       0.000       2.000       2.000       0.000      0.1000E-19   0.000    
    6086   6.086      0.1000E-02 FIXED          0   0.0%   0.000       0.000       2.000       2.000       0.000      0.1000E-19   0.000    
    6087   6.087      0.1000E-02 FIXED          0   0.0%   0.000       0.000       2.000       2.000       0.000      0.1000E-19   0.000    
    6088   6.088      0.1000E-02 FIXED          0  -0.0%   0.000       0.000       2.000       2.000       0.000      0.1000E-19   0.000    
    6089   6.089      0.1000E-02 FIXED          0   0.0%   0.000       0.000       2.000       2.000       0.000      0.1000E-19   0.000    
    6090   6.090      0.1000E-02 FIXED          0   0.0%   0.000       0.000       2.000       2.000       0.000      0.1000E-19   0.000    
    6091   6.091      0.1000E-02 FIXED          0   0.0%   0.000       0.000       2.000       2.000       0.000      0.1000E-19   0.000    
    6092   6.092      0.1000E-02 FIXED          0  -0.0%   0.000       0.000       2.000       2.000       0.000      0.1000E-19   0.000    
    6093   6.093      0.1000E-02 FIXED          0  -0.0%   0.000       0.000       2.000       2.000       0.000      0.1000E-19   0.000    
    6094   6.094      0.1000E-02 FIXED          0   0.0%   0.000       0.000       2.000       2.000       0.000      0.1000E-19   0.000    
    6095   6.095      0.1000E-02 FIXED          0   0.0%   0.000       0.000       2.000       2.000       0.000      0.1000E-19   0.000    
    6096   6.096      0.1000E-02 FIXED          0   0.0%   0.000       0.000       2.000       2.000       0.000      0.1000E-19   0.000    
    6097   6.097      0.1000E-02 FIXED          0  -0.0%   0.000       0.000       2.000       2.000       0.000      0.1000E-19   0.000    
    6098   6.098      0.1000E-02 FIXED          0   0.0%   0.000       0.000       2.000       2.000       0.000      0.1000E-19   0.000    
    6099   6.099      0.1000E-02 FIXED          0   0.0%   0.000       0.000       2.000       2.000       0.000      0.1000E-19   0.000    
    6100   6.100      0.1000E-02 FIXED          0   0.0%   0.000       0.000       2.000       2.000       0.000      0.1000E-19   0.000    
    6101   6.101      0.1000E-02 FIXED          0  -0.0%   0.000       0.000       2.000       2.000       0.000      0.1000E-19   0.000    
    6102   6.102      0.1000E-02 FIXED          0  -0.0%   0.000       0.000       2.000       2.000       0.000      0.1000E-19   0.000    
    6103   6.103      0.1000E-02 FIXED          0   0.0%   0.000       0.000       2.000       2.000       0.000      0.1000E-19   0.000    
    6104   6.104      0.1000E-02 FIXED          0   0.0%   0.000       0.000       2.000       2.000       0.000      0.1000E-19   0.000    
   CYCLE    TIME      TIME-STEP  ELEMENT          ERROR  I-ENERGY    K-ENERGY T  K-ENERGY R  EXT-WORK     MAS.ERR     TOTAL MASS  MASS ADDED
    6105   6.105      0.1000E-02 FIXED          0  -0.0%   0.000       0.000       2.000       2.000       0.000      0.1000E-19   0.000    
    6106   6.106      0.1000E-02 FIXED          0   0.0%   0.000       0.000       2.000       2.000       0.000      0.1000E-19   0.000    
    6107   6.107      0.1000E-02 FIXED          0   0.0%   0.000       0.000       2.000       2.000       0.000      0.1000E-19   0.000    
    6108   6.108      0.1000E-02 FIXED          0   0.0%   0.000       0.000       2.000       2.000       0.000      0.1000E-19   0.000    
    6109   6.109      0.1000E-02 FIXED          0  -0.0%   0.000       0.000       2.000       2.000       0.000      0.1000E-19   0.000    
    6110   6.110      0.1000E-02 FIXED          0   0.0%   0.000       0.000       2.000       2.000       0.000      0.1000E-19   0.000    
    6111   6.111      0.1000E-02 FIXED          0   0.0%   0.000       0.000       2.000       2.000       0.000      0.1000E-19   0.000    
    6112   6.112      0.1000E-02 FIXED          0   0.0%   0.000       0.000       2.000       2.000       0.000      0.1000E-19   0.000    
    6113   6.113      0.1000E-02 FIXED          0  -0.0%   0.000       0.000       2.000       2.000       0.000      0.1000E-19   0.000    
    6114   6.114      0.1000E-02 FIXED          0  -0.0%   0.000       0.000       2.000       2.000       0.000      0.1000E-19   0.000    
    6115   6.115      0.1000E-02 FIXED          0  -0.0%   0.000       0.000       2.000       2.000       0.000      0.1000E-19   0.000    
    6116   6.116      0.1000E-02 FIXED          0   0.0%   0.000       0.000       2.000       2.000       0.000      0.1000E-19   0.000    
    6117   6.117      0.1000E-02 FIXED          0  -0.0%   0.000       0.000       2.000       2.000       0.000      0.1000E-19   0.000    
    6118   6.118      0.1000E-02 FIXED          0   0.0%   0.000       0.000       2.000       2.000       0.000      0.1000E-19   0.000    
    6119   6.119      0.1000E-02 FIXED          0   0.0%   0.000       0.000       2.000       2.000       0.000      0.1000E-19   0.000    
    6120   6.120      0.1000E-02 FIXED          0   0.0%   0.000       0.000       2.000       2.000       0.000      0.1000E-19   0.000    
    6121   6.121      0.1000E-02 FIXED          0   0.0%   0.000       0.000       2.000       2.000       0.000      0.1000E-19   0.000    
    6122   6.122      0.1000E-02 FIXED          0   0.0%   0.000       0.000       2.000       2.000       0.000      0.1000E-19   0.000    
    6123   6.123      0.1000E-02 FIXED          0   0.0%   0.000       0.000       2.000       2.000       0.000      0.1000E-19   0.000    
    6124   6.124      0.1000E-02 FIXED          0   0.0%   0.000       0.000       2.000       2.000       0.000      0.1000E-19   0.000    
    6125   6.125      0.1000E-02 FIXED          0   0.0%   0.000       0.000       2.000       2.000       0.000      0.1000E-19   0.000    
    6126   6.126      0.1000E-02 FIXED          0  -0.0%   0.000       0.000       2.000       2.000       0.000      0.1000E-19   0.000    
    6127   6.127      0.1000E-02 FIXED          0   0.0%   0.000       0.000       2.000       2.000       0.000      0.1000E-19   0.000    
    6128   6.128      0.1000E-02 FIXED          0   0.0%   0.000       0.000       2.000       2.000       0.000      0.1000E-19   0.000    
    6129   6.129      0.1000E-02 FIXED          0   0.0%   0.000       0.000       2.000       2.000       0.000      0.1000E-19   0.000    
    6130   6.130      0.1000E-02 FIXED          0   0.0%   0.000       0.000       2.000       2.000       0.000      0.1000E-19   0.000    
    6131   6.131      0.1000E-02 FIXED          0  -0.0%   0.000       0.000       2.000       2.000       0.000      0.1000E-19   0.000    
    6132   6.132      0.1000E-02 FIXED          0  -0.0%   0.000       0.000       2.000       2.000       0.000      0.1000E-19   0.000    
    6133   6.133      0.1000E-02 FIXED          0   0.0%   0.000       0.000       2.000       2.000       0.000      0.1000E-19   0.000    
    6134   6.134      0.1000E-02 FIXED          0  -0.0%   0.000       0.000       2.000       2.000       0.000      0.1000E-19   0.000    
    6135   6.135      0.1000E-02 FIXED          0   0.0%   0.000       0.000       2.000       2.000       0.000      0.1000E-19   0.000    
    6136   6.136      0.1000E-02 FIXED          0   0.0%   0.000       0.000       2.000       2.000       0.000      0.1000E-19   0.000    
    6137   6.137      0.1000E-02 FIXED          0  -0.0%   0.000       0.000       2.000       2.000       0.000      0.1000E-19   0.000    
    6138   6.138      0.1000E-02 FIXED          0   0.0%   0.000       0.000       2.000       2.000       0.000      0.1000E-19   0.000    
    6139   6.139      0.1000E-02 FIXED          0  -0.0%   0.000       0.000       2.000       2.000       0.000      0.1000E-19   0.000    
    6140   6.140      0.1000E-02 FIXED          0  -0.0%   0.000       0.000       2.000       2.000       0.000      0.1000E-19   0.000    
    6141   6.141      0.1000E-02 FIXED          0   0.0%   0.000       0.000       2.000       2.000       0.000      0.1000E-19   0.000    
    6142   6.142      0.1000E-02 FIXED          0   0.0%   0.000       0.000       2.000       2.000       0.000      0.1000E-19   0.000    
    6143   6.143      0.1000E-02 FIXED          0   0.0%   0.000       0.000       2.000       2.000       0.000      0.1000E-19   0.000    
    6144   6.144      0.1000E-02 FIXED          0   0.0%   0.000       0.000       2.000       2.000       0.000      0.1000E-19   0.000    
    6145   6.145      0.1000E-02 FIXED          0   0.0%   0.000       0.000       2.000       2.000       0.000      0.1000E-19   0.000    
    6146   6.146      0.1000E-02 FIXED          0   0.0%   0.000       0.000       2.000       2.000       0.000      0.1000E-19   0.000    
    6147   6.147      0.1000E-02 FIXED          0  -0.0%   0.000       0.000       2.000       2.000       0.000      0.1000E-19   0.000    
    6148   6.148      0.1000E-02 FIXED          0  -0.0%   0.000       0.000       2.000       2.000       0.000      0.1000E-19   0.000    
    6149   6.149      0.1000E-02 FIXED          0   0.0%   0.000       0.000       2.000       2.000       0.000      0.1000E-19   0.000    
    6150   6.150      0.1000E-02 FIXED          0   0.0%   0.000       0.000       2.000       2.000       0.000      0.1000E-19   0.000    
    6151   6.151      0.1000E-02 FIXED          0  -0.0%   0.000       0.000       2.000       2.000       0.000      0.1000E-19   0.000    
    6152   6.152      0.1000E-02 FIXED          0   0.0%   0.000       0.000       2.000       2.000       0.000      0.1000E-19   0.000    
    6153   6.153      0.1000E-02 FIXED          0  -0.0%   0.000       0.000       2.000       2.000       0.000      0.1000E-19   0.000    
    6154   6.154      0.1000E-02 FIXED          0  -0.0%   0.000       0.000       2.000       2.000       0.000      0.1000E-19   0.000    
    6155   6.155      0.1000E-02 FIXED          0   0.0%   0.000       0.000       2.000       2.000       0.000      0.1000E-19   0.000    
    6156   6.156      0.1000E-02 FIXED          0  -0.0%   0.000       0.000       2.000       2.000       0.000      0.1000E-19   0.000    
    6157   6.157      0.1000E-02 FIXED          0   0.0%   0.000       0.000       2.000       2.000       0.000      0.1000E-19   0.000    
    6158   6.158      0.1000E-02 FIXED          0   0.0%   0.000       0.000       2.000       2.000       0.000      0.1000E-19   0.000    
    6159   6.159      0.1000E-02 FIXED          0   0.0%   0.000       0.000       2.000       2.000       0.000      0.1000E-19   0.000    
   CYCLE    TIME      TIME-STEP  ELEMENT          ERROR  I-ENERGY    K-ENERGY T  K-ENERGY R  EXT-WORK     MAS.ERR     TOTAL MASS  MASS ADDED
    6160   6.160      0.1000E-02 FIXED          0  -0.0%   0.000       0.000       2.000       2.000       0.000      0.1000E-19   0.000    
    6161   6.161      0.1000E-02 FIXED          0   0.0%   0.000       0.000       2.000       2.000       0.000      0.1000E-19   0.000    
    6162   6.162      0.1000E-02 FIXED          0   0.0%   0.000       0.000       2.000       2.000       0.000      0.1000E-19   0.000    
    6163   6.163      0.1000E-02 FIXED          0   0.0%   0.000       0.000       2.000       2.000       0.000      0.1000E-19   0.000    
    6164   6.164      0.1000E-02 FIXED          0  -0.0%   0.000       0.000       2.000       2.000       0.000      0.1000E-19   0.000    
    6165   6.165      0.1000E-02 FIXED          0   0.0%   0.000       0.000       2.000       2.000       0.000      0.1000E-19   0.000    
    6166   6.166      0.1000E-02 FIXED          0  -0.0%   0.000       0.000       2.000       2.000       0.000      0.1000E-19   0.000    
    6167   6.167      0.1000E-02 FIXED          0   0.0%   0.000       0.000       2.000       2.000       0.000      0.1000E-19   0.000    
    6168   6.168      0.1000E-02 FIXED          0   0.0%   0.000       0.000       2.000       2.000       0.000      0.1000E-19   0.000    
    6169   6.169      0.1000E-02 FIXED          0   0.0%   0.000       0.000       2.000       2.000       0.000      0.1000E-19   0.000    
    6170   6.170      0.1000E-02 FIXED          0  -0.0%   0.000       0.000       2.000       2.000       0.000      0.1000E-19   0.000    
    6171   6.171      0.1000E-02 FIXED          0   0.0%   0.000       0.000       2.000       2.000       0.000      0.1000E-19   0.000    
    6172   6.172      0.1000E-02 FIXED          0   0.0%   0.000       0.000       2.000       2.000       0.000      0.1000E-19   0.000    
    6173   6.173      0.1000E-02 FIXED          0  -0.0%   0.000       0.000       2.000       2.000       0.000      0.1000E-19   0.000    
    6174   6.174      0.1000E-02 FIXED          0  -0.0%   0.000       0.000       2.000       2.000       0.000      0.1000E-19   0.000    
    6175   6.175      0.1000E-02 FIXED          0  -0.0%   0.000       0.000       2.000       2.000       0.000      0.1000E-19   0.000    
    6176   6.176      0.1000E-02 FIXED          0  -0.0%   0.000       0.000       2.000       2.000       0.000      0.1000E-19   0.000    
    6177   6.177      0.1000E-02 FIXED          0   0.0%   0.000       0.000       2.000       2.000       0.000      0.1000E-19   0.000    
    6178   6.178      0.1000E-02 FIXED          0   0.0%   0.000       0.000       2.000       2.000       0.000      0.1000E-19   0.000    
    6179   6.179      0.1000E-02 FIXED          0   0.0%   0.000       0.000       2.000       2.000       0.000      0.1000E-19   0.000    
    6180   6.180      0.1000E-02 FIXED          0  -0.0%   0.000       0.000       2.000       2.000       0.000      0.1000E-19   0.000    
    6181   6.181      0.1000E-02 FIXED          0   0.0%   0.000       0.000       2.000       2.000       0.000      0.1000E-19   0.000    
    6182   6.182      0.1000E-02 FIXED          0   0.0%   0.000       0.000       2.000       2.000       0.000      0.1000E-19   0.000    
    6183   6.183      0.1000E-02 FIXED          0  -0.0%   0.000       0.000       2.000       2.000       0.000      0.1000E-19   0.000    
    6184   6.184      0.1000E-02 FIXED          0   0.0%   0.000       0.000       2.000       2.000       0.000      0.1000E-19   0.000    
    6185   6.185      0.1000E-02 FIXED          0  -0.0%   0.000       0.000       2.000       2.000       0.000      0.1000E-19   0.000    
    6186   6.186      0.1000E-02 FIXED          0   0.0%   0.000       0.000       2.000       2.000       0.000      0.1000E-19   0.000    
    6187   6.187      0.1000E-02 FIXED          0  -0.0%   0.000       0.000       2.000       2.000       0.000      0.1000E-19   0.000    
    6188   6.188      0.1000E-02 FIXED          0   0.0%   0.000       0.000       2.000       2.000       0.000      0.1000E-19   0.000    
    6189   6.189      0.1000E-02 FIXED          0   0.0%   0.000       0.000       2.000       2.000       0.000      0.1000E-19   0.000    
    6190   6.190      0.1000E-02 FIXED          0  -0.0%   0.000       0.000       2.000       2.000       0.000      0.1000E-19   0.000    
    6191   6.191      0.1000E-02 FIXED          0   0.0%   0.000       0.000       2.000       2.000       0.000      0.1000E-19   0.000    
    6192   6.192      0.1000E-02 FIXED          0  -0.0%   0.000       0.000       2.000       2.000       0.000      0.1000E-19   0.000    
    6193   6.193      0.1000E-02 FIXED          0   0.0%   0.000       0.000       2.000       2.000       0.000      0.1000E-19   0.000    
    6194   6.194      0.1000E-02 FIXED          0  -0.0%   0.000       0.000       2.000       2.000       0.000      0.1000E-19   0.000    
    6195   6.195      0.1000E-02 FIXED          0   0.0%   0.000       0.000       2.000       2.000       0.000      0.1000E-19   0.000    
    6196   6.196      0.1000E-02 FIXED          0  -0.0%   0.000       0.000       2.000       2.000       0.000      0.1000E-19   0.000    
    6197   6.197      0.1000E-02 FIXED          0   0.0%   0.000       0.000       2.000       2.000       0.000      0.1000E-19   0.000    
    6198   6.198      0.1000E-02 FIXED          0  -0.0%   0.000       0.000       2.000       2.000       0.000      0.1000E-19   0.000    
    6199   6.199      0.1000E-02 FIXED          0   0.0%   0.000       0.000       2.000       2.000       0.000      0.1000E-19   0.000    
    6200   6.200      0.1000E-02 FIXED          0  -0.0%   0.000       0.000       2.000       2.000       0.000      0.1000E-19   0.000    
    6201   6.201      0.1000E-02 FIXED          0   0.0%   0.000       0.000       2.000       2.000       0.000      0.1000E-19   0.000    
    6202   6.202      0.1000E-02 FIXED          0   0.0%   0.000       0.000       2.000       2.000       0.000      0.1000E-19   0.000    
    6203   6.203      0.1000E-02 FIXED          0   0.0%   0.000       0.000       2.000       2.000       0.000      0.1000E-19   0.000    
    6204   6.204      0.1000E-02 FIXED          0  -0.0%   0.000       0.000       2.000       2.000       0.000      0.1000E-19   0.000    
    6205   6.205      0.1000E-02 FIXED          0   0.0%   0.000       0.000       2.000       2.000       0.000      0.1000E-19   0.000    
    6206   6.206      0.1000E-02 FIXED          0   0.0%   0.000       0.000       2.000       2.000       0.000      0.1000E-19   0.000    
    6207   6.207      0.1000E-02 FIXED          0  -0.0%   0.000       0.000       2.000       2.000       0.000      0.1000E-19   0.000    
    6208   6.208      0.1000E-02 FIXED          0   0.0%   0.000       0.000       2.000       2.000       0.000      0.1000E-19   0.000    
    6209   6.209      0.1000E-02 FIXED          0   0.0%   0.000       0.000       2.000       2.000       0.000      0.1000E-19   0.000    
    6210   6.210      0.1000E-02 FIXED          0   0.0%   0.000       0.000       2.000       2.000       0.000      0.1000E-19   0.000    
    6211   6.211      0.1000E-02 FIXED          0   0.0%   0.000       0.000       2.000       2.000       0.000      0.1000E-19   0.000    
    6212   6.212      0.1000E-02 FIXED          0   0.0%   0.000       0.000       2.000       2.000       0.000      0.1000E-19   0.000    
    6213   6.213      0.1000E-02 FIXED          0   0.0%   0.000       0.000       2.000       2.000       0.000      0.1000E-19   0.000    
    6214   6.214      0.1000E-02 FIXED          0   0.0%   0.000       0.000       2.000       2.000       0.000      0.1000E-19   0.000    
   CYCLE    TIME      TIME-STEP  ELEMENT          ERROR  I-ENERGY    K-ENERGY T  K-ENERGY R  EXT-WORK     MAS.ERR     TOTAL MASS  MASS ADDED
    6215   6.215      0.1000E-02 FIXED          0   0.0%   0.000       0.000       2.000       2.000       0.000      0.1000E-19   0.000    
    6216   6.216      0.1000E-02 FIXED          0  -0.0%   0.000       0.000       2.000       2.000       0.000      0.1000E-19   0.000    
    6217   6.217      0.1000E-02 FIXED          0   0.0%   0.000       0.000       2.000       2.000       0.000      0.1000E-19   0.000    
    6218   6.218      0.1000E-02 FIXED          0   0.0%   0.000       0.000       2.000       2.000       0.000      0.1000E-19   0.000    
    6219   6.219      0.1000E-02 FIXED          0   0.0%   0.000       0.000       2.000       2.000       0.000      0.1000E-19   0.000    
    6220   6.220      0.1000E-02 FIXED          0  -0.0%   0.000       0.000       2.000       2.000       0.000      0.1000E-19   0.000    
    6221   6.221      0.1000E-02 FIXED          0   0.0%   0.000       0.000       2.000       2.000       0.000      0.1000E-19   0.000    
    6222   6.222      0.1000E-02 FIXED          0  -0.0%   0.000       0.000       2.000       2.000       0.000      0.1000E-19   0.000    
    6223   6.223      0.1000E-02 FIXED          0   0.0%   0.000       0.000       2.000       2.000       0.000      0.1000E-19   0.000    
    6224   6.224      0.1000E-02 FIXED          0  -0.0%   0.000       0.000       2.000       2.000       0.000      0.1000E-19   0.000    
    6225   6.225      0.1000E-02 FIXED          0   0.0%   0.000       0.000       2.000       2.000       0.000      0.1000E-19   0.000    
    6226   6.226      0.1000E-02 FIXED          0   0.0%   0.000       0.000       2.000       2.000       0.000      0.1000E-19   0.000    
    6227   6.227      0.1000E-02 FIXED          0   0.0%   0.000       0.000       2.000       2.000       0.000      0.1000E-19   0.000    
    6228   6.228      0.1000E-02 FIXED          0  -0.0%   0.000       0.000       2.000       2.000       0.000      0.1000E-19   0.000    
    6229   6.229      0.1000E-02 FIXED          0  -0.0%   0.000       0.000       2.000       2.000       0.000      0.1000E-19   0.000    
    6230   6.230      0.1000E-02 FIXED          0  -0.0%   0.000       0.000       2.000       2.000       0.000      0.1000E-19   0.000    
    6231   6.231      0.1000E-02 FIXED          0  -0.0%   0.000       0.000       2.000       2.000       0.000      0.1000E-19   0.000    
    6232   6.232      0.1000E-02 FIXED          0   0.0%   0.000       0.000       2.000       2.000       0.000      0.1000E-19   0.000    
    6233   6.233      0.1000E-02 FIXED          0   0.0%   0.000       0.000       2.000       2.000       0.000      0.1000E-19   0.000    
    6234   6.234      0.1000E-02 FIXED          0  -0.0%   0.000       0.000       2.000       2.000       0.000      0.1000E-19   0.000    
    6235   6.235      0.1000E-02 FIXED          0   0.0%   0.000       0.000       2.000       2.000       0.000      0.1000E-19   0.000    
    6236   6.236      0.1000E-02 FIXED          0  -0.0%   0.000       0.000       2.000       2.000       0.000      0.1000E-19   0.000    
    6237   6.237      0.1000E-02 FIXED          0   0.0%   0.000       0.000       2.000       2.000       0.000      0.1000E-19   0.000    
    6238   6.238      0.1000E-02 FIXED          0  -0.0%   0.000       0.000       2.000       2.000       0.000      0.1000E-19   0.000    
    6239   6.239      0.1000E-02 FIXED          0   0.0%   0.000       0.000       2.000       2.000       0.000      0.1000E-19   0.000    
    6240   6.240      0.1000E-02 FIXED          0   0.0%   0.000       0.000       2.000       2.000       0.000      0.1000E-19   0.000    
    6241   6.241      0.1000E-02 FIXED          0   0.0%   0.000       0.000       2.000       2.000       0.000      0.1000E-19   0.000    
    6242   6.242      0.1000E-02 FIXED          0  -0.0%   0.000       0.000       2.000       2.000       0.000      0.1000E-19   0.000    
    6243   6.243      0.1000E-02 FIXED          0   0.0%   0.000       0.000       2.000       2.000       0.000      0.1000E-19   0.000    
    6244   6.244      0.1000E-02 FIXED          0  -0.0%   0.000       0.000       2.000       2.000       0.000      0.1000E-19   0.000    
    6245   6.245      0.1000E-02 FIXED          0  -0.0%   0.000       0.000       2.000       2.000       0.000      0.1000E-19   0.000    
    6246   6.246      0.1000E-02 FIXED          0   0.0%   0.000       0.000       2.000       2.000       0.000      0.1000E-19   0.000    
    6247   6.247      0.1000E-02 FIXED          0   0.0%   0.000       0.000       2.000       2.000       0.000      0.1000E-19   0.000    
    6248   6.248      0.1000E-02 FIXED          0   0.0%   0.000       0.000       2.000       2.000       0.000      0.1000E-19   0.000    
    6249   6.249      0.1000E-02 FIXED          0   0.0%   0.000       0.000       2.000       2.000       0.000      0.1000E-19   0.000    
    6250   6.250      0.1000E-02 FIXED          0  -0.0%   0.000       0.000       2.000       2.000       0.000      0.1000E-19   0.000    
    6251   6.251      0.1000E-02 FIXED          0   0.0%   0.000       0.000       2.000       2.000       0.000      0.1000E-19   0.000    
    6252   6.252      0.1000E-02 FIXED          0   0.0%   0.000       0.000       2.000       2.000       0.000      0.1000E-19   0.000    
    6253   6.253      0.1000E-02 FIXED          0   0.0%   0.000       0.000       2.000       2.000       0.000      0.1000E-19   0.000    
    6254   6.254      0.1000E-02 FIXED          0   0.0%   0.000       0.000       2.000       2.000       0.000      0.1000E-19   0.000    
    6255   6.255      0.1000E-02 FIXED          0   0.0%   0.000       0.000       2.000       2.000       0.000      0.1000E-19   0.000    
    6256   6.256      0.1000E-02 FIXED          0   0.0%   0.000       0.000       2.000       2.000       0.000      0.1000E-19   0.000    
    6257   6.257      0.1000E-02 FIXED          0   0.0%   0.000       0.000       2.000       2.000       0.000      0.1000E-19   0.000    
    6258   6.258      0.1000E-02 FIXED          0   0.0%   0.000       0.000       2.000       2.000       0.000      0.1000E-19   0.000    
    6259   6.259      0.1000E-02 FIXED          0  -0.0%   0.000       0.000       2.000       2.000       0.000      0.1000E-19   0.000    
    6260   6.260      0.1000E-02 FIXED          0   0.0%   0.000       0.000       2.000       2.000       0.000      0.1000E-19   0.000    
    6261   6.261      0.1000E-02 FIXED          0   0.0%   0.000       0.000       2.000       2.000       0.000      0.1000E-19   0.000    
    6262   6.262      0.1000E-02 FIXED          0   0.0%   0.000       0.000       2.000       2.000       0.000      0.1000E-19   0.000    
    6263   6.263      0.1000E-02 FIXED          0   0.0%   0.000       0.000       2.000       2.000       0.000      0.1000E-19   0.000    
    6264   6.264      0.1000E-02 FIXED          0   0.0%   0.000       0.000       2.000       2.000       0.000      0.1000E-19   0.000    
    6265   6.265      0.1000E-02 FIXED          0   0.0%   0.000       0.000       2.000       2.000       0.000      0.1000E-19   0.000    
    6266   6.266      0.1000E-02 FIXED          0   0.0%   0.000       0.000       2.000       2.000       0.000      0.1000E-19   0.000    
    6267   6.267      0.1000E-02 FIXED          0  -0.0%   0.000       0.000       2.000       2.000       0.000      0.1000E-19   0.000    
    6268   6.268      0.1000E-02 FIXED          0   0.0%   0.000       0.000       2.000       2.000       0.000      0.1000E-19   0.000    
    6269   6.269      0.1000E-02 FIXED          0   0.0%   0.000       0.000       2.000       2.000       0.000      0.1000E-19   0.000    
   CYCLE    TIME      TIME-STEP  ELEMENT          ERROR  I-ENERGY    K-ENERGY T  K-ENERGY R  EXT-WORK     MAS.ERR     TOTAL MASS  MASS ADDED
    6270   6.270      0.1000E-02 FIXED          0  -0.0%   0.000       0.000       2.000       2.000       0.000      0.1000E-19   0.000    
    6271   6.271      0.1000E-02 FIXED          0  -0.0%   0.000       0.000       2.000       2.000       0.000      0.1000E-19   0.000    
    6272   6.272      0.1000E-02 FIXED          0  -0.0%   0.000       0.000       2.000       2.000       0.000      0.1000E-19   0.000    
    6273   6.273      0.1000E-02 FIXED          0  -0.0%   0.000       0.000       2.000       2.000       0.000      0.1000E-19   0.000    
    6274   6.274      0.1000E-02 FIXED          0  -0.0%   0.000       0.000       2.000       2.000       0.000      0.1000E-19   0.000    
    6275   6.275      0.1000E-02 FIXED          0  -0.0%   0.000       0.000       2.000       2.000       0.000      0.1000E-19   0.000    
    6276   6.276      0.1000E-02 FIXED          0  -0.0%   0.000       0.000       2.000       2.000       0.000      0.1000E-19   0.000    
    6277   6.277      0.1000E-02 FIXED          0   0.0%   0.000       0.000       2.000       2.000       0.000      0.1000E-19   0.000    
    6278   6.278      0.1000E-02 FIXED          0  -0.0%   0.000       0.000       2.000       2.000       0.000      0.1000E-19   0.000    
    6279   6.279      0.1000E-02 FIXED          0  -0.0%   0.000       0.000       2.000       2.000       0.000      0.1000E-19   0.000    
    6280   6.280      0.1000E-02 FIXED          0   0.0%   0.000       0.000       2.000       2.000       0.000      0.1000E-19   0.000    
    6281   6.281      0.1000E-02 FIXED          0   0.0%   0.000       0.000       2.000       2.000       0.000      0.1000E-19   0.000    
    6282   6.282      0.1000E-02 FIXED          0  -0.0%   0.000       0.000       2.000       2.000       0.000      0.1000E-19   0.000    
    6283   6.283      0.1000E-02 FIXED          0   0.0%   0.000       0.000       2.000       2.000       0.000      0.1000E-19   0.000    
    6284   6.284      0.1000E-02 FIXED          0   0.0%   0.000       0.000       2.000       2.000       0.000      0.1000E-19   0.000    
    6285   6.285      0.1000E-02 FIXED          0   0.0%   0.000       0.000       2.000       2.000       0.000      0.1000E-19   0.000    
    6286   6.286      0.1000E-02 FIXED          0  -0.0%   0.000       0.000       2.000       2.000       0.000      0.1000E-19   0.000    
    6287   6.287      0.1000E-02 FIXED          0   0.0%   0.000       0.000       2.000       2.000       0.000      0.1000E-19   0.000    
    6288   6.288      0.1000E-02 FIXED          0  -0.0%   0.000       0.000       2.000       2.000       0.000      0.1000E-19   0.000    
    6289   6.289      0.1000E-02 FIXED          0  -0.0%   0.000       0.000       2.000       2.000       0.000      0.1000E-19   0.000    
    6290   6.290      0.1000E-02 FIXED          0   0.0%   0.000       0.000       2.000       2.000       0.000      0.1000E-19   0.000    
    6291   6.291      0.1000E-02 FIXED          0   0.0%   0.000       0.000       2.000       2.000       0.000      0.1000E-19   0.000    
    6292   6.292      0.1000E-02 FIXED          0   0.0%   0.000       0.000       2.000       2.000       0.000      0.1000E-19   0.000    
    6293   6.293      0.1000E-02 FIXED          0  -0.0%   0.000       0.000       2.000       2.000       0.000      0.1000E-19   0.000    
    6294   6.294      0.1000E-02 FIXED          0   0.0%   0.000       0.000       2.000       2.000       0.000      0.1000E-19   0.000    
    6295   6.295      0.1000E-02 FIXED          0  -0.0%   0.000       0.000       2.000       2.000       0.000      0.1000E-19   0.000    
    6296   6.296      0.1000E-02 FIXED          0   0.0%   0.000       0.000       2.000       2.000       0.000      0.1000E-19   0.000    
    6297   6.297      0.1000E-02 FIXED          0  -0.0%   0.000       0.000       2.000       2.000       0.000      0.1000E-19   0.000    
    6298   6.298      0.1000E-02 FIXED          0   0.0%   0.000       0.000       2.000       2.000       0.000      0.1000E-19   0.000    
    6299   6.299      0.1000E-02 FIXED          0   0.0%   0.000       0.000       2.000       2.000       0.000      0.1000E-19   0.000    
    6300   6.300      0.1000E-02 FIXED          0   0.0%   0.000       0.000       2.000       2.000       0.000      0.1000E-19   0.000    
    6301   6.301      0.1000E-02 FIXED          0   0.0%   0.000       0.000       2.000       2.000       0.000      0.1000E-19   0.000    
    6302   6.302      0.1000E-02 FIXED          0   0.0%   0.000       0.000       2.000       2.000       0.000      0.1000E-19   0.000    
    6303   6.303      0.1000E-02 FIXED          0  -0.0%   0.000       0.000       2.000       2.000       0.000      0.1000E-19   0.000    
    6304   6.304      0.1000E-02 FIXED          0   0.0%   0.000       0.000       2.000       2.000       0.000      0.1000E-19   0.000    
    6305   6.305      0.1000E-02 FIXED          0   0.0%   0.000       0.000       2.000       2.000       0.000      0.1000E-19   0.000    
    6306   6.306      0.1000E-02 FIXED          0  -0.0%   0.000       0.000       2.000       2.000       0.000      0.1000E-19   0.000    
    6307   6.307      0.1000E-02 FIXED          0  -0.0%   0.000       0.000       2.000       2.000       0.000      0.1000E-19   0.000    
    6308   6.308      0.1000E-02 FIXED          0   0.0%   0.000       0.000       2.000       2.000       0.000      0.1000E-19   0.000    
    6309   6.309      0.1000E-02 FIXED          0   0.0%   0.000       0.000       2.000       2.000       0.000      0.1000E-19   0.000    
    6310   6.310      0.1000E-02 FIXED          0   0.0%   0.000       0.000       2.000       2.000       0.000      0.1000E-19   0.000    
    6311   6.311      0.1000E-02 FIXED          0   0.0%   0.000       0.000       2.000       2.000       0.000      0.1000E-19   0.000    
    6312   6.312      0.1000E-02 FIXED          0  -0.0%   0.000       0.000       2.000       2.000       0.000      0.1000E-19   0.000    
    6313   6.313      0.1000E-02 FIXED          0  -0.0%   0.000       0.000       2.000       2.000       0.000      0.1000E-19   0.000    
    6314   6.314      0.1000E-02 FIXED          0   0.0%   0.000       0.000       2.000       2.000       0.000      0.1000E-19   0.000    
    6315   6.315      0.1000E-02 FIXED          0  -0.0%   0.000       0.000       2.000       2.000       0.000      0.1000E-19   0.000    
    6316   6.316      0.1000E-02 FIXED          0   0.0%   0.000       0.000       2.000       2.000       0.000      0.1000E-19   0.000    
    6317   6.317      0.1000E-02 FIXED          0   0.0%   0.000       0.000       2.000       2.000       0.000      0.1000E-19   0.000    
    6318   6.318      0.1000E-02 FIXED          0  -0.0%   0.000       0.000       2.000       2.000       0.000      0.1000E-19   0.000    
    6319   6.319      0.1000E-02 FIXED          0   0.0%   0.000       0.000       2.000       2.000       0.000      0.1000E-19   0.000    
    6320   6.320      0.1000E-02 FIXED          0  -0.0%   0.000       0.000       2.000       2.000       0.000      0.1000E-19   0.000    
    6321   6.321      0.1000E-02 FIXED          0   0.0%   0.000       0.000       2.000       2.000       0.000      0.1000E-19   0.000    
    6322   6.322      0.1000E-02 FIXED          0  -0.0%   0.000       0.000       2.000       2.000       0.000      0.1000E-19   0.000    
    6323   6.323      0.1000E-02 FIXED          0   0.0%   0.000       0.000       2.000       2.000       0.000      0.1000E-19   0.000    
    6324   6.324      0.1000E-02 FIXED          0   0.0%   0.000       0.000       2.000       2.000       0.000      0.1000E-19   0.000    
   CYCLE    TIME      TIME-STEP  ELEMENT          ERROR  I-ENERGY    K-ENERGY T  K-ENERGY R  EXT-WORK     MAS.ERR     TOTAL MASS  MASS ADDED
    6325   6.325      0.1000E-02 FIXED          0  -0.0%   0.000       0.000       2.000       2.000       0.000      0.1000E-19   0.000    
    6326   6.326      0.1000E-02 FIXED          0   0.0%   0.000       0.000       2.000       2.000       0.000      0.1000E-19   0.000    
    6327   6.327      0.1000E-02 FIXED          0   0.0%   0.000       0.000       2.000       2.000       0.000      0.1000E-19   0.000    
    6328   6.328      0.1000E-02 FIXED          0  -0.0%   0.000       0.000       2.000       2.000       0.000      0.1000E-19   0.000    
    6329   6.329      0.1000E-02 FIXED          0   0.0%   0.000       0.000       2.000       2.000       0.000      0.1000E-19   0.000    
    6330   6.330      0.1000E-02 FIXED          0   0.0%   0.000       0.000       2.000       2.000       0.000      0.1000E-19   0.000    
    6331   6.331      0.1000E-02 FIXED          0   0.0%   0.000       0.000       2.000       2.000       0.000      0.1000E-19   0.000    
    6332   6.332      0.1000E-02 FIXED          0  -0.0%   0.000       0.000       2.000       2.000       0.000      0.1000E-19   0.000    
    6333   6.333      0.1000E-02 FIXED          0   0.0%   0.000       0.000       2.000       2.000       0.000      0.1000E-19   0.000    
    6334   6.334      0.1000E-02 FIXED          0   0.0%   0.000       0.000       2.000       2.000       0.000      0.1000E-19   0.000    
    6335   6.335      0.1000E-02 FIXED          0  -0.0%   0.000       0.000       2.000       2.000       0.000      0.1000E-19   0.000    
    6336   6.336      0.1000E-02 FIXED          0  -0.0%   0.000       0.000       2.000       2.000       0.000      0.1000E-19   0.000    
    6337   6.337      0.1000E-02 FIXED          0   0.0%   0.000       0.000       2.000       2.000       0.000      0.1000E-19   0.000    
    6338   6.338      0.1000E-02 FIXED          0  -0.0%   0.000       0.000       2.000       2.000       0.000      0.1000E-19   0.000    
    6339   6.339      0.1000E-02 FIXED          0   0.0%   0.000       0.000       2.000       2.000       0.000      0.1000E-19   0.000    
    6340   6.340      0.1000E-02 FIXED          0   0.0%   0.000       0.000       2.000       2.000       0.000      0.1000E-19   0.000    
    6341   6.341      0.1000E-02 FIXED          0  -0.0%   0.000       0.000       2.000       2.000       0.000      0.1000E-19   0.000    
    6342   6.342      0.1000E-02 FIXED          0   0.0%   0.000       0.000       2.000       2.000       0.000      0.1000E-19   0.000    
    6343   6.343      0.1000E-02 FIXED          0  -0.0%   0.000       0.000       2.000       2.000       0.000      0.1000E-19   0.000    
    6344   6.344      0.1000E-02 FIXED          0  -0.0%   0.000       0.000       2.000       2.000       0.000      0.1000E-19   0.000    
    6345   6.345      0.1000E-02 FIXED          0   0.0%   0.000       0.000       2.000       2.000       0.000      0.1000E-19   0.000    
    6346   6.346      0.1000E-02 FIXED          0   0.0%   0.000       0.000       2.000       2.000       0.000      0.1000E-19   0.000    
    6347   6.347      0.1000E-02 FIXED          0   0.0%   0.000       0.000       2.000       2.000       0.000      0.1000E-19   0.000    
    6348   6.348      0.1000E-02 FIXED          0  -0.0%   0.000       0.000       2.000       2.000       0.000      0.1000E-19   0.000    
    6349   6.349      0.1000E-02 FIXED          0  -0.0%   0.000       0.000       2.000       2.000       0.000      0.1000E-19   0.000    
    6350   6.350      0.1000E-02 FIXED          0   0.0%   0.000       0.000       2.000       2.000       0.000      0.1000E-19   0.000    
    6351   6.351      0.1000E-02 FIXED          0  -0.0%   0.000       0.000       2.000       2.000       0.000      0.1000E-19   0.000    
    6352   6.352      0.1000E-02 FIXED          0   0.0%   0.000       0.000       2.000       2.000       0.000      0.1000E-19   0.000    
    6353   6.353      0.1000E-02 FIXED          0   0.0%   0.000       0.000       2.000       2.000       0.000      0.1000E-19   0.000    
    6354   6.354      0.1000E-02 FIXED          0   0.0%   0.000       0.000       2.000       2.000       0.000      0.1000E-19   0.000    
    6355   6.355      0.1000E-02 FIXED          0   0.0%   0.000       0.000       2.000       2.000       0.000      0.1000E-19   0.000    
    6356   6.356      0.1000E-02 FIXED          0   0.0%   0.000       0.000       2.000       2.000       0.000      0.1000E-19   0.000    
    6357   6.357      0.1000E-02 FIXED          0  -0.0%   0.000       0.000       2.000       2.000       0.000      0.1000E-19   0.000    
    6358   6.358      0.1000E-02 FIXED          0   0.0%   0.000       0.000       2.000       2.000       0.000      0.1000E-19   0.000    
    6359   6.359      0.1000E-02 FIXED          0   0.0%   0.000       0.000       2.000       2.000       0.000      0.1000E-19   0.000    
    6360   6.360      0.1000E-02 FIXED          0  -0.0%   0.000       0.000       2.000       2.000       0.000      0.1000E-19   0.000    
    6361   6.361      0.1000E-02 FIXED          0   0.0%   0.000       0.000       2.000       2.000       0.000      0.1000E-19   0.000    
    6362   6.362      0.1000E-02 FIXED          0   0.0%   0.000       0.000       2.000       2.000       0.000      0.1000E-19   0.000    
    6363   6.363      0.1000E-02 FIXED          0  -0.0%   0.000       0.000       2.000       2.000       0.000      0.1000E-19   0.000    
    6364   6.364      0.1000E-02 FIXED          0   0.0%   0.000       0.000       2.000       2.000       0.000      0.1000E-19   0.000    
    6365   6.365      0.1000E-02 FIXED          0  -0.0%   0.000       0.000       2.000       2.000       0.000      0.1000E-19   0.000    
    6366   6.366      0.1000E-02 FIXED          0   0.0%   0.000       0.000       2.000       2.000       0.000      0.1000E-19   0.000    
    6367   6.367      0.1000E-02 FIXED          0  -0.0%   0.000       0.000       2.000       2.000       0.000      0.1000E-19   0.000    
    6368   6.368      0.1000E-02 FIXED          0   0.0%   0.000       0.000       2.000       2.000       0.000      0.1000E-19   0.000    
    6369   6.369      0.1000E-02 FIXED          0   0.0%   0.000       0.000       2.000       2.000       0.000      0.1000E-19   0.000    
    6370   6.370      0.1000E-02 FIXED          0   0.0%   0.000       0.000       2.000       2.000       0.000      0.1000E-19   0.000    
    6371   6.371      0.1000E-02 FIXED          0  -0.0%   0.000       0.000       2.000       2.000       0.000      0.1000E-19   0.000    
    6372   6.372      0.1000E-02 FIXED          0   0.0%   0.000       0.000       2.000       2.000       0.000      0.1000E-19   0.000    
    6373   6.373      0.1000E-02 FIXED          0  -0.0%   0.000       0.000       2.000       2.000       0.000      0.1000E-19   0.000    
    6374   6.374      0.1000E-02 FIXED          0   0.0%   0.000       0.000       2.000       2.000       0.000      0.1000E-19   0.000    
    6375   6.375      0.1000E-02 FIXED          0   0.0%   0.000       0.000       2.000       2.000       0.000      0.1000E-19   0.000    
    6376   6.376      0.1000E-02 FIXED          0   0.0%   0.000       0.000       2.000       2.000       0.000      0.1000E-19   0.000    
    6377   6.377      0.1000E-02 FIXED          0   0.0%   0.000       0.000       2.000       2.000       0.000      0.1000E-19   0.000    
    6378   6.378      0.1000E-02 FIXED          0  -0.0%   0.000       0.000       2.000       2.000       0.000      0.1000E-19   0.000    
    6379   6.379      0.1000E-02 FIXED          0   0.0%   0.000       0.000       2.000       2.000       0.000      0.1000E-19   0.000    
   CYCLE    TIME      TIME-STEP  ELEMENT          ERROR  I-ENERGY    K-ENERGY T  K-ENERGY R  EXT-WORK     MAS.ERR     TOTAL MASS  MASS ADDED
    6380   6.380      0.1000E-02 FIXED          0   0.0%   0.000       0.000       2.000       2.000       0.000      0.1000E-19   0.000    
    6381   6.381      0.1000E-02 FIXED          0   0.0%   0.000       0.000       2.000       2.000       0.000      0.1000E-19   0.000    
    6382   6.382      0.1000E-02 FIXED          0   0.0%   0.000       0.000       2.000       2.000       0.000      0.1000E-19   0.000    
    6383   6.383      0.1000E-02 FIXED          0   0.0%   0.000       0.000       2.000       2.000       0.000      0.1000E-19   0.000    
    6384   6.384      0.1000E-02 FIXED          0  -0.0%   0.000       0.000       2.000       2.000       0.000      0.1000E-19   0.000    
    6385   6.385      0.1000E-02 FIXED          0   0.0%   0.000       0.000       2.000       2.000       0.000      0.1000E-19   0.000    
    6386   6.386      0.1000E-02 FIXED          0  -0.0%   0.000       0.000       2.000       2.000       0.000      0.1000E-19   0.000    
    6387   6.387      0.1000E-02 FIXED          0  -0.0%   0.000       0.000       2.000       2.000       0.000      0.1000E-19   0.000    
    6388   6.388      0.1000E-02 FIXED          0  -0.0%   0.000       0.000       2.000       2.000       0.000      0.1000E-19   0.000    
    6389   6.389      0.1000E-02 FIXED          0  -0.0%   0.000       0.000       2.000       2.000       0.000      0.1000E-19   0.000    
    6390   6.390      0.1000E-02 FIXED          0  -0.0%   0.000       0.000       2.000       2.000       0.000      0.1000E-19   0.000    
    6391   6.391      0.1000E-02 FIXED          0   0.0%   0.000       0.000       2.000       2.000       0.000      0.1000E-19   0.000    
    6392   6.392      0.1000E-02 FIXED          0  -0.0%   0.000       0.000       2.000       2.000       0.000      0.1000E-19   0.000    
    6393   6.393      0.1000E-02 FIXED          0   0.0%   0.000       0.000       2.000       2.000       0.000      0.1000E-19   0.000    
    6394   6.394      0.1000E-02 FIXED          0  -0.0%   0.000       0.000       2.000       2.000       0.000      0.1000E-19   0.000    
    6395   6.395      0.1000E-02 FIXED          0   0.0%   0.000       0.000       2.000       2.000       0.000      0.1000E-19   0.000    
    6396   6.396      0.1000E-02 FIXED          0  -0.0%   0.000       0.000       2.000       2.000       0.000      0.1000E-19   0.000    
    6397   6.397      0.1000E-02 FIXED          0   0.0%   0.000       0.000       2.000       2.000       0.000      0.1000E-19   0.000    
    6398   6.398      0.1000E-02 FIXED          0  -0.0%   0.000       0.000       2.000       2.000       0.000      0.1000E-19   0.000    
    6399   6.399      0.1000E-02 FIXED          0   0.0%   0.000       0.000       2.000       2.000       0.000      0.1000E-19   0.000    
    6400   6.400      0.1000E-02 FIXED          0   0.0%   0.000       0.000       2.000       2.000       0.000      0.1000E-19   0.000    
    6401   6.401      0.1000E-02 FIXED          0  -0.0%   0.000       0.000       2.000       2.000       0.000      0.1000E-19   0.000    
    6402   6.402      0.1000E-02 FIXED          0   0.0%   0.000       0.000       2.000       2.000       0.000      0.1000E-19   0.000    
    6403   6.403      0.1000E-02 FIXED          0  -0.0%   0.000       0.000       2.000       2.000       0.000      0.1000E-19   0.000    
    6404   6.404      0.1000E-02 FIXED          0  -0.0%   0.000       0.000       2.000       2.000       0.000      0.1000E-19   0.000    
    6405   6.405      0.1000E-02 FIXED          0  -0.0%   0.000       0.000       2.000       2.000       0.000      0.1000E-19   0.000    
    6406   6.406      0.1000E-02 FIXED          0   0.0%   0.000       0.000       2.000       2.000       0.000      0.1000E-19   0.000    
    6407   6.407      0.1000E-02 FIXED          0   0.0%   0.000       0.000       2.000       2.000       0.000      0.1000E-19   0.000    
    6408   6.408      0.1000E-02 FIXED          0   0.0%   0.000       0.000       2.000       2.000       0.000      0.1000E-19   0.000    
    6409   6.409      0.1000E-02 FIXED          0  -0.0%   0.000       0.000       2.000       2.000       0.000      0.1000E-19   0.000    
    6410   6.410      0.1000E-02 FIXED          0   0.0%   0.000       0.000       2.000       2.000       0.000      0.1000E-19   0.000    
    6411   6.411      0.1000E-02 FIXED          0   0.0%   0.000       0.000       2.000       2.000       0.000      0.1000E-19   0.000    
    6412   6.412      0.1000E-02 FIXED          0  -0.0%   0.000       0.000       2.000       2.000       0.000      0.1000E-19   0.000    
    6413   6.413      0.1000E-02 FIXED          0  -0.0%   0.000       0.000       2.000       2.000       0.000      0.1000E-19   0.000    
    6414   6.414      0.1000E-02 FIXED          0   0.0%   0.000       0.000       2.000       2.000       0.000      0.1000E-19   0.000    
    6415   6.415      0.1000E-02 FIXED          0  -0.0%   0.000       0.000       2.000       2.000       0.000      0.1000E-19   0.000    
    6416   6.416      0.1000E-02 FIXED          0  -0.0%   0.000       0.000       2.000       2.000       0.000      0.1000E-19   0.000    
    6417   6.417      0.1000E-02 FIXED          0  -0.0%   0.000       0.000       2.000       2.000       0.000      0.1000E-19   0.000    
    6418   6.418      0.1000E-02 FIXED          0   0.0%   0.000       0.000       2.000       2.000       0.000      0.1000E-19   0.000    
    6419   6.419      0.1000E-02 FIXED          0   0.0%   0.000       0.000       2.000       2.000       0.000      0.1000E-19   0.000    
    6420   6.420      0.1000E-02 FIXED          0  -0.0%   0.000       0.000       2.000       2.000       0.000      0.1000E-19   0.000    
    6421   6.421      0.1000E-02 FIXED          0   0.0%   0.000       0.000       2.000       2.000       0.000      0.1000E-19   0.000    
    6422   6.422      0.1000E-02 FIXED          0   0.0%   0.000       0.000       2.000       2.000       0.000      0.1000E-19   0.000    
    6423   6.423      0.1000E-02 FIXED          0   0.0%   0.000       0.000       2.000       2.000       0.000      0.1000E-19   0.000    
    6424   6.424      0.1000E-02 FIXED          0   0.0%   0.000       0.000       2.000       2.000       0.000      0.1000E-19   0.000    
    6425   6.425      0.1000E-02 FIXED          0  -0.0%   0.000       0.000       2.000       2.000       0.000      0.1000E-19   0.000    
    6426   6.426      0.1000E-02 FIXED          0   0.0%   0.000       0.000       2.000       2.000       0.000      0.1000E-19   0.000    
    6427   6.427      0.1000E-02 FIXED          0   0.0%   0.000       0.000       2.000       2.000       0.000      0.1000E-19   0.000    
    6428   6.428      0.1000E-02 FIXED          0   0.0%   0.000       0.000       2.000       2.000       0.000      0.1000E-19   0.000    
    6429   6.429      0.1000E-02 FIXED          0   0.0%   0.000       0.000       2.000       2.000       0.000      0.1000E-19   0.000    
    6430   6.430      0.1000E-02 FIXED          0   0.0%   0.000       0.000       2.000       2.000       0.000      0.1000E-19   0.000    
    6431   6.431      0.1000E-02 FIXED          0  -0.0%   0.000       0.000       2.000       2.000       0.000      0.1000E-19   0.000    
    6432   6.432      0.1000E-02 FIXED          0   0.0%   0.000       0.000       2.000       2.000       0.000      0.1000E-19   0.000    
    6433   6.433      0.1000E-02 FIXED          0  -0.0%   0.000       0.000       2.000       2.000       0.000      0.1000E-19   0.000    
    6434   6.434      0.1000E-02 FIXED          0  -0.0%   0.000       0.000       2.000       2.000       0.000      0.1000E-19   0.000    
   CYCLE    TIME      TIME-STEP  ELEMENT          ERROR  I-ENERGY    K-ENERGY T  K-ENERGY R  EXT-WORK     MAS.ERR     TOTAL MASS  MASS ADDED
    6435   6.435      0.1000E-02 FIXED          0   0.0%   0.000       0.000       2.000       2.000       0.000      0.1000E-19   0.000    
    6436   6.436      0.1000E-02 FIXED          0  -0.0%   0.000       0.000       2.000       2.000       0.000      0.1000E-19   0.000    
    6437   6.437      0.1000E-02 FIXED          0   0.0%   0.000       0.000       2.000       2.000       0.000      0.1000E-19   0.000    
    6438   6.438      0.1000E-02 FIXED          0   0.0%   0.000       0.000       2.000       2.000       0.000      0.1000E-19   0.000    
    6439   6.439      0.1000E-02 FIXED          0  -0.0%   0.000       0.000       2.000       2.000       0.000      0.1000E-19   0.000    
    6440   6.440      0.1000E-02 FIXED          0   0.0%   0.000       0.000       2.000       2.000       0.000      0.1000E-19   0.000    
    6441   6.441      0.1000E-02 FIXED          0  -0.0%   0.000       0.000       2.000       2.000       0.000      0.1000E-19   0.000    
    6442   6.442      0.1000E-02 FIXED          0  -0.0%   0.000       0.000       2.000       2.000       0.000      0.1000E-19   0.000    
    6443   6.443      0.1000E-02 FIXED          0  -0.0%   0.000       0.000       2.000       2.000       0.000      0.1000E-19   0.000    
    6444   6.444      0.1000E-02 FIXED          0   0.0%   0.000       0.000       2.000       2.000       0.000      0.1000E-19   0.000    
    6445   6.445      0.1000E-02 FIXED          0   0.0%   0.000       0.000       2.000       2.000       0.000      0.1000E-19   0.000    
    6446   6.446      0.1000E-02 FIXED          0   0.0%   0.000       0.000       2.000       2.000       0.000      0.1000E-19   0.000    
    6447   6.447      0.1000E-02 FIXED          0  -0.0%   0.000       0.000       2.000       2.000       0.000      0.1000E-19   0.000    
    6448   6.448      0.1000E-02 FIXED          0  -0.0%   0.000       0.000       2.000       2.000       0.000      0.1000E-19   0.000    
    6449   6.449      0.1000E-02 FIXED          0   0.0%   0.000       0.000       2.000       2.000       0.000      0.1000E-19   0.000    
    6450   6.450      0.1000E-02 FIXED          0   0.0%   0.000       0.000       2.000       2.000       0.000      0.1000E-19   0.000    
    6451   6.451      0.1000E-02 FIXED          0  -0.0%   0.000       0.000       2.000       2.000       0.000      0.1000E-19   0.000    
    6452   6.452      0.1000E-02 FIXED          0   0.0%   0.000       0.000       2.000       2.000       0.000      0.1000E-19   0.000    
    6453   6.453      0.1000E-02 FIXED          0   0.0%   0.000       0.000       2.000       2.000       0.000      0.1000E-19   0.000    
    6454   6.454      0.1000E-02 FIXED          0   0.0%   0.000       0.000       2.000       2.000       0.000      0.1000E-19   0.000    
    6455   6.455      0.1000E-02 FIXED          0   0.0%   0.000       0.000       2.000       2.000       0.000      0.1000E-19   0.000    
    6456   6.456      0.1000E-02 FIXED          0   0.0%   0.000       0.000       2.000       2.000       0.000      0.1000E-19   0.000    
    6457   6.457      0.1000E-02 FIXED          0   0.0%   0.000       0.000       2.000       2.000       0.000      0.1000E-19   0.000    
    6458   6.458      0.1000E-02 FIXED          0   0.0%   0.000       0.000       2.000       2.000       0.000      0.1000E-19   0.000    
    6459   6.459      0.1000E-02 FIXED          0   0.0%   0.000       0.000       2.000       2.000       0.000      0.1000E-19   0.000    
    6460   6.460      0.1000E-02 FIXED          0  -0.0%   0.000       0.000       2.000       2.000       0.000      0.1000E-19   0.000    
    6461   6.461      0.1000E-02 FIXED          0   0.0%   0.000       0.000       2.000       2.000       0.000      0.1000E-19   0.000    
    6462   6.462      0.1000E-02 FIXED          0   0.0%   0.000       0.000       2.000       2.000       0.000      0.1000E-19   0.000    
    6463   6.463      0.1000E-02 FIXED          0   0.0%   0.000       0.000       2.000       2.000       0.000      0.1000E-19   0.000    
    6464   6.464      0.1000E-02 FIXED          0  -0.0%   0.000       0.000       2.000       2.000       0.000      0.1000E-19   0.000    
    6465   6.465      0.1000E-02 FIXED          0   0.0%   0.000       0.000       2.000       2.000       0.000      0.1000E-19   0.000    
    6466   6.466      0.1000E-02 FIXED          0  -0.0%   0.000       0.000       2.000       2.000       0.000      0.1000E-19   0.000    
    6467   6.467      0.1000E-02 FIXED          0   0.0%   0.000       0.000       2.000       2.000       0.000      0.1000E-19   0.000    
    6468   6.468      0.1000E-02 FIXED          0  -0.0%   0.000       0.000       2.000       2.000       0.000      0.1000E-19   0.000    
    6469   6.469      0.1000E-02 FIXED          0   0.0%   0.000       0.000       2.000       2.000       0.000      0.1000E-19   0.000    
    6470   6.470      0.1000E-02 FIXED          0   0.0%   0.000       0.000       2.000       2.000       0.000      0.1000E-19   0.000    
    6471   6.471      0.1000E-02 FIXED          0  -0.0%   0.000       0.000       2.000       2.000       0.000      0.1000E-19   0.000    
    6472   6.472      0.1000E-02 FIXED          0   0.0%   0.000       0.000       2.000       2.000       0.000      0.1000E-19   0.000    
    6473   6.473      0.1000E-02 FIXED          0   0.0%   0.000       0.000       2.000       2.000       0.000      0.1000E-19   0.000    
    6474   6.474      0.1000E-02 FIXED          0   0.0%   0.000       0.000       2.000       2.000       0.000      0.1000E-19   0.000    
    6475   6.475      0.1000E-02 FIXED          0  -0.0%   0.000       0.000       2.000       2.000       0.000      0.1000E-19   0.000    
    6476   6.476      0.1000E-02 FIXED          0   0.0%   0.000       0.000       2.000       2.000       0.000      0.1000E-19   0.000    
    6477   6.477      0.1000E-02 FIXED          0  -0.0%   0.000       0.000       2.000       2.000       0.000      0.1000E-19   0.000    
    6478   6.478      0.1000E-02 FIXED          0   0.0%   0.000       0.000       2.000       2.000       0.000      0.1000E-19   0.000    
    6479   6.479      0.1000E-02 FIXED          0  -0.0%   0.000       0.000       2.000       2.000       0.000      0.1000E-19   0.000    
    6480   6.480      0.1000E-02 FIXED          0  -0.0%   0.000       0.000       2.000       2.000       0.000      0.1000E-19   0.000    
    6481   6.481      0.1000E-02 FIXED          0  -0.0%   0.000       0.000       2.000       2.000       0.000      0.1000E-19   0.000    
    6482   6.482      0.1000E-02 FIXED          0   0.0%   0.000       0.000       2.000       2.000       0.000      0.1000E-19   0.000    
    6483   6.483      0.1000E-02 FIXED          0   0.0%   0.000       0.000       2.000       2.000       0.000      0.1000E-19   0.000    
    6484   6.484      0.1000E-02 FIXED          0  -0.0%   0.000       0.000       2.000       2.000       0.000      0.1000E-19   0.000    
    6485   6.485      0.1000E-02 FIXED          0   0.0%   0.000       0.000       2.000       2.000       0.000      0.1000E-19   0.000    
    6486   6.486      0.1000E-02 FIXED          0   0.0%   0.000       0.000       2.000       2.000       0.000      0.1000E-19   0.000    
    6487   6.487      0.1000E-02 FIXED          0   0.0%   0.000       0.000       2.000       2.000       0.000      0.1000E-19   0.000    
    6488   6.488      0.1000E-02 FIXED          0   0.0%   0.000       0.000       2.000       2.000       0.000      0.1000E-19   0.000    
    6489   6.489      0.1000E-02 FIXED          0   0.0%   0.000       0.000       2.000       2.000       0.000      0.1000E-19   0.000    
   CYCLE    TIME      TIME-STEP  ELEMENT          ERROR  I-ENERGY    K-ENERGY T  K-ENERGY R  EXT-WORK     MAS.ERR     TOTAL MASS  MASS ADDED
    6490   6.490      0.1000E-02 FIXED          0   0.0%   0.000       0.000       2.000       2.000       0.000      0.1000E-19   0.000    
    6491   6.491      0.1000E-02 FIXED          0   0.0%   0.000       0.000       2.000       2.000       0.000      0.1000E-19   0.000    
    6492   6.492      0.1000E-02 FIXED          0   0.0%   0.000       0.000       2.000       2.000       0.000      0.1000E-19   0.000    
    6493   6.493      0.1000E-02 FIXED          0  -0.0%   0.000       0.000       2.000       2.000       0.000      0.1000E-19   0.000    
    6494   6.494      0.1000E-02 FIXED          0   0.0%   0.000       0.000       2.000       2.000       0.000      0.1000E-19   0.000    
    6495   6.495      0.1000E-02 FIXED          0   0.0%   0.000       0.000       2.000       2.000       0.000      0.1000E-19   0.000    
    6496   6.496      0.1000E-02 FIXED          0  -0.0%   0.000       0.000       2.000       2.000       0.000      0.1000E-19   0.000    
    6497   6.497      0.1000E-02 FIXED          0   0.0%   0.000       0.000       2.000       2.000       0.000      0.1000E-19   0.000    
    6498   6.498      0.1000E-02 FIXED          0  -0.0%   0.000       0.000       2.000       2.000       0.000      0.1000E-19   0.000    
    6499   6.499      0.1000E-02 FIXED          0   0.0%   0.000       0.000       2.000       2.000       0.000      0.1000E-19   0.000    
    6500   6.500      0.1000E-02 FIXED          0   0.0%   0.000       0.000       2.000       2.000       0.000      0.1000E-19   0.000    
    6501   6.501      0.1000E-02 FIXED          0  -0.0%   0.000       0.000       2.000       2.000       0.000      0.1000E-19   0.000    
    6502   6.502      0.1000E-02 FIXED          0   0.0%   0.000       0.000       2.000       2.000       0.000      0.1000E-19   0.000    
    6503   6.503      0.1000E-02 FIXED          0   0.0%   0.000       0.000       2.000       2.000       0.000      0.1000E-19   0.000    
    6504   6.504      0.1000E-02 FIXED          0  -0.0%   0.000       0.000       2.000       2.000       0.000      0.1000E-19   0.000    
    6505   6.505      0.1000E-02 FIXED          0   0.0%   0.000       0.000       2.000       2.000       0.000      0.1000E-19   0.000    
    6506   6.506      0.1000E-02 FIXED          0  -0.0%   0.000       0.000       2.000       2.000       0.000      0.1000E-19   0.000    
    6507   6.507      0.1000E-02 FIXED          0   0.0%   0.000       0.000       2.000       2.000       0.000      0.1000E-19   0.000    
    6508   6.508      0.1000E-02 FIXED          0  -0.0%   0.000       0.000       2.000       2.000       0.000      0.1000E-19   0.000    
    6509   6.509      0.1000E-02 FIXED          0   0.0%   0.000       0.000       2.000       2.000       0.000      0.1000E-19   0.000    
    6510   6.510      0.1000E-02 FIXED          0  -0.0%   0.000       0.000       2.000       2.000       0.000      0.1000E-19   0.000    
    6511   6.511      0.1000E-02 FIXED          0   0.0%   0.000       0.000       2.000       2.000       0.000      0.1000E-19   0.000    
    6512   6.512      0.1000E-02 FIXED          0  -0.0%   0.000       0.000       2.000       2.000       0.000      0.1000E-19   0.000    
    6513   6.513      0.1000E-02 FIXED          0   0.0%   0.000       0.000       2.000       2.000       0.000      0.1000E-19   0.000    
    6514   6.514      0.1000E-02 FIXED          0   0.0%   0.000       0.000       2.000       2.000       0.000      0.1000E-19   0.000    
    6515   6.515      0.1000E-02 FIXED          0   0.0%   0.000       0.000       2.000       2.000       0.000      0.1000E-19   0.000    
    6516   6.516      0.1000E-02 FIXED          0  -0.0%   0.000       0.000       2.000       2.000       0.000      0.1000E-19   0.000    
    6517   6.517      0.1000E-02 FIXED          0  -0.0%   0.000       0.000       2.000       2.000       0.000      0.1000E-19   0.000    
    6518   6.518      0.1000E-02 FIXED          0   0.0%   0.000       0.000       2.000       2.000       0.000      0.1000E-19   0.000    
    6519   6.519      0.1000E-02 FIXED          0  -0.0%   0.000       0.000       2.000       2.000       0.000      0.1000E-19   0.000    
    6520   6.520      0.1000E-02 FIXED          0   0.0%   0.000       0.000       2.000       2.000       0.000      0.1000E-19   0.000    
    6521   6.521      0.1000E-02 FIXED          0   0.0%   0.000       0.000       2.000       2.000       0.000      0.1000E-19   0.000    
    6522   6.522      0.1000E-02 FIXED          0   0.0%   0.000       0.000       2.000       2.000       0.000      0.1000E-19   0.000    
    6523   6.523      0.1000E-02 FIXED          0  -0.0%   0.000       0.000       2.000       2.000       0.000      0.1000E-19   0.000    
    6524   6.524      0.1000E-02 FIXED          0  -0.0%   0.000       0.000       2.000       2.000       0.000      0.1000E-19   0.000    
    6525   6.525      0.1000E-02 FIXED          0   0.0%   0.000       0.000       2.000       2.000       0.000      0.1000E-19   0.000    
    6526   6.526      0.1000E-02 FIXED          0   0.0%   0.000       0.000       2.000       2.000       0.000      0.1000E-19   0.000    
    6527   6.527      0.1000E-02 FIXED          0  -0.0%   0.000       0.000       2.000       2.000       0.000      0.1000E-19   0.000    
    6528   6.528      0.1000E-02 FIXED          0   0.0%   0.000       0.000       2.000       2.000       0.000      0.1000E-19   0.000    
    6529   6.529      0.1000E-02 FIXED          0  -0.0%   0.000       0.000       2.000       2.000       0.000      0.1000E-19   0.000    
    6530   6.530      0.1000E-02 FIXED          0   0.0%   0.000       0.000       2.000       2.000       0.000      0.1000E-19   0.000    
    6531   6.531      0.1000E-02 FIXED          0   0.0%   0.000       0.000       2.000       2.000       0.000      0.1000E-19   0.000    
    6532   6.532      0.1000E-02 FIXED          0  -0.0%   0.000       0.000       2.000       2.000       0.000      0.1000E-19   0.000    
    6533   6.533      0.1000E-02 FIXED          0   0.0%   0.000       0.000       2.000       2.000       0.000      0.1000E-19   0.000    
    6534   6.534      0.1000E-02 FIXED          0   0.0%   0.000       0.000       2.000       2.000       0.000      0.1000E-19   0.000    
    6535   6.535      0.1000E-02 FIXED          0   0.0%   0.000       0.000       2.000       2.000       0.000      0.1000E-19   0.000    
    6536   6.536      0.1000E-02 FIXED          0  -0.0%   0.000       0.000       2.000       2.000       0.000      0.1000E-19   0.000    
    6537   6.537      0.1000E-02 FIXED          0  -0.0%   0.000       0.000       2.000       2.000       0.000      0.1000E-19   0.000    
    6538   6.538      0.1000E-02 FIXED          0   0.0%   0.000       0.000       2.000       2.000       0.000      0.1000E-19   0.000    
    6539   6.539      0.1000E-02 FIXED          0  -0.0%   0.000       0.000       2.000       2.000       0.000      0.1000E-19   0.000    
    6540   6.540      0.1000E-02 FIXED          0  -0.0%   0.000       0.000       2.000       2.000       0.000      0.1000E-19   0.000    
    6541   6.541      0.1000E-02 FIXED          0   0.0%   0.000       0.000       2.000       2.000       0.000      0.1000E-19   0.000    
    6542   6.542      0.1000E-02 FIXED          0  -0.0%   0.000       0.000       2.000       2.000       0.000      0.1000E-19   0.000    
    6543   6.543      0.1000E-02 FIXED          0  -0.0%   0.000       0.000       2.000       2.000       0.000      0.1000E-19   0.000    
    6544   6.544      0.1000E-02 FIXED          0   0.0%   0.000       0.000       2.000       2.000       0.000      0.1000E-19   0.000    
   CYCLE    TIME      TIME-STEP  ELEMENT          ERROR  I-ENERGY    K-ENERGY T  K-ENERGY R  EXT-WORK     MAS.ERR     TOTAL MASS  MASS ADDED
    6545   6.545      0.1000E-02 FIXED          0   0.0%   0.000       0.000       2.000       2.000       0.000      0.1000E-19   0.000    
    6546   6.546      0.1000E-02 FIXED          0   0.0%   0.000       0.000       2.000       2.000       0.000      0.1000E-19   0.000    
    6547   6.547      0.1000E-02 FIXED          0   0.0%   0.000       0.000       2.000       2.000       0.000      0.1000E-19   0.000    
    6548   6.548      0.1000E-02 FIXED          0   0.0%   0.000       0.000       2.000       2.000       0.000      0.1000E-19   0.000    
    6549   6.549      0.1000E-02 FIXED          0   0.0%   0.000       0.000       2.000       2.000       0.000      0.1000E-19   0.000    
    6550   6.550      0.1000E-02 FIXED          0   0.0%   0.000       0.000       2.000       2.000       0.000      0.1000E-19   0.000    
    6551   6.551      0.1000E-02 FIXED          0   0.0%   0.000       0.000       2.000       2.000       0.000      0.1000E-19   0.000    
    6552   6.552      0.1000E-02 FIXED          0  -0.0%   0.000       0.000       2.000       2.000       0.000      0.1000E-19   0.000    
    6553   6.553      0.1000E-02 FIXED          0  -0.0%   0.000       0.000       2.000       2.000       0.000      0.1000E-19   0.000    
    6554   6.554      0.1000E-02 FIXED          0   0.0%   0.000       0.000       2.000       2.000       0.000      0.1000E-19   0.000    
    6555   6.555      0.1000E-02 FIXED          0   0.0%   0.000       0.000       2.000       2.000       0.000      0.1000E-19   0.000    
    6556   6.556      0.1000E-02 FIXED          0  -0.0%   0.000       0.000       2.000       2.000       0.000      0.1000E-19   0.000    
    6557   6.557      0.1000E-02 FIXED          0   0.0%   0.000       0.000       2.000       2.000       0.000      0.1000E-19   0.000    
    6558   6.558      0.1000E-02 FIXED          0  -0.0%   0.000       0.000       2.000       2.000       0.000      0.1000E-19   0.000    
    6559   6.559      0.1000E-02 FIXED          0   0.0%   0.000       0.000       2.000       2.000       0.000      0.1000E-19   0.000    
    6560   6.560      0.1000E-02 FIXED          0  -0.0%   0.000       0.000       2.000       2.000       0.000      0.1000E-19   0.000    
    6561   6.561      0.1000E-02 FIXED          0  -0.0%   0.000       0.000       2.000       2.000       0.000      0.1000E-19   0.000    
    6562   6.562      0.1000E-02 FIXED          0   0.0%   0.000       0.000       2.000       2.000       0.000      0.1000E-19   0.000    
    6563   6.563      0.1000E-02 FIXED          0  -0.0%   0.000       0.000       2.000       2.000       0.000      0.1000E-19   0.000    
    6564   6.564      0.1000E-02 FIXED          0   0.0%   0.000       0.000       2.000       2.000       0.000      0.1000E-19   0.000    
    6565   6.565      0.1000E-02 FIXED          0   0.0%   0.000       0.000       2.000       2.000       0.000      0.1000E-19   0.000    
    6566   6.566      0.1000E-02 FIXED          0   0.0%   0.000       0.000       2.000       2.000       0.000      0.1000E-19   0.000    
    6567   6.567      0.1000E-02 FIXED          0   0.0%   0.000       0.000       2.000       2.000       0.000      0.1000E-19   0.000    
    6568   6.568      0.1000E-02 FIXED          0   0.0%   0.000       0.000       2.000       2.000       0.000      0.1000E-19   0.000    
    6569   6.569      0.1000E-02 FIXED          0  -0.0%   0.000       0.000       2.000       2.000       0.000      0.1000E-19   0.000    
    6570   6.570      0.1000E-02 FIXED          0  -0.0%   0.000       0.000       2.000       2.000       0.000      0.1000E-19   0.000    
    6571   6.571      0.1000E-02 FIXED          0   0.0%   0.000       0.000       2.000       2.000       0.000      0.1000E-19   0.000    
    6572   6.572      0.1000E-02 FIXED          0   0.0%   0.000       0.000       2.000       2.000       0.000      0.1000E-19   0.000    
    6573   6.573      0.1000E-02 FIXED          0   0.0%   0.000       0.000       2.000       2.000       0.000      0.1000E-19   0.000    
    6574   6.574      0.1000E-02 FIXED          0   0.0%   0.000       0.000       2.000       2.000       0.000      0.1000E-19   0.000    
    6575   6.575      0.1000E-02 FIXED          0   0.0%   0.000       0.000       2.000       2.000       0.000      0.1000E-19   0.000    
    6576   6.576      0.1000E-02 FIXED          0  -0.0%   0.000       0.000       2.000       2.000       0.000      0.1000E-19   0.000    
    6577   6.577      0.1000E-02 FIXED          0   0.0%   0.000       0.000       2.000       2.000       0.000      0.1000E-19   0.000    
    6578   6.578      0.1000E-02 FIXED          0   0.0%   0.000       0.000       2.000       2.000       0.000      0.1000E-19   0.000    
    6579   6.579      0.1000E-02 FIXED          0   0.0%   0.000       0.000       2.000       2.000       0.000      0.1000E-19   0.000    
    6580   6.580      0.1000E-02 FIXED          0  -0.0%   0.000       0.000       2.000       2.000       0.000      0.1000E-19   0.000    
    6581   6.581      0.1000E-02 FIXED          0   0.0%   0.000       0.000       2.000       2.000       0.000      0.1000E-19   0.000    
    6582   6.582      0.1000E-02 FIXED          0   0.0%   0.000       0.000       2.000       2.000       0.000      0.1000E-19   0.000    
    6583   6.583      0.1000E-02 FIXED          0   0.0%   0.000       0.000       2.000       2.000       0.000      0.1000E-19   0.000    
    6584   6.584      0.1000E-02 FIXED          0   0.0%   0.000       0.000       2.000       2.000       0.000      0.1000E-19   0.000    
    6585   6.585      0.1000E-02 FIXED          0  -0.0%   0.000       0.000       2.000       2.000       0.000      0.1000E-19   0.000    
    6586   6.586      0.1000E-02 FIXED          0   0.0%   0.000       0.000       2.000       2.000       0.000      0.1000E-19   0.000    
    6587   6.587      0.1000E-02 FIXED          0  -0.0%   0.000       0.000       2.000       2.000       0.000      0.1000E-19   0.000    
    6588   6.588      0.1000E-02 FIXED          0  -0.0%   0.000       0.000       2.000       2.000       0.000      0.1000E-19   0.000    
    6589   6.589      0.1000E-02 FIXED          0  -0.0%   0.000       0.000       2.000       2.000       0.000      0.1000E-19   0.000    
    6590   6.590      0.1000E-02 FIXED          0  -0.0%   0.000       0.000       2.000       2.000       0.000      0.1000E-19   0.000    
    6591   6.591      0.1000E-02 FIXED          0  -0.0%   0.000       0.000       2.000       2.000       0.000      0.1000E-19   0.000    
    6592   6.592      0.1000E-02 FIXED          0   0.0%   0.000       0.000       2.000       2.000       0.000      0.1000E-19   0.000    
    6593   6.593      0.1000E-02 FIXED          0  -0.0%   0.000       0.000       2.000       2.000       0.000      0.1000E-19   0.000    
    6594   6.594      0.1000E-02 FIXED          0  -0.0%   0.000       0.000       2.000       2.000       0.000      0.1000E-19   0.000    
    6595   6.595      0.1000E-02 FIXED          0  -0.0%   0.000       0.000       2.000       2.000       0.000      0.1000E-19   0.000    
    6596   6.596      0.1000E-02 FIXED          0   0.0%   0.000       0.000       2.000       2.000       0.000      0.1000E-19   0.000    
    6597   6.597      0.1000E-02 FIXED          0   0.0%   0.000       0.000       2.000       2.000       0.000      0.1000E-19   0.000    
    6598   6.598      0.1000E-02 FIXED          0  -0.0%   0.000       0.000       2.000       2.000       0.000      0.1000E-19   0.000    
    6599   6.599      0.1000E-02 FIXED          0  -0.0%   0.000       0.000       2.000       2.000       0.000      0.1000E-19   0.000    
   CYCLE    TIME      TIME-STEP  ELEMENT          ERROR  I-ENERGY    K-ENERGY T  K-ENERGY R  EXT-WORK     MAS.ERR     TOTAL MASS  MASS ADDED
    6600   6.600      0.1000E-02 FIXED          0   0.0%   0.000       0.000       2.000       2.000       0.000      0.1000E-19   0.000    
    6601   6.601      0.1000E-02 FIXED          0  -0.0%   0.000       0.000       2.000       2.000       0.000      0.1000E-19   0.000    
    6602   6.602      0.1000E-02 FIXED          0   0.0%   0.000       0.000       2.000       2.000       0.000      0.1000E-19   0.000    
    6603   6.603      0.1000E-02 FIXED          0  -0.0%   0.000       0.000       2.000       2.000       0.000      0.1000E-19   0.000    
    6604   6.604      0.1000E-02 FIXED          0   0.0%   0.000       0.000       2.000       2.000       0.000      0.1000E-19   0.000    
    6605   6.605      0.1000E-02 FIXED          0   0.0%   0.000       0.000       2.000       2.000       0.000      0.1000E-19   0.000    
    6606   6.606      0.1000E-02 FIXED          0  -0.0%   0.000       0.000       2.000       2.000       0.000      0.1000E-19   0.000    
    6607   6.607      0.1000E-02 FIXED          0  -0.0%   0.000       0.000       2.000       2.000       0.000      0.1000E-19   0.000    
    6608   6.608      0.1000E-02 FIXED          0   0.0%   0.000       0.000       2.000       2.000       0.000      0.1000E-19   0.000    
    6609   6.609      0.1000E-02 FIXED          0  -0.0%   0.000       0.000       2.000       2.000       0.000      0.1000E-19   0.000    
    6610   6.610      0.1000E-02 FIXED          0   0.0%   0.000       0.000       2.000       2.000       0.000      0.1000E-19   0.000    
    6611   6.611      0.1000E-02 FIXED          0  -0.0%   0.000       0.000       2.000       2.000       0.000      0.1000E-19   0.000    
    6612   6.612      0.1000E-02 FIXED          0   0.0%   0.000       0.000       2.000       2.000       0.000      0.1000E-19   0.000    
    6613   6.613      0.1000E-02 FIXED          0   0.0%   0.000       0.000       2.000       2.000       0.000      0.1000E-19   0.000    
    6614   6.614      0.1000E-02 FIXED          0  -0.0%   0.000       0.000       2.000       2.000       0.000      0.1000E-19   0.000    
    6615   6.615      0.1000E-02 FIXED          0   0.0%   0.000       0.000       2.000       2.000       0.000      0.1000E-19   0.000    
    6616   6.616      0.1000E-02 FIXED          0   0.0%   0.000       0.000       2.000       2.000       0.000      0.1000E-19   0.000    
    6617   6.617      0.1000E-02 FIXED          0   0.0%   0.000       0.000       2.000       2.000       0.000      0.1000E-19   0.000    
    6618   6.618      0.1000E-02 FIXED          0   0.0%   0.000       0.000       2.000       2.000       0.000      0.1000E-19   0.000    
    6619   6.619      0.1000E-02 FIXED          0   0.0%   0.000       0.000       2.000       2.000       0.000      0.1000E-19   0.000    
    6620   6.620      0.1000E-02 FIXED          0  -0.0%   0.000       0.000       2.000       2.000       0.000      0.1000E-19   0.000    
    6621   6.621      0.1000E-02 FIXED          0  -0.0%   0.000       0.000       2.000       2.000       0.000      0.1000E-19   0.000    
    6622   6.622      0.1000E-02 FIXED          0   0.0%   0.000       0.000       2.000       2.000       0.000      0.1000E-19   0.000    
    6623   6.623      0.1000E-02 FIXED          0   0.0%   0.000       0.000       2.000       2.000       0.000      0.1000E-19   0.000    
    6624   6.624      0.1000E-02 FIXED          0   0.0%   0.000       0.000       2.000       2.000       0.000      0.1000E-19   0.000    
    6625   6.625      0.1000E-02 FIXED          0   0.0%   0.000       0.000       2.000       2.000       0.000      0.1000E-19   0.000    
    6626   6.626      0.1000E-02 FIXED          0  -0.0%   0.000       0.000       2.000       2.000       0.000      0.1000E-19   0.000    
    6627   6.627      0.1000E-02 FIXED          0  -0.0%   0.000       0.000       2.000       2.000       0.000      0.1000E-19   0.000    
    6628   6.628      0.1000E-02 FIXED          0   0.0%   0.000       0.000       2.000       2.000       0.000      0.1000E-19   0.000    
    6629   6.629      0.1000E-02 FIXED          0   0.0%   0.000       0.000       2.000       2.000       0.000      0.1000E-19   0.000    
    6630   6.630      0.1000E-02 FIXED          0  -0.0%   0.000       0.000       2.000       2.000       0.000      0.1000E-19   0.000    
    6631   6.631      0.1000E-02 FIXED          0   0.0%   0.000       0.000       2.000       2.000       0.000      0.1000E-19   0.000    
    6632   6.632      0.1000E-02 FIXED          0  -0.0%   0.000       0.000       2.000       2.000       0.000      0.1000E-19   0.000    
    6633   6.633      0.1000E-02 FIXED          0   0.0%   0.000       0.000       2.000       2.000       0.000      0.1000E-19   0.000    
    6634   6.634      0.1000E-02 FIXED          0  -0.0%   0.000       0.000       2.000       2.000       0.000      0.1000E-19   0.000    
    6635   6.635      0.1000E-02 FIXED          0   0.0%   0.000       0.000       2.000       2.000       0.000      0.1000E-19   0.000    
    6636   6.636      0.1000E-02 FIXED          0  -0.0%   0.000       0.000       2.000       2.000       0.000      0.1000E-19   0.000    
    6637   6.637      0.1000E-02 FIXED          0   0.0%   0.000       0.000       2.000       2.000       0.000      0.1000E-19   0.000    
    6638   6.638      0.1000E-02 FIXED          0  -0.0%   0.000       0.000       2.000       2.000       0.000      0.1000E-19   0.000    
    6639   6.639      0.1000E-02 FIXED          0  -0.0%   0.000       0.000       2.000       2.000       0.000      0.1000E-19   0.000    
    6640   6.640      0.1000E-02 FIXED          0  -0.0%   0.000       0.000       2.000       2.000       0.000      0.1000E-19   0.000    
    6641   6.641      0.1000E-02 FIXED          0  -0.0%   0.000       0.000       2.000       2.000       0.000      0.1000E-19   0.000    
    6642   6.642      0.1000E-02 FIXED          0   0.0%   0.000       0.000       2.000       2.000       0.000      0.1000E-19   0.000    
    6643   6.643      0.1000E-02 FIXED          0   0.0%   0.000       0.000       2.000       2.000       0.000      0.1000E-19   0.000    
    6644   6.644      0.1000E-02 FIXED          0   0.0%   0.000       0.000       2.000       2.000       0.000      0.1000E-19   0.000    
    6645   6.645      0.1000E-02 FIXED          0  -0.0%   0.000       0.000       2.000       2.000       0.000      0.1000E-19   0.000    
    6646   6.646      0.1000E-02 FIXED          0   0.0%   0.000       0.000       2.000       2.000       0.000      0.1000E-19   0.000    
    6647   6.647      0.1000E-02 FIXED          0  -0.0%   0.000       0.000       2.000       2.000       0.000      0.1000E-19   0.000    
    6648   6.648      0.1000E-02 FIXED          0   0.0%   0.000       0.000       2.000       2.000       0.000      0.1000E-19   0.000    
    6649   6.649      0.1000E-02 FIXED          0   0.0%   0.000       0.000       2.000       2.000       0.000      0.1000E-19   0.000    
    6650   6.650      0.1000E-02 FIXED          0   0.0%   0.000       0.000       2.000       2.000       0.000      0.1000E-19   0.000    
    6651   6.651      0.1000E-02 FIXED          0   0.0%   0.000       0.000       2.000       2.000       0.000      0.1000E-19   0.000    
    6652   6.652      0.1000E-02 FIXED          0  -0.0%   0.000       0.000       2.000       2.000       0.000      0.1000E-19   0.000    
    6653   6.653      0.1000E-02 FIXED          0  -0.0%   0.000       0.000       2.000       2.000       0.000      0.1000E-19   0.000    
    6654   6.654      0.1000E-02 FIXED          0   0.0%   0.000       0.000       2.000       2.000       0.000      0.1000E-19   0.000    
   CYCLE    TIME      TIME-STEP  ELEMENT          ERROR  I-ENERGY    K-ENERGY T  K-ENERGY R  EXT-WORK     MAS.ERR     TOTAL MASS  MASS ADDED
    6655   6.655      0.1000E-02 FIXED          0   0.0%   0.000       0.000       2.000       2.000       0.000      0.1000E-19   0.000    
    6656   6.656      0.1000E-02 FIXED          0  -0.0%   0.000       0.000       2.000       2.000       0.000      0.1000E-19   0.000    
    6657   6.657      0.1000E-02 FIXED          0  -0.0%   0.000       0.000       2.000       2.000       0.000      0.1000E-19   0.000    
    6658   6.658      0.1000E-02 FIXED          0   0.0%   0.000       0.000       2.000       2.000       0.000      0.1000E-19   0.000    
    6659   6.659      0.1000E-02 FIXED          0   0.0%   0.000       0.000       2.000       2.000       0.000      0.1000E-19   0.000    
    6660   6.660      0.1000E-02 FIXED          0  -0.0%   0.000       0.000       2.000       2.000       0.000      0.1000E-19   0.000    
    6661   6.661      0.1000E-02 FIXED          0   0.0%   0.000       0.000       2.000       2.000       0.000      0.1000E-19   0.000    
    6662   6.662      0.1000E-02 FIXED          0   0.0%   0.000       0.000       2.000       2.000       0.000      0.1000E-19   0.000    
    6663   6.663      0.1000E-02 FIXED          0  -0.0%   0.000       0.000       2.000       2.000       0.000      0.1000E-19   0.000    
    6664   6.664      0.1000E-02 FIXED          0  -0.0%   0.000       0.000       2.000       2.000       0.000      0.1000E-19   0.000    
    6665   6.665      0.1000E-02 FIXED          0   0.0%   0.000       0.000       2.000       2.000       0.000      0.1000E-19   0.000    
    6666   6.666      0.1000E-02 FIXED          0  -0.0%   0.000       0.000       2.000       2.000       0.000      0.1000E-19   0.000    
    6667   6.667      0.1000E-02 FIXED          0   0.0%   0.000       0.000       2.000       2.000       0.000      0.1000E-19   0.000    
    6668   6.668      0.1000E-02 FIXED          0  -0.0%   0.000       0.000       2.000       2.000       0.000      0.1000E-19   0.000    
    6669   6.669      0.1000E-02 FIXED          0   0.0%   0.000       0.000       2.000       2.000       0.000      0.1000E-19   0.000    
    6670   6.670      0.1000E-02 FIXED          0  -0.0%   0.000       0.000       2.000       2.000       0.000      0.1000E-19   0.000    
    6671   6.671      0.1000E-02 FIXED          0  -0.0%   0.000       0.000       2.000       2.000       0.000      0.1000E-19   0.000    
    6672   6.672      0.1000E-02 FIXED          0  -0.0%   0.000       0.000       2.000       2.000       0.000      0.1000E-19   0.000    
    6673   6.673      0.1000E-02 FIXED          0   0.0%   0.000       0.000       2.000       2.000       0.000      0.1000E-19   0.000    
    6674   6.674      0.1000E-02 FIXED          0   0.0%   0.000       0.000       2.000       2.000       0.000      0.1000E-19   0.000    
    6675   6.675      0.1000E-02 FIXED          0  -0.0%   0.000       0.000       2.000       2.000       0.000      0.1000E-19   0.000    
    6676   6.676      0.1000E-02 FIXED          0   0.0%   0.000       0.000       2.000       2.000       0.000      0.1000E-19   0.000    
    6677   6.677      0.1000E-02 FIXED          0   0.0%   0.000       0.000       2.000       2.000       0.000      0.1000E-19   0.000    
    6678   6.678      0.1000E-02 FIXED          0  -0.0%   0.000       0.000       2.000       2.000       0.000      0.1000E-19   0.000    
    6679   6.679      0.1000E-02 FIXED          0   0.0%   0.000       0.000       2.000       2.000       0.000      0.1000E-19   0.000    
    6680   6.680      0.1000E-02 FIXED          0   0.0%   0.000       0.000       2.000       2.000       0.000      0.1000E-19   0.000    
    6681   6.681      0.1000E-02 FIXED          0  -0.0%   0.000       0.000       2.000       2.000       0.000      0.1000E-19   0.000    
    6682   6.682      0.1000E-02 FIXED          0  -0.0%   0.000       0.000       2.000       2.000       0.000      0.1000E-19   0.000    
    6683   6.683      0.1000E-02 FIXED          0   0.0%   0.000       0.000       2.000       2.000       0.000      0.1000E-19   0.000    
    6684   6.684      0.1000E-02 FIXED          0  -0.0%   0.000       0.000       2.000       2.000       0.000      0.1000E-19   0.000    
    6685   6.685      0.1000E-02 FIXED          0   0.0%   0.000       0.000       2.000       2.000       0.000      0.1000E-19   0.000    
    6686   6.686      0.1000E-02 FIXED          0   0.0%   0.000       0.000       2.000       2.000       0.000      0.1000E-19   0.000    
    6687   6.687      0.1000E-02 FIXED          0   0.0%   0.000       0.000       2.000       2.000       0.000      0.1000E-19   0.000    
    6688   6.688      0.1000E-02 FIXED          0  -0.0%   0.000       0.000       2.000       2.000       0.000      0.1000E-19   0.000    
    6689   6.689      0.1000E-02 FIXED          0  -0.0%   0.000       0.000       2.000       2.000       0.000      0.1000E-19   0.000    
    6690   6.690      0.1000E-02 FIXED          0   0.0%   0.000       0.000       2.000       2.000       0.000      0.1000E-19   0.000    
    6691   6.691      0.1000E-02 FIXED          0   0.0%   0.000       0.000       2.000       2.000       0.000      0.1000E-19   0.000    
    6692   6.692      0.1000E-02 FIXED          0  -0.0%   0.000       0.000       2.000       2.000       0.000      0.1000E-19   0.000    
    6693   6.693      0.1000E-02 FIXED          0  -0.0%   0.000       0.000       2.000       2.000       0.000      0.1000E-19   0.000    
    6694   6.694      0.1000E-02 FIXED          0  -0.0%   0.000       0.000       2.000       2.000       0.000      0.1000E-19   0.000    
    6695   6.695      0.1000E-02 FIXED          0   0.0%   0.000       0.000       2.000       2.000       0.000      0.1000E-19   0.000    
    6696   6.696      0.1000E-02 FIXED          0   0.0%   0.000       0.000       2.000       2.000       0.000      0.1000E-19   0.000    
    6697   6.697      0.1000E-02 FIXED          0  -0.0%   0.000       0.000       2.000       2.000       0.000      0.1000E-19   0.000    
    6698   6.698      0.1000E-02 FIXED          0   0.0%   0.000       0.000       2.000       2.000       0.000      0.1000E-19   0.000    
    6699   6.699      0.1000E-02 FIXED          0   0.0%   0.000       0.000       2.000       2.000       0.000      0.1000E-19   0.000    
    6700   6.700      0.1000E-02 FIXED          0  -0.0%   0.000       0.000       2.000       2.000       0.000      0.1000E-19   0.000    
    6701   6.701      0.1000E-02 FIXED          0   0.0%   0.000       0.000       2.000       2.000       0.000      0.1000E-19   0.000    
    6702   6.702      0.1000E-02 FIXED          0   0.0%   0.000       0.000       2.000       2.000       0.000      0.1000E-19   0.000    
    6703   6.703      0.1000E-02 FIXED          0   0.0%   0.000       0.000       2.000       2.000       0.000      0.1000E-19   0.000    
    6704   6.704      0.1000E-02 FIXED          0   0.0%   0.000       0.000       2.000       2.000       0.000      0.1000E-19   0.000    
    6705   6.705      0.1000E-02 FIXED          0   0.0%   0.000       0.000       2.000       2.000       0.000      0.1000E-19   0.000    
    6706   6.706      0.1000E-02 FIXED          0  -0.0%   0.000       0.000       2.000       2.000       0.000      0.1000E-19   0.000    
    6707   6.707      0.1000E-02 FIXED          0  -0.0%   0.000       0.000       2.000       2.000       0.000      0.1000E-19   0.000    
    6708   6.708      0.1000E-02 FIXED          0  -0.0%   0.000       0.000       2.000       2.000       0.000      0.1000E-19   0.000    
    6709   6.709      0.1000E-02 FIXED          0   0.0%   0.000       0.000       2.000       2.000       0.000      0.1000E-19   0.000    
   CYCLE    TIME      TIME-STEP  ELEMENT          ERROR  I-ENERGY    K-ENERGY T  K-ENERGY R  EXT-WORK     MAS.ERR     TOTAL MASS  MASS ADDED
    6710   6.710      0.1000E-02 FIXED          0   0.0%   0.000       0.000       2.000       2.000       0.000      0.1000E-19   0.000    
    6711   6.711      0.1000E-02 FIXED          0   0.0%   0.000       0.000       2.000       2.000       0.000      0.1000E-19   0.000    
    6712   6.712      0.1000E-02 FIXED          0  -0.0%   0.000       0.000       2.000       2.000       0.000      0.1000E-19   0.000    
    6713   6.713      0.1000E-02 FIXED          0  -0.0%   0.000       0.000       2.000       2.000       0.000      0.1000E-19   0.000    
    6714   6.714      0.1000E-02 FIXED          0  -0.0%   0.000       0.000       2.000       2.000       0.000      0.1000E-19   0.000    
    6715   6.715      0.1000E-02 FIXED          0   0.0%   0.000       0.000       2.000       2.000       0.000      0.1000E-19   0.000    
    6716   6.716      0.1000E-02 FIXED          0  -0.0%   0.000       0.000       2.000       2.000       0.000      0.1000E-19   0.000    
    6717   6.717      0.1000E-02 FIXED          0   0.0%   0.000       0.000       2.000       2.000       0.000      0.1000E-19   0.000    
    6718   6.718      0.1000E-02 FIXED          0  -0.0%   0.000       0.000       2.000       2.000       0.000      0.1000E-19   0.000    
    6719   6.719      0.1000E-02 FIXED          0   0.0%   0.000       0.000       2.000       2.000       0.000      0.1000E-19   0.000    
    6720   6.720      0.1000E-02 FIXED          0   0.0%   0.000       0.000       2.000       2.000       0.000      0.1000E-19   0.000    
    6721   6.721      0.1000E-02 FIXED          0  -0.0%   0.000       0.000       2.000       2.000       0.000      0.1000E-19   0.000    
    6722   6.722      0.1000E-02 FIXED          0   0.0%   0.000       0.000       2.000       2.000       0.000      0.1000E-19   0.000    
    6723   6.723      0.1000E-02 FIXED          0  -0.0%   0.000       0.000       2.000       2.000       0.000      0.1000E-19   0.000    
    6724   6.724      0.1000E-02 FIXED          0   0.0%   0.000       0.000       2.000       2.000       0.000      0.1000E-19   0.000    
    6725   6.725      0.1000E-02 FIXED          0   0.0%   0.000       0.000       2.000       2.000       0.000      0.1000E-19   0.000    
    6726   6.726      0.1000E-02 FIXED          0  -0.0%   0.000       0.000       2.000       2.000       0.000      0.1000E-19   0.000    
    6727   6.727      0.1000E-02 FIXED          0   0.0%   0.000       0.000       2.000       2.000       0.000      0.1000E-19   0.000    
    6728   6.728      0.1000E-02 FIXED          0   0.0%   0.000       0.000       2.000       2.000       0.000      0.1000E-19   0.000    
    6729   6.729      0.1000E-02 FIXED          0  -0.0%   0.000       0.000       2.000       2.000       0.000      0.1000E-19   0.000    
    6730   6.730      0.1000E-02 FIXED          0   0.0%   0.000       0.000       2.000       2.000       0.000      0.1000E-19   0.000    
    6731   6.731      0.1000E-02 FIXED          0  -0.0%   0.000       0.000       2.000       2.000       0.000      0.1000E-19   0.000    
    6732   6.732      0.1000E-02 FIXED          0  -0.0%   0.000       0.000       2.000       2.000       0.000      0.1000E-19   0.000    
    6733   6.733      0.1000E-02 FIXED          0   0.0%   0.000       0.000       2.000       2.000       0.000      0.1000E-19   0.000    
    6734   6.734      0.1000E-02 FIXED          0   0.0%   0.000       0.000       2.000       2.000       0.000      0.1000E-19   0.000    
    6735   6.735      0.1000E-02 FIXED          0  -0.0%   0.000       0.000       2.000       2.000       0.000      0.1000E-19   0.000    
    6736   6.736      0.1000E-02 FIXED          0   0.0%   0.000       0.000       2.000       2.000       0.000      0.1000E-19   0.000    
    6737   6.737      0.1000E-02 FIXED          0   0.0%   0.000       0.000       2.000       2.000       0.000      0.1000E-19   0.000    
    6738   6.738      0.1000E-02 FIXED          0   0.0%   0.000       0.000       2.000       2.000       0.000      0.1000E-19   0.000    
    6739   6.739      0.1000E-02 FIXED          0  -0.0%   0.000       0.000       2.000       2.000       0.000      0.1000E-19   0.000    
    6740   6.740      0.1000E-02 FIXED          0   0.0%   0.000       0.000       2.000       2.000       0.000      0.1000E-19   0.000    
    6741   6.741      0.1000E-02 FIXED          0   0.0%   0.000       0.000       2.000       2.000       0.000      0.1000E-19   0.000    
    6742   6.742      0.1000E-02 FIXED          0   0.0%   0.000       0.000       2.000       2.000       0.000      0.1000E-19   0.000    
    6743   6.743      0.1000E-02 FIXED          0  -0.0%   0.000       0.000       2.000       2.000       0.000      0.1000E-19   0.000    
    6744   6.744      0.1000E-02 FIXED          0  -0.0%   0.000       0.000       2.000       2.000       0.000      0.1000E-19   0.000    
    6745   6.745      0.1000E-02 FIXED          0   0.0%   0.000       0.000       2.000       2.000       0.000      0.1000E-19   0.000    
    6746   6.746      0.1000E-02 FIXED          0  -0.0%   0.000       0.000       2.000       2.000       0.000      0.1000E-19   0.000    
    6747   6.747      0.1000E-02 FIXED          0  -0.0%   0.000       0.000       2.000       2.000       0.000      0.1000E-19   0.000    
    6748   6.748      0.1000E-02 FIXED          0   0.0%   0.000       0.000       2.000       2.000       0.000      0.1000E-19   0.000    
    6749   6.749      0.1000E-02 FIXED          0   0.0%   0.000       0.000       2.000       2.000       0.000      0.1000E-19   0.000    
    6750   6.750      0.1000E-02 FIXED          0  -0.0%   0.000       0.000       2.000       2.000       0.000      0.1000E-19   0.000    
    6751   6.751      0.1000E-02 FIXED          0   0.0%   0.000       0.000       2.000       2.000       0.000      0.1000E-19   0.000    
    6752   6.752      0.1000E-02 FIXED          0  -0.0%   0.000       0.000       2.000       2.000       0.000      0.1000E-19   0.000    
    6753   6.753      0.1000E-02 FIXED          0   0.0%   0.000       0.000       2.000       2.000       0.000      0.1000E-19   0.000    
    6754   6.754      0.1000E-02 FIXED          0  -0.0%   0.000       0.000       2.000       2.000       0.000      0.1000E-19   0.000    
    6755   6.755      0.1000E-02 FIXED          0   0.0%   0.000       0.000       2.000       2.000       0.000      0.1000E-19   0.000    
    6756   6.756      0.1000E-02 FIXED          0  -0.0%   0.000       0.000       2.000       2.000       0.000      0.1000E-19   0.000    
    6757   6.757      0.1000E-02 FIXED          0   0.0%   0.000       0.000       2.000       2.000       0.000      0.1000E-19   0.000    
    6758   6.758      0.1000E-02 FIXED          0   0.0%   0.000       0.000       2.000       2.000       0.000      0.1000E-19   0.000    
    6759   6.759      0.1000E-02 FIXED          0   0.0%   0.000       0.000       2.000       2.000       0.000      0.1000E-19   0.000    
    6760   6.760      0.1000E-02 FIXED          0  -0.0%   0.000       0.000       2.000       2.000       0.000      0.1000E-19   0.000    
    6761   6.761      0.1000E-02 FIXED          0   0.0%   0.000       0.000       2.000       2.000       0.000      0.1000E-19   0.000    
    6762   6.762      0.1000E-02 FIXED          0  -0.0%   0.000       0.000       2.000       2.000       0.000      0.1000E-19   0.000    
    6763   6.763      0.1000E-02 FIXED          0   0.0%   0.000       0.000       2.000       2.000       0.000      0.1000E-19   0.000    
    6764   6.764      0.1000E-02 FIXED          0   0.0%   0.000       0.000       2.000       2.000       0.000      0.1000E-19   0.000    
   CYCLE    TIME      TIME-STEP  ELEMENT          ERROR  I-ENERGY    K-ENERGY T  K-ENERGY R  EXT-WORK     MAS.ERR     TOTAL MASS  MASS ADDED
    6765   6.765      0.1000E-02 FIXED          0  -0.0%   0.000       0.000       2.000       2.000       0.000      0.1000E-19   0.000    
    6766   6.766      0.1000E-02 FIXED          0   0.0%   0.000       0.000       2.000       2.000       0.000      0.1000E-19   0.000    
    6767   6.767      0.1000E-02 FIXED          0   0.0%   0.000       0.000       2.000       2.000       0.000      0.1000E-19   0.000    
    6768   6.768      0.1000E-02 FIXED          0  -0.0%   0.000       0.000       2.000       2.000       0.000      0.1000E-19   0.000    
    6769   6.769      0.1000E-02 FIXED          0   0.0%   0.000       0.000       2.000       2.000       0.000      0.1000E-19   0.000    
    6770   6.770      0.1000E-02 FIXED          0   0.0%   0.000       0.000       2.000       2.000       0.000      0.1000E-19   0.000    
    6771   6.771      0.1000E-02 FIXED          0   0.0%   0.000       0.000       2.000       2.000       0.000      0.1000E-19   0.000    
    6772   6.772      0.1000E-02 FIXED          0   0.0%   0.000       0.000       2.000       2.000       0.000      0.1000E-19   0.000    
    6773   6.773      0.1000E-02 FIXED          0   0.0%   0.000       0.000       2.000       2.000       0.000      0.1000E-19   0.000    
    6774   6.774      0.1000E-02 FIXED          0   0.0%   0.000       0.000       2.000       2.000       0.000      0.1000E-19   0.000    
    6775   6.775      0.1000E-02 FIXED          0   0.0%   0.000       0.000       2.000       2.000       0.000      0.1000E-19   0.000    
    6776   6.776      0.1000E-02 FIXED          0   0.0%   0.000       0.000       2.000       2.000       0.000      0.1000E-19   0.000    
    6777   6.777      0.1000E-02 FIXED          0   0.0%   0.000       0.000       2.000       2.000       0.000      0.1000E-19   0.000    
    6778   6.778      0.1000E-02 FIXED          0   0.0%   0.000       0.000       2.000       2.000       0.000      0.1000E-19   0.000    
    6779   6.779      0.1000E-02 FIXED          0  -0.0%   0.000       0.000       2.000       2.000       0.000      0.1000E-19   0.000    
    6780   6.780      0.1000E-02 FIXED          0   0.0%   0.000       0.000       2.000       2.000       0.000      0.1000E-19   0.000    
    6781   6.781      0.1000E-02 FIXED          0  -0.0%   0.000       0.000       2.000       2.000       0.000      0.1000E-19   0.000    
    6782   6.782      0.1000E-02 FIXED          0   0.0%   0.000       0.000       2.000       2.000       0.000      0.1000E-19   0.000    
    6783   6.783      0.1000E-02 FIXED          0  -0.0%   0.000       0.000       2.000       2.000       0.000      0.1000E-19   0.000    
    6784   6.784      0.1000E-02 FIXED          0   0.0%   0.000       0.000       2.000       2.000       0.000      0.1000E-19   0.000    
    6785   6.785      0.1000E-02 FIXED          0   0.0%   0.000       0.000       2.000       2.000       0.000      0.1000E-19   0.000    
    6786   6.786      0.1000E-02 FIXED          0  -0.0%   0.000       0.000       2.000       2.000       0.000      0.1000E-19   0.000    
    6787   6.787      0.1000E-02 FIXED          0   0.0%   0.000       0.000       2.000       2.000       0.000      0.1000E-19   0.000    
    6788   6.788      0.1000E-02 FIXED          0  -0.0%   0.000       0.000       2.000       2.000       0.000      0.1000E-19   0.000    
    6789   6.789      0.1000E-02 FIXED          0   0.0%   0.000       0.000       2.000       2.000       0.000      0.1000E-19   0.000    
    6790   6.790      0.1000E-02 FIXED          0   0.0%   0.000       0.000       2.000       2.000       0.000      0.1000E-19   0.000    
    6791   6.791      0.1000E-02 FIXED          0  -0.0%   0.000       0.000       2.000       2.000       0.000      0.1000E-19   0.000    
    6792   6.792      0.1000E-02 FIXED          0  -0.0%   0.000       0.000       2.000       2.000       0.000      0.1000E-19   0.000    
    6793   6.793      0.1000E-02 FIXED          0   0.0%   0.000       0.000       2.000       2.000       0.000      0.1000E-19   0.000    
    6794   6.794      0.1000E-02 FIXED          0   0.0%   0.000       0.000       2.000       2.000       0.000      0.1000E-19   0.000    
    6795   6.795      0.1000E-02 FIXED          0   0.0%   0.000       0.000       2.000       2.000       0.000      0.1000E-19   0.000    
    6796   6.796      0.1000E-02 FIXED          0   0.0%   0.000       0.000       2.000       2.000       0.000      0.1000E-19   0.000    
    6797   6.797      0.1000E-02 FIXED          0   0.0%   0.000       0.000       2.000       2.000       0.000      0.1000E-19   0.000    
    6798   6.798      0.1000E-02 FIXED          0  -0.0%   0.000       0.000       2.000       2.000       0.000      0.1000E-19   0.000    
    6799   6.799      0.1000E-02 FIXED          0   0.0%   0.000       0.000       2.000       2.000       0.000      0.1000E-19   0.000    
    6800   6.800      0.1000E-02 FIXED          0  -0.0%   0.000       0.000       2.000       2.000       0.000      0.1000E-19   0.000    
    6801   6.801      0.1000E-02 FIXED          0  -0.0%   0.000       0.000       2.000       2.000       0.000      0.1000E-19   0.000    
    6802   6.802      0.1000E-02 FIXED          0   0.0%   0.000       0.000       2.000       2.000       0.000      0.1000E-19   0.000    
    6803   6.803      0.1000E-02 FIXED          0  -0.0%   0.000       0.000       2.000       2.000       0.000      0.1000E-19   0.000    
    6804   6.804      0.1000E-02 FIXED          0   0.0%   0.000       0.000       2.000       2.000       0.000      0.1000E-19   0.000    
    6805   6.805      0.1000E-02 FIXED          0  -0.0%   0.000       0.000       2.000       2.000       0.000      0.1000E-19   0.000    
    6806   6.806      0.1000E-02 FIXED          0  -0.0%   0.000       0.000       2.000       2.000       0.000      0.1000E-19   0.000    
    6807   6.807      0.1000E-02 FIXED          0   0.0%   0.000       0.000       2.000       2.000       0.000      0.1000E-19   0.000    
    6808   6.808      0.1000E-02 FIXED          0   0.0%   0.000       0.000       2.000       2.000       0.000      0.1000E-19   0.000    
    6809   6.809      0.1000E-02 FIXED          0   0.0%   0.000       0.000       2.000       2.000       0.000      0.1000E-19   0.000    
    6810   6.810      0.1000E-02 FIXED          0   0.0%   0.000       0.000       2.000       2.000       0.000      0.1000E-19   0.000    
    6811   6.811      0.1000E-02 FIXED          0   0.0%   0.000       0.000       2.000       2.000       0.000      0.1000E-19   0.000    
    6812   6.812      0.1000E-02 FIXED          0  -0.0%   0.000       0.000       2.000       2.000       0.000      0.1000E-19   0.000    
    6813   6.813      0.1000E-02 FIXED          0   0.0%   0.000       0.000       2.000       2.000       0.000      0.1000E-19   0.000    
    6814   6.814      0.1000E-02 FIXED          0   0.0%   0.000       0.000       2.000       2.000       0.000      0.1000E-19   0.000    
    6815   6.815      0.1000E-02 FIXED          0   0.0%   0.000       0.000       2.000       2.000       0.000      0.1000E-19   0.000    
    6816   6.816      0.1000E-02 FIXED          0  -0.0%   0.000       0.000       2.000       2.000       0.000      0.1000E-19   0.000    
    6817   6.817      0.1000E-02 FIXED          0  -0.0%   0.000       0.000       2.000       2.000       0.000      0.1000E-19   0.000    
    6818   6.818      0.1000E-02 FIXED          0   0.0%   0.000       0.000       2.000       2.000       0.000      0.1000E-19   0.000    
    6819   6.819      0.1000E-02 FIXED          0  -0.0%   0.000       0.000       2.000       2.000       0.000      0.1000E-19   0.000    
   CYCLE    TIME      TIME-STEP  ELEMENT          ERROR  I-ENERGY    K-ENERGY T  K-ENERGY R  EXT-WORK     MAS.ERR     TOTAL MASS  MASS ADDED
    6820   6.820      0.1000E-02 FIXED          0   0.0%   0.000       0.000       2.000       2.000       0.000      0.1000E-19   0.000    
    6821   6.821      0.1000E-02 FIXED          0  -0.0%   0.000       0.000       2.000       2.000       0.000      0.1000E-19   0.000    
    6822   6.822      0.1000E-02 FIXED          0   0.0%   0.000       0.000       2.000       2.000       0.000      0.1000E-19   0.000    
    6823   6.823      0.1000E-02 FIXED          0   0.0%   0.000       0.000       2.000       2.000       0.000      0.1000E-19   0.000    
    6824   6.824      0.1000E-02 FIXED          0   0.0%   0.000       0.000       2.000       2.000       0.000      0.1000E-19   0.000    
    6825   6.825      0.1000E-02 FIXED          0   0.0%   0.000       0.000       2.000       2.000       0.000      0.1000E-19   0.000    
    6826   6.826      0.1000E-02 FIXED          0  -0.0%   0.000       0.000       2.000       2.000       0.000      0.1000E-19   0.000    
    6827   6.827      0.1000E-02 FIXED          0   0.0%   0.000       0.000       2.000       2.000       0.000      0.1000E-19   0.000    
    6828   6.828      0.1000E-02 FIXED          0  -0.0%   0.000       0.000       2.000       2.000       0.000      0.1000E-19   0.000    
    6829   6.829      0.1000E-02 FIXED          0  -0.0%   0.000       0.000       2.000       2.000       0.000      0.1000E-19   0.000    
    6830   6.830      0.1000E-02 FIXED          0   0.0%   0.000       0.000       2.000       2.000       0.000      0.1000E-19   0.000    
    6831   6.831      0.1000E-02 FIXED          0  -0.0%   0.000       0.000       2.000       2.000       0.000      0.1000E-19   0.000    
    6832   6.832      0.1000E-02 FIXED          0   0.0%   0.000       0.000       2.000       2.000       0.000      0.1000E-19   0.000    
    6833   6.833      0.1000E-02 FIXED          0   0.0%   0.000       0.000       2.000       2.000       0.000      0.1000E-19   0.000    
    6834   6.834      0.1000E-02 FIXED          0   0.0%   0.000       0.000       2.000       2.000       0.000      0.1000E-19   0.000    
    6835   6.835      0.1000E-02 FIXED          0  -0.0%   0.000       0.000       2.000       2.000       0.000      0.1000E-19   0.000    
    6836   6.836      0.1000E-02 FIXED          0  -0.0%   0.000       0.000       2.000       2.000       0.000      0.1000E-19   0.000    
    6837   6.837      0.1000E-02 FIXED          0   0.0%   0.000       0.000       2.000       2.000       0.000      0.1000E-19   0.000    
    6838   6.838      0.1000E-02 FIXED          0  -0.0%   0.000       0.000       2.000       2.000       0.000      0.1000E-19   0.000    
    6839   6.839      0.1000E-02 FIXED          0   0.0%   0.000       0.000       2.000       2.000       0.000      0.1000E-19   0.000    
    6840   6.840      0.1000E-02 FIXED          0  -0.0%   0.000       0.000       2.000       2.000       0.000      0.1000E-19   0.000    
    6841   6.841      0.1000E-02 FIXED          0   0.0%   0.000       0.000       2.000       2.000       0.000      0.1000E-19   0.000    
    6842   6.842      0.1000E-02 FIXED          0  -0.0%   0.000       0.000       2.000       2.000       0.000      0.1000E-19   0.000    
    6843   6.843      0.1000E-02 FIXED          0   0.0%   0.000       0.000       2.000       2.000       0.000      0.1000E-19   0.000    
    6844   6.844      0.1000E-02 FIXED          0  -0.0%   0.000       0.000       2.000       2.000       0.000      0.1000E-19   0.000    
    6845   6.845      0.1000E-02 FIXED          0   0.0%   0.000       0.000       2.000       2.000       0.000      0.1000E-19   0.000    
    6846   6.846      0.1000E-02 FIXED          0  -0.0%   0.000       0.000       2.000       2.000       0.000      0.1000E-19   0.000    
    6847   6.847      0.1000E-02 FIXED          0   0.0%   0.000       0.000       2.000       2.000       0.000      0.1000E-19   0.000    
    6848   6.848      0.1000E-02 FIXED          0   0.0%   0.000       0.000       2.000       2.000       0.000      0.1000E-19   0.000    
    6849   6.849      0.1000E-02 FIXED          0  -0.0%   0.000       0.000       2.000       2.000       0.000      0.1000E-19   0.000    
    6850   6.850      0.1000E-02 FIXED          0  -0.0%   0.000       0.000       2.000       2.000       0.000      0.1000E-19   0.000    
    6851   6.851      0.1000E-02 FIXED          0   0.0%   0.000       0.000       2.000       2.000       0.000      0.1000E-19   0.000    
    6852   6.852      0.1000E-02 FIXED          0   0.0%   0.000       0.000       2.000       2.000       0.000      0.1000E-19   0.000    
    6853   6.853      0.1000E-02 FIXED          0   0.0%   0.000       0.000       2.000       2.000       0.000      0.1000E-19   0.000    
    6854   6.854      0.1000E-02 FIXED          0  -0.0%   0.000       0.000       2.000       2.000       0.000      0.1000E-19   0.000    
    6855   6.855      0.1000E-02 FIXED          0   0.0%   0.000       0.000       2.000       2.000       0.000      0.1000E-19   0.000    
    6856   6.856      0.1000E-02 FIXED          0   0.0%   0.000       0.000       2.000       2.000       0.000      0.1000E-19   0.000    
    6857   6.857      0.1000E-02 FIXED          0  -0.0%   0.000       0.000       2.000       2.000       0.000      0.1000E-19   0.000    
    6858   6.858      0.1000E-02 FIXED          0  -0.0%   0.000       0.000       2.000       2.000       0.000      0.1000E-19   0.000    
    6859   6.859      0.1000E-02 FIXED          0   0.0%   0.000       0.000       2.000       2.000       0.000      0.1000E-19   0.000    
    6860   6.860      0.1000E-02 FIXED          0  -0.0%   0.000       0.000       2.000       2.000       0.000      0.1000E-19   0.000    
    6861   6.861      0.1000E-02 FIXED          0   0.0%   0.000       0.000       2.000       2.000       0.000      0.1000E-19   0.000    
    6862   6.862      0.1000E-02 FIXED          0  -0.0%   0.000       0.000       2.000       2.000       0.000      0.1000E-19   0.000    
    6863   6.863      0.1000E-02 FIXED          0   0.0%   0.000       0.000       2.000       2.000       0.000      0.1000E-19   0.000    
    6864   6.864      0.1000E-02 FIXED          0  -0.0%   0.000       0.000       2.000       2.000       0.000      0.1000E-19   0.000    
    6865   6.865      0.1000E-02 FIXED          0  -0.0%   0.000       0.000       2.000       2.000       0.000      0.1000E-19   0.000    
    6866   6.866      0.1000E-02 FIXED          0   0.0%   0.000       0.000       2.000       2.000       0.000      0.1000E-19   0.000    
    6867   6.867      0.1000E-02 FIXED          0  -0.0%   0.000       0.000       2.000       2.000       0.000      0.1000E-19   0.000    
    6868   6.868      0.1000E-02 FIXED          0   0.0%   0.000       0.000       2.000       2.000       0.000      0.1000E-19   0.000    
    6869   6.869      0.1000E-02 FIXED          0  -0.0%   0.000       0.000       2.000       2.000       0.000      0.1000E-19   0.000    
    6870   6.870      0.1000E-02 FIXED          0   0.0%   0.000       0.000       2.000       2.000       0.000      0.1000E-19   0.000    
    6871   6.871      0.1000E-02 FIXED          0  -0.0%   0.000       0.000       2.000       2.000       0.000      0.1000E-19   0.000    
    6872   6.872      0.1000E-02 FIXED          0   0.0%   0.000       0.000       2.000       2.000       0.000      0.1000E-19   0.000    
    6873   6.873      0.1000E-02 FIXED          0  -0.0%   0.000       0.000       2.000       2.000       0.000      0.1000E-19   0.000    
    6874   6.874      0.1000E-02 FIXED          0   0.0%   0.000       0.000       2.000       2.000       0.000      0.1000E-19   0.000    
   CYCLE    TIME      TIME-STEP  ELEMENT          ERROR  I-ENERGY    K-ENERGY T  K-ENERGY R  EXT-WORK     MAS.ERR     TOTAL MASS  MASS ADDED
    6875   6.875      0.1000E-02 FIXED          0   0.0%   0.000       0.000       2.000       2.000       0.000      0.1000E-19   0.000    
    6876   6.876      0.1000E-02 FIXED          0   0.0%   0.000       0.000       2.000       2.000       0.000      0.1000E-19   0.000    
    6877   6.877      0.1000E-02 FIXED          0   0.0%   0.000       0.000       2.000       2.000       0.000      0.1000E-19   0.000    
    6878   6.878      0.1000E-02 FIXED          0   0.0%   0.000       0.000       2.000       2.000       0.000      0.1000E-19   0.000    
    6879   6.879      0.1000E-02 FIXED          0   0.0%   0.000       0.000       2.000       2.000       0.000      0.1000E-19   0.000    
    6880   6.880      0.1000E-02 FIXED          0  -0.0%   0.000       0.000       2.000       2.000       0.000      0.1000E-19   0.000    
    6881   6.881      0.1000E-02 FIXED          0   0.0%   0.000       0.000       2.000       2.000       0.000      0.1000E-19   0.000    
    6882   6.882      0.1000E-02 FIXED          0   0.0%   0.000       0.000       2.000       2.000       0.000      0.1000E-19   0.000    
    6883   6.883      0.1000E-02 FIXED          0   0.0%   0.000       0.000       2.000       2.000       0.000      0.1000E-19   0.000    
    6884   6.884      0.1000E-02 FIXED          0   0.0%   0.000       0.000       2.000       2.000       0.000      0.1000E-19   0.000    
    6885   6.885      0.1000E-02 FIXED          0  -0.0%   0.000       0.000       2.000       2.000       0.000      0.1000E-19   0.000    
    6886   6.886      0.1000E-02 FIXED          0   0.0%   0.000       0.000       2.000       2.000       0.000      0.1000E-19   0.000    
    6887   6.887      0.1000E-02 FIXED          0   0.0%   0.000       0.000       2.000       2.000       0.000      0.1000E-19   0.000    
    6888   6.888      0.1000E-02 FIXED          0   0.0%   0.000       0.000       2.000       2.000       0.000      0.1000E-19   0.000    
    6889   6.889      0.1000E-02 FIXED          0  -0.0%   0.000       0.000       2.000       2.000       0.000      0.1000E-19   0.000    
    6890   6.890      0.1000E-02 FIXED          0  -0.0%   0.000       0.000       2.000       2.000       0.000      0.1000E-19   0.000    
    6891   6.891      0.1000E-02 FIXED          0   0.0%   0.000       0.000       2.000       2.000       0.000      0.1000E-19   0.000    
    6892   6.892      0.1000E-02 FIXED          0   0.0%   0.000       0.000       2.000       2.000       0.000      0.1000E-19   0.000    
    6893   6.893      0.1000E-02 FIXED          0   0.0%   0.000       0.000       2.000       2.000       0.000      0.1000E-19   0.000    
    6894   6.894      0.1000E-02 FIXED          0   0.0%   0.000       0.000       2.000       2.000       0.000      0.1000E-19   0.000    
    6895   6.895      0.1000E-02 FIXED          0  -0.0%   0.000       0.000       2.000       2.000       0.000      0.1000E-19   0.000    
    6896   6.896      0.1000E-02 FIXED          0   0.0%   0.000       0.000       2.000       2.000       0.000      0.1000E-19   0.000    
    6897   6.897      0.1000E-02 FIXED          0  -0.0%   0.000       0.000       2.000       2.000       0.000      0.1000E-19   0.000    
    6898   6.898      0.1000E-02 FIXED          0  -0.0%   0.000       0.000       2.000       2.000       0.000      0.1000E-19   0.000    
    6899   6.899      0.1000E-02 FIXED          0   0.0%   0.000       0.000       2.000       2.000       0.000      0.1000E-19   0.000    
    6900   6.900      0.1000E-02 FIXED          0  -0.0%   0.000       0.000       2.000       2.000       0.000      0.1000E-19   0.000    
    6901   6.901      0.1000E-02 FIXED          0   0.0%   0.000       0.000       2.000       2.000       0.000      0.1000E-19   0.000    
    6902   6.902      0.1000E-02 FIXED          0   0.0%   0.000       0.000       2.000       2.000       0.000      0.1000E-19   0.000    
    6903   6.903      0.1000E-02 FIXED          0  -0.0%   0.000       0.000       2.000       2.000       0.000      0.1000E-19   0.000    
    6904   6.904      0.1000E-02 FIXED          0  -0.0%   0.000       0.000       2.000       2.000       0.000      0.1000E-19   0.000    
    6905   6.905      0.1000E-02 FIXED          0   0.0%   0.000       0.000       2.000       2.000       0.000      0.1000E-19   0.000    
    6906   6.906      0.1000E-02 FIXED          0   0.0%   0.000       0.000       2.000       2.000       0.000      0.1000E-19   0.000    
    6907   6.907      0.1000E-02 FIXED          0   0.0%   0.000       0.000       2.000       2.000       0.000      0.1000E-19   0.000    
    6908   6.908      0.1000E-02 FIXED          0  -0.0%   0.000       0.000       2.000       2.000       0.000      0.1000E-19   0.000    
    6909   6.909      0.1000E-02 FIXED          0   0.0%   0.000       0.000       2.000       2.000       0.000      0.1000E-19   0.000    
    6910   6.910      0.1000E-02 FIXED          0   0.0%   0.000       0.000       2.000       2.000       0.000      0.1000E-19   0.000    
    6911   6.911      0.1000E-02 FIXED          0  -0.0%   0.000       0.000       2.000       2.000       0.000      0.1000E-19   0.000    
    6912   6.912      0.1000E-02 FIXED          0   0.0%   0.000       0.000       2.000       2.000       0.000      0.1000E-19   0.000    
    6913   6.913      0.1000E-02 FIXED          0   0.0%   0.000       0.000       2.000       2.000       0.000      0.1000E-19   0.000    
    6914   6.914      0.1000E-02 FIXED          0   0.0%   0.000       0.000       2.000       2.000       0.000      0.1000E-19   0.000    
    6915   6.915      0.1000E-02 FIXED          0   0.0%   0.000       0.000       2.000       2.000       0.000      0.1000E-19   0.000    
    6916   6.916      0.1000E-02 FIXED          0  -0.0%   0.000       0.000       2.000       2.000       0.000      0.1000E-19   0.000    
    6917   6.917      0.1000E-02 FIXED          0  -0.0%   0.000       0.000       2.000       2.000       0.000      0.1000E-19   0.000    
    6918   6.918      0.1000E-02 FIXED          0   0.0%   0.000       0.000       2.000       2.000       0.000      0.1000E-19   0.000    
    6919   6.919      0.1000E-02 FIXED          0  -0.0%   0.000       0.000       2.000       2.000       0.000      0.1000E-19   0.000    
    6920   6.920      0.1000E-02 FIXED          0  -0.0%   0.000       0.000       2.000       2.000       0.000      0.1000E-19   0.000    
    6921   6.921      0.1000E-02 FIXED          0   0.0%   0.000       0.000       2.000       2.000       0.000      0.1000E-19   0.000    
    6922   6.922      0.1000E-02 FIXED          0   0.0%   0.000       0.000       2.000       2.000       0.000      0.1000E-19   0.000    
    6923   6.923      0.1000E-02 FIXED          0   0.0%   0.000       0.000       2.000       2.000       0.000      0.1000E-19   0.000    
    6924   6.924      0.1000E-02 FIXED          0   0.0%   0.000       0.000       2.000       2.000       0.000      0.1000E-19   0.000    
    6925   6.925      0.1000E-02 FIXED          0  -0.0%   0.000       0.000       2.000       2.000       0.000      0.1000E-19   0.000    
    6926   6.926      0.1000E-02 FIXED          0   0.0%   0.000       0.000       2.000       2.000       0.000      0.1000E-19   0.000    
    6927   6.927      0.1000E-02 FIXED          0   0.0%   0.000       0.000       2.000       2.000       0.000      0.1000E-19   0.000    
    6928   6.928      0.1000E-02 FIXED          0  -0.0%   0.000       0.000       2.000       2.000       0.000      0.1000E-19   0.000    
    6929   6.929      0.1000E-02 FIXED          0  -0.0%   0.000       0.000       2.000       2.000       0.000      0.1000E-19   0.000    
   CYCLE    TIME      TIME-STEP  ELEMENT          ERROR  I-ENERGY    K-ENERGY T  K-ENERGY R  EXT-WORK     MAS.ERR     TOTAL MASS  MASS ADDED
    6930   6.930      0.1000E-02 FIXED          0   0.0%   0.000       0.000       2.000       2.000       0.000      0.1000E-19   0.000    
    6931   6.931      0.1000E-02 FIXED          0  -0.0%   0.000       0.000       2.000       2.000       0.000      0.1000E-19   0.000    
    6932   6.932      0.1000E-02 FIXED          0  -0.0%   0.000       0.000       2.000       2.000       0.000      0.1000E-19   0.000    
    6933   6.933      0.1000E-02 FIXED          0   0.0%   0.000       0.000       2.000       2.000       0.000      0.1000E-19   0.000    
    6934   6.934      0.1000E-02 FIXED          0  -0.0%   0.000       0.000       2.000       2.000       0.000      0.1000E-19   0.000    
    6935   6.935      0.1000E-02 FIXED          0   0.0%   0.000       0.000       2.000       2.000       0.000      0.1000E-19   0.000    
    6936   6.936      0.1000E-02 FIXED          0   0.0%   0.000       0.000       2.000       2.000       0.000      0.1000E-19   0.000    
    6937   6.937      0.1000E-02 FIXED          0  -0.0%   0.000       0.000       2.000       2.000       0.000      0.1000E-19   0.000    
    6938   6.938      0.1000E-02 FIXED          0   0.0%   0.000       0.000       2.000       2.000       0.000      0.1000E-19   0.000    
    6939   6.939      0.1000E-02 FIXED          0   0.0%   0.000       0.000       2.000       2.000       0.000      0.1000E-19   0.000    
    6940   6.940      0.1000E-02 FIXED          0   0.0%   0.000       0.000       2.000       2.000       0.000      0.1000E-19   0.000    
    6941   6.941      0.1000E-02 FIXED          0  -0.0%   0.000       0.000       2.000       2.000       0.000      0.1000E-19   0.000    
    6942   6.942      0.1000E-02 FIXED          0   0.0%   0.000       0.000       2.000       2.000       0.000      0.1000E-19   0.000    
    6943   6.943      0.1000E-02 FIXED          0   0.0%   0.000       0.000       2.000       2.000       0.000      0.1000E-19   0.000    
    6944   6.944      0.1000E-02 FIXED          0   0.0%   0.000       0.000       2.000       2.000       0.000      0.1000E-19   0.000    
    6945   6.945      0.1000E-02 FIXED          0   0.0%   0.000       0.000       2.000       2.000       0.000      0.1000E-19   0.000    
    6946   6.946      0.1000E-02 FIXED          0  -0.0%   0.000       0.000       2.000       2.000       0.000      0.1000E-19   0.000    
    6947   6.947      0.1000E-02 FIXED          0   0.0%   0.000       0.000       2.000       2.000       0.000      0.1000E-19   0.000    
    6948   6.948      0.1000E-02 FIXED          0  -0.0%   0.000       0.000       2.000       2.000       0.000      0.1000E-19   0.000    
    6949   6.949      0.1000E-02 FIXED          0   0.0%   0.000       0.000       2.000       2.000       0.000      0.1000E-19   0.000    
    6950   6.950      0.1000E-02 FIXED          0   0.0%   0.000       0.000       2.000       2.000       0.000      0.1000E-19   0.000    
    6951   6.951      0.1000E-02 FIXED          0  -0.0%   0.000       0.000       2.000       2.000       0.000      0.1000E-19   0.000    
    6952   6.952      0.1000E-02 FIXED          0   0.0%   0.000       0.000       2.000       2.000       0.000      0.1000E-19   0.000    
    6953   6.953      0.1000E-02 FIXED          0  -0.0%   0.000       0.000       2.000       2.000       0.000      0.1000E-19   0.000    
    6954   6.954      0.1000E-02 FIXED          0   0.0%   0.000       0.000       2.000       2.000       0.000      0.1000E-19   0.000    
    6955   6.955      0.1000E-02 FIXED          0  -0.0%   0.000       0.000       2.000       2.000       0.000      0.1000E-19   0.000    
    6956   6.956      0.1000E-02 FIXED          0   0.0%   0.000       0.000       2.000       2.000       0.000      0.1000E-19   0.000    
    6957   6.957      0.1000E-02 FIXED          0  -0.0%   0.000       0.000       2.000       2.000       0.000      0.1000E-19   0.000    
    6958   6.958      0.1000E-02 FIXED          0  -0.0%   0.000       0.000       2.000       2.000       0.000      0.1000E-19   0.000    
    6959   6.959      0.1000E-02 FIXED          0  -0.0%   0.000       0.000       2.000       2.000       0.000      0.1000E-19   0.000    
    6960   6.960      0.1000E-02 FIXED          0  -0.0%   0.000       0.000       2.000       2.000       0.000      0.1000E-19   0.000    
    6961   6.961      0.1000E-02 FIXED          0   0.0%   0.000       0.000       2.000       2.000       0.000      0.1000E-19   0.000    
    6962   6.962      0.1000E-02 FIXED          0   0.0%   0.000       0.000       2.000       2.000       0.000      0.1000E-19   0.000    
    6963   6.963      0.1000E-02 FIXED          0  -0.0%   0.000       0.000       2.000       2.000       0.000      0.1000E-19   0.000    
    6964   6.964      0.1000E-02 FIXED          0   0.0%   0.000       0.000       2.000       2.000       0.000      0.1000E-19   0.000    
    6965   6.965      0.1000E-02 FIXED          0   0.0%   0.000       0.000       2.000       2.000       0.000      0.1000E-19   0.000    
    6966   6.966      0.1000E-02 FIXED          0   0.0%   0.000       0.000       2.000       2.000       0.000      0.1000E-19   0.000    
    6967   6.967      0.1000E-02 FIXED          0  -0.0%   0.000       0.000       2.000       2.000       0.000      0.1000E-19   0.000    
    6968   6.968      0.1000E-02 FIXED          0  -0.0%   0.000       0.000       2.000       2.000       0.000      0.1000E-19   0.000    
    6969   6.969      0.1000E-02 FIXED          0   0.0%   0.000       0.000       2.000       2.000       0.000      0.1000E-19   0.000    
    6970   6.970      0.1000E-02 FIXED          0  -0.0%   0.000       0.000       2.000       2.000       0.000      0.1000E-19   0.000    
    6971   6.971      0.1000E-02 FIXED          0  -0.0%   0.000       0.000       2.000       2.000       0.000      0.1000E-19   0.000    
    6972   6.972      0.1000E-02 FIXED          0   0.0%   0.000       0.000       2.000       2.000       0.000      0.1000E-19   0.000    
    6973   6.973      0.1000E-02 FIXED          0  -0.0%   0.000       0.000       2.000       2.000       0.000      0.1000E-19   0.000    
    6974   6.974      0.1000E-02 FIXED          0   0.0%   0.000       0.000       2.000       2.000       0.000      0.1000E-19   0.000    
    6975   6.975      0.1000E-02 FIXED          0  -0.0%   0.000       0.000       2.000       2.000       0.000      0.1000E-19   0.000    
    6976   6.976      0.1000E-02 FIXED          0   0.0%   0.000       0.000       2.000       2.000       0.000      0.1000E-19   0.000    
    6977   6.977      0.1000E-02 FIXED          0   0.0%   0.000       0.000       2.000       2.000       0.000      0.1000E-19   0.000    
    6978   6.978      0.1000E-02 FIXED          0  -0.0%   0.000       0.000       2.000       2.000       0.000      0.1000E-19   0.000    
    6979   6.979      0.1000E-02 FIXED          0   0.0%   0.000       0.000       2.000       2.000       0.000      0.1000E-19   0.000    
    6980   6.980      0.1000E-02 FIXED          0  -0.0%   0.000       0.000       2.000       2.000       0.000      0.1000E-19   0.000    
    6981   6.981      0.1000E-02 FIXED          0   0.0%   0.000       0.000       2.000       2.000       0.000      0.1000E-19   0.000    
    6982   6.982      0.1000E-02 FIXED          0   0.0%   0.000       0.000       2.000       2.000       0.000      0.1000E-19   0.000    
    6983   6.983      0.1000E-02 FIXED          0  -0.0%   0.000       0.000       2.000       2.000       0.000      0.1000E-19   0.000    
    6984   6.984      0.1000E-02 FIXED          0  -0.0%   0.000       0.000       2.000       2.000       0.000      0.1000E-19   0.000    
   CYCLE    TIME      TIME-STEP  ELEMENT          ERROR  I-ENERGY    K-ENERGY T  K-ENERGY R  EXT-WORK     MAS.ERR     TOTAL MASS  MASS ADDED
    6985   6.985      0.1000E-02 FIXED          0  -0.0%   0.000       0.000       2.000       2.000       0.000      0.1000E-19   0.000    
    6986   6.986      0.1000E-02 FIXED          0   0.0%   0.000       0.000       2.000       2.000       0.000      0.1000E-19   0.000    
    6987   6.987      0.1000E-02 FIXED          0   0.0%   0.000       0.000       2.000       2.000       0.000      0.1000E-19   0.000    
    6988   6.988      0.1000E-02 FIXED          0  -0.0%   0.000       0.000       2.000       2.000       0.000      0.1000E-19   0.000    
    6989   6.989      0.1000E-02 FIXED          0   0.0%   0.000       0.000       2.000       2.000       0.000      0.1000E-19   0.000    
    6990   6.990      0.1000E-02 FIXED          0   0.0%   0.000       0.000       2.000       2.000       0.000      0.1000E-19   0.000    
    6991   6.991      0.1000E-02 FIXED          0  -0.0%   0.000       0.000       2.000       2.000       0.000      0.1000E-19   0.000    
    6992   6.992      0.1000E-02 FIXED          0   0.0%   0.000       0.000       2.000       2.000       0.000      0.1000E-19   0.000    
    6993   6.993      0.1000E-02 FIXED          0  -0.0%   0.000       0.000       2.000       2.000       0.000      0.1000E-19   0.000    
    6994   6.994      0.1000E-02 FIXED          0  -0.0%   0.000       0.000       2.000       2.000       0.000      0.1000E-19   0.000    
    6995   6.995      0.1000E-02 FIXED          0   0.0%   0.000       0.000       2.000       2.000       0.000      0.1000E-19   0.000    
    6996   6.996      0.1000E-02 FIXED          0   0.0%   0.000       0.000       2.000       2.000       0.000      0.1000E-19   0.000    
    6997   6.997      0.1000E-02 FIXED          0  -0.0%   0.000       0.000       2.000       2.000       0.000      0.1000E-19   0.000    
    6998   6.998      0.1000E-02 FIXED          0   0.0%   0.000       0.000       2.000       2.000       0.000      0.1000E-19   0.000    
    6999   6.999      0.1000E-02 FIXED          0   0.0%   0.000       0.000       2.000       2.000       0.000      0.1000E-19   0.000    
    7000   7.000      0.1000E-02 FIXED          0  -0.0%   0.000       0.000       2.000       2.000       0.000      0.1000E-19   0.000    
     ANIMATION FILE: BLOCKA008 WRITTEN
    7001   7.001      0.1000E-02 FIXED          0  -0.0%   0.000       0.000       2.000       2.000       0.000      0.1000E-19   0.000    
    7002   7.002      0.1000E-02 FIXED          0  -0.0%   0.000       0.000       2.000       2.000       0.000      0.1000E-19   0.000    
    7003   7.003      0.1000E-02 FIXED          0  -0.0%   0.000       0.000       2.000       2.000       0.000      0.1000E-19   0.000    
    7004   7.004      0.1000E-02 FIXED          0   0.0%   0.000       0.000       2.000       2.000       0.000      0.1000E-19   0.000    
    7005   7.005      0.1000E-02 FIXED          0  -0.0%   0.000       0.000       2.000       2.000       0.000      0.1000E-19   0.000    
    7006   7.006      0.1000E-02 FIXED          0   0.0%   0.000       0.000       2.000       2.000       0.000      0.1000E-19   0.000    
    7007   7.007      0.1000E-02 FIXED          0  -0.0%   0.000       0.000       2.000       2.000       0.000      0.1000E-19   0.000    
    7008   7.008      0.1000E-02 FIXED          0   0.0%   0.000       0.000       2.000       2.000       0.000      0.1000E-19   0.000    
    7009   7.009      0.1000E-02 FIXED          0  -0.0%   0.000       0.000       2.000       2.000       0.000      0.1000E-19   0.000    
    7010   7.010      0.1000E-02 FIXED          0  -0.0%   0.000       0.000       2.000       2.000       0.000      0.1000E-19   0.000    
    7011   7.011      0.1000E-02 FIXED          0   0.0%   0.000       0.000       2.000       2.000       0.000      0.1000E-19   0.000    
    7012   7.012      0.1000E-02 FIXED          0  -0.0%   0.000       0.000       2.000       2.000       0.000      0.1000E-19   0.000    
    7013   7.013      0.1000E-02 FIXED          0   0.0%   0.000       0.000       2.000       2.000       0.000      0.1000E-19   0.000    
    7014   7.014      0.1000E-02 FIXED          0   0.0%   0.000       0.000       2.000       2.000       0.000      0.1000E-19   0.000    
    7015   7.015      0.1000E-02 FIXED          0   0.0%   0.000       0.000       2.000       2.000       0.000      0.1000E-19   0.000    
    7016   7.016      0.1000E-02 FIXED          0  -0.0%   0.000       0.000       2.000       2.000       0.000      0.1000E-19   0.000    
    7017   7.017      0.1000E-02 FIXED          0  -0.0%   0.000       0.000       2.000       2.000       0.000      0.1000E-19   0.000    
    7018   7.018      0.1000E-02 FIXED          0  -0.0%   0.000       0.000       2.000       2.000       0.000      0.1000E-19   0.000    
    7019   7.019      0.1000E-02 FIXED          0   0.0%   0.000       0.000       2.000       2.000       0.000      0.1000E-19   0.000    
    7020   7.020      0.1000E-02 FIXED          0  -0.0%   0.000       0.000       2.000       2.000       0.000      0.1000E-19   0.000    
    7021   7.021      0.1000E-02 FIXED          0   0.0%   0.000       0.000       2.000       2.000       0.000      0.1000E-19   0.000    
    7022   7.022      0.1000E-02 FIXED          0   0.0%   0.000       0.000       2.000       2.000       0.000      0.1000E-19   0.000    
    7023   7.023      0.1000E-02 FIXED          0  -0.0%   0.000       0.000       2.000       2.000       0.000      0.1000E-19   0.000    
    7024   7.024      0.1000E-02 FIXED          0  -0.0%   0.000       0.000       2.000       2.000       0.000      0.1000E-19   0.000    
    7025   7.025      0.1000E-02 FIXED          0   0.0%   0.000       0.000       2.000       2.000       0.000      0.1000E-19   0.000    
    7026   7.026      0.1000E-02 FIXED          0   0.0%   0.000       0.000       2.000       2.000       0.000      0.1000E-19   0.000    
    7027   7.027      0.1000E-02 FIXED          0  -0.0%   0.000       0.000       2.000       2.000       0.000      0.1000E-19   0.000    
    7028   7.028      0.1000E-02 FIXED          0   0.0%   0.000       0.000       2.000       2.000       0.000      0.1000E-19   0.000    
    7029   7.029      0.1000E-02 FIXED          0  -0.0%   0.000       0.000       2.000       2.000       0.000      0.1000E-19   0.000    
    7030   7.030      0.1000E-02 FIXED          0   0.0%   0.000       0.000       2.000       2.000       0.000      0.1000E-19   0.000    
    7031   7.031      0.1000E-02 FIXED          0   0.0%   0.000       0.000       2.000       2.000       0.000      0.1000E-19   0.000    
    7032   7.032      0.1000E-02 FIXED          0   0.0%   0.000       0.000       2.000       2.000       0.000      0.1000E-19   0.000    
    7033   7.033      0.1000E-02 FIXED          0  -0.0%   0.000       0.000       2.000       2.000       0.000      0.1000E-19   0.000    
    7034   7.034      0.1000E-02 FIXED          0   0.0%   0.000       0.000       2.000       2.000       0.000      0.1000E-19   0.000    
    7035   7.035      0.1000E-02 FIXED          0  -0.0%   0.000       0.000       2.000       2.000       0.000      0.1000E-19   0.000    
    7036   7.036      0.1000E-02 FIXED          0   0.0%   0.000       0.000       2.000       2.000       0.000      0.1000E-19   0.000    
    7037   7.037      0.1000E-02 FIXED          0   0.0%   0.000       0.000       2.000       2.000       0.000      0.1000E-19   0.000    
    7038   7.038      0.1000E-02 FIXED          0   0.0%   0.000       0.000       2.000       2.000       0.000      0.1000E-19   0.000    
    7039   7.039      0.1000E-02 FIXED          0  -0.0%   0.000       0.000       2.000       2.000       0.000      0.1000E-19   0.000    
   CYCLE    TIME      TIME-STEP  ELEMENT          ERROR  I-ENERGY    K-ENERGY T  K-ENERGY R  EXT-WORK     MAS.ERR     TOTAL MASS  MASS ADDED
    7040   7.040      0.1000E-02 FIXED          0   0.0%   0.000       0.000       2.000       2.000       0.000      0.1000E-19   0.000    
    7041   7.041      0.1000E-02 FIXED          0   0.0%   0.000       0.000       2.000       2.000       0.000      0.1000E-19   0.000    
    7042   7.042      0.1000E-02 FIXED          0  -0.0%   0.000       0.000       2.000       2.000       0.000      0.1000E-19   0.000    
    7043   7.043      0.1000E-02 FIXED          0  -0.0%   0.000       0.000       2.000       2.000       0.000      0.1000E-19   0.000    
    7044   7.044      0.1000E-02 FIXED          0   0.0%   0.000       0.000       2.000       2.000       0.000      0.1000E-19   0.000    
    7045   7.045      0.1000E-02 FIXED          0   0.0%   0.000       0.000       2.000       2.000       0.000      0.1000E-19   0.000    
    7046   7.046      0.1000E-02 FIXED          0   0.0%   0.000       0.000       2.000       2.000       0.000      0.1000E-19   0.000    
    7047   7.047      0.1000E-02 FIXED          0  -0.0%   0.000       0.000       2.000       2.000       0.000      0.1000E-19   0.000    
    7048   7.048      0.1000E-02 FIXED          0   0.0%   0.000       0.000       2.000       2.000       0.000      0.1000E-19   0.000    
    7049   7.049      0.1000E-02 FIXED          0   0.0%   0.000       0.000       2.000       2.000       0.000      0.1000E-19   0.000    
    7050   7.050      0.1000E-02 FIXED          0  -0.0%   0.000       0.000       2.000       2.000       0.000      0.1000E-19   0.000    
    7051   7.051      0.1000E-02 FIXED          0   0.0%   0.000       0.000       2.000       2.000       0.000      0.1000E-19   0.000    
    7052   7.052      0.1000E-02 FIXED          0  -0.0%   0.000       0.000       2.000       2.000       0.000      0.1000E-19   0.000    
    7053   7.053      0.1000E-02 FIXED          0  -0.0%   0.000       0.000       2.000       2.000       0.000      0.1000E-19   0.000    
    7054   7.054      0.1000E-02 FIXED          0  -0.0%   0.000       0.000       2.000       2.000       0.000      0.1000E-19   0.000    
    7055   7.055      0.1000E-02 FIXED          0   0.0%   0.000       0.000       2.000       2.000       0.000      0.1000E-19   0.000    
    7056   7.056      0.1000E-02 FIXED          0   0.0%   0.000       0.000       2.000       2.000       0.000      0.1000E-19   0.000    
    7057   7.057      0.1000E-02 FIXED          0  -0.0%   0.000       0.000       2.000       2.000       0.000      0.1000E-19   0.000    
    7058   7.058      0.1000E-02 FIXED          0  -0.0%   0.000       0.000       2.000       2.000       0.000      0.1000E-19   0.000    
    7059   7.059      0.1000E-02 FIXED          0   0.0%   0.000       0.000       2.000       2.000       0.000      0.1000E-19   0.000    
    7060   7.060      0.1000E-02 FIXED          0  -0.0%   0.000       0.000       2.000       2.000       0.000      0.1000E-19   0.000    
    7061   7.061      0.1000E-02 FIXED          0   0.0%   0.000       0.000       2.000       2.000       0.000      0.1000E-19   0.000    
    7062   7.062      0.1000E-02 FIXED          0  -0.0%   0.000       0.000       2.000       2.000       0.000      0.1000E-19   0.000    
    7063   7.063      0.1000E-02 FIXED          0   0.0%   0.000       0.000       2.000       2.000       0.000      0.1000E-19   0.000    
    7064   7.064      0.1000E-02 FIXED          0  -0.0%   0.000       0.000       2.000       2.000       0.000      0.1000E-19   0.000    
    7065   7.065      0.1000E-02 FIXED          0  -0.0%   0.000       0.000       2.000       2.000       0.000      0.1000E-19   0.000    
    7066   7.066      0.1000E-02 FIXED          0   0.0%   0.000       0.000       2.000       2.000       0.000      0.1000E-19   0.000    
    7067   7.067      0.1000E-02 FIXED          0   0.0%   0.000       0.000       2.000       2.000       0.000      0.1000E-19   0.000    
    7068   7.068      0.1000E-02 FIXED          0  -0.0%   0.000       0.000       2.000       2.000       0.000      0.1000E-19   0.000    
    7069   7.069      0.1000E-02 FIXED          0   0.0%   0.000       0.000       2.000       2.000       0.000      0.1000E-19   0.000    
    7070   7.070      0.1000E-02 FIXED          0   0.0%   0.000       0.000       2.000       2.000       0.000      0.1000E-19   0.000    
    7071   7.071      0.1000E-02 FIXED          0   0.0%   0.000       0.000       2.000       2.000       0.000      0.1000E-19   0.000    
    7072   7.072      0.1000E-02 FIXED          0   0.0%   0.000       0.000       2.000       2.000       0.000      0.1000E-19   0.000    
    7073   7.073      0.1000E-02 FIXED          0   0.0%   0.000       0.000       2.000       2.000       0.000      0.1000E-19   0.000    
    7074   7.074      0.1000E-02 FIXED          0   0.0%   0.000       0.000       2.000       2.000       0.000      0.1000E-19   0.000    
    7075   7.075      0.1000E-02 FIXED          0   0.0%   0.000       0.000       2.000       2.000       0.000      0.1000E-19   0.000    
    7076   7.076      0.1000E-02 FIXED          0  -0.0%   0.000       0.000       2.000       2.000       0.000      0.1000E-19   0.000    
    7077   7.077      0.1000E-02 FIXED          0  -0.0%   0.000       0.000       2.000       2.000       0.000      0.1000E-19   0.000    
    7078   7.078      0.1000E-02 FIXED          0   0.0%   0.000       0.000       2.000       2.000       0.000      0.1000E-19   0.000    
    7079   7.079      0.1000E-02 FIXED          0   0.0%   0.000       0.000       2.000       2.000       0.000      0.1000E-19   0.000    
    7080   7.080      0.1000E-02 FIXED          0   0.0%   0.000       0.000       2.000       2.000       0.000      0.1000E-19   0.000    
    7081   7.081      0.1000E-02 FIXED          0  -0.0%   0.000       0.000       2.000       2.000       0.000      0.1000E-19   0.000    
    7082   7.082      0.1000E-02 FIXED          0   0.0%   0.000       0.000       2.000       2.000       0.000      0.1000E-19   0.000    
    7083   7.083      0.1000E-02 FIXED          0   0.0%   0.000       0.000       2.000       2.000       0.000      0.1000E-19   0.000    
    7084   7.084      0.1000E-02 FIXED          0  -0.0%   0.000       0.000       2.000       2.000       0.000      0.1000E-19   0.000    
    7085   7.085      0.1000E-02 FIXED          0  -0.0%   0.000       0.000       2.000       2.000       0.000      0.1000E-19   0.000    
    7086   7.086      0.1000E-02 FIXED          0  -0.0%   0.000       0.000       2.000       2.000       0.000      0.1000E-19   0.000    
    7087   7.087      0.1000E-02 FIXED          0   0.0%   0.000       0.000       2.000       2.000       0.000      0.1000E-19   0.000    
    7088   7.088      0.1000E-02 FIXED          0  -0.0%   0.000       0.000       2.000       2.000       0.000      0.1000E-19   0.000    
    7089   7.089      0.1000E-02 FIXED          0   0.0%   0.000       0.000       2.000       2.000       0.000      0.1000E-19   0.000    
    7090   7.090      0.1000E-02 FIXED          0  -0.0%   0.000       0.000       2.000       2.000       0.000      0.1000E-19   0.000    
    7091   7.091      0.1000E-02 FIXED          0   0.0%   0.000       0.000       2.000       2.000       0.000      0.1000E-19   0.000    
    7092   7.092      0.1000E-02 FIXED          0   0.0%   0.000       0.000       2.000       2.000       0.000      0.1000E-19   0.000    
    7093   7.093      0.1000E-02 FIXED          0   0.0%   0.000       0.000       2.000       2.000       0.000      0.1000E-19   0.000    
    7094   7.094      0.1000E-02 FIXED          0  -0.0%   0.000       0.000       2.000       2.000       0.000      0.1000E-19   0.000    
   CYCLE    TIME      TIME-STEP  ELEMENT          ERROR  I-ENERGY    K-ENERGY T  K-ENERGY R  EXT-WORK     MAS.ERR     TOTAL MASS  MASS ADDED
    7095   7.095      0.1000E-02 FIXED          0   0.0%   0.000       0.000       2.000       2.000       0.000      0.1000E-19   0.000    
    7096   7.096      0.1000E-02 FIXED          0   0.0%   0.000       0.000       2.000       2.000       0.000      0.1000E-19   0.000    
    7097   7.097      0.1000E-02 FIXED          0  -0.0%   0.000       0.000       2.000       2.000       0.000      0.1000E-19   0.000    
    7098   7.098      0.1000E-02 FIXED          0  -0.0%   0.000       0.000       2.000       2.000       0.000      0.1000E-19   0.000    
    7099   7.099      0.1000E-02 FIXED          0   0.0%   0.000       0.000       2.000       2.000       0.000      0.1000E-19   0.000    
    7100   7.100      0.1000E-02 FIXED          0   0.0%   0.000       0.000       2.000       2.000       0.000      0.1000E-19   0.000    
    7101   7.101      0.1000E-02 FIXED          0  -0.0%   0.000       0.000       2.000       2.000       0.000      0.1000E-19   0.000    
    7102   7.102      0.1000E-02 FIXED          0  -0.0%   0.000       0.000       2.000       2.000       0.000      0.1000E-19   0.000    
    7103   7.103      0.1000E-02 FIXED          0   0.0%   0.000       0.000       2.000       2.000       0.000      0.1000E-19   0.000    
    7104   7.104      0.1000E-02 FIXED          0   0.0%   0.000       0.000       2.000       2.000       0.000      0.1000E-19   0.000    
    7105   7.105      0.1000E-02 FIXED          0  -0.0%   0.000       0.000       2.000       2.000       0.000      0.1000E-19   0.000    
    7106   7.106      0.1000E-02 FIXED          0  -0.0%   0.000       0.000       2.000       2.000       0.000      0.1000E-19   0.000    
    7107   7.107      0.1000E-02 FIXED          0   0.0%   0.000       0.000       2.000       2.000       0.000      0.1000E-19   0.000    
    7108   7.108      0.1000E-02 FIXED          0   0.0%   0.000       0.000       2.000       2.000       0.000      0.1000E-19   0.000    
    7109   7.109      0.1000E-02 FIXED          0   0.0%   0.000       0.000       2.000       2.000       0.000      0.1000E-19   0.000    
    7110   7.110      0.1000E-02 FIXED          0  -0.0%   0.000       0.000       2.000       2.000       0.000      0.1000E-19   0.000    
    7111   7.111      0.1000E-02 FIXED          0  -0.0%   0.000       0.000       2.000       2.000       0.000      0.1000E-19   0.000    
    7112   7.112      0.1000E-02 FIXED          0   0.0%   0.000       0.000       2.000       2.000       0.000      0.1000E-19   0.000    
    7113   7.113      0.1000E-02 FIXED          0   0.0%   0.000       0.000       2.000       2.000       0.000      0.1000E-19   0.000    
    7114   7.114      0.1000E-02 FIXED          0   0.0%   0.000       0.000       2.000       2.000       0.000      0.1000E-19   0.000    
    7115   7.115      0.1000E-02 FIXED          0   0.0%   0.000       0.000       2.000       2.000       0.000      0.1000E-19   0.000    
    7116   7.116      0.1000E-02 FIXED          0   0.0%   0.000       0.000       2.000       2.000       0.000      0.1000E-19   0.000    
    7117   7.117      0.1000E-02 FIXED          0   0.0%   0.000       0.000       2.000       2.000       0.000      0.1000E-19   0.000    
    7118   7.118      0.1000E-02 FIXED          0   0.0%   0.000       0.000       2.000       2.000       0.000      0.1000E-19   0.000    
    7119   7.119      0.1000E-02 FIXED          0   0.0%   0.000       0.000       2.000       2.000       0.000      0.1000E-19   0.000    
    7120   7.120      0.1000E-02 FIXED          0  -0.0%   0.000       0.000       2.000       2.000       0.000      0.1000E-19   0.000    
    7121   7.121      0.1000E-02 FIXED          0   0.0%   0.000       0.000       2.000       2.000       0.000      0.1000E-19   0.000    
    7122   7.122      0.1000E-02 FIXED          0   0.0%   0.000       0.000       2.000       2.000       0.000      0.1000E-19   0.000    
    7123   7.123      0.1000E-02 FIXED          0   0.0%   0.000       0.000       2.000       2.000       0.000      0.1000E-19   0.000    
    7124   7.124      0.1000E-02 FIXED          0  -0.0%   0.000       0.000       2.000       2.000       0.000      0.1000E-19   0.000    
    7125   7.125      0.1000E-02 FIXED          0  -0.0%   0.000       0.000       2.000       2.000       0.000      0.1000E-19   0.000    
    7126   7.126      0.1000E-02 FIXED          0   0.0%   0.000       0.000       2.000       2.000       0.000      0.1000E-19   0.000    
    7127   7.127      0.1000E-02 FIXED          0   0.0%   0.000       0.000       2.000       2.000       0.000      0.1000E-19   0.000    
    7128   7.128      0.1000E-02 FIXED          0   0.0%   0.000       0.000       2.000       2.000       0.000      0.1000E-19   0.000    
    7129   7.129      0.1000E-02 FIXED          0   0.0%   0.000       0.000       2.000       2.000       0.000      0.1000E-19   0.000    
    7130   7.130      0.1000E-02 FIXED          0  -0.0%   0.000       0.000       2.000       2.000       0.000      0.1000E-19   0.000    
    7131   7.131      0.1000E-02 FIXED          0   0.0%   0.000       0.000       2.000       2.000       0.000      0.1000E-19   0.000    
    7132   7.132      0.1000E-02 FIXED          0  -0.0%   0.000       0.000       2.000       2.000       0.000      0.1000E-19   0.000    
    7133   7.133      0.1000E-02 FIXED          0   0.0%   0.000       0.000       2.000       2.000       0.000      0.1000E-19   0.000    
    7134   7.134      0.1000E-02 FIXED          0   0.0%   0.000       0.000       2.000       2.000       0.000      0.1000E-19   0.000    
    7135   7.135      0.1000E-02 FIXED          0  -0.0%   0.000       0.000       2.000       2.000       0.000      0.1000E-19   0.000    
    7136   7.136      0.1000E-02 FIXED          0   0.0%   0.000       0.000       2.000       2.000       0.000      0.1000E-19   0.000    
    7137   7.137      0.1000E-02 FIXED          0  -0.0%   0.000       0.000       2.000       2.000       0.000      0.1000E-19   0.000    
    7138   7.138      0.1000E-02 FIXED          0   0.0%   0.000       0.000       2.000       2.000       0.000      0.1000E-19   0.000    
    7139   7.139      0.1000E-02 FIXED          0   0.0%   0.000       0.000       2.000       2.000       0.000      0.1000E-19   0.000    
    7140   7.140      0.1000E-02 FIXED          0   0.0%   0.000       0.000       2.000       2.000       0.000      0.1000E-19   0.000    
    7141   7.141      0.1000E-02 FIXED          0  -0.0%   0.000       0.000       2.000       2.000       0.000      0.1000E-19   0.000    
    7142   7.142      0.1000E-02 FIXED          0   0.0%   0.000       0.000       2.000       2.000       0.000      0.1000E-19   0.000    
    7143   7.143      0.1000E-02 FIXED          0  -0.0%   0.000       0.000       2.000       2.000       0.000      0.1000E-19   0.000    
    7144   7.144      0.1000E-02 FIXED          0   0.0%   0.000       0.000       2.000       2.000       0.000      0.1000E-19   0.000    
    7145   7.145      0.1000E-02 FIXED          0   0.0%   0.000       0.000       2.000       2.000       0.000      0.1000E-19   0.000    
    7146   7.146      0.1000E-02 FIXED          0   0.0%   0.000       0.000       2.000       2.000       0.000      0.1000E-19   0.000    
    7147   7.147      0.1000E-02 FIXED          0  -0.0%   0.000       0.000       2.000       2.000       0.000      0.1000E-19   0.000    
    7148   7.148      0.1000E-02 FIXED          0   0.0%   0.000       0.000       2.000       2.000       0.000      0.1000E-19   0.000    
    7149   7.149      0.1000E-02 FIXED          0   0.0%   0.000       0.000       2.000       2.000       0.000      0.1000E-19   0.000    
   CYCLE    TIME      TIME-STEP  ELEMENT          ERROR  I-ENERGY    K-ENERGY T  K-ENERGY R  EXT-WORK     MAS.ERR     TOTAL MASS  MASS ADDED
    7150   7.150      0.1000E-02 FIXED          0   0.0%   0.000       0.000       2.000       2.000       0.000      0.1000E-19   0.000    
    7151   7.151      0.1000E-02 FIXED          0   0.0%   0.000       0.000       2.000       2.000       0.000      0.1000E-19   0.000    
    7152   7.152      0.1000E-02 FIXED          0   0.0%   0.000       0.000       2.000       2.000       0.000      0.1000E-19   0.000    
    7153   7.153      0.1000E-02 FIXED          0  -0.0%   0.000       0.000       2.000       2.000       0.000      0.1000E-19   0.000    
    7154   7.154      0.1000E-02 FIXED          0   0.0%   0.000       0.000       2.000       2.000       0.000      0.1000E-19   0.000    
    7155   7.155      0.1000E-02 FIXED          0   0.0%   0.000       0.000       2.000       2.000       0.000      0.1000E-19   0.000    
    7156   7.156      0.1000E-02 FIXED          0   0.0%   0.000       0.000       2.000       2.000       0.000      0.1000E-19   0.000    
    7157   7.157      0.1000E-02 FIXED          0   0.0%   0.000       0.000       2.000       2.000       0.000      0.1000E-19   0.000    
    7158   7.158      0.1000E-02 FIXED          0  -0.0%   0.000       0.000       2.000       2.000       0.000      0.1000E-19   0.000    
    7159   7.159      0.1000E-02 FIXED          0   0.0%   0.000       0.000       2.000       2.000       0.000      0.1000E-19   0.000    
    7160   7.160      0.1000E-02 FIXED          0  -0.0%   0.000       0.000       2.000       2.000       0.000      0.1000E-19   0.000    
    7161   7.161      0.1000E-02 FIXED          0   0.0%   0.000       0.000       2.000       2.000       0.000      0.1000E-19   0.000    
    7162   7.162      0.1000E-02 FIXED          0   0.0%   0.000       0.000       2.000       2.000       0.000      0.1000E-19   0.000    
    7163   7.163      0.1000E-02 FIXED          0  -0.0%   0.000       0.000       2.000       2.000       0.000      0.1000E-19   0.000    
    7164   7.164      0.1000E-02 FIXED          0   0.0%   0.000       0.000       2.000       2.000       0.000      0.1000E-19   0.000    
    7165   7.165      0.1000E-02 FIXED          0   0.0%   0.000       0.000       2.000       2.000       0.000      0.1000E-19   0.000    
    7166   7.166      0.1000E-02 FIXED          0   0.0%   0.000       0.000       2.000       2.000       0.000      0.1000E-19   0.000    
    7167   7.167      0.1000E-02 FIXED          0   0.0%   0.000       0.000       2.000       2.000       0.000      0.1000E-19   0.000    
    7168   7.168      0.1000E-02 FIXED          0   0.0%   0.000       0.000       2.000       2.000       0.000      0.1000E-19   0.000    
    7169   7.169      0.1000E-02 FIXED          0  -0.0%   0.000       0.000       2.000       2.000       0.000      0.1000E-19   0.000    
    7170   7.170      0.1000E-02 FIXED          0   0.0%   0.000       0.000       2.000       2.000       0.000      0.1000E-19   0.000    
    7171   7.171      0.1000E-02 FIXED          0  -0.0%   0.000       0.000       2.000       2.000       0.000      0.1000E-19   0.000    
    7172   7.172      0.1000E-02 FIXED          0   0.0%   0.000       0.000       2.000       2.000       0.000      0.1000E-19   0.000    
    7173   7.173      0.1000E-02 FIXED          0  -0.0%   0.000       0.000       2.000       2.000       0.000      0.1000E-19   0.000    
    7174   7.174      0.1000E-02 FIXED          0   0.0%   0.000       0.000       2.000       2.000       0.000      0.1000E-19   0.000    
    7175   7.175      0.1000E-02 FIXED          0  -0.0%   0.000       0.000       2.000       2.000       0.000      0.1000E-19   0.000    
    7176   7.176      0.1000E-02 FIXED          0   0.0%   0.000       0.000       2.000       2.000       0.000      0.1000E-19   0.000    
    7177   7.177      0.1000E-02 FIXED          0  -0.0%   0.000       0.000       2.000       2.000       0.000      0.1000E-19   0.000    
    7178   7.178      0.1000E-02 FIXED          0  -0.0%   0.000       0.000       2.000       2.000       0.000      0.1000E-19   0.000    
    7179   7.179      0.1000E-02 FIXED          0   0.0%   0.000       0.000       2.000       2.000       0.000      0.1000E-19   0.000    
    7180   7.180      0.1000E-02 FIXED          0   0.0%   0.000       0.000       2.000       2.000       0.000      0.1000E-19   0.000    
    7181   7.181      0.1000E-02 FIXED          0   0.0%   0.000       0.000       2.000       2.000       0.000      0.1000E-19   0.000    
    7182   7.182      0.1000E-02 FIXED          0  -0.0%   0.000       0.000       2.000       2.000       0.000      0.1000E-19   0.000    
    7183   7.183      0.1000E-02 FIXED          0  -0.0%   0.000       0.000       2.000       2.000       0.000      0.1000E-19   0.000    
    7184   7.184      0.1000E-02 FIXED          0   0.0%   0.000       0.000       2.000       2.000       0.000      0.1000E-19   0.000    
    7185   7.185      0.1000E-02 FIXED          0   0.0%   0.000       0.000       2.000       2.000       0.000      0.1000E-19   0.000    
    7186   7.186      0.1000E-02 FIXED          0  -0.0%   0.000       0.000       2.000       2.000       0.000      0.1000E-19   0.000    
    7187   7.187      0.1000E-02 FIXED          0   0.0%   0.000       0.000       2.000       2.000       0.000      0.1000E-19   0.000    
    7188   7.188      0.1000E-02 FIXED          0  -0.0%   0.000       0.000       2.000       2.000       0.000      0.1000E-19   0.000    
    7189   7.189      0.1000E-02 FIXED          0   0.0%   0.000       0.000       2.000       2.000       0.000      0.1000E-19   0.000    
    7190   7.190      0.1000E-02 FIXED          0   0.0%   0.000       0.000       2.000       2.000       0.000      0.1000E-19   0.000    
    7191   7.191      0.1000E-02 FIXED          0   0.0%   0.000       0.000       2.000       2.000       0.000      0.1000E-19   0.000    
    7192   7.192      0.1000E-02 FIXED          0  -0.0%   0.000       0.000       2.000       2.000       0.000      0.1000E-19   0.000    
    7193   7.193      0.1000E-02 FIXED          0   0.0%   0.000       0.000       2.000       2.000       0.000      0.1000E-19   0.000    
    7194   7.194      0.1000E-02 FIXED          0   0.0%   0.000       0.000       2.000       2.000       0.000      0.1000E-19   0.000    
    7195   7.195      0.1000E-02 FIXED          0  -0.0%   0.000       0.000       2.000       2.000       0.000      0.1000E-19   0.000    
    7196   7.196      0.1000E-02 FIXED          0   0.0%   0.000       0.000       2.000       2.000       0.000      0.1000E-19   0.000    
    7197   7.197      0.1000E-02 FIXED          0   0.0%   0.000       0.000       2.000       2.000       0.000      0.1000E-19   0.000    
    7198   7.198      0.1000E-02 FIXED          0   0.0%   0.000       0.000       2.000       2.000       0.000      0.1000E-19   0.000    
    7199   7.199      0.1000E-02 FIXED          0   0.0%   0.000       0.000       2.000       2.000       0.000      0.1000E-19   0.000    
    7200   7.200      0.1000E-02 FIXED          0  -0.0%   0.000       0.000       2.000       2.000       0.000      0.1000E-19   0.000    
    7201   7.201      0.1000E-02 FIXED          0  -0.0%   0.000       0.000       2.000       2.000       0.000      0.1000E-19   0.000    
    7202   7.202      0.1000E-02 FIXED          0   0.0%   0.000       0.000       2.000       2.000       0.000      0.1000E-19   0.000    
    7203   7.203      0.1000E-02 FIXED          0   0.0%   0.000       0.000       2.000       2.000       0.000      0.1000E-19   0.000    
    7204   7.204      0.1000E-02 FIXED          0  -0.0%   0.000       0.000       2.000       2.000       0.000      0.1000E-19   0.000    
   CYCLE    TIME      TIME-STEP  ELEMENT          ERROR  I-ENERGY    K-ENERGY T  K-ENERGY R  EXT-WORK     MAS.ERR     TOTAL MASS  MASS ADDED
    7205   7.205      0.1000E-02 FIXED          0   0.0%   0.000       0.000       2.000       2.000       0.000      0.1000E-19   0.000    
    7206   7.206      0.1000E-02 FIXED          0   0.0%   0.000       0.000       2.000       2.000       0.000      0.1000E-19   0.000    
    7207   7.207      0.1000E-02 FIXED          0   0.0%   0.000       0.000       2.000       2.000       0.000      0.1000E-19   0.000    
    7208   7.208      0.1000E-02 FIXED          0   0.0%   0.000       0.000       2.000       2.000       0.000      0.1000E-19   0.000    
    7209   7.209      0.1000E-02 FIXED          0   0.0%   0.000       0.000       2.000       2.000       0.000      0.1000E-19   0.000    
    7210   7.210      0.1000E-02 FIXED          0   0.0%   0.000       0.000       2.000       2.000       0.000      0.1000E-19   0.000    
    7211   7.211      0.1000E-02 FIXED          0   0.0%   0.000       0.000       2.000       2.000       0.000      0.1000E-19   0.000    
    7212   7.212      0.1000E-02 FIXED          0   0.0%   0.000       0.000       2.000       2.000       0.000      0.1000E-19   0.000    
    7213   7.213      0.1000E-02 FIXED          0  -0.0%   0.000       0.000       2.000       2.000       0.000      0.1000E-19   0.000    
    7214   7.214      0.1000E-02 FIXED          0   0.0%   0.000       0.000       2.000       2.000       0.000      0.1000E-19   0.000    
    7215   7.215      0.1000E-02 FIXED          0  -0.0%   0.000       0.000       2.000       2.000       0.000      0.1000E-19   0.000    
    7216   7.216      0.1000E-02 FIXED          0   0.0%   0.000       0.000       2.000       2.000       0.000      0.1000E-19   0.000    
    7217   7.217      0.1000E-02 FIXED          0  -0.0%   0.000       0.000       2.000       2.000       0.000      0.1000E-19   0.000    
    7218   7.218      0.1000E-02 FIXED          0  -0.0%   0.000       0.000       2.000       2.000       0.000      0.1000E-19   0.000    
    7219   7.219      0.1000E-02 FIXED          0   0.0%   0.000       0.000       2.000       2.000       0.000      0.1000E-19   0.000    
    7220   7.220      0.1000E-02 FIXED          0   0.0%   0.000       0.000       2.000       2.000       0.000      0.1000E-19   0.000    
    7221   7.221      0.1000E-02 FIXED          0   0.0%   0.000       0.000       2.000       2.000       0.000      0.1000E-19   0.000    
    7222   7.222      0.1000E-02 FIXED          0  -0.0%   0.000       0.000       2.000       2.000       0.000      0.1000E-19   0.000    
    7223   7.223      0.1000E-02 FIXED          0   0.0%   0.000       0.000       2.000       2.000       0.000      0.1000E-19   0.000    
    7224   7.224      0.1000E-02 FIXED          0   0.0%   0.000       0.000       2.000       2.000       0.000      0.1000E-19   0.000    
    7225   7.225      0.1000E-02 FIXED          0   0.0%   0.000       0.000       2.000       2.000       0.000      0.1000E-19   0.000    
    7226   7.226      0.1000E-02 FIXED          0   0.0%   0.000       0.000       2.000       2.000       0.000      0.1000E-19   0.000    
    7227   7.227      0.1000E-02 FIXED          0   0.0%   0.000       0.000       2.000       2.000       0.000      0.1000E-19   0.000    
    7228   7.228      0.1000E-02 FIXED          0   0.0%   0.000       0.000       2.000       2.000       0.000      0.1000E-19   0.000    
    7229   7.229      0.1000E-02 FIXED          0   0.0%   0.000       0.000       2.000       2.000       0.000      0.1000E-19   0.000    
    7230   7.230      0.1000E-02 FIXED          0   0.0%   0.000       0.000       2.000       2.000       0.000      0.1000E-19   0.000    
    7231   7.231      0.1000E-02 FIXED          0  -0.0%   0.000       0.000       2.000       2.000       0.000      0.1000E-19   0.000    
    7232   7.232      0.1000E-02 FIXED          0   0.0%   0.000       0.000       2.000       2.000       0.000      0.1000E-19   0.000    
    7233   7.233      0.1000E-02 FIXED          0   0.0%   0.000       0.000       2.000       2.000       0.000      0.1000E-19   0.000    
    7234   7.234      0.1000E-02 FIXED          0   0.0%   0.000       0.000       2.000       2.000       0.000      0.1000E-19   0.000    
    7235   7.235      0.1000E-02 FIXED          0  -0.0%   0.000       0.000       2.000       2.000       0.000      0.1000E-19   0.000    
    7236   7.236      0.1000E-02 FIXED          0   0.0%   0.000       0.000       2.000       2.000       0.000      0.1000E-19   0.000    
    7237   7.237      0.1000E-02 FIXED          0  -0.0%   0.000       0.000       2.000       2.000       0.000      0.1000E-19   0.000    
    7238   7.238      0.1000E-02 FIXED          0   0.0%   0.000       0.000       2.000       2.000       0.000      0.1000E-19   0.000    
    7239   7.239      0.1000E-02 FIXED          0   0.0%   0.000       0.000       2.000       2.000       0.000      0.1000E-19   0.000    
    7240   7.240      0.1000E-02 FIXED          0   0.0%   0.000       0.000       2.000       2.000       0.000      0.1000E-19   0.000    
    7241   7.241      0.1000E-02 FIXED          0   0.0%   0.000       0.000       2.000       2.000       0.000      0.1000E-19   0.000    
    7242   7.242      0.1000E-02 FIXED          0  -0.0%   0.000       0.000       2.000       2.000       0.000      0.1000E-19   0.000    
    7243   7.243      0.1000E-02 FIXED          0  -0.0%   0.000       0.000       2.000       2.000       0.000      0.1000E-19   0.000    
    7244   7.244      0.1000E-02 FIXED          0   0.0%   0.000       0.000       2.000       2.000       0.000      0.1000E-19   0.000    
    7245   7.245      0.1000E-02 FIXED          0   0.0%   0.000       0.000       2.000       2.000       0.000      0.1000E-19   0.000    
    7246   7.246      0.1000E-02 FIXED          0  -0.0%   0.000       0.000       2.000       2.000       0.000      0.1000E-19   0.000    
    7247   7.247      0.1000E-02 FIXED          0   0.0%   0.000       0.000       2.000       2.000       0.000      0.1000E-19   0.000    
    7248   7.248      0.1000E-02 FIXED          0   0.0%   0.000       0.000       2.000       2.000       0.000      0.1000E-19   0.000    
    7249   7.249      0.1000E-02 FIXED          0   0.0%   0.000       0.000       2.000       2.000       0.000      0.1000E-19   0.000    
    7250   7.250      0.1000E-02 FIXED          0   0.0%   0.000       0.000       2.000       2.000       0.000      0.1000E-19   0.000    
    7251   7.251      0.1000E-02 FIXED          0  -0.0%   0.000       0.000       2.000       2.000       0.000      0.1000E-19   0.000    
    7252   7.252      0.1000E-02 FIXED          0   0.0%   0.000       0.000       2.000       2.000       0.000      0.1000E-19   0.000    
    7253   7.253      0.1000E-02 FIXED          0  -0.0%   0.000       0.000       2.000       2.000       0.000      0.1000E-19   0.000    
    7254   7.254      0.1000E-02 FIXED          0   0.0%   0.000       0.000       2.000       2.000       0.000      0.1000E-19   0.000    
    7255   7.255      0.1000E-02 FIXED          0   0.0%   0.000       0.000       2.000       2.000       0.000      0.1000E-19   0.000    
    7256   7.256      0.1000E-02 FIXED          0  -0.0%   0.000       0.000       2.000       2.000       0.000      0.1000E-19   0.000    
    7257   7.257      0.1000E-02 FIXED          0   0.0%   0.000       0.000       2.000       2.000       0.000      0.1000E-19   0.000    
    7258   7.258      0.1000E-02 FIXED          0  -0.0%   0.000       0.000       2.000       2.000       0.000      0.1000E-19   0.000    
    7259   7.259      0.1000E-02 FIXED          0   0.0%   0.000       0.000       2.000       2.000       0.000      0.1000E-19   0.000    
   CYCLE    TIME      TIME-STEP  ELEMENT          ERROR  I-ENERGY    K-ENERGY T  K-ENERGY R  EXT-WORK     MAS.ERR     TOTAL MASS  MASS ADDED
    7260   7.260      0.1000E-02 FIXED          0  -0.0%   0.000       0.000       2.000       2.000       0.000      0.1000E-19   0.000    
    7261   7.261      0.1000E-02 FIXED          0   0.0%   0.000       0.000       2.000       2.000       0.000      0.1000E-19   0.000    
    7262   7.262      0.1000E-02 FIXED          0   0.0%   0.000       0.000       2.000       2.000       0.000      0.1000E-19   0.000    
    7263   7.263      0.1000E-02 FIXED          0  -0.0%   0.000       0.000       2.000       2.000       0.000      0.1000E-19   0.000    
    7264   7.264      0.1000E-02 FIXED          0  -0.0%   0.000       0.000       2.000       2.000       0.000      0.1000E-19   0.000    
    7265   7.265      0.1000E-02 FIXED          0   0.0%   0.000       0.000       2.000       2.000       0.000      0.1000E-19   0.000    
    7266   7.266      0.1000E-02 FIXED          0   0.0%   0.000       0.000       2.000       2.000       0.000      0.1000E-19   0.000    
    7267   7.267      0.1000E-02 FIXED          0   0.0%   0.000       0.000       2.000       2.000       0.000      0.1000E-19   0.000    
    7268   7.268      0.1000E-02 FIXED          0  -0.0%   0.000       0.000       2.000       2.000       0.000      0.1000E-19   0.000    
    7269   7.269      0.1000E-02 FIXED          0   0.0%   0.000       0.000       2.000       2.000       0.000      0.1000E-19   0.000    
    7270   7.270      0.1000E-02 FIXED          0   0.0%   0.000       0.000       2.000       2.000       0.000      0.1000E-19   0.000    
    7271   7.271      0.1000E-02 FIXED          0  -0.0%   0.000       0.000       2.000       2.000       0.000      0.1000E-19   0.000    
    7272   7.272      0.1000E-02 FIXED          0   0.0%   0.000       0.000       2.000       2.000       0.000      0.1000E-19   0.000    
    7273   7.273      0.1000E-02 FIXED          0   0.0%   0.000       0.000       2.000       2.000       0.000      0.1000E-19   0.000    
    7274   7.274      0.1000E-02 FIXED          0   0.0%   0.000       0.000       2.000       2.000       0.000      0.1000E-19   0.000    
    7275   7.275      0.1000E-02 FIXED          0  -0.0%   0.000       0.000       2.000       2.000       0.000      0.1000E-19   0.000    
    7276   7.276      0.1000E-02 FIXED          0   0.0%   0.000       0.000       2.000       2.000       0.000      0.1000E-19   0.000    
    7277   7.277      0.1000E-02 FIXED          0   0.0%   0.000       0.000       2.000       2.000       0.000      0.1000E-19   0.000    
    7278   7.278      0.1000E-02 FIXED          0   0.0%   0.000       0.000       2.000       2.000       0.000      0.1000E-19   0.000    
    7279   7.279      0.1000E-02 FIXED          0   0.0%   0.000       0.000       2.000       2.000       0.000      0.1000E-19   0.000    
    7280   7.280      0.1000E-02 FIXED          0   0.0%   0.000       0.000       2.000       2.000       0.000      0.1000E-19   0.000    
    7281   7.281      0.1000E-02 FIXED          0   0.0%   0.000       0.000       2.000       2.000       0.000      0.1000E-19   0.000    
    7282   7.282      0.1000E-02 FIXED          0  -0.0%   0.000       0.000       2.000       2.000       0.000      0.1000E-19   0.000    
    7283   7.283      0.1000E-02 FIXED          0   0.0%   0.000       0.000       2.000       2.000       0.000      0.1000E-19   0.000    
    7284   7.284      0.1000E-02 FIXED          0  -0.0%   0.000       0.000       2.000       2.000       0.000      0.1000E-19   0.000    
    7285   7.285      0.1000E-02 FIXED          0   0.0%   0.000       0.000       2.000       2.000       0.000      0.1000E-19   0.000    
    7286   7.286      0.1000E-02 FIXED          0  -0.0%   0.000       0.000       2.000       2.000       0.000      0.1000E-19   0.000    
    7287   7.287      0.1000E-02 FIXED          0   0.0%   0.000       0.000       2.000       2.000       0.000      0.1000E-19   0.000    
    7288   7.288      0.1000E-02 FIXED          0  -0.0%   0.000       0.000       2.000       2.000       0.000      0.1000E-19   0.000    
    7289   7.289      0.1000E-02 FIXED          0   0.0%   0.000       0.000       2.000       2.000       0.000      0.1000E-19   0.000    
    7290   7.290      0.1000E-02 FIXED          0   0.0%   0.000       0.000       2.000       2.000       0.000      0.1000E-19   0.000    
    7291   7.291      0.1000E-02 FIXED          0   0.0%   0.000       0.000       2.000       2.000       0.000      0.1000E-19   0.000    
    7292   7.292      0.1000E-02 FIXED          0   0.0%   0.000       0.000       2.000       2.000       0.000      0.1000E-19   0.000    
    7293   7.293      0.1000E-02 FIXED          0   0.0%   0.000       0.000       2.000       2.000       0.000      0.1000E-19   0.000    
    7294   7.294      0.1000E-02 FIXED          0   0.0%   0.000       0.000       2.000       2.000       0.000      0.1000E-19   0.000    
    7295   7.295      0.1000E-02 FIXED          0   0.0%   0.000       0.000       2.000       2.000       0.000      0.1000E-19   0.000    
    7296   7.296      0.1000E-02 FIXED          0  -0.0%   0.000       0.000       2.000       2.000       0.000      0.1000E-19   0.000    
    7297   7.297      0.1000E-02 FIXED          0  -0.0%   0.000       0.000       2.000       2.000       0.000      0.1000E-19   0.000    
    7298   7.298      0.1000E-02 FIXED          0   0.0%   0.000       0.000       2.000       2.000       0.000      0.1000E-19   0.000    
    7299   7.299      0.1000E-02 FIXED          0   0.0%   0.000       0.000       2.000       2.000       0.000      0.1000E-19   0.000    
    7300   7.300      0.1000E-02 FIXED          0   0.0%   0.000       0.000       2.000       2.000       0.000      0.1000E-19   0.000    
    7301   7.301      0.1000E-02 FIXED          0   0.0%   0.000       0.000       2.000       2.000       0.000      0.1000E-19   0.000    
    7302   7.302      0.1000E-02 FIXED          0  -0.0%   0.000       0.000       2.000       2.000       0.000      0.1000E-19   0.000    
    7303   7.303      0.1000E-02 FIXED          0   0.0%   0.000       0.000       2.000       2.000       0.000      0.1000E-19   0.000    
    7304   7.304      0.1000E-02 FIXED          0  -0.0%   0.000       0.000       2.000       2.000       0.000      0.1000E-19   0.000    
    7305   7.305      0.1000E-02 FIXED          0   0.0%   0.000       0.000       2.000       2.000       0.000      0.1000E-19   0.000    
    7306   7.306      0.1000E-02 FIXED          0  -0.0%   0.000       0.000       2.000       2.000       0.000      0.1000E-19   0.000    
    7307   7.307      0.1000E-02 FIXED          0   0.0%   0.000       0.000       2.000       2.000       0.000      0.1000E-19   0.000    
    7308   7.308      0.1000E-02 FIXED          0  -0.0%   0.000       0.000       2.000       2.000       0.000      0.1000E-19   0.000    
    7309   7.309      0.1000E-02 FIXED          0   0.0%   0.000       0.000       2.000       2.000       0.000      0.1000E-19   0.000    
    7310   7.310      0.1000E-02 FIXED          0   0.0%   0.000       0.000       2.000       2.000       0.000      0.1000E-19   0.000    
    7311   7.311      0.1000E-02 FIXED          0   0.0%   0.000       0.000       2.000       2.000       0.000      0.1000E-19   0.000    
    7312   7.312      0.1000E-02 FIXED          0   0.0%   0.000       0.000       2.000       2.000       0.000      0.1000E-19   0.000    
    7313   7.313      0.1000E-02 FIXED          0   0.0%   0.000       0.000       2.000       2.000       0.000      0.1000E-19   0.000    
    7314   7.314      0.1000E-02 FIXED          0  -0.0%   0.000       0.000       2.000       2.000       0.000      0.1000E-19   0.000    
   CYCLE    TIME      TIME-STEP  ELEMENT          ERROR  I-ENERGY    K-ENERGY T  K-ENERGY R  EXT-WORK     MAS.ERR     TOTAL MASS  MASS ADDED
    7315   7.315      0.1000E-02 FIXED          0   0.0%   0.000       0.000       2.000       2.000       0.000      0.1000E-19   0.000    
    7316   7.316      0.1000E-02 FIXED          0   0.0%   0.000       0.000       2.000       2.000       0.000      0.1000E-19   0.000    
    7317   7.317      0.1000E-02 FIXED          0   0.0%   0.000       0.000       2.000       2.000       0.000      0.1000E-19   0.000    
    7318   7.318      0.1000E-02 FIXED          0   0.0%   0.000       0.000       2.000       2.000       0.000      0.1000E-19   0.000    
    7319   7.319      0.1000E-02 FIXED          0  -0.0%   0.000       0.000       2.000       2.000       0.000      0.1000E-19   0.000    
    7320   7.320      0.1000E-02 FIXED          0   0.0%   0.000       0.000       2.000       2.000       0.000      0.1000E-19   0.000    
    7321   7.321      0.1000E-02 FIXED          0   0.0%   0.000       0.000       2.000       2.000       0.000      0.1000E-19   0.000    
    7322   7.322      0.1000E-02 FIXED          0   0.0%   0.000       0.000       2.000       2.000       0.000      0.1000E-19   0.000    
    7323   7.323      0.1000E-02 FIXED          0   0.0%   0.000       0.000       2.000       2.000       0.000      0.1000E-19   0.000    
    7324   7.324      0.1000E-02 FIXED          0  -0.0%   0.000       0.000       2.000       2.000       0.000      0.1000E-19   0.000    
    7325   7.325      0.1000E-02 FIXED          0   0.0%   0.000       0.000       2.000       2.000       0.000      0.1000E-19   0.000    
    7326   7.326      0.1000E-02 FIXED          0  -0.0%   0.000       0.000       2.000       2.000       0.000      0.1000E-19   0.000    
    7327   7.327      0.1000E-02 FIXED          0   0.0%   0.000       0.000       2.000       2.000       0.000      0.1000E-19   0.000    
    7328   7.328      0.1000E-02 FIXED          0   0.0%   0.000       0.000       2.000       2.000       0.000      0.1000E-19   0.000    
    7329   7.329      0.1000E-02 FIXED          0  -0.0%   0.000       0.000       2.000       2.000       0.000      0.1000E-19   0.000    
    7330   7.330      0.1000E-02 FIXED          0   0.0%   0.000       0.000       2.000       2.000       0.000      0.1000E-19   0.000    
    7331   7.331      0.1000E-02 FIXED          0  -0.0%   0.000       0.000       2.000       2.000       0.000      0.1000E-19   0.000    
    7332   7.332      0.1000E-02 FIXED          0  -0.0%   0.000       0.000       2.000       2.000       0.000      0.1000E-19   0.000    
    7333   7.333      0.1000E-02 FIXED          0   0.0%   0.000       0.000       2.000       2.000       0.000      0.1000E-19   0.000    
    7334   7.334      0.1000E-02 FIXED          0   0.0%   0.000       0.000       2.000       2.000       0.000      0.1000E-19   0.000    
    7335   7.335      0.1000E-02 FIXED          0   0.0%   0.000       0.000       2.000       2.000       0.000      0.1000E-19   0.000    
    7336   7.336      0.1000E-02 FIXED          0  -0.0%   0.000       0.000       2.000       2.000       0.000      0.1000E-19   0.000    
    7337   7.337      0.1000E-02 FIXED          0   0.0%   0.000       0.000       2.000       2.000       0.000      0.1000E-19   0.000    
    7338   7.338      0.1000E-02 FIXED          0   0.0%   0.000       0.000       2.000       2.000       0.000      0.1000E-19   0.000    
    7339   7.339      0.1000E-02 FIXED          0   0.0%   0.000       0.000       2.000       2.000       0.000      0.1000E-19   0.000    
    7340   7.340      0.1000E-02 FIXED          0  -0.0%   0.000       0.000       2.000       2.000       0.000      0.1000E-19   0.000    
    7341   7.341      0.1000E-02 FIXED          0   0.0%   0.000       0.000       2.000       2.000       0.000      0.1000E-19   0.000    
    7342   7.342      0.1000E-02 FIXED          0  -0.0%   0.000       0.000       2.000       2.000       0.000      0.1000E-19   0.000    
    7343   7.343      0.1000E-02 FIXED          0   0.0%   0.000       0.000       2.000       2.000       0.000      0.1000E-19   0.000    
    7344   7.344      0.1000E-02 FIXED          0  -0.0%   0.000       0.000       2.000       2.000       0.000      0.1000E-19   0.000    
    7345   7.345      0.1000E-02 FIXED          0   0.0%   0.000       0.000       2.000       2.000       0.000      0.1000E-19   0.000    
    7346   7.346      0.1000E-02 FIXED          0  -0.0%   0.000       0.000       2.000       2.000       0.000      0.1000E-19   0.000    
    7347   7.347      0.1000E-02 FIXED          0   0.0%   0.000       0.000       2.000       2.000       0.000      0.1000E-19   0.000    
    7348   7.348      0.1000E-02 FIXED          0  -0.0%   0.000       0.000       2.000       2.000       0.000      0.1000E-19   0.000    
    7349   7.349      0.1000E-02 FIXED          0   0.0%   0.000       0.000       2.000       2.000       0.000      0.1000E-19   0.000    
    7350   7.350      0.1000E-02 FIXED          0   0.0%   0.000       0.000       2.000       2.000       0.000      0.1000E-19   0.000    
    7351   7.351      0.1000E-02 FIXED          0   0.0%   0.000       0.000       2.000       2.000       0.000      0.1000E-19   0.000    
    7352   7.352      0.1000E-02 FIXED          0   0.0%   0.000       0.000       2.000       2.000       0.000      0.1000E-19   0.000    
    7353   7.353      0.1000E-02 FIXED          0   0.0%   0.000       0.000       2.000       2.000       0.000      0.1000E-19   0.000    
    7354   7.354      0.1000E-02 FIXED          0   0.0%   0.000       0.000       2.000       2.000       0.000      0.1000E-19   0.000    
    7355   7.355      0.1000E-02 FIXED          0  -0.0%   0.000       0.000       2.000       2.000       0.000      0.1000E-19   0.000    
    7356   7.356      0.1000E-02 FIXED          0  -0.0%   0.000       0.000       2.000       2.000       0.000      0.1000E-19   0.000    
    7357   7.357      0.1000E-02 FIXED          0   0.0%   0.000       0.000       2.000       2.000       0.000      0.1000E-19   0.000    
    7358   7.358      0.1000E-02 FIXED          0  -0.0%   0.000       0.000       2.000       2.000       0.000      0.1000E-19   0.000    
    7359   7.359      0.1000E-02 FIXED          0   0.0%   0.000       0.000       2.000       2.000       0.000      0.1000E-19   0.000    
    7360   7.360      0.1000E-02 FIXED          0   0.0%   0.000       0.000       2.000       2.000       0.000      0.1000E-19   0.000    
    7361   7.361      0.1000E-02 FIXED          0   0.0%   0.000       0.000       2.000       2.000       0.000      0.1000E-19   0.000    
    7362   7.362      0.1000E-02 FIXED          0  -0.0%   0.000       0.000       2.000       2.000       0.000      0.1000E-19   0.000    
    7363   7.363      0.1000E-02 FIXED          0  -0.0%   0.000       0.000       2.000       2.000       0.000      0.1000E-19   0.000    
    7364   7.364      0.1000E-02 FIXED          0   0.0%   0.000       0.000       2.000       2.000       0.000      0.1000E-19   0.000    
    7365   7.365      0.1000E-02 FIXED          0   0.0%   0.000       0.000       2.000       2.000       0.000      0.1000E-19   0.000    
    7366   7.366      0.1000E-02 FIXED          0   0.0%   0.000       0.000       2.000       2.000       0.000      0.1000E-19   0.000    
    7367   7.367      0.1000E-02 FIXED          0   0.0%   0.000       0.000       2.000       2.000       0.000      0.1000E-19   0.000    
    7368   7.368      0.1000E-02 FIXED          0   0.0%   0.000       0.000       2.000       2.000       0.000      0.1000E-19   0.000    
    7369   7.369      0.1000E-02 FIXED          0   0.0%   0.000       0.000       2.000       2.000       0.000      0.1000E-19   0.000    
   CYCLE    TIME      TIME-STEP  ELEMENT          ERROR  I-ENERGY    K-ENERGY T  K-ENERGY R  EXT-WORK     MAS.ERR     TOTAL MASS  MASS ADDED
    7370   7.370      0.1000E-02 FIXED          0   0.0%   0.000       0.000       2.000       2.000       0.000      0.1000E-19   0.000    
    7371   7.371      0.1000E-02 FIXED          0   0.0%   0.000       0.000       2.000       2.000       0.000      0.1000E-19   0.000    
    7372   7.372      0.1000E-02 FIXED          0   0.0%   0.000       0.000       2.000       2.000       0.000      0.1000E-19   0.000    
    7373   7.373      0.1000E-02 FIXED          0  -0.0%   0.000       0.000       2.000       2.000       0.000      0.1000E-19   0.000    
    7374   7.374      0.1000E-02 FIXED          0   0.0%   0.000       0.000       2.000       2.000       0.000      0.1000E-19   0.000    
    7375   7.375      0.1000E-02 FIXED          0   0.0%   0.000       0.000       2.000       2.000       0.000      0.1000E-19   0.000    
    7376   7.376      0.1000E-02 FIXED          0  -0.0%   0.000       0.000       2.000       2.000       0.000      0.1000E-19   0.000    
    7377   7.377      0.1000E-02 FIXED          0  -0.0%   0.000       0.000       2.000       2.000       0.000      0.1000E-19   0.000    
    7378   7.378      0.1000E-02 FIXED          0   0.0%   0.000       0.000       2.000       2.000       0.000      0.1000E-19   0.000    
    7379   7.379      0.1000E-02 FIXED          0  -0.0%   0.000       0.000       2.000       2.000       0.000      0.1000E-19   0.000    
    7380   7.380      0.1000E-02 FIXED          0   0.0%   0.000       0.000       2.000       2.000       0.000      0.1000E-19   0.000    
    7381   7.381      0.1000E-02 FIXED          0   0.0%   0.000       0.000       2.000       2.000       0.000      0.1000E-19   0.000    
    7382   7.382      0.1000E-02 FIXED          0  -0.0%   0.000       0.000       2.000       2.000       0.000      0.1000E-19   0.000    
    7383   7.383      0.1000E-02 FIXED          0   0.0%   0.000       0.000       2.000       2.000       0.000      0.1000E-19   0.000    
    7384   7.384      0.1000E-02 FIXED          0   0.0%   0.000       0.000       2.000       2.000       0.000      0.1000E-19   0.000    
    7385   7.385      0.1000E-02 FIXED          0  -0.0%   0.000       0.000       2.000       2.000       0.000      0.1000E-19   0.000    
    7386   7.386      0.1000E-02 FIXED          0  -0.0%   0.000       0.000       2.000       2.000       0.000      0.1000E-19   0.000    
    7387   7.387      0.1000E-02 FIXED          0   0.0%   0.000       0.000       2.000       2.000       0.000      0.1000E-19   0.000    
    7388   7.388      0.1000E-02 FIXED          0   0.0%   0.000       0.000       2.000       2.000       0.000      0.1000E-19   0.000    
    7389   7.389      0.1000E-02 FIXED          0  -0.0%   0.000       0.000       2.000       2.000       0.000      0.1000E-19   0.000    
    7390   7.390      0.1000E-02 FIXED          0   0.0%   0.000       0.000       2.000       2.000       0.000      0.1000E-19   0.000    
    7391   7.391      0.1000E-02 FIXED          0   0.0%   0.000       0.000       2.000       2.000       0.000      0.1000E-19   0.000    
    7392   7.392      0.1000E-02 FIXED          0   0.0%   0.000       0.000       2.000       2.000       0.000      0.1000E-19   0.000    
    7393   7.393      0.1000E-02 FIXED          0  -0.0%   0.000       0.000       2.000       2.000       0.000      0.1000E-19   0.000    
    7394   7.394      0.1000E-02 FIXED          0   0.0%   0.000       0.000       2.000       2.000       0.000      0.1000E-19   0.000    
    7395   7.395      0.1000E-02 FIXED          0   0.0%   0.000       0.000       2.000       2.000       0.000      0.1000E-19   0.000    
    7396   7.396      0.1000E-02 FIXED          0  -0.0%   0.000       0.000       2.000       2.000       0.000      0.1000E-19   0.000    
    7397   7.397      0.1000E-02 FIXED          0   0.0%   0.000       0.000       2.000       2.000       0.000      0.1000E-19   0.000    
    7398   7.398      0.1000E-02 FIXED          0  -0.0%   0.000       0.000       2.000       2.000       0.000      0.1000E-19   0.000    
    7399   7.399      0.1000E-02 FIXED          0   0.0%   0.000       0.000       2.000       2.000       0.000      0.1000E-19   0.000    
    7400   7.400      0.1000E-02 FIXED          0   0.0%   0.000       0.000       2.000       2.000       0.000      0.1000E-19   0.000    
    7401   7.401      0.1000E-02 FIXED          0   0.0%   0.000       0.000       2.000       2.000       0.000      0.1000E-19   0.000    
    7402   7.402      0.1000E-02 FIXED          0   0.0%   0.000       0.000       2.000       2.000       0.000      0.1000E-19   0.000    
    7403   7.403      0.1000E-02 FIXED          0  -0.0%   0.000       0.000       2.000       2.000       0.000      0.1000E-19   0.000    
    7404   7.404      0.1000E-02 FIXED          0   0.0%   0.000       0.000       2.000       2.000       0.000      0.1000E-19   0.000    
    7405   7.405      0.1000E-02 FIXED          0   0.0%   0.000       0.000       2.000       2.000       0.000      0.1000E-19   0.000    
    7406   7.406      0.1000E-02 FIXED          0  -0.0%   0.000       0.000       2.000       2.000       0.000      0.1000E-19   0.000    
    7407   7.407      0.1000E-02 FIXED          0   0.0%   0.000       0.000       2.000       2.000       0.000      0.1000E-19   0.000    
    7408   7.408      0.1000E-02 FIXED          0  -0.0%   0.000       0.000       2.000       2.000       0.000      0.1000E-19   0.000    
    7409   7.409      0.1000E-02 FIXED          0   0.0%   0.000       0.000       2.000       2.000       0.000      0.1000E-19   0.000    
    7410   7.410      0.1000E-02 FIXED          0  -0.0%   0.000       0.000       2.000       2.000       0.000      0.1000E-19   0.000    
    7411   7.411      0.1000E-02 FIXED          0   0.0%   0.000       0.000       2.000       2.000       0.000      0.1000E-19   0.000    
    7412   7.412      0.1000E-02 FIXED          0  -0.0%   0.000       0.000       2.000       2.000       0.000      0.1000E-19   0.000    
    7413   7.413      0.1000E-02 FIXED          0   0.0%   0.000       0.000       2.000       2.000       0.000      0.1000E-19   0.000    
    7414   7.414      0.1000E-02 FIXED          0  -0.0%   0.000       0.000       2.000       2.000       0.000      0.1000E-19   0.000    
    7415   7.415      0.1000E-02 FIXED          0   0.0%   0.000       0.000       2.000       2.000       0.000      0.1000E-19   0.000    
    7416   7.416      0.1000E-02 FIXED          0  -0.0%   0.000       0.000       2.000       2.000       0.000      0.1000E-19   0.000    
    7417   7.417      0.1000E-02 FIXED          0   0.0%   0.000       0.000       2.000       2.000       0.000      0.1000E-19   0.000    
    7418   7.418      0.1000E-02 FIXED          0   0.0%   0.000       0.000       2.000       2.000       0.000      0.1000E-19   0.000    
    7419   7.419      0.1000E-02 FIXED          0   0.0%   0.000       0.000       2.000       2.000       0.000      0.1000E-19   0.000    
    7420   7.420      0.1000E-02 FIXED          0   0.0%   0.000       0.000       2.000       2.000       0.000      0.1000E-19   0.000    
    7421   7.421      0.1000E-02 FIXED          0   0.0%   0.000       0.000       2.000       2.000       0.000      0.1000E-19   0.000    
    7422   7.422      0.1000E-02 FIXED          0   0.0%   0.000       0.000       2.000       2.000       0.000      0.1000E-19   0.000    
    7423   7.423      0.1000E-02 FIXED          0  -0.0%   0.000       0.000       2.000       2.000       0.000      0.1000E-19   0.000    
    7424   7.424      0.1000E-02 FIXED          0   0.0%   0.000       0.000       2.000       2.000       0.000      0.1000E-19   0.000    
   CYCLE    TIME      TIME-STEP  ELEMENT          ERROR  I-ENERGY    K-ENERGY T  K-ENERGY R  EXT-WORK     MAS.ERR     TOTAL MASS  MASS ADDED
    7425   7.425      0.1000E-02 FIXED          0   0.0%   0.000       0.000       2.000       2.000       0.000      0.1000E-19   0.000    
    7426   7.426      0.1000E-02 FIXED          0   0.0%   0.000       0.000       2.000       2.000       0.000      0.1000E-19   0.000    
    7427   7.427      0.1000E-02 FIXED          0  -0.0%   0.000       0.000       2.000       2.000       0.000      0.1000E-19   0.000    
    7428   7.428      0.1000E-02 FIXED          0   0.0%   0.000       0.000       2.000       2.000       0.000      0.1000E-19   0.000    
    7429   7.429      0.1000E-02 FIXED          0   0.0%   0.000       0.000       2.000       2.000       0.000      0.1000E-19   0.000    
    7430   7.430      0.1000E-02 FIXED          0  -0.0%   0.000       0.000       2.000       2.000       0.000      0.1000E-19   0.000    
    7431   7.431      0.1000E-02 FIXED          0  -0.0%   0.000       0.000       2.000       2.000       0.000      0.1000E-19   0.000    
    7432   7.432      0.1000E-02 FIXED          0   0.0%   0.000       0.000       2.000       2.000       0.000      0.1000E-19   0.000    
    7433   7.433      0.1000E-02 FIXED          0   0.0%   0.000       0.000       2.000       2.000       0.000      0.1000E-19   0.000    
    7434   7.434      0.1000E-02 FIXED          0  -0.0%   0.000       0.000       2.000       2.000       0.000      0.1000E-19   0.000    
    7435   7.435      0.1000E-02 FIXED          0   0.0%   0.000       0.000       2.000       2.000       0.000      0.1000E-19   0.000    
    7436   7.436      0.1000E-02 FIXED          0  -0.0%   0.000       0.000       2.000       2.000       0.000      0.1000E-19   0.000    
    7437   7.437      0.1000E-02 FIXED          0   0.0%   0.000       0.000       2.000       2.000       0.000      0.1000E-19   0.000    
    7438   7.438      0.1000E-02 FIXED          0   0.0%   0.000       0.000       2.000       2.000       0.000      0.1000E-19   0.000    
    7439   7.439      0.1000E-02 FIXED          0  -0.0%   0.000       0.000       2.000       2.000       0.000      0.1000E-19   0.000    
    7440   7.440      0.1000E-02 FIXED          0  -0.0%   0.000       0.000       2.000       2.000       0.000      0.1000E-19   0.000    
    7441   7.441      0.1000E-02 FIXED          0   0.0%   0.000       0.000       2.000       2.000       0.000      0.1000E-19   0.000    
    7442   7.442      0.1000E-02 FIXED          0  -0.0%   0.000       0.000       2.000       2.000       0.000      0.1000E-19   0.000    
    7443   7.443      0.1000E-02 FIXED          0  -0.0%   0.000       0.000       2.000       2.000       0.000      0.1000E-19   0.000    
    7444   7.444      0.1000E-02 FIXED          0  -0.0%   0.000       0.000       2.000       2.000       0.000      0.1000E-19   0.000    
    7445   7.445      0.1000E-02 FIXED          0   0.0%   0.000       0.000       2.000       2.000       0.000      0.1000E-19   0.000    
    7446   7.446      0.1000E-02 FIXED          0  -0.0%   0.000       0.000       2.000       2.000       0.000      0.1000E-19   0.000    
    7447   7.447      0.1000E-02 FIXED          0   0.0%   0.000       0.000       2.000       2.000       0.000      0.1000E-19   0.000    
    7448   7.448      0.1000E-02 FIXED          0   0.0%   0.000       0.000       2.000       2.000       0.000      0.1000E-19   0.000    
    7449   7.449      0.1000E-02 FIXED          0  -0.0%   0.000       0.000       2.000       2.000       0.000      0.1000E-19   0.000    
    7450   7.450      0.1000E-02 FIXED          0   0.0%   0.000       0.000       2.000       2.000       0.000      0.1000E-19   0.000    
    7451   7.451      0.1000E-02 FIXED          0  -0.0%   0.000       0.000       2.000       2.000       0.000      0.1000E-19   0.000    
    7452   7.452      0.1000E-02 FIXED          0   0.0%   0.000       0.000       2.000       2.000       0.000      0.1000E-19   0.000    
    7453   7.453      0.1000E-02 FIXED          0  -0.0%   0.000       0.000       2.000       2.000       0.000      0.1000E-19   0.000    
    7454   7.454      0.1000E-02 FIXED          0   0.0%   0.000       0.000       2.000       2.000       0.000      0.1000E-19   0.000    
    7455   7.455      0.1000E-02 FIXED          0   0.0%   0.000       0.000       2.000       2.000       0.000      0.1000E-19   0.000    
    7456   7.456      0.1000E-02 FIXED          0  -0.0%   0.000       0.000       2.000       2.000       0.000      0.1000E-19   0.000    
    7457   7.457      0.1000E-02 FIXED          0   0.0%   0.000       0.000       2.000       2.000       0.000      0.1000E-19   0.000    
    7458   7.458      0.1000E-02 FIXED          0   0.0%   0.000       0.000       2.000       2.000       0.000      0.1000E-19   0.000    
    7459   7.459      0.1000E-02 FIXED          0  -0.0%   0.000       0.000       2.000       2.000       0.000      0.1000E-19   0.000    
    7460   7.460      0.1000E-02 FIXED          0   0.0%   0.000       0.000       2.000       2.000       0.000      0.1000E-19   0.000    
    7461   7.461      0.1000E-02 FIXED          0   0.0%   0.000       0.000       2.000       2.000       0.000      0.1000E-19   0.000    
    7462   7.462      0.1000E-02 FIXED          0   0.0%   0.000       0.000       2.000       2.000       0.000      0.1000E-19   0.000    
    7463   7.463      0.1000E-02 FIXED          0   0.0%   0.000       0.000       2.000       2.000       0.000      0.1000E-19   0.000    
    7464   7.464      0.1000E-02 FIXED          0  -0.0%   0.000       0.000       2.000       2.000       0.000      0.1000E-19   0.000    
    7465   7.465      0.1000E-02 FIXED          0  -0.0%   0.000       0.000       2.000       2.000       0.000      0.1000E-19   0.000    
    7466   7.466      0.1000E-02 FIXED          0  -0.0%   0.000       0.000       2.000       2.000       0.000      0.1000E-19   0.000    
    7467   7.467      0.1000E-02 FIXED          0   0.0%   0.000       0.000       2.000       2.000       0.000      0.1000E-19   0.000    
    7468   7.468      0.1000E-02 FIXED          0  -0.0%   0.000       0.000       2.000       2.000       0.000      0.1000E-19   0.000    
    7469   7.469      0.1000E-02 FIXED          0   0.0%   0.000       0.000       2.000       2.000       0.000      0.1000E-19   0.000    
    7470   7.470      0.1000E-02 FIXED          0   0.0%   0.000       0.000       2.000       2.000       0.000      0.1000E-19   0.000    
    7471   7.471      0.1000E-02 FIXED          0   0.0%   0.000       0.000       2.000       2.000       0.000      0.1000E-19   0.000    
    7472   7.472      0.1000E-02 FIXED          0  -0.0%   0.000       0.000       2.000       2.000       0.000      0.1000E-19   0.000    
    7473   7.473      0.1000E-02 FIXED          0  -0.0%   0.000       0.000       2.000       2.000       0.000      0.1000E-19   0.000    
    7474   7.474      0.1000E-02 FIXED          0   0.0%   0.000       0.000       2.000       2.000       0.000      0.1000E-19   0.000    
    7475   7.475      0.1000E-02 FIXED          0  -0.0%   0.000       0.000       2.000       2.000       0.000      0.1000E-19   0.000    
    7476   7.476      0.1000E-02 FIXED          0   0.0%   0.000       0.000       2.000       2.000       0.000      0.1000E-19   0.000    
    7477   7.477      0.1000E-02 FIXED          0   0.0%   0.000       0.000       2.000       2.000       0.000      0.1000E-19   0.000    
    7478   7.478      0.1000E-02 FIXED          0   0.0%   0.000       0.000       2.000       2.000       0.000      0.1000E-19   0.000    
    7479   7.479      0.1000E-02 FIXED          0   0.0%   0.000       0.000       2.000       2.000       0.000      0.1000E-19   0.000    
   CYCLE    TIME      TIME-STEP  ELEMENT          ERROR  I-ENERGY    K-ENERGY T  K-ENERGY R  EXT-WORK     MAS.ERR     TOTAL MASS  MASS ADDED
    7480   7.480      0.1000E-02 FIXED          0  -0.0%   0.000       0.000       2.000       2.000       0.000      0.1000E-19   0.000    
    7481   7.481      0.1000E-02 FIXED          0   0.0%   0.000       0.000       2.000       2.000       0.000      0.1000E-19   0.000    
    7482   7.482      0.1000E-02 FIXED          0  -0.0%   0.000       0.000       2.000       2.000       0.000      0.1000E-19   0.000    
    7483   7.483      0.1000E-02 FIXED          0   0.0%   0.000       0.000       2.000       2.000       0.000      0.1000E-19   0.000    
    7484   7.484      0.1000E-02 FIXED          0  -0.0%   0.000       0.000       2.000       2.000       0.000      0.1000E-19   0.000    
    7485   7.485      0.1000E-02 FIXED          0   0.0%   0.000       0.000       2.000       2.000       0.000      0.1000E-19   0.000    
    7486   7.486      0.1000E-02 FIXED          0   0.0%   0.000       0.000       2.000       2.000       0.000      0.1000E-19   0.000    
    7487   7.487      0.1000E-02 FIXED          0  -0.0%   0.000       0.000       2.000       2.000       0.000      0.1000E-19   0.000    
    7488   7.488      0.1000E-02 FIXED          0   0.0%   0.000       0.000       2.000       2.000       0.000      0.1000E-19   0.000    
    7489   7.489      0.1000E-02 FIXED          0  -0.0%   0.000       0.000       2.000       2.000       0.000      0.1000E-19   0.000    
    7490   7.490      0.1000E-02 FIXED          0  -0.0%   0.000       0.000       2.000       2.000       0.000      0.1000E-19   0.000    
    7491   7.491      0.1000E-02 FIXED          0  -0.0%   0.000       0.000       2.000       2.000       0.000      0.1000E-19   0.000    
    7492   7.492      0.1000E-02 FIXED          0   0.0%   0.000       0.000       2.000       2.000       0.000      0.1000E-19   0.000    
    7493   7.493      0.1000E-02 FIXED          0   0.0%   0.000       0.000       2.000       2.000       0.000      0.1000E-19   0.000    
    7494   7.494      0.1000E-02 FIXED          0  -0.0%   0.000       0.000       2.000       2.000       0.000      0.1000E-19   0.000    
    7495   7.495      0.1000E-02 FIXED          0   0.0%   0.000       0.000       2.000       2.000       0.000      0.1000E-19   0.000    
    7496   7.496      0.1000E-02 FIXED          0  -0.0%   0.000       0.000       2.000       2.000       0.000      0.1000E-19   0.000    
    7497   7.497      0.1000E-02 FIXED          0  -0.0%   0.000       0.000       2.000       2.000       0.000      0.1000E-19   0.000    
    7498   7.498      0.1000E-02 FIXED          0   0.0%   0.000       0.000       2.000       2.000       0.000      0.1000E-19   0.000    
    7499   7.499      0.1000E-02 FIXED          0  -0.0%   0.000       0.000       2.000       2.000       0.000      0.1000E-19   0.000    
    7500   7.500      0.1000E-02 FIXED          0   0.0%   0.000       0.000       2.000       2.000       0.000      0.1000E-19   0.000    
    7501   7.501      0.1000E-02 FIXED          0   0.0%   0.000       0.000       2.000       2.000       0.000      0.1000E-19   0.000    
    7502   7.502      0.1000E-02 FIXED          0  -0.0%   0.000       0.000       2.000       2.000       0.000      0.1000E-19   0.000    
    7503   7.503      0.1000E-02 FIXED          0   0.0%   0.000       0.000       2.000       2.000       0.000      0.1000E-19   0.000    
    7504   7.504      0.1000E-02 FIXED          0   0.0%   0.000       0.000       2.000       2.000       0.000      0.1000E-19   0.000    
    7505   7.505      0.1000E-02 FIXED          0   0.0%   0.000       0.000       2.000       2.000       0.000      0.1000E-19   0.000    
    7506   7.506      0.1000E-02 FIXED          0   0.0%   0.000       0.000       2.000       2.000       0.000      0.1000E-19   0.000    
    7507   7.507      0.1000E-02 FIXED          0   0.0%   0.000       0.000       2.000       2.000       0.000      0.1000E-19   0.000    
    7508   7.508      0.1000E-02 FIXED          0   0.0%   0.000       0.000       2.000       2.000       0.000      0.1000E-19   0.000    
    7509   7.509      0.1000E-02 FIXED          0   0.0%   0.000       0.000       2.000       2.000       0.000      0.1000E-19   0.000    
    7510   7.510      0.1000E-02 FIXED          0   0.0%   0.000       0.000       2.000       2.000       0.000      0.1000E-19   0.000    
    7511   7.511      0.1000E-02 FIXED          0   0.0%   0.000       0.000       2.000       2.000       0.000      0.1000E-19   0.000    
    7512   7.512      0.1000E-02 FIXED          0   0.0%   0.000       0.000       2.000       2.000       0.000      0.1000E-19   0.000    
    7513   7.513      0.1000E-02 FIXED          0   0.0%   0.000       0.000       2.000       2.000       0.000      0.1000E-19   0.000    
    7514   7.514      0.1000E-02 FIXED          0   0.0%   0.000       0.000       2.000       2.000       0.000      0.1000E-19   0.000    
    7515   7.515      0.1000E-02 FIXED          0   0.0%   0.000       0.000       2.000       2.000       0.000      0.1000E-19   0.000    
    7516   7.516      0.1000E-02 FIXED          0   0.0%   0.000       0.000       2.000       2.000       0.000      0.1000E-19   0.000    
    7517   7.517      0.1000E-02 FIXED          0  -0.0%   0.000       0.000       2.000       2.000       0.000      0.1000E-19   0.000    
    7518   7.518      0.1000E-02 FIXED          0  -0.0%   0.000       0.000       2.000       2.000       0.000      0.1000E-19   0.000    
    7519   7.519      0.1000E-02 FIXED          0   0.0%   0.000       0.000       2.000       2.000       0.000      0.1000E-19   0.000    
    7520   7.520      0.1000E-02 FIXED          0  -0.0%   0.000       0.000       2.000       2.000       0.000      0.1000E-19   0.000    
    7521   7.521      0.1000E-02 FIXED          0   0.0%   0.000       0.000       2.000       2.000       0.000      0.1000E-19   0.000    
    7522   7.522      0.1000E-02 FIXED          0  -0.0%   0.000       0.000       2.000       2.000       0.000      0.1000E-19   0.000    
    7523   7.523      0.1000E-02 FIXED          0   0.0%   0.000       0.000       2.000       2.000       0.000      0.1000E-19   0.000    
    7524   7.524      0.1000E-02 FIXED          0   0.0%   0.000       0.000       2.000       2.000       0.000      0.1000E-19   0.000    
    7525   7.525      0.1000E-02 FIXED          0  -0.0%   0.000       0.000       2.000       2.000       0.000      0.1000E-19   0.000    
    7526   7.526      0.1000E-02 FIXED          0   0.0%   0.000       0.000       2.000       2.000       0.000      0.1000E-19   0.000    
    7527   7.527      0.1000E-02 FIXED          0   0.0%   0.000       0.000       2.000       2.000       0.000      0.1000E-19   0.000    
    7528   7.528      0.1000E-02 FIXED          0  -0.0%   0.000       0.000       2.000       2.000       0.000      0.1000E-19   0.000    
    7529   7.529      0.1000E-02 FIXED          0   0.0%   0.000       0.000       2.000       2.000       0.000      0.1000E-19   0.000    
    7530   7.530      0.1000E-02 FIXED          0   0.0%   0.000       0.000       2.000       2.000       0.000      0.1000E-19   0.000    
    7531   7.531      0.1000E-02 FIXED          0  -0.0%   0.000       0.000       2.000       2.000       0.000      0.1000E-19   0.000    
    7532   7.532      0.1000E-02 FIXED          0  -0.0%   0.000       0.000       2.000       2.000       0.000      0.1000E-19   0.000    
    7533   7.533      0.1000E-02 FIXED          0   0.0%   0.000       0.000       2.000       2.000       0.000      0.1000E-19   0.000    
    7534   7.534      0.1000E-02 FIXED          0  -0.0%   0.000       0.000       2.000       2.000       0.000      0.1000E-19   0.000    
   CYCLE    TIME      TIME-STEP  ELEMENT          ERROR  I-ENERGY    K-ENERGY T  K-ENERGY R  EXT-WORK     MAS.ERR     TOTAL MASS  MASS ADDED
    7535   7.535      0.1000E-02 FIXED          0  -0.0%   0.000       0.000       2.000       2.000       0.000      0.1000E-19   0.000    
    7536   7.536      0.1000E-02 FIXED          0   0.0%   0.000       0.000       2.000       2.000       0.000      0.1000E-19   0.000    
    7537   7.537      0.1000E-02 FIXED          0   0.0%   0.000       0.000       2.000       2.000       0.000      0.1000E-19   0.000    
    7538   7.538      0.1000E-02 FIXED          0   0.0%   0.000       0.000       2.000       2.000       0.000      0.1000E-19   0.000    
    7539   7.539      0.1000E-02 FIXED          0   0.0%   0.000       0.000       2.000       2.000       0.000      0.1000E-19   0.000    
    7540   7.540      0.1000E-02 FIXED          0  -0.0%   0.000       0.000       2.000       2.000       0.000      0.1000E-19   0.000    
    7541   7.541      0.1000E-02 FIXED          0  -0.0%   0.000       0.000       2.000       2.000       0.000      0.1000E-19   0.000    
    7542   7.542      0.1000E-02 FIXED          0   0.0%   0.000       0.000       2.000       2.000       0.000      0.1000E-19   0.000    
    7543   7.543      0.1000E-02 FIXED          0   0.0%   0.000       0.000       2.000       2.000       0.000      0.1000E-19   0.000    
    7544   7.544      0.1000E-02 FIXED          0   0.0%   0.000       0.000       2.000       2.000       0.000      0.1000E-19   0.000    
    7545   7.545      0.1000E-02 FIXED          0   0.0%   0.000       0.000       2.000       2.000       0.000      0.1000E-19   0.000    
    7546   7.546      0.1000E-02 FIXED          0  -0.0%   0.000       0.000       2.000       2.000       0.000      0.1000E-19   0.000    
    7547   7.547      0.1000E-02 FIXED          0  -0.0%   0.000       0.000       2.000       2.000       0.000      0.1000E-19   0.000    
    7548   7.548      0.1000E-02 FIXED          0  -0.0%   0.000       0.000       2.000       2.000       0.000      0.1000E-19   0.000    
    7549   7.549      0.1000E-02 FIXED          0  -0.0%   0.000       0.000       2.000       2.000       0.000      0.1000E-19   0.000    
    7550   7.550      0.1000E-02 FIXED          0   0.0%   0.000       0.000       2.000       2.000       0.000      0.1000E-19   0.000    
    7551   7.551      0.1000E-02 FIXED          0  -0.0%   0.000       0.000       2.000       2.000       0.000      0.1000E-19   0.000    
    7552   7.552      0.1000E-02 FIXED          0   0.0%   0.000       0.000       2.000       2.000       0.000      0.1000E-19   0.000    
    7553   7.553      0.1000E-02 FIXED          0  -0.0%   0.000       0.000       2.000       2.000       0.000      0.1000E-19   0.000    
    7554   7.554      0.1000E-02 FIXED          0   0.0%   0.000       0.000       2.000       2.000       0.000      0.1000E-19   0.000    
    7555   7.555      0.1000E-02 FIXED          0   0.0%   0.000       0.000       2.000       2.000       0.000      0.1000E-19   0.000    
    7556   7.556      0.1000E-02 FIXED          0  -0.0%   0.000       0.000       2.000       2.000       0.000      0.1000E-19   0.000    
    7557   7.557      0.1000E-02 FIXED          0   0.0%   0.000       0.000       2.000       2.000       0.000      0.1000E-19   0.000    
    7558   7.558      0.1000E-02 FIXED          0   0.0%   0.000       0.000       2.000       2.000       0.000      0.1000E-19   0.000    
    7559   7.559      0.1000E-02 FIXED          0  -0.0%   0.000       0.000       2.000       2.000       0.000      0.1000E-19   0.000    
    7560   7.560      0.1000E-02 FIXED          0  -0.0%   0.000       0.000       2.000       2.000       0.000      0.1000E-19   0.000    
    7561   7.561      0.1000E-02 FIXED          0   0.0%   0.000       0.000       2.000       2.000       0.000      0.1000E-19   0.000    
    7562   7.562      0.1000E-02 FIXED          0  -0.0%   0.000       0.000       2.000       2.000       0.000      0.1000E-19   0.000    
    7563   7.563      0.1000E-02 FIXED          0  -0.0%   0.000       0.000       2.000       2.000       0.000      0.1000E-19   0.000    
    7564   7.564      0.1000E-02 FIXED          0   0.0%   0.000       0.000       2.000       2.000       0.000      0.1000E-19   0.000    
    7565   7.565      0.1000E-02 FIXED          0  -0.0%   0.000       0.000       2.000       2.000       0.000      0.1000E-19   0.000    
    7566   7.566      0.1000E-02 FIXED          0   0.0%   0.000       0.000       2.000       2.000       0.000      0.1000E-19   0.000    
    7567   7.567      0.1000E-02 FIXED          0  -0.0%   0.000       0.000       2.000       2.000       0.000      0.1000E-19   0.000    
    7568   7.568      0.1000E-02 FIXED          0   0.0%   0.000       0.000       2.000       2.000       0.000      0.1000E-19   0.000    
    7569   7.569      0.1000E-02 FIXED          0  -0.0%   0.000       0.000       2.000       2.000       0.000      0.1000E-19   0.000    
    7570   7.570      0.1000E-02 FIXED          0   0.0%   0.000       0.000       2.000       2.000       0.000      0.1000E-19   0.000    
    7571   7.571      0.1000E-02 FIXED          0  -0.0%   0.000       0.000       2.000       2.000       0.000      0.1000E-19   0.000    
    7572   7.572      0.1000E-02 FIXED          0   0.0%   0.000       0.000       2.000       2.000       0.000      0.1000E-19   0.000    
    7573   7.573      0.1000E-02 FIXED          0   0.0%   0.000       0.000       2.000       2.000       0.000      0.1000E-19   0.000    
    7574   7.574      0.1000E-02 FIXED          0   0.0%   0.000       0.000       2.000       2.000       0.000      0.1000E-19   0.000    
    7575   7.575      0.1000E-02 FIXED          0   0.0%   0.000       0.000       2.000       2.000       0.000      0.1000E-19   0.000    
    7576   7.576      0.1000E-02 FIXED          0  -0.0%   0.000       0.000       2.000       2.000       0.000      0.1000E-19   0.000    
    7577   7.577      0.1000E-02 FIXED          0  -0.0%   0.000       0.000       2.000       2.000       0.000      0.1000E-19   0.000    
    7578   7.578      0.1000E-02 FIXED          0   0.0%   0.000       0.000       2.000       2.000       0.000      0.1000E-19   0.000    
    7579   7.579      0.1000E-02 FIXED          0  -0.0%   0.000       0.000       2.000       2.000       0.000      0.1000E-19   0.000    
    7580   7.580      0.1000E-02 FIXED          0   0.0%   0.000       0.000       2.000       2.000       0.000      0.1000E-19   0.000    
    7581   7.581      0.1000E-02 FIXED          0  -0.0%   0.000       0.000       2.000       2.000       0.000      0.1000E-19   0.000    
    7582   7.582      0.1000E-02 FIXED          0   0.0%   0.000       0.000       2.000       2.000       0.000      0.1000E-19   0.000    
    7583   7.583      0.1000E-02 FIXED          0  -0.0%   0.000       0.000       2.000       2.000       0.000      0.1000E-19   0.000    
    7584   7.584      0.1000E-02 FIXED          0   0.0%   0.000       0.000       2.000       2.000       0.000      0.1000E-19   0.000    
    7585   7.585      0.1000E-02 FIXED          0  -0.0%   0.000       0.000       2.000       2.000       0.000      0.1000E-19   0.000    
    7586   7.586      0.1000E-02 FIXED          0   0.0%   0.000       0.000       2.000       2.000       0.000      0.1000E-19   0.000    
    7587   7.587      0.1000E-02 FIXED          0   0.0%   0.000       0.000       2.000       2.000       0.000      0.1000E-19   0.000    
    7588   7.588      0.1000E-02 FIXED          0  -0.0%   0.000       0.000       2.000       2.000       0.000      0.1000E-19   0.000    
    7589   7.589      0.1000E-02 FIXED          0   0.0%   0.000       0.000       2.000       2.000       0.000      0.1000E-19   0.000    
   CYCLE    TIME      TIME-STEP  ELEMENT          ERROR  I-ENERGY    K-ENERGY T  K-ENERGY R  EXT-WORK     MAS.ERR     TOTAL MASS  MASS ADDED
    7590   7.590      0.1000E-02 FIXED          0  -0.0%   0.000       0.000       2.000       2.000       0.000      0.1000E-19   0.000    
    7591   7.591      0.1000E-02 FIXED          0   0.0%   0.000       0.000       2.000       2.000       0.000      0.1000E-19   0.000    
    7592   7.592      0.1000E-02 FIXED          0  -0.0%   0.000       0.000       2.000       2.000       0.000      0.1000E-19   0.000    
    7593   7.593      0.1000E-02 FIXED          0   0.0%   0.000       0.000       2.000       2.000       0.000      0.1000E-19   0.000    
    7594   7.594      0.1000E-02 FIXED          0  -0.0%   0.000       0.000       2.000       2.000       0.000      0.1000E-19   0.000    
    7595   7.595      0.1000E-02 FIXED          0   0.0%   0.000       0.000       2.000       2.000       0.000      0.1000E-19   0.000    
    7596   7.596      0.1000E-02 FIXED          0   0.0%   0.000       0.000       2.000       2.000       0.000      0.1000E-19   0.000    
    7597   7.597      0.1000E-02 FIXED          0  -0.0%   0.000       0.000       2.000       2.000       0.000      0.1000E-19   0.000    
    7598   7.598      0.1000E-02 FIXED          0   0.0%   0.000       0.000       2.000       2.000       0.000      0.1000E-19   0.000    
    7599   7.599      0.1000E-02 FIXED          0  -0.0%   0.000       0.000       2.000       2.000       0.000      0.1000E-19   0.000    
    7600   7.600      0.1000E-02 FIXED          0   0.0%   0.000       0.000       2.000       2.000       0.000      0.1000E-19   0.000    
    7601   7.601      0.1000E-02 FIXED          0  -0.0%   0.000       0.000       2.000       2.000       0.000      0.1000E-19   0.000    
    7602   7.602      0.1000E-02 FIXED          0   0.0%   0.000       0.000       2.000       2.000       0.000      0.1000E-19   0.000    
    7603   7.603      0.1000E-02 FIXED          0   0.0%   0.000       0.000       2.000       2.000       0.000      0.1000E-19   0.000    
    7604   7.604      0.1000E-02 FIXED          0   0.0%   0.000       0.000       2.000       2.000       0.000      0.1000E-19   0.000    
    7605   7.605      0.1000E-02 FIXED          0   0.0%   0.000       0.000       2.000       2.000       0.000      0.1000E-19   0.000    
    7606   7.606      0.1000E-02 FIXED          0  -0.0%   0.000       0.000       2.000       2.000       0.000      0.1000E-19   0.000    
    7607   7.607      0.1000E-02 FIXED          0   0.0%   0.000       0.000       2.000       2.000       0.000      0.1000E-19   0.000    
    7608   7.608      0.1000E-02 FIXED          0   0.0%   0.000       0.000       2.000       2.000       0.000      0.1000E-19   0.000    
    7609   7.609      0.1000E-02 FIXED          0  -0.0%   0.000       0.000       2.000       2.000       0.000      0.1000E-19   0.000    
    7610   7.610      0.1000E-02 FIXED          0   0.0%   0.000       0.000       2.000       2.000       0.000      0.1000E-19   0.000    
    7611   7.611      0.1000E-02 FIXED          0   0.0%   0.000       0.000       2.000       2.000       0.000      0.1000E-19   0.000    
    7612   7.612      0.1000E-02 FIXED          0  -0.0%   0.000       0.000       2.000       2.000       0.000      0.1000E-19   0.000    
    7613   7.613      0.1000E-02 FIXED          0  -0.0%   0.000       0.000       2.000       2.000       0.000      0.1000E-19   0.000    
    7614   7.614      0.1000E-02 FIXED          0   0.0%   0.000       0.000       2.000       2.000       0.000      0.1000E-19   0.000    
    7615   7.615      0.1000E-02 FIXED          0  -0.0%   0.000       0.000       2.000       2.000       0.000      0.1000E-19   0.000    
    7616   7.616      0.1000E-02 FIXED          0   0.0%   0.000       0.000       2.000       2.000       0.000      0.1000E-19   0.000    
    7617   7.617      0.1000E-02 FIXED          0   0.0%   0.000       0.000       2.000       2.000       0.000      0.1000E-19   0.000    
    7618   7.618      0.1000E-02 FIXED          0   0.0%   0.000       0.000       2.000       2.000       0.000      0.1000E-19   0.000    
    7619   7.619      0.1000E-02 FIXED          0   0.0%   0.000       0.000       2.000       2.000       0.000      0.1000E-19   0.000    
    7620   7.620      0.1000E-02 FIXED          0  -0.0%   0.000       0.000       2.000       2.000       0.000      0.1000E-19   0.000    
    7621   7.621      0.1000E-02 FIXED          0   0.0%   0.000       0.000       2.000       2.000       0.000      0.1000E-19   0.000    
    7622   7.622      0.1000E-02 FIXED          0   0.0%   0.000       0.000       2.000       2.000       0.000      0.1000E-19   0.000    
    7623   7.623      0.1000E-02 FIXED          0   0.0%   0.000       0.000       2.000       2.000       0.000      0.1000E-19   0.000    
    7624   7.624      0.1000E-02 FIXED          0   0.0%   0.000       0.000       2.000       2.000       0.000      0.1000E-19   0.000    
    7625   7.625      0.1000E-02 FIXED          0  -0.0%   0.000       0.000       2.000       2.000       0.000      0.1000E-19   0.000    
    7626   7.626      0.1000E-02 FIXED          0   0.0%   0.000       0.000       2.000       2.000       0.000      0.1000E-19   0.000    
    7627   7.627      0.1000E-02 FIXED          0   0.0%   0.000       0.000       2.000       2.000       0.000      0.1000E-19   0.000    
    7628   7.628      0.1000E-02 FIXED          0   0.0%   0.000       0.000       2.000       2.000       0.000      0.1000E-19   0.000    
    7629   7.629      0.1000E-02 FIXED          0   0.0%   0.000       0.000       2.000       2.000       0.000      0.1000E-19   0.000    
    7630   7.630      0.1000E-02 FIXED          0  -0.0%   0.000       0.000       2.000       2.000       0.000      0.1000E-19   0.000    
    7631   7.631      0.1000E-02 FIXED          0   0.0%   0.000       0.000       2.000       2.000       0.000      0.1000E-19   0.000    
    7632   7.632      0.1000E-02 FIXED          0  -0.0%   0.000       0.000       2.000       2.000       0.000      0.1000E-19   0.000    
    7633   7.633      0.1000E-02 FIXED          0   0.0%   0.000       0.000       2.000       2.000       0.000      0.1000E-19   0.000    
    7634   7.634      0.1000E-02 FIXED          0  -0.0%   0.000       0.000       2.000       2.000       0.000      0.1000E-19   0.000    
    7635   7.635      0.1000E-02 FIXED          0   0.0%   0.000       0.000       2.000       2.000       0.000      0.1000E-19   0.000    
    7636   7.636      0.1000E-02 FIXED          0  -0.0%   0.000       0.000       2.000       2.000       0.000      0.1000E-19   0.000    
    7637   7.637      0.1000E-02 FIXED          0  -0.0%   0.000       0.000       2.000       2.000       0.000      0.1000E-19   0.000    
    7638   7.638      0.1000E-02 FIXED          0  -0.0%   0.000       0.000       2.000       2.000       0.000      0.1000E-19   0.000    
    7639   7.639      0.1000E-02 FIXED          0   0.0%   0.000       0.000       2.000       2.000       0.000      0.1000E-19   0.000    
    7640   7.640      0.1000E-02 FIXED          0  -0.0%   0.000       0.000       2.000       2.000       0.000      0.1000E-19   0.000    
    7641   7.641      0.1000E-02 FIXED          0   0.0%   0.000       0.000       2.000       2.000       0.000      0.1000E-19   0.000    
    7642   7.642      0.1000E-02 FIXED          0   0.0%   0.000       0.000       2.000       2.000       0.000      0.1000E-19   0.000    
    7643   7.643      0.1000E-02 FIXED          0   0.0%   0.000       0.000       2.000       2.000       0.000      0.1000E-19   0.000    
    7644   7.644      0.1000E-02 FIXED          0   0.0%   0.000       0.000       2.000       2.000       0.000      0.1000E-19   0.000    
   CYCLE    TIME      TIME-STEP  ELEMENT          ERROR  I-ENERGY    K-ENERGY T  K-ENERGY R  EXT-WORK     MAS.ERR     TOTAL MASS  MASS ADDED
    7645   7.645      0.1000E-02 FIXED          0   0.0%   0.000       0.000       2.000       2.000       0.000      0.1000E-19   0.000    
    7646   7.646      0.1000E-02 FIXED          0   0.0%   0.000       0.000       2.000       2.000       0.000      0.1000E-19   0.000    
    7647   7.647      0.1000E-02 FIXED          0  -0.0%   0.000       0.000       2.000       2.000       0.000      0.1000E-19   0.000    
    7648   7.648      0.1000E-02 FIXED          0   0.0%   0.000       0.000       2.000       2.000       0.000      0.1000E-19   0.000    
    7649   7.649      0.1000E-02 FIXED          0  -0.0%   0.000       0.000       2.000       2.000       0.000      0.1000E-19   0.000    
    7650   7.650      0.1000E-02 FIXED          0   0.0%   0.000       0.000       2.000       2.000       0.000      0.1000E-19   0.000    
    7651   7.651      0.1000E-02 FIXED          0  -0.0%   0.000       0.000       2.000       2.000       0.000      0.1000E-19   0.000    
    7652   7.652      0.1000E-02 FIXED          0   0.0%   0.000       0.000       2.000       2.000       0.000      0.1000E-19   0.000    
    7653   7.653      0.1000E-02 FIXED          0   0.0%   0.000       0.000       2.000       2.000       0.000      0.1000E-19   0.000    
    7654   7.654      0.1000E-02 FIXED          0   0.0%   0.000       0.000       2.000       2.000       0.000      0.1000E-19   0.000    
    7655   7.655      0.1000E-02 FIXED          0   0.0%   0.000       0.000       2.000       2.000       0.000      0.1000E-19   0.000    
    7656   7.656      0.1000E-02 FIXED          0  -0.0%   0.000       0.000       2.000       2.000       0.000      0.1000E-19   0.000    
    7657   7.657      0.1000E-02 FIXED          0   0.0%   0.000       0.000       2.000       2.000       0.000      0.1000E-19   0.000    
    7658   7.658      0.1000E-02 FIXED          0  -0.0%   0.000       0.000       2.000       2.000       0.000      0.1000E-19   0.000    
    7659   7.659      0.1000E-02 FIXED          0   0.0%   0.000       0.000       2.000       2.000       0.000      0.1000E-19   0.000    
    7660   7.660      0.1000E-02 FIXED          0   0.0%   0.000       0.000       2.000       2.000       0.000      0.1000E-19   0.000    
    7661   7.661      0.1000E-02 FIXED          0  -0.0%   0.000       0.000       2.000       2.000       0.000      0.1000E-19   0.000    
    7662   7.662      0.1000E-02 FIXED          0   0.0%   0.000       0.000       2.000       2.000       0.000      0.1000E-19   0.000    
    7663   7.663      0.1000E-02 FIXED          0   0.0%   0.000       0.000       2.000       2.000       0.000      0.1000E-19   0.000    
    7664   7.664      0.1000E-02 FIXED          0  -0.0%   0.000       0.000       2.000       2.000       0.000      0.1000E-19   0.000    
    7665   7.665      0.1000E-02 FIXED          0   0.0%   0.000       0.000       2.000       2.000       0.000      0.1000E-19   0.000    
    7666   7.666      0.1000E-02 FIXED          0   0.0%   0.000       0.000       2.000       2.000       0.000      0.1000E-19   0.000    
    7667   7.667      0.1000E-02 FIXED          0   0.0%   0.000       0.000       2.000       2.000       0.000      0.1000E-19   0.000    
    7668   7.668      0.1000E-02 FIXED          0  -0.0%   0.000       0.000       2.000       2.000       0.000      0.1000E-19   0.000    
    7669   7.669      0.1000E-02 FIXED          0   0.0%   0.000       0.000       2.000       2.000       0.000      0.1000E-19   0.000    
    7670   7.670      0.1000E-02 FIXED          0  -0.0%   0.000       0.000       2.000       2.000       0.000      0.1000E-19   0.000    
    7671   7.671      0.1000E-02 FIXED          0   0.0%   0.000       0.000       2.000       2.000       0.000      0.1000E-19   0.000    
    7672   7.672      0.1000E-02 FIXED          0   0.0%   0.000       0.000       2.000       2.000       0.000      0.1000E-19   0.000    
    7673   7.673      0.1000E-02 FIXED          0  -0.0%   0.000       0.000       2.000       2.000       0.000      0.1000E-19   0.000    
    7674   7.674      0.1000E-02 FIXED          0   0.0%   0.000       0.000       2.000       2.000       0.000      0.1000E-19   0.000    
    7675   7.675      0.1000E-02 FIXED          0  -0.0%   0.000       0.000       2.000       2.000       0.000      0.1000E-19   0.000    
    7676   7.676      0.1000E-02 FIXED          0   0.0%   0.000       0.000       2.000       2.000       0.000      0.1000E-19   0.000    
    7677   7.677      0.1000E-02 FIXED          0  -0.0%   0.000       0.000       2.000       2.000       0.000      0.1000E-19   0.000    
    7678   7.678      0.1000E-02 FIXED          0  -0.0%   0.000       0.000       2.000       2.000       0.000      0.1000E-19   0.000    
    7679   7.679      0.1000E-02 FIXED          0   0.0%   0.000       0.000       2.000       2.000       0.000      0.1000E-19   0.000    
    7680   7.680      0.1000E-02 FIXED          0  -0.0%   0.000       0.000       2.000       2.000       0.000      0.1000E-19   0.000    
    7681   7.681      0.1000E-02 FIXED          0   0.0%   0.000       0.000       2.000       2.000       0.000      0.1000E-19   0.000    
    7682   7.682      0.1000E-02 FIXED          0   0.0%   0.000       0.000       2.000       2.000       0.000      0.1000E-19   0.000    
    7683   7.683      0.1000E-02 FIXED          0  -0.0%   0.000       0.000       2.000       2.000       0.000      0.1000E-19   0.000    
    7684   7.684      0.1000E-02 FIXED          0   0.0%   0.000       0.000       2.000       2.000       0.000      0.1000E-19   0.000    
    7685   7.685      0.1000E-02 FIXED          0  -0.0%   0.000       0.000       2.000       2.000       0.000      0.1000E-19   0.000    
    7686   7.686      0.1000E-02 FIXED          0   0.0%   0.000       0.000       2.000       2.000       0.000      0.1000E-19   0.000    
    7687   7.687      0.1000E-02 FIXED          0  -0.0%   0.000       0.000       2.000       2.000       0.000      0.1000E-19   0.000    
    7688   7.688      0.1000E-02 FIXED          0  -0.0%   0.000       0.000       2.000       2.000       0.000      0.1000E-19   0.000    
    7689   7.689      0.1000E-02 FIXED          0   0.0%   0.000       0.000       2.000       2.000       0.000      0.1000E-19   0.000    
    7690   7.690      0.1000E-02 FIXED          0   0.0%   0.000       0.000       2.000       2.000       0.000      0.1000E-19   0.000    
    7691   7.691      0.1000E-02 FIXED          0  -0.0%   0.000       0.000       2.000       2.000       0.000      0.1000E-19   0.000    
    7692   7.692      0.1000E-02 FIXED          0   0.0%   0.000       0.000       2.000       2.000       0.000      0.1000E-19   0.000    
    7693   7.693      0.1000E-02 FIXED          0  -0.0%   0.000       0.000       2.000       2.000       0.000      0.1000E-19   0.000    
    7694   7.694      0.1000E-02 FIXED          0  -0.0%   0.000       0.000       2.000       2.000       0.000      0.1000E-19   0.000    
    7695   7.695      0.1000E-02 FIXED          0  -0.0%   0.000       0.000       2.000       2.000       0.000      0.1000E-19   0.000    
    7696   7.696      0.1000E-02 FIXED          0  -0.0%   0.000       0.000       2.000       2.000       0.000      0.1000E-19   0.000    
    7697   7.697      0.1000E-02 FIXED          0   0.0%   0.000       0.000       2.000       2.000       0.000      0.1000E-19   0.000    
    7698   7.698      0.1000E-02 FIXED          0  -0.0%   0.000       0.000       2.000       2.000       0.000      0.1000E-19   0.000    
    7699   7.699      0.1000E-02 FIXED          0   0.0%   0.000       0.000       2.000       2.000       0.000      0.1000E-19   0.000    
   CYCLE    TIME      TIME-STEP  ELEMENT          ERROR  I-ENERGY    K-ENERGY T  K-ENERGY R  EXT-WORK     MAS.ERR     TOTAL MASS  MASS ADDED
    7700   7.700      0.1000E-02 FIXED          0  -0.0%   0.000       0.000       2.000       2.000       0.000      0.1000E-19   0.000    
    7701   7.701      0.1000E-02 FIXED          0   0.0%   0.000       0.000       2.000       2.000       0.000      0.1000E-19   0.000    
    7702   7.702      0.1000E-02 FIXED          0   0.0%   0.000       0.000       2.000       2.000       0.000      0.1000E-19   0.000    
    7703   7.703      0.1000E-02 FIXED          0  -0.0%   0.000       0.000       2.000       2.000       0.000      0.1000E-19   0.000    
    7704   7.704      0.1000E-02 FIXED          0  -0.0%   0.000       0.000       2.000       2.000       0.000      0.1000E-19   0.000    
    7705   7.705      0.1000E-02 FIXED          0   0.0%   0.000       0.000       2.000       2.000       0.000      0.1000E-19   0.000    
    7706   7.706      0.1000E-02 FIXED          0   0.0%   0.000       0.000       2.000       2.000       0.000      0.1000E-19   0.000    
    7707   7.707      0.1000E-02 FIXED          0  -0.0%   0.000       0.000       2.000       2.000       0.000      0.1000E-19   0.000    
    7708   7.708      0.1000E-02 FIXED          0   0.0%   0.000       0.000       2.000       2.000       0.000      0.1000E-19   0.000    
    7709   7.709      0.1000E-02 FIXED          0   0.0%   0.000       0.000       2.000       2.000       0.000      0.1000E-19   0.000    
    7710   7.710      0.1000E-02 FIXED          0   0.0%   0.000       0.000       2.000       2.000       0.000      0.1000E-19   0.000    
    7711   7.711      0.1000E-02 FIXED          0   0.0%   0.000       0.000       2.000       2.000       0.000      0.1000E-19   0.000    
    7712   7.712      0.1000E-02 FIXED          0   0.0%   0.000       0.000       2.000       2.000       0.000      0.1000E-19   0.000    
    7713   7.713      0.1000E-02 FIXED          0   0.0%   0.000       0.000       2.000       2.000       0.000      0.1000E-19   0.000    
    7714   7.714      0.1000E-02 FIXED          0  -0.0%   0.000       0.000       2.000       2.000       0.000      0.1000E-19   0.000    
    7715   7.715      0.1000E-02 FIXED          0   0.0%   0.000       0.000       2.000       2.000       0.000      0.1000E-19   0.000    
    7716   7.716      0.1000E-02 FIXED          0  -0.0%   0.000       0.000       2.000       2.000       0.000      0.1000E-19   0.000    
    7717   7.717      0.1000E-02 FIXED          0   0.0%   0.000       0.000       2.000       2.000       0.000      0.1000E-19   0.000    
    7718   7.718      0.1000E-02 FIXED          0  -0.0%   0.000       0.000       2.000       2.000       0.000      0.1000E-19   0.000    
    7719   7.719      0.1000E-02 FIXED          0  -0.0%   0.000       0.000       2.000       2.000       0.000      0.1000E-19   0.000    
    7720   7.720      0.1000E-02 FIXED          0  -0.0%   0.000       0.000       2.000       2.000       0.000      0.1000E-19   0.000    
    7721   7.721      0.1000E-02 FIXED          0   0.0%   0.000       0.000       2.000       2.000       0.000      0.1000E-19   0.000    
    7722   7.722      0.1000E-02 FIXED          0   0.0%   0.000       0.000       2.000       2.000       0.000      0.1000E-19   0.000    
    7723   7.723      0.1000E-02 FIXED          0  -0.0%   0.000       0.000       2.000       2.000       0.000      0.1000E-19   0.000    
    7724   7.724      0.1000E-02 FIXED          0   0.0%   0.000       0.000       2.000       2.000       0.000      0.1000E-19   0.000    
    7725   7.725      0.1000E-02 FIXED          0   0.0%   0.000       0.000       2.000       2.000       0.000      0.1000E-19   0.000    
    7726   7.726      0.1000E-02 FIXED          0   0.0%   0.000       0.000       2.000       2.000       0.000      0.1000E-19   0.000    
    7727   7.727      0.1000E-02 FIXED          0   0.0%   0.000       0.000       2.000       2.000       0.000      0.1000E-19   0.000    
    7728   7.728      0.1000E-02 FIXED          0  -0.0%   0.000       0.000       2.000       2.000       0.000      0.1000E-19   0.000    
    7729   7.729      0.1000E-02 FIXED          0   0.0%   0.000       0.000       2.000       2.000       0.000      0.1000E-19   0.000    
    7730   7.730      0.1000E-02 FIXED          0  -0.0%   0.000       0.000       2.000       2.000       0.000      0.1000E-19   0.000    
    7731   7.731      0.1000E-02 FIXED          0   0.0%   0.000       0.000       2.000       2.000       0.000      0.1000E-19   0.000    
    7732   7.732      0.1000E-02 FIXED          0   0.0%   0.000       0.000       2.000       2.000       0.000      0.1000E-19   0.000    
    7733   7.733      0.1000E-02 FIXED          0  -0.0%   0.000       0.000       2.000       2.000       0.000      0.1000E-19   0.000    
    7734   7.734      0.1000E-02 FIXED          0   0.0%   0.000       0.000       2.000       2.000       0.000      0.1000E-19   0.000    
    7735   7.735      0.1000E-02 FIXED          0   0.0%   0.000       0.000       2.000       2.000       0.000      0.1000E-19   0.000    
    7736   7.736      0.1000E-02 FIXED          0  -0.0%   0.000       0.000       2.000       2.000       0.000      0.1000E-19   0.000    
    7737   7.737      0.1000E-02 FIXED          0   0.0%   0.000       0.000       2.000       2.000       0.000      0.1000E-19   0.000    
    7738   7.738      0.1000E-02 FIXED          0   0.0%   0.000       0.000       2.000       2.000       0.000      0.1000E-19   0.000    
    7739   7.739      0.1000E-02 FIXED          0  -0.0%   0.000       0.000       2.000       2.000       0.000      0.1000E-19   0.000    
    7740   7.740      0.1000E-02 FIXED          0   0.0%   0.000       0.000       2.000       2.000       0.000      0.1000E-19   0.000    
    7741   7.741      0.1000E-02 FIXED          0   0.0%   0.000       0.000       2.000       2.000       0.000      0.1000E-19   0.000    
    7742   7.742      0.1000E-02 FIXED          0   0.0%   0.000       0.000       2.000       2.000       0.000      0.1000E-19   0.000    
    7743   7.743      0.1000E-02 FIXED          0  -0.0%   0.000       0.000       2.000       2.000       0.000      0.1000E-19   0.000    
    7744   7.744      0.1000E-02 FIXED          0   0.0%   0.000       0.000       2.000       2.000       0.000      0.1000E-19   0.000    
    7745   7.745      0.1000E-02 FIXED          0   0.0%   0.000       0.000       2.000       2.000       0.000      0.1000E-19   0.000    
    7746   7.746      0.1000E-02 FIXED          0   0.0%   0.000       0.000       2.000       2.000       0.000      0.1000E-19   0.000    
    7747   7.747      0.1000E-02 FIXED          0   0.0%   0.000       0.000       2.000       2.000       0.000      0.1000E-19   0.000    
    7748   7.748      0.1000E-02 FIXED          0  -0.0%   0.000       0.000       2.000       2.000       0.000      0.1000E-19   0.000    
    7749   7.749      0.1000E-02 FIXED          0  -0.0%   0.000       0.000       2.000       2.000       0.000      0.1000E-19   0.000    
    7750   7.750      0.1000E-02 FIXED          0   0.0%   0.000       0.000       2.000       2.000       0.000      0.1000E-19   0.000    
    7751   7.751      0.1000E-02 FIXED          0   0.0%   0.000       0.000       2.000       2.000       0.000      0.1000E-19   0.000    
    7752   7.752      0.1000E-02 FIXED          0   0.0%   0.000       0.000       2.000       2.000       0.000      0.1000E-19   0.000    
    7753   7.753      0.1000E-02 FIXED          0  -0.0%   0.000       0.000       2.000       2.000       0.000      0.1000E-19   0.000    
    7754   7.754      0.1000E-02 FIXED          0   0.0%   0.000       0.000       2.000       2.000       0.000      0.1000E-19   0.000    
   CYCLE    TIME      TIME-STEP  ELEMENT          ERROR  I-ENERGY    K-ENERGY T  K-ENERGY R  EXT-WORK     MAS.ERR     TOTAL MASS  MASS ADDED
    7755   7.755      0.1000E-02 FIXED          0   0.0%   0.000       0.000       2.000       2.000       0.000      0.1000E-19   0.000    
    7756   7.756      0.1000E-02 FIXED          0   0.0%   0.000       0.000       2.000       2.000       0.000      0.1000E-19   0.000    
    7757   7.757      0.1000E-02 FIXED          0  -0.0%   0.000       0.000       2.000       2.000       0.000      0.1000E-19   0.000    
    7758   7.758      0.1000E-02 FIXED          0   0.0%   0.000       0.000       2.000       2.000       0.000      0.1000E-19   0.000    
    7759   7.759      0.1000E-02 FIXED          0   0.0%   0.000       0.000       2.000       2.000       0.000      0.1000E-19   0.000    
    7760   7.760      0.1000E-02 FIXED          0  -0.0%   0.000       0.000       2.000       2.000       0.000      0.1000E-19   0.000    
    7761   7.761      0.1000E-02 FIXED          0   0.0%   0.000       0.000       2.000       2.000       0.000      0.1000E-19   0.000    
    7762   7.762      0.1000E-02 FIXED          0   0.0%   0.000       0.000       2.000       2.000       0.000      0.1000E-19   0.000    
    7763   7.763      0.1000E-02 FIXED          0  -0.0%   0.000       0.000       2.000       2.000       0.000      0.1000E-19   0.000    
    7764   7.764      0.1000E-02 FIXED          0  -0.0%   0.000       0.000       2.000       2.000       0.000      0.1000E-19   0.000    
    7765   7.765      0.1000E-02 FIXED          0   0.0%   0.000       0.000       2.000       2.000       0.000      0.1000E-19   0.000    
    7766   7.766      0.1000E-02 FIXED          0  -0.0%   0.000       0.000       2.000       2.000       0.000      0.1000E-19   0.000    
    7767   7.767      0.1000E-02 FIXED          0   0.0%   0.000       0.000       2.000       2.000       0.000      0.1000E-19   0.000    
    7768   7.768      0.1000E-02 FIXED          0  -0.0%   0.000       0.000       2.000       2.000       0.000      0.1000E-19   0.000    
    7769   7.769      0.1000E-02 FIXED          0   0.0%   0.000       0.000       2.000       2.000       0.000      0.1000E-19   0.000    
    7770   7.770      0.1000E-02 FIXED          0   0.0%   0.000       0.000       2.000       2.000       0.000      0.1000E-19   0.000    
    7771   7.771      0.1000E-02 FIXED          0  -0.0%   0.000       0.000       2.000       2.000       0.000      0.1000E-19   0.000    
    7772   7.772      0.1000E-02 FIXED          0   0.0%   0.000       0.000       2.000       2.000       0.000      0.1000E-19   0.000    
    7773   7.773      0.1000E-02 FIXED          0   0.0%   0.000       0.000       2.000       2.000       0.000      0.1000E-19   0.000    
    7774   7.774      0.1000E-02 FIXED          0   0.0%   0.000       0.000       2.000       2.000       0.000      0.1000E-19   0.000    
    7775   7.775      0.1000E-02 FIXED          0  -0.0%   0.000       0.000       2.000       2.000       0.000      0.1000E-19   0.000    
    7776   7.776      0.1000E-02 FIXED          0   0.0%   0.000       0.000       2.000       2.000       0.000      0.1000E-19   0.000    
    7777   7.777      0.1000E-02 FIXED          0   0.0%   0.000       0.000       2.000       2.000       0.000      0.1000E-19   0.000    
    7778   7.778      0.1000E-02 FIXED          0   0.0%   0.000       0.000       2.000       2.000       0.000      0.1000E-19   0.000    
    7779   7.779      0.1000E-02 FIXED          0  -0.0%   0.000       0.000       2.000       2.000       0.000      0.1000E-19   0.000    
    7780   7.780      0.1000E-02 FIXED          0   0.0%   0.000       0.000       2.000       2.000       0.000      0.1000E-19   0.000    
    7781   7.781      0.1000E-02 FIXED          0  -0.0%   0.000       0.000       2.000       2.000       0.000      0.1000E-19   0.000    
    7782   7.782      0.1000E-02 FIXED          0   0.0%   0.000       0.000       2.000       2.000       0.000      0.1000E-19   0.000    
    7783   7.783      0.1000E-02 FIXED          0  -0.0%   0.000       0.000       2.000       2.000       0.000      0.1000E-19   0.000    
    7784   7.784      0.1000E-02 FIXED          0   0.0%   0.000       0.000       2.000       2.000       0.000      0.1000E-19   0.000    
    7785   7.785      0.1000E-02 FIXED          0  -0.0%   0.000       0.000       2.000       2.000       0.000      0.1000E-19   0.000    
    7786   7.786      0.1000E-02 FIXED          0  -0.0%   0.000       0.000       2.000       2.000       0.000      0.1000E-19   0.000    
    7787   7.787      0.1000E-02 FIXED          0   0.0%   0.000       0.000       2.000       2.000       0.000      0.1000E-19   0.000    
    7788   7.788      0.1000E-02 FIXED          0   0.0%   0.000       0.000       2.000       2.000       0.000      0.1000E-19   0.000    
    7789   7.789      0.1000E-02 FIXED          0  -0.0%   0.000       0.000       2.000       2.000       0.000      0.1000E-19   0.000    
    7790   7.790      0.1000E-02 FIXED          0   0.0%   0.000       0.000       2.000       2.000       0.000      0.1000E-19   0.000    
    7791   7.791      0.1000E-02 FIXED          0   0.0%   0.000       0.000       2.000       2.000       0.000      0.1000E-19   0.000    
    7792   7.792      0.1000E-02 FIXED          0   0.0%   0.000       0.000       2.000       2.000       0.000      0.1000E-19   0.000    
    7793   7.793      0.1000E-02 FIXED          0  -0.0%   0.000       0.000       2.000       2.000       0.000      0.1000E-19   0.000    
    7794   7.794      0.1000E-02 FIXED          0  -0.0%   0.000       0.000       2.000       2.000       0.000      0.1000E-19   0.000    
    7795   7.795      0.1000E-02 FIXED          0   0.0%   0.000       0.000       2.000       2.000       0.000      0.1000E-19   0.000    
    7796   7.796      0.1000E-02 FIXED          0  -0.0%   0.000       0.000       2.000       2.000       0.000      0.1000E-19   0.000    
    7797   7.797      0.1000E-02 FIXED          0   0.0%   0.000       0.000       2.000       2.000       0.000      0.1000E-19   0.000    
    7798   7.798      0.1000E-02 FIXED          0  -0.0%   0.000       0.000       2.000       2.000       0.000      0.1000E-19   0.000    
    7799   7.799      0.1000E-02 FIXED          0   0.0%   0.000       0.000       2.000       2.000       0.000      0.1000E-19   0.000    
    7800   7.800      0.1000E-02 FIXED          0  -0.0%   0.000       0.000       2.000       2.000       0.000      0.1000E-19   0.000    
    7801   7.801      0.1000E-02 FIXED          0   0.0%   0.000       0.000       2.000       2.000       0.000      0.1000E-19   0.000    
    7802   7.802      0.1000E-02 FIXED          0   0.0%   0.000       0.000       2.000       2.000       0.000      0.1000E-19   0.000    
    7803   7.803      0.1000E-02 FIXED          0   0.0%   0.000       0.000       2.000       2.000       0.000      0.1000E-19   0.000    
    7804   7.804      0.1000E-02 FIXED          0   0.0%   0.000       0.000       2.000       2.000       0.000      0.1000E-19   0.000    
    7805   7.805      0.1000E-02 FIXED          0   0.0%   0.000       0.000       2.000       2.000       0.000      0.1000E-19   0.000    
    7806   7.806      0.1000E-02 FIXED          0  -0.0%   0.000       0.000       2.000       2.000       0.000      0.1000E-19   0.000    
    7807   7.807      0.1000E-02 FIXED          0  -0.0%   0.000       0.000       2.000       2.000       0.000      0.1000E-19   0.000    
    7808   7.808      0.1000E-02 FIXED          0  -0.0%   0.000       0.000       2.000       2.000       0.000      0.1000E-19   0.000    
    7809   7.809      0.1000E-02 FIXED          0  -0.0%   0.000       0.000       2.000       2.000       0.000      0.1000E-19   0.000    
   CYCLE    TIME      TIME-STEP  ELEMENT          ERROR  I-ENERGY    K-ENERGY T  K-ENERGY R  EXT-WORK     MAS.ERR     TOTAL MASS  MASS ADDED
    7810   7.810      0.1000E-02 FIXED          0   0.0%   0.000       0.000       2.000       2.000       0.000      0.1000E-19   0.000    
    7811   7.811      0.1000E-02 FIXED          0   0.0%   0.000       0.000       2.000       2.000       0.000      0.1000E-19   0.000    
    7812   7.812      0.1000E-02 FIXED          0   0.0%   0.000       0.000       2.000       2.000       0.000      0.1000E-19   0.000    
    7813   7.813      0.1000E-02 FIXED          0  -0.0%   0.000       0.000       2.000       2.000       0.000      0.1000E-19   0.000    
    7814   7.814      0.1000E-02 FIXED          0   0.0%   0.000       0.000       2.000       2.000       0.000      0.1000E-19   0.000    
    7815   7.815      0.1000E-02 FIXED          0  -0.0%   0.000       0.000       2.000       2.000       0.000      0.1000E-19   0.000    
    7816   7.816      0.1000E-02 FIXED          0  -0.0%   0.000       0.000       2.000       2.000       0.000      0.1000E-19   0.000    
    7817   7.817      0.1000E-02 FIXED          0   0.0%   0.000       0.000       2.000       2.000       0.000      0.1000E-19   0.000    
    7818   7.818      0.1000E-02 FIXED          0   0.0%   0.000       0.000       2.000       2.000       0.000      0.1000E-19   0.000    
    7819   7.819      0.1000E-02 FIXED          0   0.0%   0.000       0.000       2.000       2.000       0.000      0.1000E-19   0.000    
    7820   7.820      0.1000E-02 FIXED          0   0.0%   0.000       0.000       2.000       2.000       0.000      0.1000E-19   0.000    
    7821   7.821      0.1000E-02 FIXED          0   0.0%   0.000       0.000       2.000       2.000       0.000      0.1000E-19   0.000    
    7822   7.822      0.1000E-02 FIXED          0  -0.0%   0.000       0.000       2.000       2.000       0.000      0.1000E-19   0.000    
    7823   7.823      0.1000E-02 FIXED          0   0.0%   0.000       0.000       2.000       2.000       0.000      0.1000E-19   0.000    
    7824   7.824      0.1000E-02 FIXED          0  -0.0%   0.000       0.000       2.000       2.000       0.000      0.1000E-19   0.000    
    7825   7.825      0.1000E-02 FIXED          0  -0.0%   0.000       0.000       2.000       2.000       0.000      0.1000E-19   0.000    
    7826   7.826      0.1000E-02 FIXED          0  -0.0%   0.000       0.000       2.000       2.000       0.000      0.1000E-19   0.000    
    7827   7.827      0.1000E-02 FIXED          0  -0.0%   0.000       0.000       2.000       2.000       0.000      0.1000E-19   0.000    
    7828   7.828      0.1000E-02 FIXED          0   0.0%   0.000       0.000       2.000       2.000       0.000      0.1000E-19   0.000    
    7829   7.829      0.1000E-02 FIXED          0  -0.0%   0.000       0.000       2.000       2.000       0.000      0.1000E-19   0.000    
    7830   7.830      0.1000E-02 FIXED          0   0.0%   0.000       0.000       2.000       2.000       0.000      0.1000E-19   0.000    
    7831   7.831      0.1000E-02 FIXED          0   0.0%   0.000       0.000       2.000       2.000       0.000      0.1000E-19   0.000    
    7832   7.832      0.1000E-02 FIXED          0   0.0%   0.000       0.000       2.000       2.000       0.000      0.1000E-19   0.000    
    7833   7.833      0.1000E-02 FIXED          0   0.0%   0.000       0.000       2.000       2.000       0.000      0.1000E-19   0.000    
    7834   7.834      0.1000E-02 FIXED          0  -0.0%   0.000       0.000       2.000       2.000       0.000      0.1000E-19   0.000    
    7835   7.835      0.1000E-02 FIXED          0  -0.0%   0.000       0.000       2.000       2.000       0.000      0.1000E-19   0.000    
    7836   7.836      0.1000E-02 FIXED          0   0.0%   0.000       0.000       2.000       2.000       0.000      0.1000E-19   0.000    
    7837   7.837      0.1000E-02 FIXED          0   0.0%   0.000       0.000       2.000       2.000       0.000      0.1000E-19   0.000    
    7838   7.838      0.1000E-02 FIXED          0   0.0%   0.000       0.000       2.000       2.000       0.000      0.1000E-19   0.000    
    7839   7.839      0.1000E-02 FIXED          0   0.0%   0.000       0.000       2.000       2.000       0.000      0.1000E-19   0.000    
    7840   7.840      0.1000E-02 FIXED          0   0.0%   0.000       0.000       2.000       2.000       0.000      0.1000E-19   0.000    
    7841   7.841      0.1000E-02 FIXED          0  -0.0%   0.000       0.000       2.000       2.000       0.000      0.1000E-19   0.000    
    7842   7.842      0.1000E-02 FIXED          0   0.0%   0.000       0.000       2.000       2.000       0.000      0.1000E-19   0.000    
    7843   7.843      0.1000E-02 FIXED          0   0.0%   0.000       0.000       2.000       2.000       0.000      0.1000E-19   0.000    
    7844   7.844      0.1000E-02 FIXED          0  -0.0%   0.000       0.000       2.000       2.000       0.000      0.1000E-19   0.000    
    7845   7.845      0.1000E-02 FIXED          0  -0.0%   0.000       0.000       2.000       2.000       0.000      0.1000E-19   0.000    
    7846   7.846      0.1000E-02 FIXED          0  -0.0%   0.000       0.000       2.000       2.000       0.000      0.1000E-19   0.000    
    7847   7.847      0.1000E-02 FIXED          0  -0.0%   0.000       0.000       2.000       2.000       0.000      0.1000E-19   0.000    
    7848   7.848      0.1000E-02 FIXED          0  -0.0%   0.000       0.000       2.000       2.000       0.000      0.1000E-19   0.000    
    7849   7.849      0.1000E-02 FIXED          0  -0.0%   0.000       0.000       2.000       2.000       0.000      0.1000E-19   0.000    
    7850   7.850      0.1000E-02 FIXED          0   0.0%   0.000       0.000       2.000       2.000       0.000      0.1000E-19   0.000    
    7851   7.851      0.1000E-02 FIXED          0   0.0%   0.000       0.000       2.000       2.000       0.000      0.1000E-19   0.000    
    7852   7.852      0.1000E-02 FIXED          0  -0.0%   0.000       0.000       2.000       2.000       0.000      0.1000E-19   0.000    
    7853   7.853      0.1000E-02 FIXED          0   0.0%   0.000       0.000       2.000       2.000       0.000      0.1000E-19   0.000    
    7854   7.854      0.1000E-02 FIXED          0  -0.0%   0.000       0.000       2.000       2.000       0.000      0.1000E-19   0.000    
    7855   7.855      0.1000E-02 FIXED          0   0.0%   0.000       0.000       2.000       2.000       0.000      0.1000E-19   0.000    
    7856   7.856      0.1000E-02 FIXED          0  -0.0%   0.000       0.000       2.000       2.000       0.000      0.1000E-19   0.000    
    7857   7.857      0.1000E-02 FIXED          0   0.0%   0.000       0.000       2.000       2.000       0.000      0.1000E-19   0.000    
    7858   7.858      0.1000E-02 FIXED          0  -0.0%   0.000       0.000       2.000       2.000       0.000      0.1000E-19   0.000    
    7859   7.859      0.1000E-02 FIXED          0   0.0%   0.000       0.000       2.000       2.000       0.000      0.1000E-19   0.000    
    7860   7.860      0.1000E-02 FIXED          0   0.0%   0.000       0.000       2.000       2.000       0.000      0.1000E-19   0.000    
    7861   7.861      0.1000E-02 FIXED          0   0.0%   0.000       0.000       2.000       2.000       0.000      0.1000E-19   0.000    
    7862   7.862      0.1000E-02 FIXED          0  -0.0%   0.000       0.000       2.000       2.000       0.000      0.1000E-19   0.000    
    7863   7.863      0.1000E-02 FIXED          0   0.0%   0.000       0.000       2.000       2.000       0.000      0.1000E-19   0.000    
    7864   7.864      0.1000E-02 FIXED          0  -0.0%   0.000       0.000       2.000       2.000       0.000      0.1000E-19   0.000    
   CYCLE    TIME      TIME-STEP  ELEMENT          ERROR  I-ENERGY    K-ENERGY T  K-ENERGY R  EXT-WORK     MAS.ERR     TOTAL MASS  MASS ADDED
    7865   7.865      0.1000E-02 FIXED          0  -0.0%   0.000       0.000       2.000       2.000       0.000      0.1000E-19   0.000    
    7866   7.866      0.1000E-02 FIXED          0  -0.0%   0.000       0.000       2.000       2.000       0.000      0.1000E-19   0.000    
    7867   7.867      0.1000E-02 FIXED          0   0.0%   0.000       0.000       2.000       2.000       0.000      0.1000E-19   0.000    
    7868   7.868      0.1000E-02 FIXED          0   0.0%   0.000       0.000       2.000       2.000       0.000      0.1000E-19   0.000    
    7869   7.869      0.1000E-02 FIXED          0   0.0%   0.000       0.000       2.000       2.000       0.000      0.1000E-19   0.000    
    7870   7.870      0.1000E-02 FIXED          0   0.0%   0.000       0.000       2.000       2.000       0.000      0.1000E-19   0.000    
    7871   7.871      0.1000E-02 FIXED          0   0.0%   0.000       0.000       2.000       2.000       0.000      0.1000E-19   0.000    
    7872   7.872      0.1000E-02 FIXED          0   0.0%   0.000       0.000       2.000       2.000       0.000      0.1000E-19   0.000    
    7873   7.873      0.1000E-02 FIXED          0   0.0%   0.000       0.000       2.000       2.000       0.000      0.1000E-19   0.000    
    7874   7.874      0.1000E-02 FIXED          0   0.0%   0.000       0.000       2.000       2.000       0.000      0.1000E-19   0.000    
    7875   7.875      0.1000E-02 FIXED          0  -0.0%   0.000       0.000       2.000       2.000       0.000      0.1000E-19   0.000    
    7876   7.876      0.1000E-02 FIXED          0  -0.0%   0.000       0.000       2.000       2.000       0.000      0.1000E-19   0.000    
    7877   7.877      0.1000E-02 FIXED          0  -0.0%   0.000       0.000       2.000       2.000       0.000      0.1000E-19   0.000    
    7878   7.878      0.1000E-02 FIXED          0   0.0%   0.000       0.000       2.000       2.000       0.000      0.1000E-19   0.000    
    7879   7.879      0.1000E-02 FIXED          0  -0.0%   0.000       0.000       2.000       2.000       0.000      0.1000E-19   0.000    
    7880   7.880      0.1000E-02 FIXED          0   0.0%   0.000       0.000       2.000       2.000       0.000      0.1000E-19   0.000    
    7881   7.881      0.1000E-02 FIXED          0  -0.0%   0.000       0.000       2.000       2.000       0.000      0.1000E-19   0.000    
    7882   7.882      0.1000E-02 FIXED          0  -0.0%   0.000       0.000       2.000       2.000       0.000      0.1000E-19   0.000    
    7883   7.883      0.1000E-02 FIXED          0  -0.0%   0.000       0.000       2.000       2.000       0.000      0.1000E-19   0.000    
    7884   7.884      0.1000E-02 FIXED          0   0.0%   0.000       0.000       2.000       2.000       0.000      0.1000E-19   0.000    
    7885   7.885      0.1000E-02 FIXED          0  -0.0%   0.000       0.000       2.000       2.000       0.000      0.1000E-19   0.000    
    7886   7.886      0.1000E-02 FIXED          0  -0.0%   0.000       0.000       2.000       2.000       0.000      0.1000E-19   0.000    
    7887   7.887      0.1000E-02 FIXED          0   0.0%   0.000       0.000       2.000       2.000       0.000      0.1000E-19   0.000    
    7888   7.888      0.1000E-02 FIXED          0   0.0%   0.000       0.000       2.000       2.000       0.000      0.1000E-19   0.000    
    7889   7.889      0.1000E-02 FIXED          0   0.0%   0.000       0.000       2.000       2.000       0.000      0.1000E-19   0.000    
    7890   7.890      0.1000E-02 FIXED          0  -0.0%   0.000       0.000       2.000       2.000       0.000      0.1000E-19   0.000    
    7891   7.891      0.1000E-02 FIXED          0  -0.0%   0.000       0.000       2.000       2.000       0.000      0.1000E-19   0.000    
    7892   7.892      0.1000E-02 FIXED          0   0.0%   0.000       0.000       2.000       2.000       0.000      0.1000E-19   0.000    
    7893   7.893      0.1000E-02 FIXED          0   0.0%   0.000       0.000       2.000       2.000       0.000      0.1000E-19   0.000    
    7894   7.894      0.1000E-02 FIXED          0   0.0%   0.000       0.000       2.000       2.000       0.000      0.1000E-19   0.000    
    7895   7.895      0.1000E-02 FIXED          0  -0.0%   0.000       0.000       2.000       2.000       0.000      0.1000E-19   0.000    
    7896   7.896      0.1000E-02 FIXED          0   0.0%   0.000       0.000       2.000       2.000       0.000      0.1000E-19   0.000    
    7897   7.897      0.1000E-02 FIXED          0   0.0%   0.000       0.000       2.000       2.000       0.000      0.1000E-19   0.000    
    7898   7.898      0.1000E-02 FIXED          0  -0.0%   0.000       0.000       2.000       2.000       0.000      0.1000E-19   0.000    
    7899   7.899      0.1000E-02 FIXED          0  -0.0%   0.000       0.000       2.000       2.000       0.000      0.1000E-19   0.000    
    7900   7.900      0.1000E-02 FIXED          0   0.0%   0.000       0.000       2.000       2.000       0.000      0.1000E-19   0.000    
    7901   7.901      0.1000E-02 FIXED          0   0.0%   0.000       0.000       2.000       2.000       0.000      0.1000E-19   0.000    
    7902   7.902      0.1000E-02 FIXED          0  -0.0%   0.000       0.000       2.000       2.000       0.000      0.1000E-19   0.000    
    7903   7.903      0.1000E-02 FIXED          0  -0.0%   0.000       0.000       2.000       2.000       0.000      0.1000E-19   0.000    
    7904   7.904      0.1000E-02 FIXED          0   0.0%   0.000       0.000       2.000       2.000       0.000      0.1000E-19   0.000    
    7905   7.905      0.1000E-02 FIXED          0  -0.0%   0.000       0.000       2.000       2.000       0.000      0.1000E-19   0.000    
    7906   7.906      0.1000E-02 FIXED          0   0.0%   0.000       0.000       2.000       2.000       0.000      0.1000E-19   0.000    
    7907   7.907      0.1000E-02 FIXED          0   0.0%   0.000       0.000       2.000       2.000       0.000      0.1000E-19   0.000    
    7908   7.908      0.1000E-02 FIXED          0   0.0%   0.000       0.000       2.000       2.000       0.000      0.1000E-19   0.000    
    7909   7.909      0.1000E-02 FIXED          0   0.0%   0.000       0.000       2.000       2.000       0.000      0.1000E-19   0.000    
    7910   7.910      0.1000E-02 FIXED          0   0.0%   0.000       0.000       2.000       2.000       0.000      0.1000E-19   0.000    
    7911   7.911      0.1000E-02 FIXED          0   0.0%   0.000       0.000       2.000       2.000       0.000      0.1000E-19   0.000    
    7912   7.912      0.1000E-02 FIXED          0   0.0%   0.000       0.000       2.000       2.000       0.000      0.1000E-19   0.000    
    7913   7.913      0.1000E-02 FIXED          0   0.0%   0.000       0.000       2.000       2.000       0.000      0.1000E-19   0.000    
    7914   7.914      0.1000E-02 FIXED          0   0.0%   0.000       0.000       2.000       2.000       0.000      0.1000E-19   0.000    
    7915   7.915      0.1000E-02 FIXED          0  -0.0%   0.000       0.000       2.000       2.000       0.000      0.1000E-19   0.000    
    7916   7.916      0.1000E-02 FIXED          0  -0.0%   0.000       0.000       2.000       2.000       0.000      0.1000E-19   0.000    
    7917   7.917      0.1000E-02 FIXED          0   0.0%   0.000       0.000       2.000       2.000       0.000      0.1000E-19   0.000    
    7918   7.918      0.1000E-02 FIXED          0   0.0%   0.000       0.000       2.000       2.000       0.000      0.1000E-19   0.000    
    7919   7.919      0.1000E-02 FIXED          0   0.0%   0.000       0.000       2.000       2.000       0.000      0.1000E-19   0.000    
   CYCLE    TIME      TIME-STEP  ELEMENT          ERROR  I-ENERGY    K-ENERGY T  K-ENERGY R  EXT-WORK     MAS.ERR     TOTAL MASS  MASS ADDED
    7920   7.920      0.1000E-02 FIXED          0  -0.0%   0.000       0.000       2.000       2.000       0.000      0.1000E-19   0.000    
    7921   7.921      0.1000E-02 FIXED          0   0.0%   0.000       0.000       2.000       2.000       0.000      0.1000E-19   0.000    
    7922   7.922      0.1000E-02 FIXED          0   0.0%   0.000       0.000       2.000       2.000       0.000      0.1000E-19   0.000    
    7923   7.923      0.1000E-02 FIXED          0  -0.0%   0.000       0.000       2.000       2.000       0.000      0.1000E-19   0.000    
    7924   7.924      0.1000E-02 FIXED          0   0.0%   0.000       0.000       2.000       2.000       0.000      0.1000E-19   0.000    
    7925   7.925      0.1000E-02 FIXED          0   0.0%   0.000       0.000       2.000       2.000       0.000      0.1000E-19   0.000    
    7926   7.926      0.1000E-02 FIXED          0  -0.0%   0.000       0.000       2.000       2.000       0.000      0.1000E-19   0.000    
    7927   7.927      0.1000E-02 FIXED          0   0.0%   0.000       0.000       2.000       2.000       0.000      0.1000E-19   0.000    
    7928   7.928      0.1000E-02 FIXED          0   0.0%   0.000       0.000       2.000       2.000       0.000      0.1000E-19   0.000    
    7929   7.929      0.1000E-02 FIXED          0   0.0%   0.000       0.000       2.000       2.000       0.000      0.1000E-19   0.000    
    7930   7.930      0.1000E-02 FIXED          0  -0.0%   0.000       0.000       2.000       2.000       0.000      0.1000E-19   0.000    
    7931   7.931      0.1000E-02 FIXED          0   0.0%   0.000       0.000       2.000       2.000       0.000      0.1000E-19   0.000    
    7932   7.932      0.1000E-02 FIXED          0   0.0%   0.000       0.000       2.000       2.000       0.000      0.1000E-19   0.000    
    7933   7.933      0.1000E-02 FIXED          0  -0.0%   0.000       0.000       2.000       2.000       0.000      0.1000E-19   0.000    
    7934   7.934      0.1000E-02 FIXED          0  -0.0%   0.000       0.000       2.000       2.000       0.000      0.1000E-19   0.000    
    7935   7.935      0.1000E-02 FIXED          0  -0.0%   0.000       0.000       2.000       2.000       0.000      0.1000E-19   0.000    
    7936   7.936      0.1000E-02 FIXED          0   0.0%   0.000       0.000       2.000       2.000       0.000      0.1000E-19   0.000    
    7937   7.937      0.1000E-02 FIXED          0  -0.0%   0.000       0.000       2.000       2.000       0.000      0.1000E-19   0.000    
    7938   7.938      0.1000E-02 FIXED          0   0.0%   0.000       0.000       2.000       2.000       0.000      0.1000E-19   0.000    
    7939   7.939      0.1000E-02 FIXED          0   0.0%   0.000       0.000       2.000       2.000       0.000      0.1000E-19   0.000    
    7940   7.940      0.1000E-02 FIXED          0  -0.0%   0.000       0.000       2.000       2.000       0.000      0.1000E-19   0.000    
    7941   7.941      0.1000E-02 FIXED          0   0.0%   0.000       0.000       2.000       2.000       0.000      0.1000E-19   0.000    
    7942   7.942      0.1000E-02 FIXED          0   0.0%   0.000       0.000       2.000       2.000       0.000      0.1000E-19   0.000    
    7943   7.943      0.1000E-02 FIXED          0   0.0%   0.000       0.000       2.000       2.000       0.000      0.1000E-19   0.000    
    7944   7.944      0.1000E-02 FIXED          0   0.0%   0.000       0.000       2.000       2.000       0.000      0.1000E-19   0.000    
    7945   7.945      0.1000E-02 FIXED          0  -0.0%   0.000       0.000       2.000       2.000       0.000      0.1000E-19   0.000    
    7946   7.946      0.1000E-02 FIXED          0   0.0%   0.000       0.000       2.000       2.000       0.000      0.1000E-19   0.000    
    7947   7.947      0.1000E-02 FIXED          0  -0.0%   0.000       0.000       2.000       2.000       0.000      0.1000E-19   0.000    
    7948   7.948      0.1000E-02 FIXED          0   0.0%   0.000       0.000       2.000       2.000       0.000      0.1000E-19   0.000    
    7949   7.949      0.1000E-02 FIXED          0   0.0%   0.000       0.000       2.000       2.000       0.000      0.1000E-19   0.000    
    7950   7.950      0.1000E-02 FIXED          0   0.0%   0.000       0.000       2.000       2.000       0.000      0.1000E-19   0.000    
    7951   7.951      0.1000E-02 FIXED          0  -0.0%   0.000       0.000       2.000       2.000       0.000      0.1000E-19   0.000    
    7952   7.952      0.1000E-02 FIXED          0   0.0%   0.000       0.000       2.000       2.000       0.000      0.1000E-19   0.000    
    7953   7.953      0.1000E-02 FIXED          0   0.0%   0.000       0.000       2.000       2.000       0.000      0.1000E-19   0.000    
    7954   7.954      0.1000E-02 FIXED          0   0.0%   0.000       0.000       2.000       2.000       0.000      0.1000E-19   0.000    
    7955   7.955      0.1000E-02 FIXED          0  -0.0%   0.000       0.000       2.000       2.000       0.000      0.1000E-19   0.000    
    7956   7.956      0.1000E-02 FIXED          0   0.0%   0.000       0.000       2.000       2.000       0.000      0.1000E-19   0.000    
    7957   7.957      0.1000E-02 FIXED          0   0.0%   0.000       0.000       2.000       2.000       0.000      0.1000E-19   0.000    
    7958   7.958      0.1000E-02 FIXED          0  -0.0%   0.000       0.000       2.000       2.000       0.000      0.1000E-19   0.000    
    7959   7.959      0.1000E-02 FIXED          0  -0.0%   0.000       0.000       2.000       2.000       0.000      0.1000E-19   0.000    
    7960   7.960      0.1000E-02 FIXED          0   0.0%   0.000       0.000       2.000       2.000       0.000      0.1000E-19   0.000    
    7961   7.961      0.1000E-02 FIXED          0  -0.0%   0.000       0.000       2.000       2.000       0.000      0.1000E-19   0.000    
    7962   7.962      0.1000E-02 FIXED          0   0.0%   0.000       0.000       2.000       2.000       0.000      0.1000E-19   0.000    
    7963   7.963      0.1000E-02 FIXED          0  -0.0%   0.000       0.000       2.000       2.000       0.000      0.1000E-19   0.000    
    7964   7.964      0.1000E-02 FIXED          0  -0.0%   0.000       0.000       2.000       2.000       0.000      0.1000E-19   0.000    
    7965   7.965      0.1000E-02 FIXED          0   0.0%   0.000       0.000       2.000       2.000       0.000      0.1000E-19   0.000    
    7966   7.966      0.1000E-02 FIXED          0   0.0%   0.000       0.000       2.000       2.000       0.000      0.1000E-19   0.000    
    7967   7.967      0.1000E-02 FIXED          0   0.0%   0.000       0.000       2.000       2.000       0.000      0.1000E-19   0.000    
    7968   7.968      0.1000E-02 FIXED          0  -0.0%   0.000       0.000       2.000       2.000       0.000      0.1000E-19   0.000    
    7969   7.969      0.1000E-02 FIXED          0   0.0%   0.000       0.000       2.000       2.000       0.000      0.1000E-19   0.000    
    7970   7.970      0.1000E-02 FIXED          0   0.0%   0.000       0.000       2.000       2.000       0.000      0.1000E-19   0.000    
    7971   7.971      0.1000E-02 FIXED          0  -0.0%   0.000       0.000       2.000       2.000       0.000      0.1000E-19   0.000    
    7972   7.972      0.1000E-02 FIXED          0   0.0%   0.000       0.000       2.000       2.000       0.000      0.1000E-19   0.000    
    7973   7.973      0.1000E-02 FIXED          0   0.0%   0.000       0.000       2.000       2.000       0.000      0.1000E-19   0.000    
    7974   7.974      0.1000E-02 FIXED          0   0.0%   0.000       0.000       2.000       2.000       0.000      0.1000E-19   0.000    
   CYCLE    TIME      TIME-STEP  ELEMENT          ERROR  I-ENERGY    K-ENERGY T  K-ENERGY R  EXT-WORK     MAS.ERR     TOTAL MASS  MASS ADDED
    7975   7.975      0.1000E-02 FIXED          0  -0.0%   0.000       0.000       2.000       2.000       0.000      0.1000E-19   0.000    
    7976   7.976      0.1000E-02 FIXED          0  -0.0%   0.000       0.000       2.000       2.000       0.000      0.1000E-19   0.000    
    7977   7.977      0.1000E-02 FIXED          0   0.0%   0.000       0.000       2.000       2.000       0.000      0.1000E-19   0.000    
    7978   7.978      0.1000E-02 FIXED          0   0.0%   0.000       0.000       2.000       2.000       0.000      0.1000E-19   0.000    
    7979   7.979      0.1000E-02 FIXED          0   0.0%   0.000       0.000       2.000       2.000       0.000      0.1000E-19   0.000    
    7980   7.980      0.1000E-02 FIXED          0   0.0%   0.000       0.000       2.000       2.000       0.000      0.1000E-19   0.000    
    7981   7.981      0.1000E-02 FIXED          0  -0.0%   0.000       0.000       2.000       2.000       0.000      0.1000E-19   0.000    
    7982   7.982      0.1000E-02 FIXED          0   0.0%   0.000       0.000       2.000       2.000       0.000      0.1000E-19   0.000    
    7983   7.983      0.1000E-02 FIXED          0   0.0%   0.000       0.000       2.000       2.000       0.000      0.1000E-19   0.000    
    7984   7.984      0.1000E-02 FIXED          0   0.0%   0.000       0.000       2.000       2.000       0.000      0.1000E-19   0.000    
    7985   7.985      0.1000E-02 FIXED          0   0.0%   0.000       0.000       2.000       2.000       0.000      0.1000E-19   0.000    
    7986   7.986      0.1000E-02 FIXED          0   0.0%   0.000       0.000       2.000       2.000       0.000      0.1000E-19   0.000    
    7987   7.987      0.1000E-02 FIXED          0   0.0%   0.000       0.000       2.000       2.000       0.000      0.1000E-19   0.000    
    7988   7.988      0.1000E-02 FIXED          0  -0.0%   0.000       0.000       2.000       2.000       0.000      0.1000E-19   0.000    
    7989   7.989      0.1000E-02 FIXED          0  -0.0%   0.000       0.000       2.000       2.000       0.000      0.1000E-19   0.000    
    7990   7.990      0.1000E-02 FIXED          0   0.0%   0.000       0.000       2.000       2.000       0.000      0.1000E-19   0.000    
    7991   7.991      0.1000E-02 FIXED          0  -0.0%   0.000       0.000       2.000       2.000       0.000      0.1000E-19   0.000    
    7992   7.992      0.1000E-02 FIXED          0  -0.0%   0.000       0.000       2.000       2.000       0.000      0.1000E-19   0.000    
    7993   7.993      0.1000E-02 FIXED          0   0.0%   0.000       0.000       2.000       2.000       0.000      0.1000E-19   0.000    
    7994   7.994      0.1000E-02 FIXED          0  -0.0%   0.000       0.000       2.000       2.000       0.000      0.1000E-19   0.000    
    7995   7.995      0.1000E-02 FIXED          0  -0.0%   0.000       0.000       2.000       2.000       0.000      0.1000E-19   0.000    
    7996   7.996      0.1000E-02 FIXED          0   0.0%   0.000       0.000       2.000       2.000       0.000      0.1000E-19   0.000    
    7997   7.997      0.1000E-02 FIXED          0  -0.0%   0.000       0.000       2.000       2.000       0.000      0.1000E-19   0.000    
    7998   7.998      0.1000E-02 FIXED          0   0.0%   0.000       0.000       2.000       2.000       0.000      0.1000E-19   0.000    
    7999   7.999      0.1000E-02 FIXED          0  -0.0%   0.000       0.000       2.000       2.000       0.000      0.1000E-19   0.000    
    8000   8.000      0.1000E-02 FIXED          0  -0.0%   0.000       0.000       2.000       2.000       0.000      0.1000E-19   0.000    
     ANIMATION FILE: BLOCKA009 WRITTEN
    8001   8.001      0.1000E-02 FIXED          0   0.0%   0.000       0.000       2.000       2.000       0.000      0.1000E-19   0.000    
    8002   8.002      0.1000E-02 FIXED          0  -0.0%   0.000       0.000       2.000       2.000       0.000      0.1000E-19   0.000    
    8003   8.003      0.1000E-02 FIXED          0  -0.0%   0.000       0.000       2.000       2.000       0.000      0.1000E-19   0.000    
    8004   8.004      0.1000E-02 FIXED          0   0.0%   0.000       0.000       2.000       2.000       0.000      0.1000E-19   0.000    
    8005   8.005      0.1000E-02 FIXED          0  -0.0%   0.000       0.000       2.000       2.000       0.000      0.1000E-19   0.000    
    8006   8.006      0.1000E-02 FIXED          0   0.0%   0.000       0.000       2.000       2.000       0.000      0.1000E-19   0.000    
    8007   8.007      0.1000E-02 FIXED          0  -0.0%   0.000       0.000       2.000       2.000       0.000      0.1000E-19   0.000    
    8008   8.008      0.1000E-02 FIXED          0   0.0%   0.000       0.000       2.000       2.000       0.000      0.1000E-19   0.000    
    8009   8.009      0.1000E-02 FIXED          0  -0.0%   0.000       0.000       2.000       2.000       0.000      0.1000E-19   0.000    
    8010   8.010      0.1000E-02 FIXED          0   0.0%   0.000       0.000       2.000       2.000       0.000      0.1000E-19   0.000    
    8011   8.011      0.1000E-02 FIXED          0  -0.0%   0.000       0.000       2.000       2.000       0.000      0.1000E-19   0.000    
    8012   8.012      0.1000E-02 FIXED          0   0.0%   0.000       0.000       2.000       2.000       0.000      0.1000E-19   0.000    
    8013   8.013      0.1000E-02 FIXED          0  -0.0%   0.000       0.000       2.000       2.000       0.000      0.1000E-19   0.000    
    8014   8.014      0.1000E-02 FIXED          0   0.0%   0.000       0.000       2.000       2.000       0.000      0.1000E-19   0.000    
    8015   8.015      0.1000E-02 FIXED          0   0.0%   0.000       0.000       2.000       2.000       0.000      0.1000E-19   0.000    
    8016   8.016      0.1000E-02 FIXED          0   0.0%   0.000       0.000       2.000       2.000       0.000      0.1000E-19   0.000    
    8017   8.017      0.1000E-02 FIXED          0  -0.0%   0.000       0.000       2.000       2.000       0.000      0.1000E-19   0.000    
    8018   8.018      0.1000E-02 FIXED          0   0.0%   0.000       0.000       2.000       2.000       0.000      0.1000E-19   0.000    
    8019   8.019      0.1000E-02 FIXED          0   0.0%   0.000       0.000       2.000       2.000       0.000      0.1000E-19   0.000    
    8020   8.020      0.1000E-02 FIXED          0  -0.0%   0.000       0.000       2.000       2.000       0.000      0.1000E-19   0.000    
    8021   8.021      0.1000E-02 FIXED          0   0.0%   0.000       0.000       2.000       2.000       0.000      0.1000E-19   0.000    
    8022   8.022      0.1000E-02 FIXED          0   0.0%   0.000       0.000       2.000       2.000       0.000      0.1000E-19   0.000    
    8023   8.023      0.1000E-02 FIXED          0  -0.0%   0.000       0.000       2.000       2.000       0.000      0.1000E-19   0.000    
    8024   8.024      0.1000E-02 FIXED          0   0.0%   0.000       0.000       2.000       2.000       0.000      0.1000E-19   0.000    
    8025   8.025      0.1000E-02 FIXED          0  -0.0%   0.000       0.000       2.000       2.000       0.000      0.1000E-19   0.000    
    8026   8.026      0.1000E-02 FIXED          0   0.0%   0.000       0.000       2.000       2.000       0.000      0.1000E-19   0.000    
    8027   8.027      0.1000E-02 FIXED          0   0.0%   0.000       0.000       2.000       2.000       0.000      0.1000E-19   0.000    
    8028   8.028      0.1000E-02 FIXED          0   0.0%   0.000       0.000       2.000       2.000       0.000      0.1000E-19   0.000    
    8029   8.029      0.1000E-02 FIXED          0   0.0%   0.000       0.000       2.000       2.000       0.000      0.1000E-19   0.000    
   CYCLE    TIME      TIME-STEP  ELEMENT          ERROR  I-ENERGY    K-ENERGY T  K-ENERGY R  EXT-WORK     MAS.ERR     TOTAL MASS  MASS ADDED
    8030   8.030      0.1000E-02 FIXED          0  -0.0%   0.000       0.000       2.000       2.000       0.000      0.1000E-19   0.000    
    8031   8.031      0.1000E-02 FIXED          0   0.0%   0.000       0.000       2.000       2.000       0.000      0.1000E-19   0.000    
    8032   8.032      0.1000E-02 FIXED          0  -0.0%   0.000       0.000       2.000       2.000       0.000      0.1000E-19   0.000    
    8033   8.033      0.1000E-02 FIXED          0   0.0%   0.000       0.000       2.000       2.000       0.000      0.1000E-19   0.000    
    8034   8.034      0.1000E-02 FIXED          0   0.0%   0.000       0.000       2.000       2.000       0.000      0.1000E-19   0.000    
    8035   8.035      0.1000E-02 FIXED          0   0.0%   0.000       0.000       2.000       2.000       0.000      0.1000E-19   0.000    
    8036   8.036      0.1000E-02 FIXED          0  -0.0%   0.000       0.000       2.000       2.000       0.000      0.1000E-19   0.000    
    8037   8.037      0.1000E-02 FIXED          0  -0.0%   0.000       0.000       2.000       2.000       0.000      0.1000E-19   0.000    
    8038   8.038      0.1000E-02 FIXED          0  -0.0%   0.000       0.000       2.000       2.000       0.000      0.1000E-19   0.000    
    8039   8.039      0.1000E-02 FIXED          0  -0.0%   0.000       0.000       2.000       2.000       0.000      0.1000E-19   0.000    
    8040   8.040      0.1000E-02 FIXED          0   0.0%   0.000       0.000       2.000       2.000       0.000      0.1000E-19   0.000    
    8041   8.041      0.1000E-02 FIXED          0  -0.0%   0.000       0.000       2.000       2.000       0.000      0.1000E-19   0.000    
    8042   8.042      0.1000E-02 FIXED          0   0.0%   0.000       0.000       2.000       2.000       0.000      0.1000E-19   0.000    
    8043   8.043      0.1000E-02 FIXED          0   0.0%   0.000       0.000       2.000       2.000       0.000      0.1000E-19   0.000    
    8044   8.044      0.1000E-02 FIXED          0   0.0%   0.000       0.000       2.000       2.000       0.000      0.1000E-19   0.000    
    8045   8.045      0.1000E-02 FIXED          0   0.0%   0.000       0.000       2.000       2.000       0.000      0.1000E-19   0.000    
    8046   8.046      0.1000E-02 FIXED          0  -0.0%   0.000       0.000       2.000       2.000       0.000      0.1000E-19   0.000    
    8047   8.047      0.1000E-02 FIXED          0   0.0%   0.000       0.000       2.000       2.000       0.000      0.1000E-19   0.000    
    8048   8.048      0.1000E-02 FIXED          0  -0.0%   0.000       0.000       2.000       2.000       0.000      0.1000E-19   0.000    
    8049   8.049      0.1000E-02 FIXED          0  -0.0%   0.000       0.000       2.000       2.000       0.000      0.1000E-19   0.000    
    8050   8.050      0.1000E-02 FIXED          0   0.0%   0.000       0.000       2.000       2.000       0.000      0.1000E-19   0.000    
    8051   8.051      0.1000E-02 FIXED          0  -0.0%   0.000       0.000       2.000       2.000       0.000      0.1000E-19   0.000    
    8052   8.052      0.1000E-02 FIXED          0   0.0%   0.000       0.000       2.000       2.000       0.000      0.1000E-19   0.000    
    8053   8.053      0.1000E-02 FIXED          0   0.0%   0.000       0.000       2.000       2.000       0.000      0.1000E-19   0.000    
    8054   8.054      0.1000E-02 FIXED          0   0.0%   0.000       0.000       2.000       2.000       0.000      0.1000E-19   0.000    
    8055   8.055      0.1000E-02 FIXED          0  -0.0%   0.000       0.000       2.000       2.000       0.000      0.1000E-19   0.000    
    8056   8.056      0.1000E-02 FIXED          0   0.0%   0.000       0.000       2.000       2.000       0.000      0.1000E-19   0.000    
    8057   8.057      0.1000E-02 FIXED          0  -0.0%   0.000       0.000       2.000       2.000       0.000      0.1000E-19   0.000    
    8058   8.058      0.1000E-02 FIXED          0  -0.0%   0.000       0.000       2.000       2.000       0.000      0.1000E-19   0.000    
    8059   8.059      0.1000E-02 FIXED          0  -0.0%   0.000       0.000       2.000       2.000       0.000      0.1000E-19   0.000    
    8060   8.060      0.1000E-02 FIXED          0   0.0%   0.000       0.000       2.000       2.000       0.000      0.1000E-19   0.000    
    8061   8.061      0.1000E-02 FIXED          0  -0.0%   0.000       0.000       2.000       2.000       0.000      0.1000E-19   0.000    
    8062   8.062      0.1000E-02 FIXED          0   0.0%   0.000       0.000       2.000       2.000       0.000      0.1000E-19   0.000    
    8063   8.063      0.1000E-02 FIXED          0   0.0%   0.000       0.000       2.000       2.000       0.000      0.1000E-19   0.000    
    8064   8.064      0.1000E-02 FIXED          0  -0.0%   0.000       0.000       2.000       2.000       0.000      0.1000E-19   0.000    
    8065   8.065      0.1000E-02 FIXED          0   0.0%   0.000       0.000       2.000       2.000       0.000      0.1000E-19   0.000    
    8066   8.066      0.1000E-02 FIXED          0   0.0%   0.000       0.000       2.000       2.000       0.000      0.1000E-19   0.000    
    8067   8.067      0.1000E-02 FIXED          0  -0.0%   0.000       0.000       2.000       2.000       0.000      0.1000E-19   0.000    
    8068   8.068      0.1000E-02 FIXED          0   0.0%   0.000       0.000       2.000       2.000       0.000      0.1000E-19   0.000    
    8069   8.069      0.1000E-02 FIXED          0   0.0%   0.000       0.000       2.000       2.000       0.000      0.1000E-19   0.000    
    8070   8.070      0.1000E-02 FIXED          0  -0.0%   0.000       0.000       2.000       2.000       0.000      0.1000E-19   0.000    
    8071   8.071      0.1000E-02 FIXED          0   0.0%   0.000       0.000       2.000       2.000       0.000      0.1000E-19   0.000    
    8072   8.072      0.1000E-02 FIXED          0   0.0%   0.000       0.000       2.000       2.000       0.000      0.1000E-19   0.000    
    8073   8.073      0.1000E-02 FIXED          0   0.0%   0.000       0.000       2.000       2.000       0.000      0.1000E-19   0.000    
    8074   8.074      0.1000E-02 FIXED          0  -0.0%   0.000       0.000       2.000       2.000       0.000      0.1000E-19   0.000    
    8075   8.075      0.1000E-02 FIXED          0  -0.0%   0.000       0.000       2.000       2.000       0.000      0.1000E-19   0.000    
    8076   8.076      0.1000E-02 FIXED          0   0.0%   0.000       0.000       2.000       2.000       0.000      0.1000E-19   0.000    
    8077   8.077      0.1000E-02 FIXED          0  -0.0%   0.000       0.000       2.000       2.000       0.000      0.1000E-19   0.000    
    8078   8.078      0.1000E-02 FIXED          0   0.0%   0.000       0.000       2.000       2.000       0.000      0.1000E-19   0.000    
    8079   8.079      0.1000E-02 FIXED          0   0.0%   0.000       0.000       2.000       2.000       0.000      0.1000E-19   0.000    
    8080   8.080      0.1000E-02 FIXED          0   0.0%   0.000       0.000       2.000       2.000       0.000      0.1000E-19   0.000    
    8081   8.081      0.1000E-02 FIXED          0   0.0%   0.000       0.000       2.000       2.000       0.000      0.1000E-19   0.000    
    8082   8.082      0.1000E-02 FIXED          0   0.0%   0.000       0.000       2.000       2.000       0.000      0.1000E-19   0.000    
    8083   8.083      0.1000E-02 FIXED          0   0.0%   0.000       0.000       2.000       2.000       0.000      0.1000E-19   0.000    
    8084   8.084      0.1000E-02 FIXED          0  -0.0%   0.000       0.000       2.000       2.000       0.000      0.1000E-19   0.000    
   CYCLE    TIME      TIME-STEP  ELEMENT          ERROR  I-ENERGY    K-ENERGY T  K-ENERGY R  EXT-WORK     MAS.ERR     TOTAL MASS  MASS ADDED
    8085   8.085      0.1000E-02 FIXED          0   0.0%   0.000       0.000       2.000       2.000       0.000      0.1000E-19   0.000    
    8086   8.086      0.1000E-02 FIXED          0  -0.0%   0.000       0.000       2.000       2.000       0.000      0.1000E-19   0.000    
    8087   8.087      0.1000E-02 FIXED          0   0.0%   0.000       0.000       2.000       2.000       0.000      0.1000E-19   0.000    
    8088   8.088      0.1000E-02 FIXED          0  -0.0%   0.000       0.000       2.000       2.000       0.000      0.1000E-19   0.000    
    8089   8.089      0.1000E-02 FIXED          0   0.0%   0.000       0.000       2.000       2.000       0.000      0.1000E-19   0.000    
    8090   8.090      0.1000E-02 FIXED          0   0.0%   0.000       0.000       2.000       2.000       0.000      0.1000E-19   0.000    
    8091   8.091      0.1000E-02 FIXED          0   0.0%   0.000       0.000       2.000       2.000       0.000      0.1000E-19   0.000    
    8092   8.092      0.1000E-02 FIXED          0  -0.0%   0.000       0.000       2.000       2.000       0.000      0.1000E-19   0.000    
    8093   8.093      0.1000E-02 FIXED          0  -0.0%   0.000       0.000       2.000       2.000       0.000      0.1000E-19   0.000    
    8094   8.094      0.1000E-02 FIXED          0   0.0%   0.000       0.000       2.000       2.000       0.000      0.1000E-19   0.000    
    8095   8.095      0.1000E-02 FIXED          0  -0.0%   0.000       0.000       2.000       2.000       0.000      0.1000E-19   0.000    
    8096   8.096      0.1000E-02 FIXED          0   0.0%   0.000       0.000       2.000       2.000       0.000      0.1000E-19   0.000    
    8097   8.097      0.1000E-02 FIXED          0  -0.0%   0.000       0.000       2.000       2.000       0.000      0.1000E-19   0.000    
    8098   8.098      0.1000E-02 FIXED          0  -0.0%   0.000       0.000       2.000       2.000       0.000      0.1000E-19   0.000    
    8099   8.099      0.1000E-02 FIXED          0   0.0%   0.000       0.000       2.000       2.000       0.000      0.1000E-19   0.000    
    8100   8.100      0.1000E-02 FIXED          0   0.0%   0.000       0.000       2.000       2.000       0.000      0.1000E-19   0.000    
    8101   8.101      0.1000E-02 FIXED          0   0.0%   0.000       0.000       2.000       2.000       0.000      0.1000E-19   0.000    
    8102   8.102      0.1000E-02 FIXED          0   0.0%   0.000       0.000       2.000       2.000       0.000      0.1000E-19   0.000    
    8103   8.103      0.1000E-02 FIXED          0   0.0%   0.000       0.000       2.000       2.000       0.000      0.1000E-19   0.000    
    8104   8.104      0.1000E-02 FIXED          0  -0.0%   0.000       0.000       2.000       2.000       0.000      0.1000E-19   0.000    
    8105   8.105      0.1000E-02 FIXED          0   0.0%   0.000       0.000       2.000       2.000       0.000      0.1000E-19   0.000    
    8106   8.106      0.1000E-02 FIXED          0   0.0%   0.000       0.000       2.000       2.000       0.000      0.1000E-19   0.000    
    8107   8.107      0.1000E-02 FIXED          0   0.0%   0.000       0.000       2.000       2.000       0.000      0.1000E-19   0.000    
    8108   8.108      0.1000E-02 FIXED          0  -0.0%   0.000       0.000       2.000       2.000       0.000      0.1000E-19   0.000    
    8109   8.109      0.1000E-02 FIXED          0  -0.0%   0.000       0.000       2.000       2.000       0.000      0.1000E-19   0.000    
    8110   8.110      0.1000E-02 FIXED          0  -0.0%   0.000       0.000       2.000       2.000       0.000      0.1000E-19   0.000    
    8111   8.111      0.1000E-02 FIXED          0  -0.0%   0.000       0.000       2.000       2.000       0.000      0.1000E-19   0.000    
    8112   8.112      0.1000E-02 FIXED          0   0.0%   0.000       0.000       2.000       2.000       0.000      0.1000E-19   0.000    
    8113   8.113      0.1000E-02 FIXED          0  -0.0%   0.000       0.000       2.000       2.000       0.000      0.1000E-19   0.000    
    8114   8.114      0.1000E-02 FIXED          0   0.0%   0.000       0.000       2.000       2.000       0.000      0.1000E-19   0.000    
    8115   8.115      0.1000E-02 FIXED          0   0.0%   0.000       0.000       2.000       2.000       0.000      0.1000E-19   0.000    
    8116   8.116      0.1000E-02 FIXED          0   0.0%   0.000       0.000       2.000       2.000       0.000      0.1000E-19   0.000    
    8117   8.117      0.1000E-02 FIXED          0   0.0%   0.000       0.000       2.000       2.000       0.000      0.1000E-19   0.000    
    8118   8.118      0.1000E-02 FIXED          0  -0.0%   0.000       0.000       2.000       2.000       0.000      0.1000E-19   0.000    
    8119   8.119      0.1000E-02 FIXED          0  -0.0%   0.000       0.000       2.000       2.000       0.000      0.1000E-19   0.000    
    8120   8.120      0.1000E-02 FIXED          0   0.0%   0.000       0.000       2.000       2.000       0.000      0.1000E-19   0.000    
    8121   8.121      0.1000E-02 FIXED          0   0.0%   0.000       0.000       2.000       2.000       0.000      0.1000E-19   0.000    
    8122   8.122      0.1000E-02 FIXED          0  -0.0%   0.000       0.000       2.000       2.000       0.000      0.1000E-19   0.000    
    8123   8.123      0.1000E-02 FIXED          0   0.0%   0.000       0.000       2.000       2.000       0.000      0.1000E-19   0.000    
    8124   8.124      0.1000E-02 FIXED          0  -0.0%   0.000       0.000       2.000       2.000       0.000      0.1000E-19   0.000    
    8125   8.125      0.1000E-02 FIXED          0   0.0%   0.000       0.000       2.000       2.000       0.000      0.1000E-19   0.000    
    8126   8.126      0.1000E-02 FIXED          0   0.0%   0.000       0.000       2.000       2.000       0.000      0.1000E-19   0.000    
    8127   8.127      0.1000E-02 FIXED          0   0.0%   0.000       0.000       2.000       2.000       0.000      0.1000E-19   0.000    
    8128   8.128      0.1000E-02 FIXED          0  -0.0%   0.000       0.000       2.000       2.000       0.000      0.1000E-19   0.000    
    8129   8.129      0.1000E-02 FIXED          0   0.0%   0.000       0.000       2.000       2.000       0.000      0.1000E-19   0.000    
    8130   8.130      0.1000E-02 FIXED          0  -0.0%   0.000       0.000       2.000       2.000       0.000      0.1000E-19   0.000    
    8131   8.131      0.1000E-02 FIXED          0  -0.0%   0.000       0.000       2.000       2.000       0.000      0.1000E-19   0.000    
    8132   8.132      0.1000E-02 FIXED          0   0.0%   0.000       0.000       2.000       2.000       0.000      0.1000E-19   0.000    
    8133   8.133      0.1000E-02 FIXED          0  -0.0%   0.000       0.000       2.000       2.000       0.000      0.1000E-19   0.000    
    8134   8.134      0.1000E-02 FIXED          0   0.0%   0.000       0.000       2.000       2.000       0.000      0.1000E-19   0.000    
    8135   8.135      0.1000E-02 FIXED          0   0.0%   0.000       0.000       2.000       2.000       0.000      0.1000E-19   0.000    
    8136   8.136      0.1000E-02 FIXED          0  -0.0%   0.000       0.000       2.000       2.000       0.000      0.1000E-19   0.000    
    8137   8.137      0.1000E-02 FIXED          0   0.0%   0.000       0.000       2.000       2.000       0.000      0.1000E-19   0.000    
    8138   8.138      0.1000E-02 FIXED          0   0.0%   0.000       0.000       2.000       2.000       0.000      0.1000E-19   0.000    
    8139   8.139      0.1000E-02 FIXED          0   0.0%   0.000       0.000       2.000       2.000       0.000      0.1000E-19   0.000    
   CYCLE    TIME      TIME-STEP  ELEMENT          ERROR  I-ENERGY    K-ENERGY T  K-ENERGY R  EXT-WORK     MAS.ERR     TOTAL MASS  MASS ADDED
    8140   8.140      0.1000E-02 FIXED          0   0.0%   0.000       0.000       2.000       2.000       0.000      0.1000E-19   0.000    
    8141   8.141      0.1000E-02 FIXED          0  -0.0%   0.000       0.000       2.000       2.000       0.000      0.1000E-19   0.000    
    8142   8.142      0.1000E-02 FIXED          0   0.0%   0.000       0.000       2.000       2.000       0.000      0.1000E-19   0.000    
    8143   8.143      0.1000E-02 FIXED          0   0.0%   0.000       0.000       2.000       2.000       0.000      0.1000E-19   0.000    
    8144   8.144      0.1000E-02 FIXED          0  -0.0%   0.000       0.000       2.000       2.000       0.000      0.1000E-19   0.000    
    8145   8.145      0.1000E-02 FIXED          0   0.0%   0.000       0.000       2.000       2.000       0.000      0.1000E-19   0.000    
    8146   8.146      0.1000E-02 FIXED          0  -0.0%   0.000       0.000       2.000       2.000       0.000      0.1000E-19   0.000    
    8147   8.147      0.1000E-02 FIXED          0   0.0%   0.000       0.000       2.000       2.000       0.000      0.1000E-19   0.000    
    8148   8.148      0.1000E-02 FIXED          0   0.0%   0.000       0.000       2.000       2.000       0.000      0.1000E-19   0.000    
    8149   8.149      0.1000E-02 FIXED          0   0.0%   0.000       0.000       2.000       2.000       0.000      0.1000E-19   0.000    
    8150   8.150      0.1000E-02 FIXED          0   0.0%   0.000       0.000       2.000       2.000       0.000      0.1000E-19   0.000    
    8151   8.151      0.1000E-02 FIXED          0   0.0%   0.000       0.000       2.000       2.000       0.000      0.1000E-19   0.000    
    8152   8.152      0.1000E-02 FIXED          0   0.0%   0.000       0.000       2.000       2.000       0.000      0.1000E-19   0.000    
    8153   8.153      0.1000E-02 FIXED          0   0.0%   0.000       0.000       2.000       2.000       0.000      0.1000E-19   0.000    
    8154   8.154      0.1000E-02 FIXED          0  -0.0%   0.000       0.000       2.000       2.000       0.000      0.1000E-19   0.000    
    8155   8.155      0.1000E-02 FIXED          0  -0.0%   0.000       0.000       2.000       2.000       0.000      0.1000E-19   0.000    
    8156   8.156      0.1000E-02 FIXED          0   0.0%   0.000       0.000       2.000       2.000       0.000      0.1000E-19   0.000    
    8157   8.157      0.1000E-02 FIXED          0   0.0%   0.000       0.000       2.000       2.000       0.000      0.1000E-19   0.000    
    8158   8.158      0.1000E-02 FIXED          0  -0.0%   0.000       0.000       2.000       2.000       0.000      0.1000E-19   0.000    
    8159   8.159      0.1000E-02 FIXED          0   0.0%   0.000       0.000       2.000       2.000       0.000      0.1000E-19   0.000    
    8160   8.160      0.1000E-02 FIXED          0  -0.0%   0.000       0.000       2.000       2.000       0.000      0.1000E-19   0.000    
    8161   8.161      0.1000E-02 FIXED          0   0.0%   0.000       0.000       2.000       2.000       0.000      0.1000E-19   0.000    
    8162   8.162      0.1000E-02 FIXED          0   0.0%   0.000       0.000       2.000       2.000       0.000      0.1000E-19   0.000    
    8163   8.163      0.1000E-02 FIXED          0   0.0%   0.000       0.000       2.000       2.000       0.000      0.1000E-19   0.000    
    8164   8.164      0.1000E-02 FIXED          0   0.0%   0.000       0.000       2.000       2.000       0.000      0.1000E-19   0.000    
    8165   8.165      0.1000E-02 FIXED          0  -0.0%   0.000       0.000       2.000       2.000       0.000      0.1000E-19   0.000    
    8166   8.166      0.1000E-02 FIXED          0   0.0%   0.000       0.000       2.000       2.000       0.000      0.1000E-19   0.000    
    8167   8.167      0.1000E-02 FIXED          0  -0.0%   0.000       0.000       2.000       2.000       0.000      0.1000E-19   0.000    
    8168   8.168      0.1000E-02 FIXED          0   0.0%   0.000       0.000       2.000       2.000       0.000      0.1000E-19   0.000    
    8169   8.169      0.1000E-02 FIXED          0  -0.0%   0.000       0.000       2.000       2.000       0.000      0.1000E-19   0.000    
    8170   8.170      0.1000E-02 FIXED          0  -0.0%   0.000       0.000       2.000       2.000       0.000      0.1000E-19   0.000    
    8171   8.171      0.1000E-02 FIXED          0   0.0%   0.000       0.000       2.000       2.000       0.000      0.1000E-19   0.000    
    8172   8.172      0.1000E-02 FIXED          0  -0.0%   0.000       0.000       2.000       2.000       0.000      0.1000E-19   0.000    
    8173   8.173      0.1000E-02 FIXED          0   0.0%   0.000       0.000       2.000       2.000       0.000      0.1000E-19   0.000    
    8174   8.174      0.1000E-02 FIXED          0   0.0%   0.000       0.000       2.000       2.000       0.000      0.1000E-19   0.000    
    8175   8.175      0.1000E-02 FIXED          0   0.0%   0.000       0.000       2.000       2.000       0.000      0.1000E-19   0.000    
    8176   8.176      0.1000E-02 FIXED          0   0.0%   0.000       0.000       2.000       2.000       0.000      0.1000E-19   0.000    
    8177   8.177      0.1000E-02 FIXED          0   0.0%   0.000       0.000       2.000       2.000       0.000      0.1000E-19   0.000    
    8178   8.178      0.1000E-02 FIXED          0  -0.0%   0.000       0.000       2.000       2.000       0.000      0.1000E-19   0.000    
    8179   8.179      0.1000E-02 FIXED          0   0.0%   0.000       0.000       2.000       2.000       0.000      0.1000E-19   0.000    
    8180   8.180      0.1000E-02 FIXED          0   0.0%   0.000       0.000       2.000       2.000       0.000      0.1000E-19   0.000    
    8181   8.181      0.1000E-02 FIXED          0  -0.0%   0.000       0.000       2.000       2.000       0.000      0.1000E-19   0.000    
    8182   8.182      0.1000E-02 FIXED          0   0.0%   0.000       0.000       2.000       2.000       0.000      0.1000E-19   0.000    
    8183   8.183      0.1000E-02 FIXED          0   0.0%   0.000       0.000       2.000       2.000       0.000      0.1000E-19   0.000    
    8184   8.184      0.1000E-02 FIXED          0   0.0%   0.000       0.000       2.000       2.000       0.000      0.1000E-19   0.000    
    8185   8.185      0.1000E-02 FIXED          0   0.0%   0.000       0.000       2.000       2.000       0.000      0.1000E-19   0.000    
    8186   8.186      0.1000E-02 FIXED          0   0.0%   0.000       0.000       2.000       2.000       0.000      0.1000E-19   0.000    
    8187   8.187      0.1000E-02 FIXED          0  -0.0%   0.000       0.000       2.000       2.000       0.000      0.1000E-19   0.000    
    8188   8.188      0.1000E-02 FIXED          0   0.0%   0.000       0.000       2.000       2.000       0.000      0.1000E-19   0.000    
    8189   8.189      0.1000E-02 FIXED          0   0.0%   0.000       0.000       2.000       2.000       0.000      0.1000E-19   0.000    
    8190   8.190      0.1000E-02 FIXED          0   0.0%   0.000       0.000       2.000       2.000       0.000      0.1000E-19   0.000    
    8191   8.191      0.1000E-02 FIXED          0  -0.0%   0.000       0.000       2.000       2.000       0.000      0.1000E-19   0.000    
    8192   8.192      0.1000E-02 FIXED          0   0.0%   0.000       0.000       2.000       2.000       0.000      0.1000E-19   0.000    
    8193   8.193      0.1000E-02 FIXED          0  -0.0%   0.000       0.000       2.000       2.000       0.000      0.1000E-19   0.000    
    8194   8.194      0.1000E-02 FIXED          0   0.0%   0.000       0.000       2.000       2.000       0.000      0.1000E-19   0.000    
   CYCLE    TIME      TIME-STEP  ELEMENT          ERROR  I-ENERGY    K-ENERGY T  K-ENERGY R  EXT-WORK     MAS.ERR     TOTAL MASS  MASS ADDED
    8195   8.195      0.1000E-02 FIXED          0  -0.0%   0.000       0.000       2.000       2.000       0.000      0.1000E-19   0.000    
    8196   8.196      0.1000E-02 FIXED          0   0.0%   0.000       0.000       2.000       2.000       0.000      0.1000E-19   0.000    
    8197   8.197      0.1000E-02 FIXED          0  -0.0%   0.000       0.000       2.000       2.000       0.000      0.1000E-19   0.000    
    8198   8.198      0.1000E-02 FIXED          0   0.0%   0.000       0.000       2.000       2.000       0.000      0.1000E-19   0.000    
    8199   8.199      0.1000E-02 FIXED          0  -0.0%   0.000       0.000       2.000       2.000       0.000      0.1000E-19   0.000    
    8200   8.200      0.1000E-02 FIXED          0  -0.0%   0.000       0.000       2.000       2.000       0.000      0.1000E-19   0.000    
    8201   8.201      0.1000E-02 FIXED          0  -0.0%   0.000       0.000       2.000       2.000       0.000      0.1000E-19   0.000    
    8202   8.202      0.1000E-02 FIXED          0   0.0%   0.000       0.000       2.000       2.000       0.000      0.1000E-19   0.000    
    8203   8.203      0.1000E-02 FIXED          0  -0.0%   0.000       0.000       2.000       2.000       0.000      0.1000E-19   0.000    
    8204   8.204      0.1000E-02 FIXED          0   0.0%   0.000       0.000       2.000       2.000       0.000      0.1000E-19   0.000    
    8205   8.205      0.1000E-02 FIXED          0  -0.0%   0.000       0.000       2.000       2.000       0.000      0.1000E-19   0.000    
    8206   8.206      0.1000E-02 FIXED          0  -0.0%   0.000       0.000       2.000       2.000       0.000      0.1000E-19   0.000    
    8207   8.207      0.1000E-02 FIXED          0  -0.0%   0.000       0.000       2.000       2.000       0.000      0.1000E-19   0.000    
    8208   8.208      0.1000E-02 FIXED          0  -0.0%   0.000       0.000       2.000       2.000       0.000      0.1000E-19   0.000    
    8209   8.209      0.1000E-02 FIXED          0   0.0%   0.000       0.000       2.000       2.000       0.000      0.1000E-19   0.000    
    8210   8.210      0.1000E-02 FIXED          0  -0.0%   0.000       0.000       2.000       2.000       0.000      0.1000E-19   0.000    
    8211   8.211      0.1000E-02 FIXED          0   0.0%   0.000       0.000       2.000       2.000       0.000      0.1000E-19   0.000    
    8212   8.212      0.1000E-02 FIXED          0   0.0%   0.000       0.000       2.000       2.000       0.000      0.1000E-19   0.000    
    8213   8.213      0.1000E-02 FIXED          0   0.0%   0.000       0.000       2.000       2.000       0.000      0.1000E-19   0.000    
    8214   8.214      0.1000E-02 FIXED          0   0.0%   0.000       0.000       2.000       2.000       0.000      0.1000E-19   0.000    
    8215   8.215      0.1000E-02 FIXED          0  -0.0%   0.000       0.000       2.000       2.000       0.000      0.1000E-19   0.000    
    8216   8.216      0.1000E-02 FIXED          0  -0.0%   0.000       0.000       2.000       2.000       0.000      0.1000E-19   0.000    
    8217   8.217      0.1000E-02 FIXED          0   0.0%   0.000       0.000       2.000       2.000       0.000      0.1000E-19   0.000    
    8218   8.218      0.1000E-02 FIXED          0   0.0%   0.000       0.000       2.000       2.000       0.000      0.1000E-19   0.000    
    8219   8.219      0.1000E-02 FIXED          0  -0.0%   0.000       0.000       2.000       2.000       0.000      0.1000E-19   0.000    
    8220   8.220      0.1000E-02 FIXED          0   0.0%   0.000       0.000       2.000       2.000       0.000      0.1000E-19   0.000    
    8221   8.221      0.1000E-02 FIXED          0  -0.0%   0.000       0.000       2.000       2.000       0.000      0.1000E-19   0.000    
    8222   8.222      0.1000E-02 FIXED          0   0.0%   0.000       0.000       2.000       2.000       0.000      0.1000E-19   0.000    
    8223   8.223      0.1000E-02 FIXED          0  -0.0%   0.000       0.000       2.000       2.000       0.000      0.1000E-19   0.000    
    8224   8.224      0.1000E-02 FIXED          0   0.0%   0.000       0.000       2.000       2.000       0.000      0.1000E-19   0.000    
    8225   8.225      0.1000E-02 FIXED          0  -0.0%   0.000       0.000       2.000       2.000       0.000      0.1000E-19   0.000    
    8226   8.226      0.1000E-02 FIXED          0   0.0%   0.000       0.000       2.000       2.000       0.000      0.1000E-19   0.000    
    8227   8.227      0.1000E-02 FIXED          0  -0.0%   0.000       0.000       2.000       2.000       0.000      0.1000E-19   0.000    
    8228   8.228      0.1000E-02 FIXED          0  -0.0%   0.000       0.000       2.000       2.000       0.000      0.1000E-19   0.000    
    8229   8.229      0.1000E-02 FIXED          0   0.0%   0.000       0.000       2.000       2.000       0.000      0.1000E-19   0.000    
    8230   8.230      0.1000E-02 FIXED          0   0.0%   0.000       0.000       2.000       2.000       0.000      0.1000E-19   0.000    
    8231   8.231      0.1000E-02 FIXED          0  -0.0%   0.000       0.000       2.000       2.000       0.000      0.1000E-19   0.000    
    8232   8.232      0.1000E-02 FIXED          0  -0.0%   0.000       0.000       2.000       2.000       0.000      0.1000E-19   0.000    
    8233   8.233      0.1000E-02 FIXED          0   0.0%   0.000       0.000       2.000       2.000       0.000      0.1000E-19   0.000    
    8234   8.234      0.1000E-02 FIXED          0   0.0%   0.000       0.000       2.000       2.000       0.000      0.1000E-19   0.000    
    8235   8.235      0.1000E-02 FIXED          0  -0.0%   0.000       0.000       2.000       2.000       0.000      0.1000E-19   0.000    
    8236   8.236      0.1000E-02 FIXED          0   0.0%   0.000       0.000       2.000       2.000       0.000      0.1000E-19   0.000    
    8237   8.237      0.1000E-02 FIXED          0  -0.0%   0.000       0.000       2.000       2.000       0.000      0.1000E-19   0.000    
    8238   8.238      0.1000E-02 FIXED          0   0.0%   0.000       0.000       2.000       2.000       0.000      0.1000E-19   0.000    
    8239   8.239      0.1000E-02 FIXED          0   0.0%   0.000       0.000       2.000       2.000       0.000      0.1000E-19   0.000    
    8240   8.240      0.1000E-02 FIXED          0  -0.0%   0.000       0.000       2.000       2.000       0.000      0.1000E-19   0.000    
    8241   8.241      0.1000E-02 FIXED          0   0.0%   0.000       0.000       2.000       2.000       0.000      0.1000E-19   0.000    
    8242   8.242      0.1000E-02 FIXED          0  -0.0%   0.000       0.000       2.000       2.000       0.000      0.1000E-19   0.000    
    8243   8.243      0.1000E-02 FIXED          0   0.0%   0.000       0.000       2.000       2.000       0.000      0.1000E-19   0.000    
    8244   8.244      0.1000E-02 FIXED          0  -0.0%   0.000       0.000       2.000       2.000       0.000      0.1000E-19   0.000    
    8245   8.245      0.1000E-02 FIXED          0  -0.0%   0.000       0.000       2.000       2.000       0.000      0.1000E-19   0.000    
    8246   8.246      0.1000E-02 FIXED          0   0.0%   0.000       0.000       2.000       2.000       0.000      0.1000E-19   0.000    
    8247   8.247      0.1000E-02 FIXED          0  -0.0%   0.000       0.000       2.000       2.000       0.000      0.1000E-19   0.000    
    8248   8.248      0.1000E-02 FIXED          0   0.0%   0.000       0.000       2.000       2.000       0.000      0.1000E-19   0.000    
    8249   8.249      0.1000E-02 FIXED          0   0.0%   0.000       0.000       2.000       2.000       0.000      0.1000E-19   0.000    
   CYCLE    TIME      TIME-STEP  ELEMENT          ERROR  I-ENERGY    K-ENERGY T  K-ENERGY R  EXT-WORK     MAS.ERR     TOTAL MASS  MASS ADDED
    8250   8.250      0.1000E-02 FIXED          0  -0.0%   0.000       0.000       2.000       2.000       0.000      0.1000E-19   0.000    
    8251   8.251      0.1000E-02 FIXED          0  -0.0%   0.000       0.000       2.000       2.000       0.000      0.1000E-19   0.000    
    8252   8.252      0.1000E-02 FIXED          0   0.0%   0.000       0.000       2.000       2.000       0.000      0.1000E-19   0.000    
    8253   8.253      0.1000E-02 FIXED          0  -0.0%   0.000       0.000       2.000       2.000       0.000      0.1000E-19   0.000    
    8254   8.254      0.1000E-02 FIXED          0   0.0%   0.000       0.000       2.000       2.000       0.000      0.1000E-19   0.000    
    8255   8.255      0.1000E-02 FIXED          0  -0.0%   0.000       0.000       2.000       2.000       0.000      0.1000E-19   0.000    
    8256   8.256      0.1000E-02 FIXED          0   0.0%   0.000       0.000       2.000       2.000       0.000      0.1000E-19   0.000    
    8257   8.257      0.1000E-02 FIXED          0  -0.0%   0.000       0.000       2.000       2.000       0.000      0.1000E-19   0.000    
    8258   8.258      0.1000E-02 FIXED          0   0.0%   0.000       0.000       2.000       2.000       0.000      0.1000E-19   0.000    
    8259   8.259      0.1000E-02 FIXED          0  -0.0%   0.000       0.000       2.000       2.000       0.000      0.1000E-19   0.000    
    8260   8.260      0.1000E-02 FIXED          0   0.0%   0.000       0.000       2.000       2.000       0.000      0.1000E-19   0.000    
    8261   8.261      0.1000E-02 FIXED          0   0.0%   0.000       0.000       2.000       2.000       0.000      0.1000E-19   0.000    
    8262   8.262      0.1000E-02 FIXED          0  -0.0%   0.000       0.000       2.000       2.000       0.000      0.1000E-19   0.000    
    8263   8.263      0.1000E-02 FIXED          0  -0.0%   0.000       0.000       2.000       2.000       0.000      0.1000E-19   0.000    
    8264   8.264      0.1000E-02 FIXED          0   0.0%   0.000       0.000       2.000       2.000       0.000      0.1000E-19   0.000    
    8265   8.265      0.1000E-02 FIXED          0   0.0%   0.000       0.000       2.000       2.000       0.000      0.1000E-19   0.000    
    8266   8.266      0.1000E-02 FIXED          0  -0.0%   0.000       0.000       2.000       2.000       0.000      0.1000E-19   0.000    
    8267   8.267      0.1000E-02 FIXED          0   0.0%   0.000       0.000       2.000       2.000       0.000      0.1000E-19   0.000    
    8268   8.268      0.1000E-02 FIXED          0   0.0%   0.000       0.000       2.000       2.000       0.000      0.1000E-19   0.000    
    8269   8.269      0.1000E-02 FIXED          0  -0.0%   0.000       0.000       2.000       2.000       0.000      0.1000E-19   0.000    
    8270   8.270      0.1000E-02 FIXED          0  -0.0%   0.000       0.000       2.000       2.000       0.000      0.1000E-19   0.000    
    8271   8.271      0.1000E-02 FIXED          0   0.0%   0.000       0.000       2.000       2.000       0.000      0.1000E-19   0.000    
    8272   8.272      0.1000E-02 FIXED          0   0.0%   0.000       0.000       2.000       2.000       0.000      0.1000E-19   0.000    
    8273   8.273      0.1000E-02 FIXED          0   0.0%   0.000       0.000       2.000       2.000       0.000      0.1000E-19   0.000    
    8274   8.274      0.1000E-02 FIXED          0  -0.0%   0.000       0.000       2.000       2.000       0.000      0.1000E-19   0.000    
    8275   8.275      0.1000E-02 FIXED          0   0.0%   0.000       0.000       2.000       2.000       0.000      0.1000E-19   0.000    
    8276   8.276      0.1000E-02 FIXED          0   0.0%   0.000       0.000       2.000       2.000       0.000      0.1000E-19   0.000    
    8277   8.277      0.1000E-02 FIXED          0   0.0%   0.000       0.000       2.000       2.000       0.000      0.1000E-19   0.000    
    8278   8.278      0.1000E-02 FIXED          0  -0.0%   0.000       0.000       2.000       2.000       0.000      0.1000E-19   0.000    
    8279   8.279      0.1000E-02 FIXED          0  -0.0%   0.000       0.000       2.000       2.000       0.000      0.1000E-19   0.000    
    8280   8.280      0.1000E-02 FIXED          0   0.0%   0.000       0.000       2.000       2.000       0.000      0.1000E-19   0.000    
    8281   8.281      0.1000E-02 FIXED          0  -0.0%   0.000       0.000       2.000       2.000       0.000      0.1000E-19   0.000    
    8282   8.282      0.1000E-02 FIXED          0   0.0%   0.000       0.000       2.000       2.000       0.000      0.1000E-19   0.000    
    8283   8.283      0.1000E-02 FIXED          0  -0.0%   0.000       0.000       2.000       2.000       0.000      0.1000E-19   0.000    
    8284   8.284      0.1000E-02 FIXED          0   0.0%   0.000       0.000       2.000       2.000       0.000      0.1000E-19   0.000    
    8285   8.285      0.1000E-02 FIXED          0  -0.0%   0.000       0.000       2.000       2.000       0.000      0.1000E-19   0.000    
    8286   8.286      0.1000E-02 FIXED          0   0.0%   0.000       0.000       2.000       2.000       0.000      0.1000E-19   0.000    
    8287   8.287      0.1000E-02 FIXED          0  -0.0%   0.000       0.000       2.000       2.000       0.000      0.1000E-19   0.000    
    8288   8.288      0.1000E-02 FIXED          0   0.0%   0.000       0.000       2.000       2.000       0.000      0.1000E-19   0.000    
    8289   8.289      0.1000E-02 FIXED          0  -0.0%   0.000       0.000       2.000       2.000       0.000      0.1000E-19   0.000    
    8290   8.290      0.1000E-02 FIXED          0   0.0%   0.000       0.000       2.000       2.000       0.000      0.1000E-19   0.000    
    8291   8.291      0.1000E-02 FIXED          0  -0.0%   0.000       0.000       2.000       2.000       0.000      0.1000E-19   0.000    
    8292   8.292      0.1000E-02 FIXED          0   0.0%   0.000       0.000       2.000       2.000       0.000      0.1000E-19   0.000    
    8293   8.293      0.1000E-02 FIXED          0  -0.0%   0.000       0.000       2.000       2.000       0.000      0.1000E-19   0.000    
    8294   8.294      0.1000E-02 FIXED          0   0.0%   0.000       0.000       2.000       2.000       0.000      0.1000E-19   0.000    
    8295   8.295      0.1000E-02 FIXED          0  -0.0%   0.000       0.000       2.000       2.000       0.000      0.1000E-19   0.000    
    8296   8.296      0.1000E-02 FIXED          0   0.0%   0.000       0.000       2.000       2.000       0.000      0.1000E-19   0.000    
    8297   8.297      0.1000E-02 FIXED          0   0.0%   0.000       0.000       2.000       2.000       0.000      0.1000E-19   0.000    
    8298   8.298      0.1000E-02 FIXED          0  -0.0%   0.000       0.000       2.000       2.000       0.000      0.1000E-19   0.000    
    8299   8.299      0.1000E-02 FIXED          0   0.0%   0.000       0.000       2.000       2.000       0.000      0.1000E-19   0.000    
    8300   8.300      0.1000E-02 FIXED          0  -0.0%   0.000       0.000       2.000       2.000       0.000      0.1000E-19   0.000    
    8301   8.301      0.1000E-02 FIXED          0   0.0%   0.000       0.000       2.000       2.000       0.000      0.1000E-19   0.000    
    8302   8.302      0.1000E-02 FIXED          0  -0.0%   0.000       0.000       2.000       2.000       0.000      0.1000E-19   0.000    
    8303   8.303      0.1000E-02 FIXED          0   0.0%   0.000       0.000       2.000       2.000       0.000      0.1000E-19   0.000    
    8304   8.304      0.1000E-02 FIXED          0  -0.0%   0.000       0.000       2.000       2.000       0.000      0.1000E-19   0.000    
   CYCLE    TIME      TIME-STEP  ELEMENT          ERROR  I-ENERGY    K-ENERGY T  K-ENERGY R  EXT-WORK     MAS.ERR     TOTAL MASS  MASS ADDED
    8305   8.305      0.1000E-02 FIXED          0  -0.0%   0.000       0.000       2.000       2.000       0.000      0.1000E-19   0.000    
    8306   8.306      0.1000E-02 FIXED          0   0.0%   0.000       0.000       2.000       2.000       0.000      0.1000E-19   0.000    
    8307   8.307      0.1000E-02 FIXED          0  -0.0%   0.000       0.000       2.000       2.000       0.000      0.1000E-19   0.000    
    8308   8.308      0.1000E-02 FIXED          0   0.0%   0.000       0.000       2.000       2.000       0.000      0.1000E-19   0.000    
    8309   8.309      0.1000E-02 FIXED          0   0.0%   0.000       0.000       2.000       2.000       0.000      0.1000E-19   0.000    
    8310   8.310      0.1000E-02 FIXED          0  -0.0%   0.000       0.000       2.000       2.000       0.000      0.1000E-19   0.000    
    8311   8.311      0.1000E-02 FIXED          0   0.0%   0.000       0.000       2.000       2.000       0.000      0.1000E-19   0.000    
    8312   8.312      0.1000E-02 FIXED          0   0.0%   0.000       0.000       2.000       2.000       0.000      0.1000E-19   0.000    
    8313   8.313      0.1000E-02 FIXED          0   0.0%   0.000       0.000       2.000       2.000       0.000      0.1000E-19   0.000    
    8314   8.314      0.1000E-02 FIXED          0  -0.0%   0.000       0.000       2.000       2.000       0.000      0.1000E-19   0.000    
    8315   8.315      0.1000E-02 FIXED          0  -0.0%   0.000       0.000       2.000       2.000       0.000      0.1000E-19   0.000    
    8316   8.316      0.1000E-02 FIXED          0   0.0%   0.000       0.000       2.000       2.000       0.000      0.1000E-19   0.000    
    8317   8.317      0.1000E-02 FIXED          0  -0.0%   0.000       0.000       2.000       2.000       0.000      0.1000E-19   0.000    
    8318   8.318      0.1000E-02 FIXED          0   0.0%   0.000       0.000       2.000       2.000       0.000      0.1000E-19   0.000    
    8319   8.319      0.1000E-02 FIXED          0   0.0%   0.000       0.000       2.000       2.000       0.000      0.1000E-19   0.000    
    8320   8.320      0.1000E-02 FIXED          0   0.0%   0.000       0.000       2.000       2.000       0.000      0.1000E-19   0.000    
    8321   8.321      0.1000E-02 FIXED          0   0.0%   0.000       0.000       2.000       2.000       0.000      0.1000E-19   0.000    
    8322   8.322      0.1000E-02 FIXED          0  -0.0%   0.000       0.000       2.000       2.000       0.000      0.1000E-19   0.000    
    8323   8.323      0.1000E-02 FIXED          0   0.0%   0.000       0.000       2.000       2.000       0.000      0.1000E-19   0.000    
    8324   8.324      0.1000E-02 FIXED          0  -0.0%   0.000       0.000       2.000       2.000       0.000      0.1000E-19   0.000    
    8325   8.325      0.1000E-02 FIXED          0   0.0%   0.000       0.000       2.000       2.000       0.000      0.1000E-19   0.000    
    8326   8.326      0.1000E-02 FIXED          0   0.0%   0.000       0.000       2.000       2.000       0.000      0.1000E-19   0.000    
    8327   8.327      0.1000E-02 FIXED          0  -0.0%   0.000       0.000       2.000       2.000       0.000      0.1000E-19   0.000    
    8328   8.328      0.1000E-02 FIXED          0  -0.0%   0.000       0.000       2.000       2.000       0.000      0.1000E-19   0.000    
    8329   8.329      0.1000E-02 FIXED          0   0.0%   0.000       0.000       2.000       2.000       0.000      0.1000E-19   0.000    
    8330   8.330      0.1000E-02 FIXED          0  -0.0%   0.000       0.000       2.000       2.000       0.000      0.1000E-19   0.000    
    8331   8.331      0.1000E-02 FIXED          0   0.0%   0.000       0.000       2.000       2.000       0.000      0.1000E-19   0.000    
    8332   8.332      0.1000E-02 FIXED          0   0.0%   0.000       0.000       2.000       2.000       0.000      0.1000E-19   0.000    
    8333   8.333      0.1000E-02 FIXED          0   0.0%   0.000       0.000       2.000       2.000       0.000      0.1000E-19   0.000    
    8334   8.334      0.1000E-02 FIXED          0   0.0%   0.000       0.000       2.000       2.000       0.000      0.1000E-19   0.000    
    8335   8.335      0.1000E-02 FIXED          0  -0.0%   0.000       0.000       2.000       2.000       0.000      0.1000E-19   0.000    
    8336   8.336      0.1000E-02 FIXED          0   0.0%   0.000       0.000       2.000       2.000       0.000      0.1000E-19   0.000    
    8337   8.337      0.1000E-02 FIXED          0   0.0%   0.000       0.000       2.000       2.000       0.000      0.1000E-19   0.000    
    8338   8.338      0.1000E-02 FIXED          0  -0.0%   0.000       0.000       2.000       2.000       0.000      0.1000E-19   0.000    
    8339   8.339      0.1000E-02 FIXED          0   0.0%   0.000       0.000       2.000       2.000       0.000      0.1000E-19   0.000    
    8340   8.340      0.1000E-02 FIXED          0  -0.0%   0.000       0.000       2.000       2.000       0.000      0.1000E-19   0.000    
    8341   8.341      0.1000E-02 FIXED          0   0.0%   0.000       0.000       2.000       2.000       0.000      0.1000E-19   0.000    
    8342   8.342      0.1000E-02 FIXED          0   0.0%   0.000       0.000       2.000       2.000       0.000      0.1000E-19   0.000    
    8343   8.343      0.1000E-02 FIXED          0  -0.0%   0.000       0.000       2.000       2.000       0.000      0.1000E-19   0.000    
    8344   8.344      0.1000E-02 FIXED          0   0.0%   0.000       0.000       2.000       2.000       0.000      0.1000E-19   0.000    
    8345   8.345      0.1000E-02 FIXED          0   0.0%   0.000       0.000       2.000       2.000       0.000      0.1000E-19   0.000    
    8346   8.346      0.1000E-02 FIXED          0  -0.0%   0.000       0.000       2.000       2.000       0.000      0.1000E-19   0.000    
    8347   8.347      0.1000E-02 FIXED          0   0.0%   0.000       0.000       2.000       2.000       0.000      0.1000E-19   0.000    
    8348   8.348      0.1000E-02 FIXED          0  -0.0%   0.000       0.000       2.000       2.000       0.000      0.1000E-19   0.000    
    8349   8.349      0.1000E-02 FIXED          0  -0.0%   0.000       0.000       2.000       2.000       0.000      0.1000E-19   0.000    
    8350   8.350      0.1000E-02 FIXED          0   0.0%   0.000       0.000       2.000       2.000       0.000      0.1000E-19   0.000    
    8351   8.351      0.1000E-02 FIXED          0  -0.0%   0.000       0.000       2.000       2.000       0.000      0.1000E-19   0.000    
    8352   8.352      0.1000E-02 FIXED          0   0.0%   0.000       0.000       2.000       2.000       0.000      0.1000E-19   0.000    
    8353   8.353      0.1000E-02 FIXED          0   0.0%   0.000       0.000       2.000       2.000       0.000      0.1000E-19   0.000    
    8354   8.354      0.1000E-02 FIXED          0   0.0%   0.000       0.000       2.000       2.000       0.000      0.1000E-19   0.000    
    8355   8.355      0.1000E-02 FIXED          0   0.0%   0.000       0.000       2.000       2.000       0.000      0.1000E-19   0.000    
    8356   8.356      0.1000E-02 FIXED          0   0.0%   0.000       0.000       2.000       2.000       0.000      0.1000E-19   0.000    
    8357   8.357      0.1000E-02 FIXED          0  -0.0%   0.000       0.000       2.000       2.000       0.000      0.1000E-19   0.000    
    8358   8.358      0.1000E-02 FIXED          0   0.0%   0.000       0.000       2.000       2.000       0.000      0.1000E-19   0.000    
    8359   8.359      0.1000E-02 FIXED          0   0.0%   0.000       0.000       2.000       2.000       0.000      0.1000E-19   0.000    
   CYCLE    TIME      TIME-STEP  ELEMENT          ERROR  I-ENERGY    K-ENERGY T  K-ENERGY R  EXT-WORK     MAS.ERR     TOTAL MASS  MASS ADDED
    8360   8.360      0.1000E-02 FIXED          0   0.0%   0.000       0.000       2.000       2.000       0.000      0.1000E-19   0.000    
    8361   8.361      0.1000E-02 FIXED          0   0.0%   0.000       0.000       2.000       2.000       0.000      0.1000E-19   0.000    
    8362   8.362      0.1000E-02 FIXED          0   0.0%   0.000       0.000       2.000       2.000       0.000      0.1000E-19   0.000    
    8363   8.363      0.1000E-02 FIXED          0  -0.0%   0.000       0.000       2.000       2.000       0.000      0.1000E-19   0.000    
    8364   8.364      0.1000E-02 FIXED          0   0.0%   0.000       0.000       2.000       2.000       0.000      0.1000E-19   0.000    
    8365   8.365      0.1000E-02 FIXED          0  -0.0%   0.000       0.000       2.000       2.000       0.000      0.1000E-19   0.000    
    8366   8.366      0.1000E-02 FIXED          0   0.0%   0.000       0.000       2.000       2.000       0.000      0.1000E-19   0.000    
    8367   8.367      0.1000E-02 FIXED          0   0.0%   0.000       0.000       2.000       2.000       0.000      0.1000E-19   0.000    
    8368   8.368      0.1000E-02 FIXED          0  -0.0%   0.000       0.000       2.000       2.000       0.000      0.1000E-19   0.000    
    8369   8.369      0.1000E-02 FIXED          0  -0.0%   0.000       0.000       2.000       2.000       0.000      0.1000E-19   0.000    
    8370   8.370      0.1000E-02 FIXED          0  -0.0%   0.000       0.000       2.000       2.000       0.000      0.1000E-19   0.000    
    8371   8.371      0.1000E-02 FIXED          0   0.0%   0.000       0.000       2.000       2.000       0.000      0.1000E-19   0.000    
    8372   8.372      0.1000E-02 FIXED          0   0.0%   0.000       0.000       2.000       2.000       0.000      0.1000E-19   0.000    
    8373   8.373      0.1000E-02 FIXED          0   0.0%   0.000       0.000       2.000       2.000       0.000      0.1000E-19   0.000    
    8374   8.374      0.1000E-02 FIXED          0  -0.0%   0.000       0.000       2.000       2.000       0.000      0.1000E-19   0.000    
    8375   8.375      0.1000E-02 FIXED          0   0.0%   0.000       0.000       2.000       2.000       0.000      0.1000E-19   0.000    
    8376   8.376      0.1000E-02 FIXED          0  -0.0%   0.000       0.000       2.000       2.000       0.000      0.1000E-19   0.000    
    8377   8.377      0.1000E-02 FIXED          0   0.0%   0.000       0.000       2.000       2.000       0.000      0.1000E-19   0.000    
    8378   8.378      0.1000E-02 FIXED          0  -0.0%   0.000       0.000       2.000       2.000       0.000      0.1000E-19   0.000    
    8379   8.379      0.1000E-02 FIXED          0   0.0%   0.000       0.000       2.000       2.000       0.000      0.1000E-19   0.000    
    8380   8.380      0.1000E-02 FIXED          0   0.0%   0.000       0.000       2.000       2.000       0.000      0.1000E-19   0.000    
    8381   8.381      0.1000E-02 FIXED          0   0.0%   0.000       0.000       2.000       2.000       0.000      0.1000E-19   0.000    
    8382   8.382      0.1000E-02 FIXED          0   0.0%   0.000       0.000       2.000       2.000       0.000      0.1000E-19   0.000    
    8383   8.383      0.1000E-02 FIXED          0   0.0%   0.000       0.000       2.000       2.000       0.000      0.1000E-19   0.000    
    8384   8.384      0.1000E-02 FIXED          0  -0.0%   0.000       0.000       2.000       2.000       0.000      0.1000E-19   0.000    
    8385   8.385      0.1000E-02 FIXED          0   0.0%   0.000       0.000       2.000       2.000       0.000      0.1000E-19   0.000    
    8386   8.386      0.1000E-02 FIXED          0   0.0%   0.000       0.000       2.000       2.000       0.000      0.1000E-19   0.000    
    8387   8.387      0.1000E-02 FIXED          0   0.0%   0.000       0.000       2.000       2.000       0.000      0.1000E-19   0.000    
    8388   8.388      0.1000E-02 FIXED          0   0.0%   0.000       0.000       2.000       2.000       0.000      0.1000E-19   0.000    
    8389   8.389      0.1000E-02 FIXED          0  -0.0%   0.000       0.000       2.000       2.000       0.000      0.1000E-19   0.000    
    8390   8.390      0.1000E-02 FIXED          0   0.0%   0.000       0.000       2.000       2.000       0.000      0.1000E-19   0.000    
    8391   8.391      0.1000E-02 FIXED          0  -0.0%   0.000       0.000       2.000       2.000       0.000      0.1000E-19   0.000    
    8392   8.392      0.1000E-02 FIXED          0   0.0%   0.000       0.000       2.000       2.000       0.000      0.1000E-19   0.000    
    8393   8.393      0.1000E-02 FIXED          0   0.0%   0.000       0.000       2.000       2.000       0.000      0.1000E-19   0.000    
    8394   8.394      0.1000E-02 FIXED          0  -0.0%   0.000       0.000       2.000       2.000       0.000      0.1000E-19   0.000    
    8395   8.395      0.1000E-02 FIXED          0   0.0%   0.000       0.000       2.000       2.000       0.000      0.1000E-19   0.000    
    8396   8.396      0.1000E-02 FIXED          0   0.0%   0.000       0.000       2.000       2.000       0.000      0.1000E-19   0.000    
    8397   8.397      0.1000E-02 FIXED          0  -0.0%   0.000       0.000       2.000       2.000       0.000      0.1000E-19   0.000    
    8398   8.398      0.1000E-02 FIXED          0   0.0%   0.000       0.000       2.000       2.000       0.000      0.1000E-19   0.000    
    8399   8.399      0.1000E-02 FIXED          0   0.0%   0.000       0.000       2.000       2.000       0.000      0.1000E-19   0.000    
    8400   8.400      0.1000E-02 FIXED          0   0.0%   0.000       0.000       2.000       2.000       0.000      0.1000E-19   0.000    
    8401   8.401      0.1000E-02 FIXED          0  -0.0%   0.000       0.000       2.000       2.000       0.000      0.1000E-19   0.000    
    8402   8.402      0.1000E-02 FIXED          0   0.0%   0.000       0.000       2.000       2.000       0.000      0.1000E-19   0.000    
    8403   8.403      0.1000E-02 FIXED          0   0.0%   0.000       0.000       2.000       2.000       0.000      0.1000E-19   0.000    
    8404   8.404      0.1000E-02 FIXED          0   0.0%   0.000       0.000       2.000       2.000       0.000      0.1000E-19   0.000    
    8405   8.405      0.1000E-02 FIXED          0   0.0%   0.000       0.000       2.000       2.000       0.000      0.1000E-19   0.000    
    8406   8.406      0.1000E-02 FIXED          0  -0.0%   0.000       0.000       2.000       2.000       0.000      0.1000E-19   0.000    
    8407   8.407      0.1000E-02 FIXED          0  -0.0%   0.000       0.000       2.000       2.000       0.000      0.1000E-19   0.000    
    8408   8.408      0.1000E-02 FIXED          0   0.0%   0.000       0.000       2.000       2.000       0.000      0.1000E-19   0.000    
    8409   8.409      0.1000E-02 FIXED          0   0.0%   0.000       0.000       2.000       2.000       0.000      0.1000E-19   0.000    
    8410   8.410      0.1000E-02 FIXED          0  -0.0%   0.000       0.000       2.000       2.000       0.000      0.1000E-19   0.000    
    8411   8.411      0.1000E-02 FIXED          0   0.0%   0.000       0.000       2.000       2.000       0.000      0.1000E-19   0.000    
    8412   8.412      0.1000E-02 FIXED          0  -0.0%   0.000       0.000       2.000       2.000       0.000      0.1000E-19   0.000    
    8413   8.413      0.1000E-02 FIXED          0   0.0%   0.000       0.000       2.000       2.000       0.000      0.1000E-19   0.000    
    8414   8.414      0.1000E-02 FIXED          0  -0.0%   0.000       0.000       2.000       2.000       0.000      0.1000E-19   0.000    
   CYCLE    TIME      TIME-STEP  ELEMENT          ERROR  I-ENERGY    K-ENERGY T  K-ENERGY R  EXT-WORK     MAS.ERR     TOTAL MASS  MASS ADDED
    8415   8.415      0.1000E-02 FIXED          0   0.0%   0.000       0.000       2.000       2.000       0.000      0.1000E-19   0.000    
    8416   8.416      0.1000E-02 FIXED          0  -0.0%   0.000       0.000       2.000       2.000       0.000      0.1000E-19   0.000    
    8417   8.417      0.1000E-02 FIXED          0   0.0%   0.000       0.000       2.000       2.000       0.000      0.1000E-19   0.000    
    8418   8.418      0.1000E-02 FIXED          0  -0.0%   0.000       0.000       2.000       2.000       0.000      0.1000E-19   0.000    
    8419   8.419      0.1000E-02 FIXED          0  -0.0%   0.000       0.000       2.000       2.000       0.000      0.1000E-19   0.000    
    8420   8.420      0.1000E-02 FIXED          0   0.0%   0.000       0.000       2.000       2.000       0.000      0.1000E-19   0.000    
    8421   8.421      0.1000E-02 FIXED          0   0.0%   0.000       0.000       2.000       2.000       0.000      0.1000E-19   0.000    
    8422   8.422      0.1000E-02 FIXED          0   0.0%   0.000       0.000       2.000       2.000       0.000      0.1000E-19   0.000    
    8423   8.423      0.1000E-02 FIXED          0  -0.0%   0.000       0.000       2.000       2.000       0.000      0.1000E-19   0.000    
    8424   8.424      0.1000E-02 FIXED          0   0.0%   0.000       0.000       2.000       2.000       0.000      0.1000E-19   0.000    
    8425   8.425      0.1000E-02 FIXED          0  -0.0%   0.000       0.000       2.000       2.000       0.000      0.1000E-19   0.000    
    8426   8.426      0.1000E-02 FIXED          0   0.0%   0.000       0.000       2.000       2.000       0.000      0.1000E-19   0.000    
    8427   8.427      0.1000E-02 FIXED          0  -0.0%   0.000       0.000       2.000       2.000       0.000      0.1000E-19   0.000    
    8428   8.428      0.1000E-02 FIXED          0   0.0%   0.000       0.000       2.000       2.000       0.000      0.1000E-19   0.000    
    8429   8.429      0.1000E-02 FIXED          0  -0.0%   0.000       0.000       2.000       2.000       0.000      0.1000E-19   0.000    
    8430   8.430      0.1000E-02 FIXED          0   0.0%   0.000       0.000       2.000       2.000       0.000      0.1000E-19   0.000    
    8431   8.431      0.1000E-02 FIXED          0   0.0%   0.000       0.000       2.000       2.000       0.000      0.1000E-19   0.000    
    8432   8.432      0.1000E-02 FIXED          0  -0.0%   0.000       0.000       2.000       2.000       0.000      0.1000E-19   0.000    
    8433   8.433      0.1000E-02 FIXED          0   0.0%   0.000       0.000       2.000       2.000       0.000      0.1000E-19   0.000    
    8434   8.434      0.1000E-02 FIXED          0  -0.0%   0.000       0.000       2.000       2.000       0.000      0.1000E-19   0.000    
    8435   8.435      0.1000E-02 FIXED          0   0.0%   0.000       0.000       2.000       2.000       0.000      0.1000E-19   0.000    
    8436   8.436      0.1000E-02 FIXED          0  -0.0%   0.000       0.000       2.000       2.000       0.000      0.1000E-19   0.000    
    8437   8.437      0.1000E-02 FIXED          0   0.0%   0.000       0.000       2.000       2.000       0.000      0.1000E-19   0.000    
    8438   8.438      0.1000E-02 FIXED          0  -0.0%   0.000       0.000       2.000       2.000       0.000      0.1000E-19   0.000    
    8439   8.439      0.1000E-02 FIXED          0   0.0%   0.000       0.000       2.000       2.000       0.000      0.1000E-19   0.000    
    8440   8.440      0.1000E-02 FIXED          0  -0.0%   0.000       0.000       2.000       2.000       0.000      0.1000E-19   0.000    
    8441   8.441      0.1000E-02 FIXED          0  -0.0%   0.000       0.000       2.000       2.000       0.000      0.1000E-19   0.000    
    8442   8.442      0.1000E-02 FIXED          0   0.0%   0.000       0.000       2.000       2.000       0.000      0.1000E-19   0.000    
    8443   8.443      0.1000E-02 FIXED          0  -0.0%   0.000       0.000       2.000       2.000       0.000      0.1000E-19   0.000    
    8444   8.444      0.1000E-02 FIXED          0   0.0%   0.000       0.000       2.000       2.000       0.000      0.1000E-19   0.000    
    8445   8.445      0.1000E-02 FIXED          0   0.0%   0.000       0.000       2.000       2.000       0.000      0.1000E-19   0.000    
    8446   8.446      0.1000E-02 FIXED          0  -0.0%   0.000       0.000       2.000       2.000       0.000      0.1000E-19   0.000    
    8447   8.447      0.1000E-02 FIXED          0  -0.0%   0.000       0.000       2.000       2.000       0.000      0.1000E-19   0.000    
    8448   8.448      0.1000E-02 FIXED          0   0.0%   0.000       0.000       2.000       2.000       0.000      0.1000E-19   0.000    
    8449   8.449      0.1000E-02 FIXED          0  -0.0%   0.000       0.000       2.000       2.000       0.000      0.1000E-19   0.000    
    8450   8.450      0.1000E-02 FIXED          0  -0.0%   0.000       0.000       2.000       2.000       0.000      0.1000E-19   0.000    
    8451   8.451      0.1000E-02 FIXED          0   0.0%   0.000       0.000       2.000       2.000       0.000      0.1000E-19   0.000    
    8452   8.452      0.1000E-02 FIXED          0  -0.0%   0.000       0.000       2.000       2.000       0.000      0.1000E-19   0.000    
    8453   8.453      0.1000E-02 FIXED          0   0.0%   0.000       0.000       2.000       2.000       0.000      0.1000E-19   0.000    
    8454   8.454      0.1000E-02 FIXED          0  -0.0%   0.000       0.000       2.000       2.000       0.000      0.1000E-19   0.000    
    8455   8.455      0.1000E-02 FIXED          0   0.0%   0.000       0.000       2.000       2.000       0.000      0.1000E-19   0.000    
    8456   8.456      0.1000E-02 FIXED          0  -0.0%   0.000       0.000       2.000       2.000       0.000      0.1000E-19   0.000    
    8457   8.457      0.1000E-02 FIXED          0   0.0%   0.000       0.000       2.000       2.000       0.000      0.1000E-19   0.000    
    8458   8.458      0.1000E-02 FIXED          0  -0.0%   0.000       0.000       2.000       2.000       0.000      0.1000E-19   0.000    
    8459   8.459      0.1000E-02 FIXED          0   0.0%   0.000       0.000       2.000       2.000       0.000      0.1000E-19   0.000    
    8460   8.460      0.1000E-02 FIXED          0  -0.0%   0.000       0.000       2.000       2.000       0.000      0.1000E-19   0.000    
    8461   8.461      0.1000E-02 FIXED          0   0.0%   0.000       0.000       2.000       2.000       0.000      0.1000E-19   0.000    
    8462   8.462      0.1000E-02 FIXED          0  -0.0%   0.000       0.000       2.000       2.000       0.000      0.1000E-19   0.000    
    8463   8.463      0.1000E-02 FIXED          0   0.0%   0.000       0.000       2.000       2.000       0.000      0.1000E-19   0.000    
    8464   8.464      0.1000E-02 FIXED          0   0.0%   0.000       0.000       2.000       2.000       0.000      0.1000E-19   0.000    
    8465   8.465      0.1000E-02 FIXED          0   0.0%   0.000       0.000       2.000       2.000       0.000      0.1000E-19   0.000    
    8466   8.466      0.1000E-02 FIXED          0  -0.0%   0.000       0.000       2.000       2.000       0.000      0.1000E-19   0.000    
    8467   8.467      0.1000E-02 FIXED          0   0.0%   0.000       0.000       2.000       2.000       0.000      0.1000E-19   0.000    
    8468   8.468      0.1000E-02 FIXED          0  -0.0%   0.000       0.000       2.000       2.000       0.000      0.1000E-19   0.000    
    8469   8.469      0.1000E-02 FIXED          0   0.0%   0.000       0.000       2.000       2.000       0.000      0.1000E-19   0.000    
   CYCLE    TIME      TIME-STEP  ELEMENT          ERROR  I-ENERGY    K-ENERGY T  K-ENERGY R  EXT-WORK     MAS.ERR     TOTAL MASS  MASS ADDED
    8470   8.470      0.1000E-02 FIXED          0   0.0%   0.000       0.000       2.000       2.000       0.000      0.1000E-19   0.000    
    8471   8.471      0.1000E-02 FIXED          0   0.0%   0.000       0.000       2.000       2.000       0.000      0.1000E-19   0.000    
    8472   8.472      0.1000E-02 FIXED          0   0.0%   0.000       0.000       2.000       2.000       0.000      0.1000E-19   0.000    
    8473   8.473      0.1000E-02 FIXED          0   0.0%   0.000       0.000       2.000       2.000       0.000      0.1000E-19   0.000    
    8474   8.474      0.1000E-02 FIXED          0   0.0%   0.000       0.000       2.000       2.000       0.000      0.1000E-19   0.000    
    8475   8.475      0.1000E-02 FIXED          0  -0.0%   0.000       0.000       2.000       2.000       0.000      0.1000E-19   0.000    
    8476   8.476      0.1000E-02 FIXED          0   0.0%   0.000       0.000       2.000       2.000       0.000      0.1000E-19   0.000    
    8477   8.477      0.1000E-02 FIXED          0   0.0%   0.000       0.000       2.000       2.000       0.000      0.1000E-19   0.000    
    8478   8.478      0.1000E-02 FIXED          0  -0.0%   0.000       0.000       2.000       2.000       0.000      0.1000E-19   0.000    
    8479   8.479      0.1000E-02 FIXED          0   0.0%   0.000       0.000       2.000       2.000       0.000      0.1000E-19   0.000    
    8480   8.480      0.1000E-02 FIXED          0  -0.0%   0.000       0.000       2.000       2.000       0.000      0.1000E-19   0.000    
    8481   8.481      0.1000E-02 FIXED          0   0.0%   0.000       0.000       2.000       2.000       0.000      0.1000E-19   0.000    
    8482   8.482      0.1000E-02 FIXED          0   0.0%   0.000       0.000       2.000       2.000       0.000      0.1000E-19   0.000    
    8483   8.483      0.1000E-02 FIXED          0  -0.0%   0.000       0.000       2.000       2.000       0.000      0.1000E-19   0.000    
    8484   8.484      0.1000E-02 FIXED          0   0.0%   0.000       0.000       2.000       2.000       0.000      0.1000E-19   0.000    
    8485   8.485      0.1000E-02 FIXED          0  -0.0%   0.000       0.000       2.000       2.000       0.000      0.1000E-19   0.000    
    8486   8.486      0.1000E-02 FIXED          0  -0.0%   0.000       0.000       2.000       2.000       0.000      0.1000E-19   0.000    
    8487   8.487      0.1000E-02 FIXED          0   0.0%   0.000       0.000       2.000       2.000       0.000      0.1000E-19   0.000    
    8488   8.488      0.1000E-02 FIXED          0   0.0%   0.000       0.000       2.000       2.000       0.000      0.1000E-19   0.000    
    8489   8.489      0.1000E-02 FIXED          0   0.0%   0.000       0.000       2.000       2.000       0.000      0.1000E-19   0.000    
    8490   8.490      0.1000E-02 FIXED          0  -0.0%   0.000       0.000       2.000       2.000       0.000      0.1000E-19   0.000    
    8491   8.491      0.1000E-02 FIXED          0  -0.0%   0.000       0.000       2.000       2.000       0.000      0.1000E-19   0.000    
    8492   8.492      0.1000E-02 FIXED          0   0.0%   0.000       0.000       2.000       2.000       0.000      0.1000E-19   0.000    
    8493   8.493      0.1000E-02 FIXED          0  -0.0%   0.000       0.000       2.000       2.000       0.000      0.1000E-19   0.000    
    8494   8.494      0.1000E-02 FIXED          0  -0.0%   0.000       0.000       2.000       2.000       0.000      0.1000E-19   0.000    
    8495   8.495      0.1000E-02 FIXED          0   0.0%   0.000       0.000       2.000       2.000       0.000      0.1000E-19   0.000    
    8496   8.496      0.1000E-02 FIXED          0   0.0%   0.000       0.000       2.000       2.000       0.000      0.1000E-19   0.000    
    8497   8.497      0.1000E-02 FIXED          0   0.0%   0.000       0.000       2.000       2.000       0.000      0.1000E-19   0.000    
    8498   8.498      0.1000E-02 FIXED          0   0.0%   0.000       0.000       2.000       2.000       0.000      0.1000E-19   0.000    
    8499   8.499      0.1000E-02 FIXED          0  -0.0%   0.000       0.000       2.000       2.000       0.000      0.1000E-19   0.000    
    8500   8.500      0.1000E-02 FIXED          0   0.0%   0.000       0.000       2.000       2.000       0.000      0.1000E-19   0.000    
    8501   8.501      0.1000E-02 FIXED          0  -0.0%   0.000       0.000       2.000       2.000       0.000      0.1000E-19   0.000    
    8502   8.502      0.1000E-02 FIXED          0   0.0%   0.000       0.000       2.000       2.000       0.000      0.1000E-19   0.000    
    8503   8.503      0.1000E-02 FIXED          0   0.0%   0.000       0.000       2.000       2.000       0.000      0.1000E-19   0.000    
    8504   8.504      0.1000E-02 FIXED          0   0.0%   0.000       0.000       2.000       2.000       0.000      0.1000E-19   0.000    
    8505   8.505      0.1000E-02 FIXED          0  -0.0%   0.000       0.000       2.000       2.000       0.000      0.1000E-19   0.000    
    8506   8.506      0.1000E-02 FIXED          0  -0.0%   0.000       0.000       2.000       2.000       0.000      0.1000E-19   0.000    
    8507   8.507      0.1000E-02 FIXED          0   0.0%   0.000       0.000       2.000       2.000       0.000      0.1000E-19   0.000    
    8508   8.508      0.1000E-02 FIXED          0   0.0%   0.000       0.000       2.000       2.000       0.000      0.1000E-19   0.000    
    8509   8.509      0.1000E-02 FIXED          0   0.0%   0.000       0.000       2.000       2.000       0.000      0.1000E-19   0.000    
    8510   8.510      0.1000E-02 FIXED          0  -0.0%   0.000       0.000       2.000       2.000       0.000      0.1000E-19   0.000    
    8511   8.511      0.1000E-02 FIXED          0   0.0%   0.000       0.000       2.000       2.000       0.000      0.1000E-19   0.000    
    8512   8.512      0.1000E-02 FIXED          0  -0.0%   0.000       0.000       2.000       2.000       0.000      0.1000E-19   0.000    
    8513   8.513      0.1000E-02 FIXED          0   0.0%   0.000       0.000       2.000       2.000       0.000      0.1000E-19   0.000    
    8514   8.514      0.1000E-02 FIXED          0   0.0%   0.000       0.000       2.000       2.000       0.000      0.1000E-19   0.000    
    8515   8.515      0.1000E-02 FIXED          0   0.0%   0.000       0.000       2.000       2.000       0.000      0.1000E-19   0.000    
    8516   8.516      0.1000E-02 FIXED          0  -0.0%   0.000       0.000       2.000       2.000       0.000      0.1000E-19   0.000    
    8517   8.517      0.1000E-02 FIXED          0   0.0%   0.000       0.000       2.000       2.000       0.000      0.1000E-19   0.000    
    8518   8.518      0.1000E-02 FIXED          0  -0.0%   0.000       0.000       2.000       2.000       0.000      0.1000E-19   0.000    
    8519   8.519      0.1000E-02 FIXED          0  -0.0%   0.000       0.000       2.000       2.000       0.000      0.1000E-19   0.000    
    8520   8.520      0.1000E-02 FIXED          0   0.0%   0.000       0.000       2.000       2.000       0.000      0.1000E-19   0.000    
    8521   8.521      0.1000E-02 FIXED          0   0.0%   0.000       0.000       2.000       2.000       0.000      0.1000E-19   0.000    
    8522   8.522      0.1000E-02 FIXED          0   0.0%   0.000       0.000       2.000       2.000       0.000      0.1000E-19   0.000    
    8523   8.523      0.1000E-02 FIXED          0   0.0%   0.000       0.000       2.000       2.000       0.000      0.1000E-19   0.000    
    8524   8.524      0.1000E-02 FIXED          0  -0.0%   0.000       0.000       2.000       2.000       0.000      0.1000E-19   0.000    
   CYCLE    TIME      TIME-STEP  ELEMENT          ERROR  I-ENERGY    K-ENERGY T  K-ENERGY R  EXT-WORK     MAS.ERR     TOTAL MASS  MASS ADDED
    8525   8.525      0.1000E-02 FIXED          0   0.0%   0.000       0.000       2.000       2.000       0.000      0.1000E-19   0.000    
    8526   8.526      0.1000E-02 FIXED          0   0.0%   0.000       0.000       2.000       2.000       0.000      0.1000E-19   0.000    
    8527   8.527      0.1000E-02 FIXED          0  -0.0%   0.000       0.000       2.000       2.000       0.000      0.1000E-19   0.000    
    8528   8.528      0.1000E-02 FIXED          0  -0.0%   0.000       0.000       2.000       2.000       0.000      0.1000E-19   0.000    
    8529   8.529      0.1000E-02 FIXED          0  -0.0%   0.000       0.000       2.000       2.000       0.000      0.1000E-19   0.000    
    8530   8.530      0.1000E-02 FIXED          0  -0.0%   0.000       0.000       2.000       2.000       0.000      0.1000E-19   0.000    
    8531   8.531      0.1000E-02 FIXED          0   0.0%   0.000       0.000       2.000       2.000       0.000      0.1000E-19   0.000    
    8532   8.532      0.1000E-02 FIXED          0  -0.0%   0.000       0.000       2.000       2.000       0.000      0.1000E-19   0.000    
    8533   8.533      0.1000E-02 FIXED          0   0.0%   0.000       0.000       2.000       2.000       0.000      0.1000E-19   0.000    
    8534   8.534      0.1000E-02 FIXED          0  -0.0%   0.000       0.000       2.000       2.000       0.000      0.1000E-19   0.000    
    8535   8.535      0.1000E-02 FIXED          0   0.0%   0.000       0.000       2.000       2.000       0.000      0.1000E-19   0.000    
    8536   8.536      0.1000E-02 FIXED          0  -0.0%   0.000       0.000       2.000       2.000       0.000      0.1000E-19   0.000    
    8537   8.537      0.1000E-02 FIXED          0  -0.0%   0.000       0.000       2.000       2.000       0.000      0.1000E-19   0.000    
    8538   8.538      0.1000E-02 FIXED          0   0.0%   0.000       0.000       2.000       2.000       0.000      0.1000E-19   0.000    
    8539   8.539      0.1000E-02 FIXED          0   0.0%   0.000       0.000       2.000       2.000       0.000      0.1000E-19   0.000    
    8540   8.540      0.1000E-02 FIXED          0  -0.0%   0.000       0.000       2.000       2.000       0.000      0.1000E-19   0.000    
    8541   8.541      0.1000E-02 FIXED          0  -0.0%   0.000       0.000       2.000       2.000       0.000      0.1000E-19   0.000    
    8542   8.542      0.1000E-02 FIXED          0   0.0%   0.000       0.000       2.000       2.000       0.000      0.1000E-19   0.000    
    8543   8.543      0.1000E-02 FIXED          0   0.0%   0.000       0.000       2.000       2.000       0.000      0.1000E-19   0.000    
    8544   8.544      0.1000E-02 FIXED          0   0.0%   0.000       0.000       2.000       2.000       0.000      0.1000E-19   0.000    
    8545   8.545      0.1000E-02 FIXED          0   0.0%   0.000       0.000       2.000       2.000       0.000      0.1000E-19   0.000    
    8546   8.546      0.1000E-02 FIXED          0  -0.0%   0.000       0.000       2.000       2.000       0.000      0.1000E-19   0.000    
    8547   8.547      0.1000E-02 FIXED          0   0.0%   0.000       0.000       2.000       2.000       0.000      0.1000E-19   0.000    
    8548   8.548      0.1000E-02 FIXED          0  -0.0%   0.000       0.000       2.000       2.000       0.000      0.1000E-19   0.000    
    8549   8.549      0.1000E-02 FIXED          0  -0.0%   0.000       0.000       2.000       2.000       0.000      0.1000E-19   0.000    
    8550   8.550      0.1000E-02 FIXED          0   0.0%   0.000       0.000       2.000       2.000       0.000      0.1000E-19   0.000    
    8551   8.551      0.1000E-02 FIXED          0  -0.0%   0.000       0.000       2.000       2.000       0.000      0.1000E-19   0.000    
    8552   8.552      0.1000E-02 FIXED          0   0.0%   0.000       0.000       2.000       2.000       0.000      0.1000E-19   0.000    
    8553   8.553      0.1000E-02 FIXED          0   0.0%   0.000       0.000       2.000       2.000       0.000      0.1000E-19   0.000    
    8554   8.554      0.1000E-02 FIXED          0   0.0%   0.000       0.000       2.000       2.000       0.000      0.1000E-19   0.000    
    8555   8.555      0.1000E-02 FIXED          0   0.0%   0.000       0.000       2.000       2.000       0.000      0.1000E-19   0.000    
    8556   8.556      0.1000E-02 FIXED          0   0.0%   0.000       0.000       2.000       2.000       0.000      0.1000E-19   0.000    
    8557   8.557      0.1000E-02 FIXED          0  -0.0%   0.000       0.000       2.000       2.000       0.000      0.1000E-19   0.000    
    8558   8.558      0.1000E-02 FIXED          0   0.0%   0.000       0.000       2.000       2.000       0.000      0.1000E-19   0.000    
    8559   8.559      0.1000E-02 FIXED          0  -0.0%   0.000       0.000       2.000       2.000       0.000      0.1000E-19   0.000    
    8560   8.560      0.1000E-02 FIXED          0   0.0%   0.000       0.000       2.000       2.000       0.000      0.1000E-19   0.000    
    8561   8.561      0.1000E-02 FIXED          0  -0.0%   0.000       0.000       2.000       2.000       0.000      0.1000E-19   0.000    
    8562   8.562      0.1000E-02 FIXED          0   0.0%   0.000       0.000       2.000       2.000       0.000      0.1000E-19   0.000    
    8563   8.563      0.1000E-02 FIXED          0  -0.0%   0.000       0.000       2.000       2.000       0.000      0.1000E-19   0.000    
    8564   8.564      0.1000E-02 FIXED          0  -0.0%   0.000       0.000       2.000       2.000       0.000      0.1000E-19   0.000    
    8565   8.565      0.1000E-02 FIXED          0   0.0%   0.000       0.000       2.000       2.000       0.000      0.1000E-19   0.000    
    8566   8.566      0.1000E-02 FIXED          0  -0.0%   0.000       0.000       2.000       2.000       0.000      0.1000E-19   0.000    
    8567   8.567      0.1000E-02 FIXED          0   0.0%   0.000       0.000       2.000       2.000       0.000      0.1000E-19   0.000    
    8568   8.568      0.1000E-02 FIXED          0  -0.0%   0.000       0.000       2.000       2.000       0.000      0.1000E-19   0.000    
    8569   8.569      0.1000E-02 FIXED          0   0.0%   0.000       0.000       2.000       2.000       0.000      0.1000E-19   0.000    
    8570   8.570      0.1000E-02 FIXED          0   0.0%   0.000       0.000       2.000       2.000       0.000      0.1000E-19   0.000    
    8571   8.571      0.1000E-02 FIXED          0  -0.0%   0.000       0.000       2.000       2.000       0.000      0.1000E-19   0.000    
    8572   8.572      0.1000E-02 FIXED          0   0.0%   0.000       0.000       2.000       2.000       0.000      0.1000E-19   0.000    
    8573   8.573      0.1000E-02 FIXED          0   0.0%   0.000       0.000       2.000       2.000       0.000      0.1000E-19   0.000    
    8574   8.574      0.1000E-02 FIXED          0  -0.0%   0.000       0.000       2.000       2.000       0.000      0.1000E-19   0.000    
    8575   8.575      0.1000E-02 FIXED          0   0.0%   0.000       0.000       2.000       2.000       0.000      0.1000E-19   0.000    
    8576   8.576      0.1000E-02 FIXED          0   0.0%   0.000       0.000       2.000       2.000       0.000      0.1000E-19   0.000    
    8577   8.577      0.1000E-02 FIXED          0   0.0%   0.000       0.000       2.000       2.000       0.000      0.1000E-19   0.000    
    8578   8.578      0.1000E-02 FIXED          0   0.0%   0.000       0.000       2.000       2.000       0.000      0.1000E-19   0.000    
    8579   8.579      0.1000E-02 FIXED          0   0.0%   0.000       0.000       2.000       2.000       0.000      0.1000E-19   0.000    
   CYCLE    TIME      TIME-STEP  ELEMENT          ERROR  I-ENERGY    K-ENERGY T  K-ENERGY R  EXT-WORK     MAS.ERR     TOTAL MASS  MASS ADDED
    8580   8.580      0.1000E-02 FIXED          0   0.0%   0.000       0.000       2.000       2.000       0.000      0.1000E-19   0.000    
    8581   8.581      0.1000E-02 FIXED          0   0.0%   0.000       0.000       2.000       2.000       0.000      0.1000E-19   0.000    
    8582   8.582      0.1000E-02 FIXED          0  -0.0%   0.000       0.000       2.000       2.000       0.000      0.1000E-19   0.000    
    8583   8.583      0.1000E-02 FIXED          0   0.0%   0.000       0.000       2.000       2.000       0.000      0.1000E-19   0.000    
    8584   8.584      0.1000E-02 FIXED          0   0.0%   0.000       0.000       2.000       2.000       0.000      0.1000E-19   0.000    
    8585   8.585      0.1000E-02 FIXED          0   0.0%   0.000       0.000       2.000       2.000       0.000      0.1000E-19   0.000    
    8586   8.586      0.1000E-02 FIXED          0  -0.0%   0.000       0.000       2.000       2.000       0.000      0.1000E-19   0.000    
    8587   8.587      0.1000E-02 FIXED          0   0.0%   0.000       0.000       2.000       2.000       0.000      0.1000E-19   0.000    
    8588   8.588      0.1000E-02 FIXED          0   0.0%   0.000       0.000       2.000       2.000       0.000      0.1000E-19   0.000    
    8589   8.589      0.1000E-02 FIXED          0  -0.0%   0.000       0.000       2.000       2.000       0.000      0.1000E-19   0.000    
    8590   8.590      0.1000E-02 FIXED          0   0.0%   0.000       0.000       2.000       2.000       0.000      0.1000E-19   0.000    
    8591   8.591      0.1000E-02 FIXED          0   0.0%   0.000       0.000       2.000       2.000       0.000      0.1000E-19   0.000    
    8592   8.592      0.1000E-02 FIXED          0   0.0%   0.000       0.000       2.000       2.000       0.000      0.1000E-19   0.000    
    8593   8.593      0.1000E-02 FIXED          0   0.0%   0.000       0.000       2.000       2.000       0.000      0.1000E-19   0.000    
    8594   8.594      0.1000E-02 FIXED          0   0.0%   0.000       0.000       2.000       2.000       0.000      0.1000E-19   0.000    
    8595   8.595      0.1000E-02 FIXED          0   0.0%   0.000       0.000       2.000       2.000       0.000      0.1000E-19   0.000    
    8596   8.596      0.1000E-02 FIXED          0   0.0%   0.000       0.000       2.000       2.000       0.000      0.1000E-19   0.000    
    8597   8.597      0.1000E-02 FIXED          0  -0.0%   0.000       0.000       2.000       2.000       0.000      0.1000E-19   0.000    
    8598   8.598      0.1000E-02 FIXED          0  -0.0%   0.000       0.000       2.000       2.000       0.000      0.1000E-19   0.000    
    8599   8.599      0.1000E-02 FIXED          0  -0.0%   0.000       0.000       2.000       2.000       0.000      0.1000E-19   0.000    
    8600   8.600      0.1000E-02 FIXED          0  -0.0%   0.000       0.000       2.000       2.000       0.000      0.1000E-19   0.000    
    8601   8.601      0.1000E-02 FIXED          0   0.0%   0.000       0.000       2.000       2.000       0.000      0.1000E-19   0.000    
    8602   8.602      0.1000E-02 FIXED          0  -0.0%   0.000       0.000       2.000       2.000       0.000      0.1000E-19   0.000    
    8603   8.603      0.1000E-02 FIXED          0  -0.0%   0.000       0.000       2.000       2.000       0.000      0.1000E-19   0.000    
    8604   8.604      0.1000E-02 FIXED          0   0.0%   0.000       0.000       2.000       2.000       0.000      0.1000E-19   0.000    
    8605   8.605      0.1000E-02 FIXED          0   0.0%   0.000       0.000       2.000       2.000       0.000      0.1000E-19   0.000    
    8606   8.606      0.1000E-02 FIXED          0  -0.0%   0.000       0.000       2.000       2.000       0.000      0.1000E-19   0.000    
    8607   8.607      0.1000E-02 FIXED          0   0.0%   0.000       0.000       2.000       2.000       0.000      0.1000E-19   0.000    
    8608   8.608      0.1000E-02 FIXED          0  -0.0%   0.000       0.000       2.000       2.000       0.000      0.1000E-19   0.000    
    8609   8.609      0.1000E-02 FIXED          0  -0.0%   0.000       0.000       2.000       2.000       0.000      0.1000E-19   0.000    
    8610   8.610      0.1000E-02 FIXED          0  -0.0%   0.000       0.000       2.000       2.000       0.000      0.1000E-19   0.000    
    8611   8.611      0.1000E-02 FIXED          0   0.0%   0.000       0.000       2.000       2.000       0.000      0.1000E-19   0.000    
    8612   8.612      0.1000E-02 FIXED          0  -0.0%   0.000       0.000       2.000       2.000       0.000      0.1000E-19   0.000    
    8613   8.613      0.1000E-02 FIXED          0   0.0%   0.000       0.000       2.000       2.000       0.000      0.1000E-19   0.000    
    8614   8.614      0.1000E-02 FIXED          0   0.0%   0.000       0.000       2.000       2.000       0.000      0.1000E-19   0.000    
    8615   8.615      0.1000E-02 FIXED          0   0.0%   0.000       0.000       2.000       2.000       0.000      0.1000E-19   0.000    
    8616   8.616      0.1000E-02 FIXED          0  -0.0%   0.000       0.000       2.000       2.000       0.000      0.1000E-19   0.000    
    8617   8.617      0.1000E-02 FIXED          0   0.0%   0.000       0.000       2.000       2.000       0.000      0.1000E-19   0.000    
    8618   8.618      0.1000E-02 FIXED          0  -0.0%   0.000       0.000       2.000       2.000       0.000      0.1000E-19   0.000    
    8619   8.619      0.1000E-02 FIXED          0   0.0%   0.000       0.000       2.000       2.000       0.000      0.1000E-19   0.000    
    8620   8.620      0.1000E-02 FIXED          0  -0.0%   0.000       0.000       2.000       2.000       0.000      0.1000E-19   0.000    
    8621   8.621      0.1000E-02 FIXED          0   0.0%   0.000       0.000       2.000       2.000       0.000      0.1000E-19   0.000    
    8622   8.622      0.1000E-02 FIXED          0   0.0%   0.000       0.000       2.000       2.000       0.000      0.1000E-19   0.000    
    8623   8.623      0.1000E-02 FIXED          0  -0.0%   0.000       0.000       2.000       2.000       0.000      0.1000E-19   0.000    
    8624   8.624      0.1000E-02 FIXED          0  -0.0%   0.000       0.000       2.000       2.000       0.000      0.1000E-19   0.000    
    8625   8.625      0.1000E-02 FIXED          0   0.0%   0.000       0.000       2.000       2.000       0.000      0.1000E-19   0.000    
    8626   8.626      0.1000E-02 FIXED          0  -0.0%   0.000       0.000       2.000       2.000       0.000      0.1000E-19   0.000    
    8627   8.627      0.1000E-02 FIXED          0   0.0%   0.000       0.000       2.000       2.000       0.000      0.1000E-19   0.000    
    8628   8.628      0.1000E-02 FIXED          0  -0.0%   0.000       0.000       2.000       2.000       0.000      0.1000E-19   0.000    
    8629   8.629      0.1000E-02 FIXED          0   0.0%   0.000       0.000       2.000       2.000       0.000      0.1000E-19   0.000    
    8630   8.630      0.1000E-02 FIXED          0   0.0%   0.000       0.000       2.000       2.000       0.000      0.1000E-19   0.000    
    8631   8.631      0.1000E-02 FIXED          0   0.0%   0.000       0.000       2.000       2.000       0.000      0.1000E-19   0.000    
    8632   8.632      0.1000E-02 FIXED          0  -0.0%   0.000       0.000       2.000       2.000       0.000      0.1000E-19   0.000    
    8633   8.633      0.1000E-02 FIXED          0   0.0%   0.000       0.000       2.000       2.000       0.000      0.1000E-19   0.000    
    8634   8.634      0.1000E-02 FIXED          0   0.0%   0.000       0.000       2.000       2.000       0.000      0.1000E-19   0.000    
   CYCLE    TIME      TIME-STEP  ELEMENT          ERROR  I-ENERGY    K-ENERGY T  K-ENERGY R  EXT-WORK     MAS.ERR     TOTAL MASS  MASS ADDED
    8635   8.635      0.1000E-02 FIXED          0  -0.0%   0.000       0.000       2.000       2.000       0.000      0.1000E-19   0.000    
    8636   8.636      0.1000E-02 FIXED          0  -0.0%   0.000       0.000       2.000       2.000       0.000      0.1000E-19   0.000    
    8637   8.637      0.1000E-02 FIXED          0  -0.0%   0.000       0.000       2.000       2.000       0.000      0.1000E-19   0.000    
    8638   8.638      0.1000E-02 FIXED          0   0.0%   0.000       0.000       2.000       2.000       0.000      0.1000E-19   0.000    
    8639   8.639      0.1000E-02 FIXED          0   0.0%   0.000       0.000       2.000       2.000       0.000      0.1000E-19   0.000    
    8640   8.640      0.1000E-02 FIXED          0   0.0%   0.000       0.000       2.000       2.000       0.000      0.1000E-19   0.000    
    8641   8.641      0.1000E-02 FIXED          0   0.0%   0.000       0.000       2.000       2.000       0.000      0.1000E-19   0.000    
    8642   8.642      0.1000E-02 FIXED          0   0.0%   0.000       0.000       2.000       2.000       0.000      0.1000E-19   0.000    
    8643   8.643      0.1000E-02 FIXED          0   0.0%   0.000       0.000       2.000       2.000       0.000      0.1000E-19   0.000    
    8644   8.644      0.1000E-02 FIXED          0   0.0%   0.000       0.000       2.000       2.000       0.000      0.1000E-19   0.000    
    8645   8.645      0.1000E-02 FIXED          0   0.0%   0.000       0.000       2.000       2.000       0.000      0.1000E-19   0.000    
    8646   8.646      0.1000E-02 FIXED          0  -0.0%   0.000       0.000       2.000       2.000       0.000      0.1000E-19   0.000    
    8647   8.647      0.1000E-02 FIXED          0   0.0%   0.000       0.000       2.000       2.000       0.000      0.1000E-19   0.000    
    8648   8.648      0.1000E-02 FIXED          0  -0.0%   0.000       0.000       2.000       2.000       0.000      0.1000E-19   0.000    
    8649   8.649      0.1000E-02 FIXED          0   0.0%   0.000       0.000       2.000       2.000       0.000      0.1000E-19   0.000    
    8650   8.650      0.1000E-02 FIXED          0   0.0%   0.000       0.000       2.000       2.000       0.000      0.1000E-19   0.000    
    8651   8.651      0.1000E-02 FIXED          0  -0.0%   0.000       0.000       2.000       2.000       0.000      0.1000E-19   0.000    
    8652   8.652      0.1000E-02 FIXED          0   0.0%   0.000       0.000       2.000       2.000       0.000      0.1000E-19   0.000    
    8653   8.653      0.1000E-02 FIXED          0   0.0%   0.000       0.000       2.000       2.000       0.000      0.1000E-19   0.000    
    8654   8.654      0.1000E-02 FIXED          0   0.0%   0.000       0.000       2.000       2.000       0.000      0.1000E-19   0.000    
    8655   8.655      0.1000E-02 FIXED          0  -0.0%   0.000       0.000       2.000       2.000       0.000      0.1000E-19   0.000    
    8656   8.656      0.1000E-02 FIXED          0   0.0%   0.000       0.000       2.000       2.000       0.000      0.1000E-19   0.000    
    8657   8.657      0.1000E-02 FIXED          0  -0.0%   0.000       0.000       2.000       2.000       0.000      0.1000E-19   0.000    
    8658   8.658      0.1000E-02 FIXED          0   0.0%   0.000       0.000       2.000       2.000       0.000      0.1000E-19   0.000    
    8659   8.659      0.1000E-02 FIXED          0   0.0%   0.000       0.000       2.000       2.000       0.000      0.1000E-19   0.000    
    8660   8.660      0.1000E-02 FIXED          0  -0.0%   0.000       0.000       2.000       2.000       0.000      0.1000E-19   0.000    
    8661   8.661      0.1000E-02 FIXED          0   0.0%   0.000       0.000       2.000       2.000       0.000      0.1000E-19   0.000    
    8662   8.662      0.1000E-02 FIXED          0   0.0%   0.000       0.000       2.000       2.000       0.000      0.1000E-19   0.000    
    8663   8.663      0.1000E-02 FIXED          0   0.0%   0.000       0.000       2.000       2.000       0.000      0.1000E-19   0.000    
    8664   8.664      0.1000E-02 FIXED          0  -0.0%   0.000       0.000       2.000       2.000       0.000      0.1000E-19   0.000    
    8665   8.665      0.1000E-02 FIXED          0  -0.0%   0.000       0.000       2.000       2.000       0.000      0.1000E-19   0.000    
    8666   8.666      0.1000E-02 FIXED          0   0.0%   0.000       0.000       2.000       2.000       0.000      0.1000E-19   0.000    
    8667   8.667      0.1000E-02 FIXED          0  -0.0%   0.000       0.000       2.000       2.000       0.000      0.1000E-19   0.000    
    8668   8.668      0.1000E-02 FIXED          0   0.0%   0.000       0.000       2.000       2.000       0.000      0.1000E-19   0.000    
    8669   8.669      0.1000E-02 FIXED          0  -0.0%   0.000       0.000       2.000       2.000       0.000      0.1000E-19   0.000    
    8670   8.670      0.1000E-02 FIXED          0   0.0%   0.000       0.000       2.000       2.000       0.000      0.1000E-19   0.000    
    8671   8.671      0.1000E-02 FIXED          0   0.0%   0.000       0.000       2.000       2.000       0.000      0.1000E-19   0.000    
    8672   8.672      0.1000E-02 FIXED          0   0.0%   0.000       0.000       2.000       2.000       0.000      0.1000E-19   0.000    
    8673   8.673      0.1000E-02 FIXED          0  -0.0%   0.000       0.000       2.000       2.000       0.000      0.1000E-19   0.000    
    8674   8.674      0.1000E-02 FIXED          0  -0.0%   0.000       0.000       2.000       2.000       0.000      0.1000E-19   0.000    
    8675   8.675      0.1000E-02 FIXED          0  -0.0%   0.000       0.000       2.000       2.000       0.000      0.1000E-19   0.000    
    8676   8.676      0.1000E-02 FIXED          0  -0.0%   0.000       0.000       2.000       2.000       0.000      0.1000E-19   0.000    
    8677   8.677      0.1000E-02 FIXED          0  -0.0%   0.000       0.000       2.000       2.000       0.000      0.1000E-19   0.000    
    8678   8.678      0.1000E-02 FIXED          0   0.0%   0.000       0.000       2.000       2.000       0.000      0.1000E-19   0.000    
    8679   8.679      0.1000E-02 FIXED          0  -0.0%   0.000       0.000       2.000       2.000       0.000      0.1000E-19   0.000    
    8680   8.680      0.1000E-02 FIXED          0   0.0%   0.000       0.000       2.000       2.000       0.000      0.1000E-19   0.000    
    8681   8.681      0.1000E-02 FIXED          0   0.0%   0.000       0.000       2.000       2.000       0.000      0.1000E-19   0.000    
    8682   8.682      0.1000E-02 FIXED          0   0.0%   0.000       0.000       2.000       2.000       0.000      0.1000E-19   0.000    
    8683   8.683      0.1000E-02 FIXED          0  -0.0%   0.000       0.000       2.000       2.000       0.000      0.1000E-19   0.000    
    8684   8.684      0.1000E-02 FIXED          0   0.0%   0.000       0.000       2.000       2.000       0.000      0.1000E-19   0.000    
    8685   8.685      0.1000E-02 FIXED          0  -0.0%   0.000       0.000       2.000       2.000       0.000      0.1000E-19   0.000    
    8686   8.686      0.1000E-02 FIXED          0   0.0%   0.000       0.000       2.000       2.000       0.000      0.1000E-19   0.000    
    8687   8.687      0.1000E-02 FIXED          0  -0.0%   0.000       0.000       2.000       2.000       0.000      0.1000E-19   0.000    
    8688   8.688      0.1000E-02 FIXED          0   0.0%   0.000       0.000       2.000       2.000       0.000      0.1000E-19   0.000    
    8689   8.689      0.1000E-02 FIXED          0  -0.0%   0.000       0.000       2.000       2.000       0.000      0.1000E-19   0.000    
   CYCLE    TIME      TIME-STEP  ELEMENT          ERROR  I-ENERGY    K-ENERGY T  K-ENERGY R  EXT-WORK     MAS.ERR     TOTAL MASS  MASS ADDED
    8690   8.690      0.1000E-02 FIXED          0   0.0%   0.000       0.000       2.000       2.000       0.000      0.1000E-19   0.000    
    8691   8.691      0.1000E-02 FIXED          0   0.0%   0.000       0.000       2.000       2.000       0.000      0.1000E-19   0.000    
    8692   8.692      0.1000E-02 FIXED          0   0.0%   0.000       0.000       2.000       2.000       0.000      0.1000E-19   0.000    
    8693   8.693      0.1000E-02 FIXED          0   0.0%   0.000       0.000       2.000       2.000       0.000      0.1000E-19   0.000    
    8694   8.694      0.1000E-02 FIXED          0  -0.0%   0.000       0.000       2.000       2.000       0.000      0.1000E-19   0.000    
    8695   8.695      0.1000E-02 FIXED          0   0.0%   0.000       0.000       2.000       2.000       0.000      0.1000E-19   0.000    
    8696   8.696      0.1000E-02 FIXED          0   0.0%   0.000       0.000       2.000       2.000       0.000      0.1000E-19   0.000    
    8697   8.697      0.1000E-02 FIXED          0   0.0%   0.000       0.000       2.000       2.000       0.000      0.1000E-19   0.000    
    8698   8.698      0.1000E-02 FIXED          0  -0.0%   0.000       0.000       2.000       2.000       0.000      0.1000E-19   0.000    
    8699   8.699      0.1000E-02 FIXED          0  -0.0%   0.000       0.000       2.000       2.000       0.000      0.1000E-19   0.000    
    8700   8.700      0.1000E-02 FIXED          0   0.0%   0.000       0.000       2.000       2.000       0.000      0.1000E-19   0.000    
    8701   8.701      0.1000E-02 FIXED          0   0.0%   0.000       0.000       2.000       2.000       0.000      0.1000E-19   0.000    
    8702   8.702      0.1000E-02 FIXED          0   0.0%   0.000       0.000       2.000       2.000       0.000      0.1000E-19   0.000    
    8703   8.703      0.1000E-02 FIXED          0  -0.0%   0.000       0.000       2.000       2.000       0.000      0.1000E-19   0.000    
    8704   8.704      0.1000E-02 FIXED          0   0.0%   0.000       0.000       2.000       2.000       0.000      0.1000E-19   0.000    
    8705   8.705      0.1000E-02 FIXED          0  -0.0%   0.000       0.000       2.000       2.000       0.000      0.1000E-19   0.000    
    8706   8.706      0.1000E-02 FIXED          0  -0.0%   0.000       0.000       2.000       2.000       0.000      0.1000E-19   0.000    
    8707   8.707      0.1000E-02 FIXED          0   0.0%   0.000       0.000       2.000       2.000       0.000      0.1000E-19   0.000    
    8708   8.708      0.1000E-02 FIXED          0  -0.0%   0.000       0.000       2.000       2.000       0.000      0.1000E-19   0.000    
    8709   8.709      0.1000E-02 FIXED          0   0.0%   0.000       0.000       2.000       2.000       0.000      0.1000E-19   0.000    
    8710   8.710      0.1000E-02 FIXED          0   0.0%   0.000       0.000       2.000       2.000       0.000      0.1000E-19   0.000    
    8711   8.711      0.1000E-02 FIXED          0   0.0%   0.000       0.000       2.000       2.000       0.000      0.1000E-19   0.000    
    8712   8.712      0.1000E-02 FIXED          0   0.0%   0.000       0.000       2.000       2.000       0.000      0.1000E-19   0.000    
    8713   8.713      0.1000E-02 FIXED          0   0.0%   0.000       0.000       2.000       2.000       0.000      0.1000E-19   0.000    
    8714   8.714      0.1000E-02 FIXED          0  -0.0%   0.000       0.000       2.000       2.000       0.000      0.1000E-19   0.000    
    8715   8.715      0.1000E-02 FIXED          0  -0.0%   0.000       0.000       2.000       2.000       0.000      0.1000E-19   0.000    
    8716   8.716      0.1000E-02 FIXED          0  -0.0%   0.000       0.000       2.000       2.000       0.000      0.1000E-19   0.000    
    8717   8.717      0.1000E-02 FIXED          0   0.0%   0.000       0.000       2.000       2.000       0.000      0.1000E-19   0.000    
    8718   8.718      0.1000E-02 FIXED          0  -0.0%   0.000       0.000       2.000       2.000       0.000      0.1000E-19   0.000    
    8719   8.719      0.1000E-02 FIXED          0  -0.0%   0.000       0.000       2.000       2.000       0.000      0.1000E-19   0.000    
    8720   8.720      0.1000E-02 FIXED          0  -0.0%   0.000       0.000       2.000       2.000       0.000      0.1000E-19   0.000    
    8721   8.721      0.1000E-02 FIXED          0  -0.0%   0.000       0.000       2.000       2.000       0.000      0.1000E-19   0.000    
    8722   8.722      0.1000E-02 FIXED          0   0.0%   0.000       0.000       2.000       2.000       0.000      0.1000E-19   0.000    
    8723   8.723      0.1000E-02 FIXED          0   0.0%   0.000       0.000       2.000       2.000       0.000      0.1000E-19   0.000    
    8724   8.724      0.1000E-02 FIXED          0  -0.0%   0.000       0.000       2.000       2.000       0.000      0.1000E-19   0.000    
    8725   8.725      0.1000E-02 FIXED          0   0.0%   0.000       0.000       2.000       2.000       0.000      0.1000E-19   0.000    
    8726   8.726      0.1000E-02 FIXED          0  -0.0%   0.000       0.000       2.000       2.000       0.000      0.1000E-19   0.000    
    8727   8.727      0.1000E-02 FIXED          0  -0.0%   0.000       0.000       2.000       2.000       0.000      0.1000E-19   0.000    
    8728   8.728      0.1000E-02 FIXED          0  -0.0%   0.000       0.000       2.000       2.000       0.000      0.1000E-19   0.000    
    8729   8.729      0.1000E-02 FIXED          0   0.0%   0.000       0.000       2.000       2.000       0.000      0.1000E-19   0.000    
    8730   8.730      0.1000E-02 FIXED          0   0.0%   0.000       0.000       2.000       2.000       0.000      0.1000E-19   0.000    
    8731   8.731      0.1000E-02 FIXED          0  -0.0%   0.000       0.000       2.000       2.000       0.000      0.1000E-19   0.000    
    8732   8.732      0.1000E-02 FIXED          0  -0.0%   0.000       0.000       2.000       2.000       0.000      0.1000E-19   0.000    
    8733   8.733      0.1000E-02 FIXED          0  -0.0%   0.000       0.000       2.000       2.000       0.000      0.1000E-19   0.000    
    8734   8.734      0.1000E-02 FIXED          0  -0.0%   0.000       0.000       2.000       2.000       0.000      0.1000E-19   0.000    
    8735   8.735      0.1000E-02 FIXED          0   0.0%   0.000       0.000       2.000       2.000       0.000      0.1000E-19   0.000    
    8736   8.736      0.1000E-02 FIXED          0  -0.0%   0.000       0.000       2.000       2.000       0.000      0.1000E-19   0.000    
    8737   8.737      0.1000E-02 FIXED          0   0.0%   0.000       0.000       2.000       2.000       0.000      0.1000E-19   0.000    
    8738   8.738      0.1000E-02 FIXED          0   0.0%   0.000       0.000       2.000       2.000       0.000      0.1000E-19   0.000    
    8739   8.739      0.1000E-02 FIXED          0   0.0%   0.000       0.000       2.000       2.000       0.000      0.1000E-19   0.000    
    8740   8.740      0.1000E-02 FIXED          0   0.0%   0.000       0.000       2.000       2.000       0.000      0.1000E-19   0.000    
    8741   8.741      0.1000E-02 FIXED          0  -0.0%   0.000       0.000       2.000       2.000       0.000      0.1000E-19   0.000    
    8742   8.742      0.1000E-02 FIXED          0   0.0%   0.000       0.000       2.000       2.000       0.000      0.1000E-19   0.000    
    8743   8.743      0.1000E-02 FIXED          0  -0.0%   0.000       0.000       2.000       2.000       0.000      0.1000E-19   0.000    
    8744   8.744      0.1000E-02 FIXED          0   0.0%   0.000       0.000       2.000       2.000       0.000      0.1000E-19   0.000    
   CYCLE    TIME      TIME-STEP  ELEMENT          ERROR  I-ENERGY    K-ENERGY T  K-ENERGY R  EXT-WORK     MAS.ERR     TOTAL MASS  MASS ADDED
    8745   8.745      0.1000E-02 FIXED          0   0.0%   0.000       0.000       2.000       2.000       0.000      0.1000E-19   0.000    
    8746   8.746      0.1000E-02 FIXED          0   0.0%   0.000       0.000       2.000       2.000       0.000      0.1000E-19   0.000    
    8747   8.747      0.1000E-02 FIXED          0  -0.0%   0.000       0.000       2.000       2.000       0.000      0.1000E-19   0.000    
    8748   8.748      0.1000E-02 FIXED          0   0.0%   0.000       0.000       2.000       2.000       0.000      0.1000E-19   0.000    
    8749   8.749      0.1000E-02 FIXED          0  -0.0%   0.000       0.000       2.000       2.000       0.000      0.1000E-19   0.000    
    8750   8.750      0.1000E-02 FIXED          0  -0.0%   0.000       0.000       2.000       2.000       0.000      0.1000E-19   0.000    
    8751   8.751      0.1000E-02 FIXED          0   0.0%   0.000       0.000       2.000       2.000       0.000      0.1000E-19   0.000    
    8752   8.752      0.1000E-02 FIXED          0   0.0%   0.000       0.000       2.000       2.000       0.000      0.1000E-19   0.000    
    8753   8.753      0.1000E-02 FIXED          0  -0.0%   0.000       0.000       2.000       2.000       0.000      0.1000E-19   0.000    
    8754   8.754      0.1000E-02 FIXED          0   0.0%   0.000       0.000       2.000       2.000       0.000      0.1000E-19   0.000    
    8755   8.755      0.1000E-02 FIXED          0   0.0%   0.000       0.000       2.000       2.000       0.000      0.1000E-19   0.000    
    8756   8.756      0.1000E-02 FIXED          0   0.0%   0.000       0.000       2.000       2.000       0.000      0.1000E-19   0.000    
    8757   8.757      0.1000E-02 FIXED          0   0.0%   0.000       0.000       2.000       2.000       0.000      0.1000E-19   0.000    
    8758   8.758      0.1000E-02 FIXED          0   0.0%   0.000       0.000       2.000       2.000       0.000      0.1000E-19   0.000    
    8759   8.759      0.1000E-02 FIXED          0   0.0%   0.000       0.000       2.000       2.000       0.000      0.1000E-19   0.000    
    8760   8.760      0.1000E-02 FIXED          0   0.0%   0.000       0.000       2.000       2.000       0.000      0.1000E-19   0.000    
    8761   8.761      0.1000E-02 FIXED          0   0.0%   0.000       0.000       2.000       2.000       0.000      0.1000E-19   0.000    
    8762   8.762      0.1000E-02 FIXED          0   0.0%   0.000       0.000       2.000       2.000       0.000      0.1000E-19   0.000    
    8763   8.763      0.1000E-02 FIXED          0   0.0%   0.000       0.000       2.000       2.000       0.000      0.1000E-19   0.000    
    8764   8.764      0.1000E-02 FIXED          0   0.0%   0.000       0.000       2.000       2.000       0.000      0.1000E-19   0.000    
    8765   8.765      0.1000E-02 FIXED          0   0.0%   0.000       0.000       2.000       2.000       0.000      0.1000E-19   0.000    
    8766   8.766      0.1000E-02 FIXED          0  -0.0%   0.000       0.000       2.000       2.000       0.000      0.1000E-19   0.000    
    8767   8.767      0.1000E-02 FIXED          0   0.0%   0.000       0.000       2.000       2.000       0.000      0.1000E-19   0.000    
    8768   8.768      0.1000E-02 FIXED          0  -0.0%   0.000       0.000       2.000       2.000       0.000      0.1000E-19   0.000    
    8769   8.769      0.1000E-02 FIXED          0  -0.0%   0.000       0.000       2.000       2.000       0.000      0.1000E-19   0.000    
    8770   8.770      0.1000E-02 FIXED          0   0.0%   0.000       0.000       2.000       2.000       0.000      0.1000E-19   0.000    
    8771   8.771      0.1000E-02 FIXED          0   0.0%   0.000       0.000       2.000       2.000       0.000      0.1000E-19   0.000    
    8772   8.772      0.1000E-02 FIXED          0   0.0%   0.000       0.000       2.000       2.000       0.000      0.1000E-19   0.000    
    8773   8.773      0.1000E-02 FIXED          0   0.0%   0.000       0.000       2.000       2.000       0.000      0.1000E-19   0.000    
    8774   8.774      0.1000E-02 FIXED          0  -0.0%   0.000       0.000       2.000       2.000       0.000      0.1000E-19   0.000    
    8775   8.775      0.1000E-02 FIXED          0  -0.0%   0.000       0.000       2.000       2.000       0.000      0.1000E-19   0.000    
    8776   8.776      0.1000E-02 FIXED          0   0.0%   0.000       0.000       2.000       2.000       0.000      0.1000E-19   0.000    
    8777   8.777      0.1000E-02 FIXED          0   0.0%   0.000       0.000       2.000       2.000       0.000      0.1000E-19   0.000    
    8778   8.778      0.1000E-02 FIXED          0   0.0%   0.000       0.000       2.000       2.000       0.000      0.1000E-19   0.000    
    8779   8.779      0.1000E-02 FIXED          0  -0.0%   0.000       0.000       2.000       2.000       0.000      0.1000E-19   0.000    
    8780   8.780      0.1000E-02 FIXED          0   0.0%   0.000       0.000       2.000       2.000       0.000      0.1000E-19   0.000    
    8781   8.781      0.1000E-02 FIXED          0   0.0%   0.000       0.000       2.000       2.000       0.000      0.1000E-19   0.000    
    8782   8.782      0.1000E-02 FIXED          0  -0.0%   0.000       0.000       2.000       2.000       0.000      0.1000E-19   0.000    
    8783   8.783      0.1000E-02 FIXED          0   0.0%   0.000       0.000       2.000       2.000       0.000      0.1000E-19   0.000    
    8784   8.784      0.1000E-02 FIXED          0  -0.0%   0.000       0.000       2.000       2.000       0.000      0.1000E-19   0.000    
    8785   8.785      0.1000E-02 FIXED          0   0.0%   0.000       0.000       2.000       2.000       0.000      0.1000E-19   0.000    
    8786   8.786      0.1000E-02 FIXED          0   0.0%   0.000       0.000       2.000       2.000       0.000      0.1000E-19   0.000    
    8787   8.787      0.1000E-02 FIXED          0  -0.0%   0.000       0.000       2.000       2.000       0.000      0.1000E-19   0.000    
    8788   8.788      0.1000E-02 FIXED          0  -0.0%   0.000       0.000       2.000       2.000       0.000      0.1000E-19   0.000    
    8789   8.789      0.1000E-02 FIXED          0   0.0%   0.000       0.000       2.000       2.000       0.000      0.1000E-19   0.000    
    8790   8.790      0.1000E-02 FIXED          0   0.0%   0.000       0.000       2.000       2.000       0.000      0.1000E-19   0.000    
    8791   8.791      0.1000E-02 FIXED          0   0.0%   0.000       0.000       2.000       2.000       0.000      0.1000E-19   0.000    
    8792   8.792      0.1000E-02 FIXED          0  -0.0%   0.000       0.000       2.000       2.000       0.000      0.1000E-19   0.000    
    8793   8.793      0.1000E-02 FIXED          0   0.0%   0.000       0.000       2.000       2.000       0.000      0.1000E-19   0.000    
    8794   8.794      0.1000E-02 FIXED          0   0.0%   0.000       0.000       2.000       2.000       0.000      0.1000E-19   0.000    
    8795   8.795      0.1000E-02 FIXED          0   0.0%   0.000       0.000       2.000       2.000       0.000      0.1000E-19   0.000    
    8796   8.796      0.1000E-02 FIXED          0  -0.0%   0.000       0.000       2.000       2.000       0.000      0.1000E-19   0.000    
    8797   8.797      0.1000E-02 FIXED          0   0.0%   0.000       0.000       2.000       2.000       0.000      0.1000E-19   0.000    
    8798   8.798      0.1000E-02 FIXED          0  -0.0%   0.000       0.000       2.000       2.000       0.000      0.1000E-19   0.000    
    8799   8.799      0.1000E-02 FIXED          0   0.0%   0.000       0.000       2.000       2.000       0.000      0.1000E-19   0.000    
   CYCLE    TIME      TIME-STEP  ELEMENT          ERROR  I-ENERGY    K-ENERGY T  K-ENERGY R  EXT-WORK     MAS.ERR     TOTAL MASS  MASS ADDED
    8800   8.800      0.1000E-02 FIXED          0  -0.0%   0.000       0.000       2.000       2.000       0.000      0.1000E-19   0.000    
    8801   8.801      0.1000E-02 FIXED          0   0.0%   0.000       0.000       2.000       2.000       0.000      0.1000E-19   0.000    
    8802   8.802      0.1000E-02 FIXED          0  -0.0%   0.000       0.000       2.000       2.000       0.000      0.1000E-19   0.000    
    8803   8.803      0.1000E-02 FIXED          0  -0.0%   0.000       0.000       2.000       2.000       0.000      0.1000E-19   0.000    
    8804   8.804      0.1000E-02 FIXED          0   0.0%   0.000       0.000       2.000       2.000       0.000      0.1000E-19   0.000    
    8805   8.805      0.1000E-02 FIXED          0  -0.0%   0.000       0.000       2.000       2.000       0.000      0.1000E-19   0.000    
    8806   8.806      0.1000E-02 FIXED          0   0.0%   0.000       0.000       2.000       2.000       0.000      0.1000E-19   0.000    
    8807   8.807      0.1000E-02 FIXED          0   0.0%   0.000       0.000       2.000       2.000       0.000      0.1000E-19   0.000    
    8808   8.808      0.1000E-02 FIXED          0   0.0%   0.000       0.000       2.000       2.000       0.000      0.1000E-19   0.000    
    8809   8.809      0.1000E-02 FIXED          0   0.0%   0.000       0.000       2.000       2.000       0.000      0.1000E-19   0.000    
    8810   8.810      0.1000E-02 FIXED          0  -0.0%   0.000       0.000       2.000       2.000       0.000      0.1000E-19   0.000    
    8811   8.811      0.1000E-02 FIXED          0   0.0%   0.000       0.000       2.000       2.000       0.000      0.1000E-19   0.000    
    8812   8.812      0.1000E-02 FIXED          0  -0.0%   0.000       0.000       2.000       2.000       0.000      0.1000E-19   0.000    
    8813   8.813      0.1000E-02 FIXED          0   0.0%   0.000       0.000       2.000       2.000       0.000      0.1000E-19   0.000    
    8814   8.814      0.1000E-02 FIXED          0  -0.0%   0.000       0.000       2.000       2.000       0.000      0.1000E-19   0.000    
    8815   8.815      0.1000E-02 FIXED          0   0.0%   0.000       0.000       2.000       2.000       0.000      0.1000E-19   0.000    
    8816   8.816      0.1000E-02 FIXED          0   0.0%   0.000       0.000       2.000       2.000       0.000      0.1000E-19   0.000    
    8817   8.817      0.1000E-02 FIXED          0   0.0%   0.000       0.000       2.000       2.000       0.000      0.1000E-19   0.000    
    8818   8.818      0.1000E-02 FIXED          0  -0.0%   0.000       0.000       2.000       2.000       0.000      0.1000E-19   0.000    
    8819   8.819      0.1000E-02 FIXED          0  -0.0%   0.000       0.000       2.000       2.000       0.000      0.1000E-19   0.000    
    8820   8.820      0.1000E-02 FIXED          0   0.0%   0.000       0.000       2.000       2.000       0.000      0.1000E-19   0.000    
    8821   8.821      0.1000E-02 FIXED          0  -0.0%   0.000       0.000       2.000       2.000       0.000      0.1000E-19   0.000    
    8822   8.822      0.1000E-02 FIXED          0   0.0%   0.000       0.000       2.000       2.000       0.000      0.1000E-19   0.000    
    8823   8.823      0.1000E-02 FIXED          0  -0.0%   0.000       0.000       2.000       2.000       0.000      0.1000E-19   0.000    
    8824   8.824      0.1000E-02 FIXED          0   0.0%   0.000       0.000       2.000       2.000       0.000      0.1000E-19   0.000    
    8825   8.825      0.1000E-02 FIXED          0   0.0%   0.000       0.000       2.000       2.000       0.000      0.1000E-19   0.000    
    8826   8.826      0.1000E-02 FIXED          0   0.0%   0.000       0.000       2.000       2.000       0.000      0.1000E-19   0.000    
    8827   8.827      0.1000E-02 FIXED          0   0.0%   0.000       0.000       2.000       2.000       0.000      0.1000E-19   0.000    
    8828   8.828      0.1000E-02 FIXED          0  -0.0%   0.000       0.000       2.000       2.000       0.000      0.1000E-19   0.000    
    8829   8.829      0.1000E-02 FIXED          0   0.0%   0.000       0.000       2.000       2.000       0.000      0.1000E-19   0.000    
    8830   8.830      0.1000E-02 FIXED          0   0.0%   0.000       0.000       2.000       2.000       0.000      0.1000E-19   0.000    
    8831   8.831      0.1000E-02 FIXED          0  -0.0%   0.000       0.000       2.000       2.000       0.000      0.1000E-19   0.000    
    8832   8.832      0.1000E-02 FIXED          0  -0.0%   0.000       0.000       2.000       2.000       0.000      0.1000E-19   0.000    
    8833   8.833      0.1000E-02 FIXED          0  -0.0%   0.000       0.000       2.000       2.000       0.000      0.1000E-19   0.000    
    8834   8.834      0.1000E-02 FIXED          0  -0.0%   0.000       0.000       2.000       2.000       0.000      0.1000E-19   0.000    
    8835   8.835      0.1000E-02 FIXED          0   0.0%   0.000       0.000       2.000       2.000       0.000      0.1000E-19   0.000    
    8836   8.836      0.1000E-02 FIXED          0  -0.0%   0.000       0.000       2.000       2.000       0.000      0.1000E-19   0.000    
    8837   8.837      0.1000E-02 FIXED          0   0.0%   0.000       0.000       2.000       2.000       0.000      0.1000E-19   0.000    
    8838   8.838      0.1000E-02 FIXED          0  -0.0%   0.000       0.000       2.000       2.000       0.000      0.1000E-19   0.000    
    8839   8.839      0.1000E-02 FIXED          0   0.0%   0.000       0.000       2.000       2.000       0.000      0.1000E-19   0.000    
    8840   8.840      0.1000E-02 FIXED          0   0.0%   0.000       0.000       2.000       2.000       0.000      0.1000E-19   0.000    
    8841   8.841      0.1000E-02 FIXED          0   0.0%   0.000       0.000       2.000       2.000       0.000      0.1000E-19   0.000    
    8842   8.842      0.1000E-02 FIXED          0  -0.0%   0.000       0.000       2.000       2.000       0.000      0.1000E-19   0.000    
    8843   8.843      0.1000E-02 FIXED          0   0.0%   0.000       0.000       2.000       2.000       0.000      0.1000E-19   0.000    
    8844   8.844      0.1000E-02 FIXED          0  -0.0%   0.000       0.000       2.000       2.000       0.000      0.1000E-19   0.000    
    8845   8.845      0.1000E-02 FIXED          0   0.0%   0.000       0.000       2.000       2.000       0.000      0.1000E-19   0.000    
    8846   8.846      0.1000E-02 FIXED          0  -0.0%   0.000       0.000       2.000       2.000       0.000      0.1000E-19   0.000    
    8847   8.847      0.1000E-02 FIXED          0   0.0%   0.000       0.000       2.000       2.000       0.000      0.1000E-19   0.000    
    8848   8.848      0.1000E-02 FIXED          0  -0.0%   0.000       0.000       2.000       2.000       0.000      0.1000E-19   0.000    
    8849   8.849      0.1000E-02 FIXED          0   0.0%   0.000       0.000       2.000       2.000       0.000      0.1000E-19   0.000    
    8850   8.850      0.1000E-02 FIXED          0   0.0%   0.000       0.000       2.000       2.000       0.000      0.1000E-19   0.000    
    8851   8.851      0.1000E-02 FIXED          0   0.0%   0.000       0.000       2.000       2.000       0.000      0.1000E-19   0.000    
    8852   8.852      0.1000E-02 FIXED          0  -0.0%   0.000       0.000       2.000       2.000       0.000      0.1000E-19   0.000    
    8853   8.853      0.1000E-02 FIXED          0  -0.0%   0.000       0.000       2.000       2.000       0.000      0.1000E-19   0.000    
    8854   8.854      0.1000E-02 FIXED          0   0.0%   0.000       0.000       2.000       2.000       0.000      0.1000E-19   0.000    
   CYCLE    TIME      TIME-STEP  ELEMENT          ERROR  I-ENERGY    K-ENERGY T  K-ENERGY R  EXT-WORK     MAS.ERR     TOTAL MASS  MASS ADDED
    8855   8.855      0.1000E-02 FIXED          0   0.0%   0.000       0.000       2.000       2.000       0.000      0.1000E-19   0.000    
    8856   8.856      0.1000E-02 FIXED          0   0.0%   0.000       0.000       2.000       2.000       0.000      0.1000E-19   0.000    
    8857   8.857      0.1000E-02 FIXED          0  -0.0%   0.000       0.000       2.000       2.000       0.000      0.1000E-19   0.000    
    8858   8.858      0.1000E-02 FIXED          0   0.0%   0.000       0.000       2.000       2.000       0.000      0.1000E-19   0.000    
    8859   8.859      0.1000E-02 FIXED          0   0.0%   0.000       0.000       2.000       2.000       0.000      0.1000E-19   0.000    
    8860   8.860      0.1000E-02 FIXED          0   0.0%   0.000       0.000       2.000       2.000       0.000      0.1000E-19   0.000    
    8861   8.861      0.1000E-02 FIXED          0  -0.0%   0.000       0.000       2.000       2.000       0.000      0.1000E-19   0.000    
    8862   8.862      0.1000E-02 FIXED          0   0.0%   0.000       0.000       2.000       2.000       0.000      0.1000E-19   0.000    
    8863   8.863      0.1000E-02 FIXED          0   0.0%   0.000       0.000       2.000       2.000       0.000      0.1000E-19   0.000    
    8864   8.864      0.1000E-02 FIXED          0  -0.0%   0.000       0.000       2.000       2.000       0.000      0.1000E-19   0.000    
    8865   8.865      0.1000E-02 FIXED          0  -0.0%   0.000       0.000       2.000       2.000       0.000      0.1000E-19   0.000    
    8866   8.866      0.1000E-02 FIXED          0   0.0%   0.000       0.000       2.000       2.000       0.000      0.1000E-19   0.000    
    8867   8.867      0.1000E-02 FIXED          0  -0.0%   0.000       0.000       2.000       2.000       0.000      0.1000E-19   0.000    
    8868   8.868      0.1000E-02 FIXED          0   0.0%   0.000       0.000       2.000       2.000       0.000      0.1000E-19   0.000    
    8869   8.869      0.1000E-02 FIXED          0  -0.0%   0.000       0.000       2.000       2.000       0.000      0.1000E-19   0.000    
    8870   8.870      0.1000E-02 FIXED          0  -0.0%   0.000       0.000       2.000       2.000       0.000      0.1000E-19   0.000    
    8871   8.871      0.1000E-02 FIXED          0   0.0%   0.000       0.000       2.000       2.000       0.000      0.1000E-19   0.000    
    8872   8.872      0.1000E-02 FIXED          0   0.0%   0.000       0.000       2.000       2.000       0.000      0.1000E-19   0.000    
    8873   8.873      0.1000E-02 FIXED          0  -0.0%   0.000       0.000       2.000       2.000       0.000      0.1000E-19   0.000    
    8874   8.874      0.1000E-02 FIXED          0  -0.0%   0.000       0.000       2.000       2.000       0.000      0.1000E-19   0.000    
    8875   8.875      0.1000E-02 FIXED          0   0.0%   0.000       0.000       2.000       2.000       0.000      0.1000E-19   0.000    
    8876   8.876      0.1000E-02 FIXED          0  -0.0%   0.000       0.000       2.000       2.000       0.000      0.1000E-19   0.000    
    8877   8.877      0.1000E-02 FIXED          0   0.0%   0.000       0.000       2.000       2.000       0.000      0.1000E-19   0.000    
    8878   8.878      0.1000E-02 FIXED          0   0.0%   0.000       0.000       2.000       2.000       0.000      0.1000E-19   0.000    
    8879   8.879      0.1000E-02 FIXED          0   0.0%   0.000       0.000       2.000       2.000       0.000      0.1000E-19   0.000    
    8880   8.880      0.1000E-02 FIXED          0   0.0%   0.000       0.000       2.000       2.000       0.000      0.1000E-19   0.000    
    8881   8.881      0.1000E-02 FIXED          0  -0.0%   0.000       0.000       2.000       2.000       0.000      0.1000E-19   0.000    
    8882   8.882      0.1000E-02 FIXED          0   0.0%   0.000       0.000       2.000       2.000       0.000      0.1000E-19   0.000    
    8883   8.883      0.1000E-02 FIXED          0  -0.0%   0.000       0.000       2.000       2.000       0.000      0.1000E-19   0.000    
    8884   8.884      0.1000E-02 FIXED          0   0.0%   0.000       0.000       2.000       2.000       0.000      0.1000E-19   0.000    
    8885   8.885      0.1000E-02 FIXED          0   0.0%   0.000       0.000       2.000       2.000       0.000      0.1000E-19   0.000    
    8886   8.886      0.1000E-02 FIXED          0  -0.0%   0.000       0.000       2.000       2.000       0.000      0.1000E-19   0.000    
    8887   8.887      0.1000E-02 FIXED          0   0.0%   0.000       0.000       2.000       2.000       0.000      0.1000E-19   0.000    
    8888   8.888      0.1000E-02 FIXED          0  -0.0%   0.000       0.000       2.000       2.000       0.000      0.1000E-19   0.000    
    8889   8.889      0.1000E-02 FIXED          0   0.0%   0.000       0.000       2.000       2.000       0.000      0.1000E-19   0.000    
    8890   8.890      0.1000E-02 FIXED          0  -0.0%   0.000       0.000       2.000       2.000       0.000      0.1000E-19   0.000    
    8891   8.891      0.1000E-02 FIXED          0   0.0%   0.000       0.000       2.000       2.000       0.000      0.1000E-19   0.000    
    8892   8.892      0.1000E-02 FIXED          0   0.0%   0.000       0.000       2.000       2.000       0.000      0.1000E-19   0.000    
    8893   8.893      0.1000E-02 FIXED          0  -0.0%   0.000       0.000       2.000       2.000       0.000      0.1000E-19   0.000    
    8894   8.894      0.1000E-02 FIXED          0  -0.0%   0.000       0.000       2.000       2.000       0.000      0.1000E-19   0.000    
    8895   8.895      0.1000E-02 FIXED          0   0.0%   0.000       0.000       2.000       2.000       0.000      0.1000E-19   0.000    
    8896   8.896      0.1000E-02 FIXED          0   0.0%   0.000       0.000       2.000       2.000       0.000      0.1000E-19   0.000    
    8897   8.897      0.1000E-02 FIXED          0   0.0%   0.000       0.000       2.000       2.000       0.000      0.1000E-19   0.000    
    8898   8.898      0.1000E-02 FIXED          0  -0.0%   0.000       0.000       2.000       2.000       0.000      0.1000E-19   0.000    
    8899   8.899      0.1000E-02 FIXED          0   0.0%   0.000       0.000       2.000       2.000       0.000      0.1000E-19   0.000    
    8900   8.900      0.1000E-02 FIXED          0   0.0%   0.000       0.000       2.000       2.000       0.000      0.1000E-19   0.000    
    8901   8.901      0.1000E-02 FIXED          0  -0.0%   0.000       0.000       2.000       2.000       0.000      0.1000E-19   0.000    
    8902   8.902      0.1000E-02 FIXED          0   0.0%   0.000       0.000       2.000       2.000       0.000      0.1000E-19   0.000    
    8903   8.903      0.1000E-02 FIXED          0   0.0%   0.000       0.000       2.000       2.000       0.000      0.1000E-19   0.000    
    8904   8.904      0.1000E-02 FIXED          0  -0.0%   0.000       0.000       2.000       2.000       0.000      0.1000E-19   0.000    
    8905   8.905      0.1000E-02 FIXED          0   0.0%   0.000       0.000       2.000       2.000       0.000      0.1000E-19   0.000    
    8906   8.906      0.1000E-02 FIXED          0  -0.0%   0.000       0.000       2.000       2.000       0.000      0.1000E-19   0.000    
    8907   8.907      0.1000E-02 FIXED          0  -0.0%   0.000       0.000       2.000       2.000       0.000      0.1000E-19   0.000    
    8908   8.908      0.1000E-02 FIXED          0   0.0%   0.000       0.000       2.000       2.000       0.000      0.1000E-19   0.000    
    8909   8.909      0.1000E-02 FIXED          0   0.0%   0.000       0.000       2.000       2.000       0.000      0.1000E-19   0.000    
   CYCLE    TIME      TIME-STEP  ELEMENT          ERROR  I-ENERGY    K-ENERGY T  K-ENERGY R  EXT-WORK     MAS.ERR     TOTAL MASS  MASS ADDED
    8910   8.910      0.1000E-02 FIXED          0   0.0%   0.000       0.000       2.000       2.000       0.000      0.1000E-19   0.000    
    8911   8.911      0.1000E-02 FIXED          0   0.0%   0.000       0.000       2.000       2.000       0.000      0.1000E-19   0.000    
    8912   8.912      0.1000E-02 FIXED          0  -0.0%   0.000       0.000       2.000       2.000       0.000      0.1000E-19   0.000    
    8913   8.913      0.1000E-02 FIXED          0   0.0%   0.000       0.000       2.000       2.000       0.000      0.1000E-19   0.000    
    8914   8.914      0.1000E-02 FIXED          0  -0.0%   0.000       0.000       2.000       2.000       0.000      0.1000E-19   0.000    
    8915   8.915      0.1000E-02 FIXED          0   0.0%   0.000       0.000       2.000       2.000       0.000      0.1000E-19   0.000    
    8916   8.916      0.1000E-02 FIXED          0   0.0%   0.000       0.000       2.000       2.000       0.000      0.1000E-19   0.000    
    8917   8.917      0.1000E-02 FIXED          0  -0.0%   0.000       0.000       2.000       2.000       0.000      0.1000E-19   0.000    
    8918   8.918      0.1000E-02 FIXED          0   0.0%   0.000       0.000       2.000       2.000       0.000      0.1000E-19   0.000    
    8919   8.919      0.1000E-02 FIXED          0  -0.0%   0.000       0.000       2.000       2.000       0.000      0.1000E-19   0.000    
    8920   8.920      0.1000E-02 FIXED          0   0.0%   0.000       0.000       2.000       2.000       0.000      0.1000E-19   0.000    
    8921   8.921      0.1000E-02 FIXED          0  -0.0%   0.000       0.000       2.000       2.000       0.000      0.1000E-19   0.000    
    8922   8.922      0.1000E-02 FIXED          0  -0.0%   0.000       0.000       2.000       2.000       0.000      0.1000E-19   0.000    
    8923   8.923      0.1000E-02 FIXED          0   0.0%   0.000       0.000       2.000       2.000       0.000      0.1000E-19   0.000    
    8924   8.924      0.1000E-02 FIXED          0   0.0%   0.000       0.000       2.000       2.000       0.000      0.1000E-19   0.000    
    8925   8.925      0.1000E-02 FIXED          0  -0.0%   0.000       0.000       2.000       2.000       0.000      0.1000E-19   0.000    
    8926   8.926      0.1000E-02 FIXED          0   0.0%   0.000       0.000       2.000       2.000       0.000      0.1000E-19   0.000    
    8927   8.927      0.1000E-02 FIXED          0  -0.0%   0.000       0.000       2.000       2.000       0.000      0.1000E-19   0.000    
    8928   8.928      0.1000E-02 FIXED          0   0.0%   0.000       0.000       2.000       2.000       0.000      0.1000E-19   0.000    
    8929   8.929      0.1000E-02 FIXED          0   0.0%   0.000       0.000       2.000       2.000       0.000      0.1000E-19   0.000    
    8930   8.930      0.1000E-02 FIXED          0   0.0%   0.000       0.000       2.000       2.000       0.000      0.1000E-19   0.000    
    8931   8.931      0.1000E-02 FIXED          0  -0.0%   0.000       0.000       2.000       2.000       0.000      0.1000E-19   0.000    
    8932   8.932      0.1000E-02 FIXED          0   0.0%   0.000       0.000       2.000       2.000       0.000      0.1000E-19   0.000    
    8933   8.933      0.1000E-02 FIXED          0  -0.0%   0.000       0.000       2.000       2.000       0.000      0.1000E-19   0.000    
    8934   8.934      0.1000E-02 FIXED          0   0.0%   0.000       0.000       2.000       2.000       0.000      0.1000E-19   0.000    
    8935   8.935      0.1000E-02 FIXED          0   0.0%   0.000       0.000       2.000       2.000       0.000      0.1000E-19   0.000    
    8936   8.936      0.1000E-02 FIXED          0  -0.0%   0.000       0.000       2.000       2.000       0.000      0.1000E-19   0.000    
    8937   8.937      0.1000E-02 FIXED          0   0.0%   0.000       0.000       2.000       2.000       0.000      0.1000E-19   0.000    
    8938   8.938      0.1000E-02 FIXED          0   0.0%   0.000       0.000       2.000       2.000       0.000      0.1000E-19   0.000    
    8939   8.939      0.1000E-02 FIXED          0   0.0%   0.000       0.000       2.000       2.000       0.000      0.1000E-19   0.000    
    8940   8.940      0.1000E-02 FIXED          0   0.0%   0.000       0.000       2.000       2.000       0.000      0.1000E-19   0.000    
    8941   8.941      0.1000E-02 FIXED          0   0.0%   0.000       0.000       2.000       2.000       0.000      0.1000E-19   0.000    
    8942   8.942      0.1000E-02 FIXED          0   0.0%   0.000       0.000       2.000       2.000       0.000      0.1000E-19   0.000    
    8943   8.943      0.1000E-02 FIXED          0  -0.0%   0.000       0.000       2.000       2.000       0.000      0.1000E-19   0.000    
    8944   8.944      0.1000E-02 FIXED          0   0.0%   0.000       0.000       2.000       2.000       0.000      0.1000E-19   0.000    
    8945   8.945      0.1000E-02 FIXED          0  -0.0%   0.000       0.000       2.000       2.000       0.000      0.1000E-19   0.000    
    8946   8.946      0.1000E-02 FIXED          0   0.0%   0.000       0.000       2.000       2.000       0.000      0.1000E-19   0.000    
    8947   8.947      0.1000E-02 FIXED          0   0.0%   0.000       0.000       2.000       2.000       0.000      0.1000E-19   0.000    
    8948   8.948      0.1000E-02 FIXED          0  -0.0%   0.000       0.000       2.000       2.000       0.000      0.1000E-19   0.000    
    8949   8.949      0.1000E-02 FIXED          0   0.0%   0.000       0.000       2.000       2.000       0.000      0.1000E-19   0.000    
    8950   8.950      0.1000E-02 FIXED          0   0.0%   0.000       0.000       2.000       2.000       0.000      0.1000E-19   0.000    
    8951   8.951      0.1000E-02 FIXED          0  -0.0%   0.000       0.000       2.000       2.000       0.000      0.1000E-19   0.000    
    8952   8.952      0.1000E-02 FIXED          0   0.0%   0.000       0.000       2.000       2.000       0.000      0.1000E-19   0.000    
    8953   8.953      0.1000E-02 FIXED          0  -0.0%   0.000       0.000       2.000       2.000       0.000      0.1000E-19   0.000    
    8954   8.954      0.1000E-02 FIXED          0   0.0%   0.000       0.000       2.000       2.000       0.000      0.1000E-19   0.000    
    8955   8.955      0.1000E-02 FIXED          0  -0.0%   0.000       0.000       2.000       2.000       0.000      0.1000E-19   0.000    
    8956   8.956      0.1000E-02 FIXED          0  -0.0%   0.000       0.000       2.000       2.000       0.000      0.1000E-19   0.000    
    8957   8.957      0.1000E-02 FIXED          0   0.0%   0.000       0.000       2.000       2.000       0.000      0.1000E-19   0.000    
    8958   8.958      0.1000E-02 FIXED          0  -0.0%   0.000       0.000       2.000       2.000       0.000      0.1000E-19   0.000    
    8959   8.959      0.1000E-02 FIXED          0   0.0%   0.000       0.000       2.000       2.000       0.000      0.1000E-19   0.000    
    8960   8.960      0.1000E-02 FIXED          0   0.0%   0.000       0.000       2.000       2.000       0.000      0.1000E-19   0.000    
    8961   8.961      0.1000E-02 FIXED          0   0.0%   0.000       0.000       2.000       2.000       0.000      0.1000E-19   0.000    
    8962   8.962      0.1000E-02 FIXED          0  -0.0%   0.000       0.000       2.000       2.000       0.000      0.1000E-19   0.000    
    8963   8.963      0.1000E-02 FIXED          0   0.0%   0.000       0.000       2.000       2.000       0.000      0.1000E-19   0.000    
    8964   8.964      0.1000E-02 FIXED          0  -0.0%   0.000       0.000       2.000       2.000       0.000      0.1000E-19   0.000    
   CYCLE    TIME      TIME-STEP  ELEMENT          ERROR  I-ENERGY    K-ENERGY T  K-ENERGY R  EXT-WORK     MAS.ERR     TOTAL MASS  MASS ADDED
    8965   8.965      0.1000E-02 FIXED          0   0.0%   0.000       0.000       2.000       2.000       0.000      0.1000E-19   0.000    
    8966   8.966      0.1000E-02 FIXED          0   0.0%   0.000       0.000       2.000       2.000       0.000      0.1000E-19   0.000    
    8967   8.967      0.1000E-02 FIXED          0  -0.0%   0.000       0.000       2.000       2.000       0.000      0.1000E-19   0.000    
    8968   8.968      0.1000E-02 FIXED          0   0.0%   0.000       0.000       2.000       2.000       0.000      0.1000E-19   0.000    
    8969   8.969      0.1000E-02 FIXED          0  -0.0%   0.000       0.000       2.000       2.000       0.000      0.1000E-19   0.000    
    8970   8.970      0.1000E-02 FIXED          0   0.0%   0.000       0.000       2.000       2.000       0.000      0.1000E-19   0.000    
    8971   8.971      0.1000E-02 FIXED          0  -0.0%   0.000       0.000       2.000       2.000       0.000      0.1000E-19   0.000    
    8972   8.972      0.1000E-02 FIXED          0   0.0%   0.000       0.000       2.000       2.000       0.000      0.1000E-19   0.000    
    8973   8.973      0.1000E-02 FIXED          0  -0.0%   0.000       0.000       2.000       2.000       0.000      0.1000E-19   0.000    
    8974   8.974      0.1000E-02 FIXED          0   0.0%   0.000       0.000       2.000       2.000       0.000      0.1000E-19   0.000    
    8975   8.975      0.1000E-02 FIXED          0   0.0%   0.000       0.000       2.000       2.000       0.000      0.1000E-19   0.000    
    8976   8.976      0.1000E-02 FIXED          0   0.0%   0.000       0.000       2.000       2.000       0.000      0.1000E-19   0.000    
    8977   8.977      0.1000E-02 FIXED          0  -0.0%   0.000       0.000       2.000       2.000       0.000      0.1000E-19   0.000    
    8978   8.978      0.1000E-02 FIXED          0   0.0%   0.000       0.000       2.000       2.000       0.000      0.1000E-19   0.000    
    8979   8.979      0.1000E-02 FIXED          0  -0.0%   0.000       0.000       2.000       2.000       0.000      0.1000E-19   0.000    
    8980   8.980      0.1000E-02 FIXED          0   0.0%   0.000       0.000       2.000       2.000       0.000      0.1000E-19   0.000    
    8981   8.981      0.1000E-02 FIXED          0  -0.0%   0.000       0.000       2.000       2.000       0.000      0.1000E-19   0.000    
    8982   8.982      0.1000E-02 FIXED          0   0.0%   0.000       0.000       2.000       2.000       0.000      0.1000E-19   0.000    
    8983   8.983      0.1000E-02 FIXED          0   0.0%   0.000       0.000       2.000       2.000       0.000      0.1000E-19   0.000    
    8984   8.984      0.1000E-02 FIXED          0   0.0%   0.000       0.000       2.000       2.000       0.000      0.1000E-19   0.000    
    8985   8.985      0.1000E-02 FIXED          0  -0.0%   0.000       0.000       2.000       2.000       0.000      0.1000E-19   0.000    
    8986   8.986      0.1000E-02 FIXED          0  -0.0%   0.000       0.000       2.000       2.000       0.000      0.1000E-19   0.000    
    8987   8.987      0.1000E-02 FIXED          0  -0.0%   0.000       0.000       2.000       2.000       0.000      0.1000E-19   0.000    
    8988   8.988      0.1000E-02 FIXED          0   0.0%   0.000       0.000       2.000       2.000       0.000      0.1000E-19   0.000    
    8989   8.989      0.1000E-02 FIXED          0  -0.0%   0.000       0.000       2.000       2.000       0.000      0.1000E-19   0.000    
    8990   8.990      0.1000E-02 FIXED          0  -0.0%   0.000       0.000       2.000       2.000       0.000      0.1000E-19   0.000    
    8991   8.991      0.1000E-02 FIXED          0   0.0%   0.000       0.000       2.000       2.000       0.000      0.1000E-19   0.000    
    8992   8.992      0.1000E-02 FIXED          0  -0.0%   0.000       0.000       2.000       2.000       0.000      0.1000E-19   0.000    
    8993   8.993      0.1000E-02 FIXED          0   0.0%   0.000       0.000       2.000       2.000       0.000      0.1000E-19   0.000    
    8994   8.994      0.1000E-02 FIXED          0  -0.0%   0.000       0.000       2.000       2.000       0.000      0.1000E-19   0.000    
    8995   8.995      0.1000E-02 FIXED          0  -0.0%   0.000       0.000       2.000       2.000       0.000      0.1000E-19   0.000    
    8996   8.996      0.1000E-02 FIXED          0   0.0%   0.000       0.000       2.000       2.000       0.000      0.1000E-19   0.000    
    8997   8.997      0.1000E-02 FIXED          0   0.0%   0.000       0.000       2.000       2.000       0.000      0.1000E-19   0.000    
    8998   8.998      0.1000E-02 FIXED          0  -0.0%   0.000       0.000       2.000       2.000       0.000      0.1000E-19   0.000    
    8999   8.999      0.1000E-02 FIXED          0  -0.0%   0.000       0.000       2.000       2.000       0.000      0.1000E-19   0.000    
    9000   9.000      0.1000E-02 FIXED          0   0.0%   0.000       0.000       2.000       2.000       0.000      0.1000E-19   0.000    
     ANIMATION FILE: BLOCKA010 WRITTEN
    9001   9.001      0.1000E-02 FIXED          0   0.0%   0.000       0.000       2.000       2.000       0.000      0.1000E-19   0.000    
    9002   9.002      0.1000E-02 FIXED          0  -0.0%   0.000       0.000       2.000       2.000       0.000      0.1000E-19   0.000    
    9003   9.003      0.1000E-02 FIXED          0   0.0%   0.000       0.000       2.000       2.000       0.000      0.1000E-19   0.000    
    9004   9.004      0.1000E-02 FIXED          0  -0.0%   0.000       0.000       2.000       2.000       0.000      0.1000E-19   0.000    
    9005   9.005      0.1000E-02 FIXED          0   0.0%   0.000       0.000       2.000       2.000       0.000      0.1000E-19   0.000    
    9006   9.006      0.1000E-02 FIXED          0   0.0%   0.000       0.000       2.000       2.000       0.000      0.1000E-19   0.000    
    9007   9.007      0.1000E-02 FIXED          0   0.0%   0.000       0.000       2.000       2.000       0.000      0.1000E-19   0.000    
    9008   9.008      0.1000E-02 FIXED          0   0.0%   0.000       0.000       2.000       2.000       0.000      0.1000E-19   0.000    
    9009   9.009      0.1000E-02 FIXED          0   0.0%   0.000       0.000       2.000       2.000       0.000      0.1000E-19   0.000    
    9010   9.010      0.1000E-02 FIXED          0  -0.0%   0.000       0.000       2.000       2.000       0.000      0.1000E-19   0.000    
    9011   9.011      0.1000E-02 FIXED          0  -0.0%   0.000       0.000       2.000       2.000       0.000      0.1000E-19   0.000    
    9012   9.012      0.1000E-02 FIXED          0  -0.0%   0.000       0.000       2.000       2.000       0.000      0.1000E-19   0.000    
    9013   9.013      0.1000E-02 FIXED          0   0.0%   0.000       0.000       2.000       2.000       0.000      0.1000E-19   0.000    
    9014   9.014      0.1000E-02 FIXED          0   0.0%   0.000       0.000       2.000       2.000       0.000      0.1000E-19   0.000    
    9015   9.015      0.1000E-02 FIXED          0  -0.0%   0.000       0.000       2.000       2.000       0.000      0.1000E-19   0.000    
    9016   9.016      0.1000E-02 FIXED          0   0.0%   0.000       0.000       2.000       2.000       0.000      0.1000E-19   0.000    
    9017   9.017      0.1000E-02 FIXED          0  -0.0%   0.000       0.000       2.000       2.000       0.000      0.1000E-19   0.000    
    9018   9.018      0.1000E-02 FIXED          0   0.0%   0.000       0.000       2.000       2.000       0.000      0.1000E-19   0.000    
    9019   9.019      0.1000E-02 FIXED          0   0.0%   0.000       0.000       2.000       2.000       0.000      0.1000E-19   0.000    
   CYCLE    TIME      TIME-STEP  ELEMENT          ERROR  I-ENERGY    K-ENERGY T  K-ENERGY R  EXT-WORK     MAS.ERR     TOTAL MASS  MASS ADDED
    9020   9.020      0.1000E-02 FIXED          0  -0.0%   0.000       0.000       2.000       2.000       0.000      0.1000E-19   0.000    
    9021   9.021      0.1000E-02 FIXED          0   0.0%   0.000       0.000       2.000       2.000       0.000      0.1000E-19   0.000    
    9022   9.022      0.1000E-02 FIXED          0   0.0%   0.000       0.000       2.000       2.000       0.000      0.1000E-19   0.000    
    9023   9.023      0.1000E-02 FIXED          0  -0.0%   0.000       0.000       2.000       2.000       0.000      0.1000E-19   0.000    
    9024   9.024      0.1000E-02 FIXED          0  -0.0%   0.000       0.000       2.000       2.000       0.000      0.1000E-19   0.000    
    9025   9.025      0.1000E-02 FIXED          0   0.0%   0.000       0.000       2.000       2.000       0.000      0.1000E-19   0.000    
    9026   9.026      0.1000E-02 FIXED          0   0.0%   0.000       0.000       2.000       2.000       0.000      0.1000E-19   0.000    
    9027   9.027      0.1000E-02 FIXED          0  -0.0%   0.000       0.000       2.000       2.000       0.000      0.1000E-19   0.000    
    9028   9.028      0.1000E-02 FIXED          0  -0.0%   0.000       0.000       2.000       2.000       0.000      0.1000E-19   0.000    
    9029   9.029      0.1000E-02 FIXED          0  -0.0%   0.000       0.000       2.000       2.000       0.000      0.1000E-19   0.000    
    9030   9.030      0.1000E-02 FIXED          0   0.0%   0.000       0.000       2.000       2.000       0.000      0.1000E-19   0.000    
    9031   9.031      0.1000E-02 FIXED          0   0.0%   0.000       0.000       2.000       2.000       0.000      0.1000E-19   0.000    
    9032   9.032      0.1000E-02 FIXED          0  -0.0%   0.000       0.000       2.000       2.000       0.000      0.1000E-19   0.000    
    9033   9.033      0.1000E-02 FIXED          0  -0.0%   0.000       0.000       2.000       2.000       0.000      0.1000E-19   0.000    
    9034   9.034      0.1000E-02 FIXED          0   0.0%   0.000       0.000       2.000       2.000       0.000      0.1000E-19   0.000    
    9035   9.035      0.1000E-02 FIXED          0  -0.0%   0.000       0.000       2.000       2.000       0.000      0.1000E-19   0.000    
    9036   9.036      0.1000E-02 FIXED          0  -0.0%   0.000       0.000       2.000       2.000       0.000      0.1000E-19   0.000    
    9037   9.037      0.1000E-02 FIXED          0   0.0%   0.000       0.000       2.000       2.000       0.000      0.1000E-19   0.000    
    9038   9.038      0.1000E-02 FIXED          0   0.0%   0.000       0.000       2.000       2.000       0.000      0.1000E-19   0.000    
    9039   9.039      0.1000E-02 FIXED          0   0.0%   0.000       0.000       2.000       2.000       0.000      0.1000E-19   0.000    
    9040   9.040      0.1000E-02 FIXED          0  -0.0%   0.000       0.000       2.000       2.000       0.000      0.1000E-19   0.000    
    9041   9.041      0.1000E-02 FIXED          0   0.0%   0.000       0.000       2.000       2.000       0.000      0.1000E-19   0.000    
    9042   9.042      0.1000E-02 FIXED          0   0.0%   0.000       0.000       2.000       2.000       0.000      0.1000E-19   0.000    
    9043   9.043      0.1000E-02 FIXED          0  -0.0%   0.000       0.000       2.000       2.000       0.000      0.1000E-19   0.000    
    9044   9.044      0.1000E-02 FIXED          0   0.0%   0.000       0.000       2.000       2.000       0.000      0.1000E-19   0.000    
    9045   9.045      0.1000E-02 FIXED          0   0.0%   0.000       0.000       2.000       2.000       0.000      0.1000E-19   0.000    
    9046   9.046      0.1000E-02 FIXED          0   0.0%   0.000       0.000       2.000       2.000       0.000      0.1000E-19   0.000    
    9047   9.047      0.1000E-02 FIXED          0  -0.0%   0.000       0.000       2.000       2.000       0.000      0.1000E-19   0.000    
    9048   9.048      0.1000E-02 FIXED          0   0.0%   0.000       0.000       2.000       2.000       0.000      0.1000E-19   0.000    
    9049   9.049      0.1000E-02 FIXED          0   0.0%   0.000       0.000       2.000       2.000       0.000      0.1000E-19   0.000    
    9050   9.050      0.1000E-02 FIXED          0   0.0%   0.000       0.000       2.000       2.000       0.000      0.1000E-19   0.000    
    9051   9.051      0.1000E-02 FIXED          0  -0.0%   0.000       0.000       2.000       2.000       0.000      0.1000E-19   0.000    
    9052   9.052      0.1000E-02 FIXED          0  -0.0%   0.000       0.000       2.000       2.000       0.000      0.1000E-19   0.000    
    9053   9.053      0.1000E-02 FIXED          0   0.0%   0.000       0.000       2.000       2.000       0.000      0.1000E-19   0.000    
    9054   9.054      0.1000E-02 FIXED          0   0.0%   0.000       0.000       2.000       2.000       0.000      0.1000E-19   0.000    
    9055   9.055      0.1000E-02 FIXED          0   0.0%   0.000       0.000       2.000       2.000       0.000      0.1000E-19   0.000    
    9056   9.056      0.1000E-02 FIXED          0  -0.0%   0.000       0.000       2.000       2.000       0.000      0.1000E-19   0.000    
    9057   9.057      0.1000E-02 FIXED          0   0.0%   0.000       0.000       2.000       2.000       0.000      0.1000E-19   0.000    
    9058   9.058      0.1000E-02 FIXED          0  -0.0%   0.000       0.000       2.000       2.000       0.000      0.1000E-19   0.000    
    9059   9.059      0.1000E-02 FIXED          0   0.0%   0.000       0.000       2.000       2.000       0.000      0.1000E-19   0.000    
    9060   9.060      0.1000E-02 FIXED          0  -0.0%   0.000       0.000       2.000       2.000       0.000      0.1000E-19   0.000    
    9061   9.061      0.1000E-02 FIXED          0   0.0%   0.000       0.000       2.000       2.000       0.000      0.1000E-19   0.000    
    9062   9.062      0.1000E-02 FIXED          0  -0.0%   0.000       0.000       2.000       2.000       0.000      0.1000E-19   0.000    
    9063   9.063      0.1000E-02 FIXED          0   0.0%   0.000       0.000       2.000       2.000       0.000      0.1000E-19   0.000    
    9064   9.064      0.1000E-02 FIXED          0  -0.0%   0.000       0.000       2.000       2.000       0.000      0.1000E-19   0.000    
    9065   9.065      0.1000E-02 FIXED          0   0.0%   0.000       0.000       2.000       2.000       0.000      0.1000E-19   0.000    
    9066   9.066      0.1000E-02 FIXED          0   0.0%   0.000       0.000       2.000       2.000       0.000      0.1000E-19   0.000    
    9067   9.067      0.1000E-02 FIXED          0  -0.0%   0.000       0.000       2.000       2.000       0.000      0.1000E-19   0.000    
    9068   9.068      0.1000E-02 FIXED          0  -0.0%   0.000       0.000       2.000       2.000       0.000      0.1000E-19   0.000    
    9069   9.069      0.1000E-02 FIXED          0   0.0%   0.000       0.000       2.000       2.000       0.000      0.1000E-19   0.000    
    9070   9.070      0.1000E-02 FIXED          0  -0.0%   0.000       0.000       2.000       2.000       0.000      0.1000E-19   0.000    
    9071   9.071      0.1000E-02 FIXED          0   0.0%   0.000       0.000       2.000       2.000       0.000      0.1000E-19   0.000    
    9072   9.072      0.1000E-02 FIXED          0   0.0%   0.000       0.000       2.000       2.000       0.000      0.1000E-19   0.000    
    9073   9.073      0.1000E-02 FIXED          0   0.0%   0.000       0.000       2.000       2.000       0.000      0.1000E-19   0.000    
    9074   9.074      0.1000E-02 FIXED          0  -0.0%   0.000       0.000       2.000       2.000       0.000      0.1000E-19   0.000    
   CYCLE    TIME      TIME-STEP  ELEMENT          ERROR  I-ENERGY    K-ENERGY T  K-ENERGY R  EXT-WORK     MAS.ERR     TOTAL MASS  MASS ADDED
    9075   9.075      0.1000E-02 FIXED          0   0.0%   0.000       0.000       2.000       2.000       0.000      0.1000E-19   0.000    
    9076   9.076      0.1000E-02 FIXED          0   0.0%   0.000       0.000       2.000       2.000       0.000      0.1000E-19   0.000    
    9077   9.077      0.1000E-02 FIXED          0  -0.0%   0.000       0.000       2.000       2.000       0.000      0.1000E-19   0.000    
    9078   9.078      0.1000E-02 FIXED          0  -0.0%   0.000       0.000       2.000       2.000       0.000      0.1000E-19   0.000    
    9079   9.079      0.1000E-02 FIXED          0  -0.0%   0.000       0.000       2.000       2.000       0.000      0.1000E-19   0.000    
    9080   9.080      0.1000E-02 FIXED          0   0.0%   0.000       0.000       2.000       2.000       0.000      0.1000E-19   0.000    
    9081   9.081      0.1000E-02 FIXED          0   0.0%   0.000       0.000       2.000       2.000       0.000      0.1000E-19   0.000    
    9082   9.082      0.1000E-02 FIXED          0  -0.0%   0.000       0.000       2.000       2.000       0.000      0.1000E-19   0.000    
    9083   9.083      0.1000E-02 FIXED          0   0.0%   0.000       0.000       2.000       2.000       0.000      0.1000E-19   0.000    
    9084   9.084      0.1000E-02 FIXED          0  -0.0%   0.000       0.000       2.000       2.000       0.000      0.1000E-19   0.000    
    9085   9.085      0.1000E-02 FIXED          0   0.0%   0.000       0.000       2.000       2.000       0.000      0.1000E-19   0.000    
    9086   9.086      0.1000E-02 FIXED          0   0.0%   0.000       0.000       2.000       2.000       0.000      0.1000E-19   0.000    
    9087   9.087      0.1000E-02 FIXED          0   0.0%   0.000       0.000       2.000       2.000       0.000      0.1000E-19   0.000    
    9088   9.088      0.1000E-02 FIXED          0  -0.0%   0.000       0.000       2.000       2.000       0.000      0.1000E-19   0.000    
    9089   9.089      0.1000E-02 FIXED          0  -0.0%   0.000       0.000       2.000       2.000       0.000      0.1000E-19   0.000    
    9090   9.090      0.1000E-02 FIXED          0  -0.0%   0.000       0.000       2.000       2.000       0.000      0.1000E-19   0.000    
    9091   9.091      0.1000E-02 FIXED          0   0.0%   0.000       0.000       2.000       2.000       0.000      0.1000E-19   0.000    
    9092   9.092      0.1000E-02 FIXED          0  -0.0%   0.000       0.000       2.000       2.000       0.000      0.1000E-19   0.000    
    9093   9.093      0.1000E-02 FIXED          0   0.0%   0.000       0.000       2.000       2.000       0.000      0.1000E-19   0.000    
    9094   9.094      0.1000E-02 FIXED          0   0.0%   0.000       0.000       2.000       2.000       0.000      0.1000E-19   0.000    
    9095   9.095      0.1000E-02 FIXED          0   0.0%   0.000       0.000       2.000       2.000       0.000      0.1000E-19   0.000    
    9096   9.096      0.1000E-02 FIXED          0  -0.0%   0.000       0.000       2.000       2.000       0.000      0.1000E-19   0.000    
    9097   9.097      0.1000E-02 FIXED          0   0.0%   0.000       0.000       2.000       2.000       0.000      0.1000E-19   0.000    
    9098   9.098      0.1000E-02 FIXED          0   0.0%   0.000       0.000       2.000       2.000       0.000      0.1000E-19   0.000    
    9099   9.099      0.1000E-02 FIXED          0   0.0%   0.000       0.000       2.000       2.000       0.000      0.1000E-19   0.000    
    9100   9.100      0.1000E-02 FIXED          0  -0.0%   0.000       0.000       2.000       2.000       0.000      0.1000E-19   0.000    
    9101   9.101      0.1000E-02 FIXED          0  -0.0%   0.000       0.000       2.000       2.000       0.000      0.1000E-19   0.000    
    9102   9.102      0.1000E-02 FIXED          0   0.0%   0.000       0.000       2.000       2.000       0.000      0.1000E-19   0.000    
    9103   9.103      0.1000E-02 FIXED          0  -0.0%   0.000       0.000       2.000       2.000       0.000      0.1000E-19   0.000    
    9104   9.104      0.1000E-02 FIXED          0   0.0%   0.000       0.000       2.000       2.000       0.000      0.1000E-19   0.000    
    9105   9.105      0.1000E-02 FIXED          0  -0.0%   0.000       0.000       2.000       2.000       0.000      0.1000E-19   0.000    
    9106   9.106      0.1000E-02 FIXED          0  -0.0%   0.000       0.000       2.000       2.000       0.000      0.1000E-19   0.000    
    9107   9.107      0.1000E-02 FIXED          0  -0.0%   0.000       0.000       2.000       2.000       0.000      0.1000E-19   0.000    
    9108   9.108      0.1000E-02 FIXED          0   0.0%   0.000       0.000       2.000       2.000       0.000      0.1000E-19   0.000    
    9109   9.109      0.1000E-02 FIXED          0   0.0%   0.000       0.000       2.000       2.000       0.000      0.1000E-19   0.000    
    9110   9.110      0.1000E-02 FIXED          0  -0.0%   0.000       0.000       2.000       2.000       0.000      0.1000E-19   0.000    
    9111   9.111      0.1000E-02 FIXED          0   0.0%   0.000       0.000       2.000       2.000       0.000      0.1000E-19   0.000    
    9112   9.112      0.1000E-02 FIXED          0   0.0%   0.000       0.000       2.000       2.000       0.000      0.1000E-19   0.000    
    9113   9.113      0.1000E-02 FIXED          0  -0.0%   0.000       0.000       2.000       2.000       0.000      0.1000E-19   0.000    
    9114   9.114      0.1000E-02 FIXED          0   0.0%   0.000       0.000       2.000       2.000       0.000      0.1000E-19   0.000    
    9115   9.115      0.1000E-02 FIXED          0  -0.0%   0.000       0.000       2.000       2.000       0.000      0.1000E-19   0.000    
    9116   9.116      0.1000E-02 FIXED          0   0.0%   0.000       0.000       2.000       2.000       0.000      0.1000E-19   0.000    
    9117   9.117      0.1000E-02 FIXED          0   0.0%   0.000       0.000       2.000       2.000       0.000      0.1000E-19   0.000    
    9118   9.118      0.1000E-02 FIXED          0   0.0%   0.000       0.000       2.000       2.000       0.000      0.1000E-19   0.000    
    9119   9.119      0.1000E-02 FIXED          0   0.0%   0.000       0.000       2.000       2.000       0.000      0.1000E-19   0.000    
    9120   9.120      0.1000E-02 FIXED          0  -0.0%   0.000       0.000       2.000       2.000       0.000      0.1000E-19   0.000    
    9121   9.121      0.1000E-02 FIXED          0   0.0%   0.000       0.000       2.000       2.000       0.000      0.1000E-19   0.000    
    9122   9.122      0.1000E-02 FIXED          0   0.0%   0.000       0.000       2.000       2.000       0.000      0.1000E-19   0.000    
    9123   9.123      0.1000E-02 FIXED          0   0.0%   0.000       0.000       2.000       2.000       0.000      0.1000E-19   0.000    
    9124   9.124      0.1000E-02 FIXED          0   0.0%   0.000       0.000       2.000       2.000       0.000      0.1000E-19   0.000    
    9125   9.125      0.1000E-02 FIXED          0  -0.0%   0.000       0.000       2.000       2.000       0.000      0.1000E-19   0.000    
    9126   9.126      0.1000E-02 FIXED          0   0.0%   0.000       0.000       2.000       2.000       0.000      0.1000E-19   0.000    
    9127   9.127      0.1000E-02 FIXED          0   0.0%   0.000       0.000       2.000       2.000       0.000      0.1000E-19   0.000    
    9128   9.128      0.1000E-02 FIXED          0  -0.0%   0.000       0.000       2.000       2.000       0.000      0.1000E-19   0.000    
    9129   9.129      0.1000E-02 FIXED          0   0.0%   0.000       0.000       2.000       2.000       0.000      0.1000E-19   0.000    
   CYCLE    TIME      TIME-STEP  ELEMENT          ERROR  I-ENERGY    K-ENERGY T  K-ENERGY R  EXT-WORK     MAS.ERR     TOTAL MASS  MASS ADDED
    9130   9.130      0.1000E-02 FIXED          0  -0.0%   0.000       0.000       2.000       2.000       0.000      0.1000E-19   0.000    
    9131   9.131      0.1000E-02 FIXED          0   0.0%   0.000       0.000       2.000       2.000       0.000      0.1000E-19   0.000    
    9132   9.132      0.1000E-02 FIXED          0   0.0%   0.000       0.000       2.000       2.000       0.000      0.1000E-19   0.000    
    9133   9.133      0.1000E-02 FIXED          0   0.0%   0.000       0.000       2.000       2.000       0.000      0.1000E-19   0.000    
    9134   9.134      0.1000E-02 FIXED          0   0.0%   0.000       0.000       2.000       2.000       0.000      0.1000E-19   0.000    
    9135   9.135      0.1000E-02 FIXED          0  -0.0%   0.000       0.000       2.000       2.000       0.000      0.1000E-19   0.000    
    9136   9.136      0.1000E-02 FIXED          0   0.0%   0.000       0.000       2.000       2.000       0.000      0.1000E-19   0.000    
    9137   9.137      0.1000E-02 FIXED          0  -0.0%   0.000       0.000       2.000       2.000       0.000      0.1000E-19   0.000    
    9138   9.138      0.1000E-02 FIXED          0   0.0%   0.000       0.000       2.000       2.000       0.000      0.1000E-19   0.000    
    9139   9.139      0.1000E-02 FIXED          0  -0.0%   0.000       0.000       2.000       2.000       0.000      0.1000E-19   0.000    
    9140   9.140      0.1000E-02 FIXED          0   0.0%   0.000       0.000       2.000       2.000       0.000      0.1000E-19   0.000    
    9141   9.141      0.1000E-02 FIXED          0   0.0%   0.000       0.000       2.000       2.000       0.000      0.1000E-19   0.000    
    9142   9.142      0.1000E-02 FIXED          0  -0.0%   0.000       0.000       2.000       2.000       0.000      0.1000E-19   0.000    
    9143   9.143      0.1000E-02 FIXED          0  -0.0%   0.000       0.000       2.000       2.000       0.000      0.1000E-19   0.000    
    9144   9.144      0.1000E-02 FIXED          0   0.0%   0.000       0.000       2.000       2.000       0.000      0.1000E-19   0.000    
    9145   9.145      0.1000E-02 FIXED          0   0.0%   0.000       0.000       2.000       2.000       0.000      0.1000E-19   0.000    
    9146   9.146      0.1000E-02 FIXED          0   0.0%   0.000       0.000       2.000       2.000       0.000      0.1000E-19   0.000    
    9147   9.147      0.1000E-02 FIXED          0   0.0%   0.000       0.000       2.000       2.000       0.000      0.1000E-19   0.000    
    9148   9.148      0.1000E-02 FIXED          0  -0.0%   0.000       0.000       2.000       2.000       0.000      0.1000E-19   0.000    
    9149   9.149      0.1000E-02 FIXED          0   0.0%   0.000       0.000       2.000       2.000       0.000      0.1000E-19   0.000    
    9150   9.150      0.1000E-02 FIXED          0   0.0%   0.000       0.000       2.000       2.000       0.000      0.1000E-19   0.000    
    9151   9.151      0.1000E-02 FIXED          0  -0.0%   0.000       0.000       2.000       2.000       0.000      0.1000E-19   0.000    
    9152   9.152      0.1000E-02 FIXED          0   0.0%   0.000       0.000       2.000       2.000       0.000      0.1000E-19   0.000    
    9153   9.153      0.1000E-02 FIXED          0  -0.0%   0.000       0.000       2.000       2.000       0.000      0.1000E-19   0.000    
    9154   9.154      0.1000E-02 FIXED          0   0.0%   0.000       0.000       2.000       2.000       0.000      0.1000E-19   0.000    
    9155   9.155      0.1000E-02 FIXED          0  -0.0%   0.000       0.000       2.000       2.000       0.000      0.1000E-19   0.000    
    9156   9.156      0.1000E-02 FIXED          0  -0.0%   0.000       0.000       2.000       2.000       0.000      0.1000E-19   0.000    
    9157   9.157      0.1000E-02 FIXED          0   0.0%   0.000       0.000       2.000       2.000       0.000      0.1000E-19   0.000    
    9158   9.158      0.1000E-02 FIXED          0   0.0%   0.000       0.000       2.000       2.000       0.000      0.1000E-19   0.000    
    9159   9.159      0.1000E-02 FIXED          0  -0.0%   0.000       0.000       2.000       2.000       0.000      0.1000E-19   0.000    
    9160   9.160      0.1000E-02 FIXED          0   0.0%   0.000       0.000       2.000       2.000       0.000      0.1000E-19   0.000    
    9161   9.161      0.1000E-02 FIXED          0   0.0%   0.000       0.000       2.000       2.000       0.000      0.1000E-19   0.000    
    9162   9.162      0.1000E-02 FIXED          0   0.0%   0.000       0.000       2.000       2.000       0.000      0.1000E-19   0.000    
    9163   9.163      0.1000E-02 FIXED          0   0.0%   0.000       0.000       2.000       2.000       0.000      0.1000E-19   0.000    
    9164   9.164      0.1000E-02 FIXED          0  -0.0%   0.000       0.000       2.000       2.000       0.000      0.1000E-19   0.000    
    9165   9.165      0.1000E-02 FIXED          0   0.0%   0.000       0.000       2.000       2.000       0.000      0.1000E-19   0.000    
    9166   9.166      0.1000E-02 FIXED          0   0.0%   0.000       0.000       2.000       2.000       0.000      0.1000E-19   0.000    
    9167   9.167      0.1000E-02 FIXED          0  -0.0%   0.000       0.000       2.000       2.000       0.000      0.1000E-19   0.000    
    9168   9.168      0.1000E-02 FIXED          0   0.0%   0.000       0.000       2.000       2.000       0.000      0.1000E-19   0.000    
    9169   9.169      0.1000E-02 FIXED          0   0.0%   0.000       0.000       2.000       2.000       0.000      0.1000E-19   0.000    
    9170   9.170      0.1000E-02 FIXED          0  -0.0%   0.000       0.000       2.000       2.000       0.000      0.1000E-19   0.000    
    9171   9.171      0.1000E-02 FIXED          0   0.0%   0.000       0.000       2.000       2.000       0.000      0.1000E-19   0.000    
    9172   9.172      0.1000E-02 FIXED          0   0.0%   0.000       0.000       2.000       2.000       0.000      0.1000E-19   0.000    
    9173   9.173      0.1000E-02 FIXED          0  -0.0%   0.000       0.000       2.000       2.000       0.000      0.1000E-19   0.000    
    9174   9.174      0.1000E-02 FIXED          0   0.0%   0.000       0.000       2.000       2.000       0.000      0.1000E-19   0.000    
    9175   9.175      0.1000E-02 FIXED          0  -0.0%   0.000       0.000       2.000       2.000       0.000      0.1000E-19   0.000    
    9176   9.176      0.1000E-02 FIXED          0  -0.0%   0.000       0.000       2.000       2.000       0.000      0.1000E-19   0.000    
    9177   9.177      0.1000E-02 FIXED          0   0.0%   0.000       0.000       2.000       2.000       0.000      0.1000E-19   0.000    
    9178   9.178      0.1000E-02 FIXED          0  -0.0%   0.000       0.000       2.000       2.000       0.000      0.1000E-19   0.000    
    9179   9.179      0.1000E-02 FIXED          0  -0.0%   0.000       0.000       2.000       2.000       0.000      0.1000E-19   0.000    
    9180   9.180      0.1000E-02 FIXED          0   0.0%   0.000       0.000       2.000       2.000       0.000      0.1000E-19   0.000    
    9181   9.181      0.1000E-02 FIXED          0  -0.0%   0.000       0.000       2.000       2.000       0.000      0.1000E-19   0.000    
    9182   9.182      0.1000E-02 FIXED          0   0.0%   0.000       0.000       2.000       2.000       0.000      0.1000E-19   0.000    
    9183   9.183      0.1000E-02 FIXED          0   0.0%   0.000       0.000       2.000       2.000       0.000      0.1000E-19   0.000    
    9184   9.184      0.1000E-02 FIXED          0   0.0%   0.000       0.000       2.000       2.000       0.000      0.1000E-19   0.000    
   CYCLE    TIME      TIME-STEP  ELEMENT          ERROR  I-ENERGY    K-ENERGY T  K-ENERGY R  EXT-WORK     MAS.ERR     TOTAL MASS  MASS ADDED
    9185   9.185      0.1000E-02 FIXED          0  -0.0%   0.000       0.000       2.000       2.000       0.000      0.1000E-19   0.000    
    9186   9.186      0.1000E-02 FIXED          0   0.0%   0.000       0.000       2.000       2.000       0.000      0.1000E-19   0.000    
    9187   9.187      0.1000E-02 FIXED          0  -0.0%   0.000       0.000       2.000       2.000       0.000      0.1000E-19   0.000    
    9188   9.188      0.1000E-02 FIXED          0   0.0%   0.000       0.000       2.000       2.000       0.000      0.1000E-19   0.000    
    9189   9.189      0.1000E-02 FIXED          0   0.0%   0.000       0.000       2.000       2.000       0.000      0.1000E-19   0.000    
    9190   9.190      0.1000E-02 FIXED          0  -0.0%   0.000       0.000       2.000       2.000       0.000      0.1000E-19   0.000    
    9191   9.191      0.1000E-02 FIXED          0   0.0%   0.000       0.000       2.000       2.000       0.000      0.1000E-19   0.000    
    9192   9.192      0.1000E-02 FIXED          0   0.0%   0.000       0.000       2.000       2.000       0.000      0.1000E-19   0.000    
    9193   9.193      0.1000E-02 FIXED          0   0.0%   0.000       0.000       2.000       2.000       0.000      0.1000E-19   0.000    
    9194   9.194      0.1000E-02 FIXED          0  -0.0%   0.000       0.000       2.000       2.000       0.000      0.1000E-19   0.000    
    9195   9.195      0.1000E-02 FIXED          0   0.0%   0.000       0.000       2.000       2.000       0.000      0.1000E-19   0.000    
    9196   9.196      0.1000E-02 FIXED          0  -0.0%   0.000       0.000       2.000       2.000       0.000      0.1000E-19   0.000    
    9197   9.197      0.1000E-02 FIXED          0  -0.0%   0.000       0.000       2.000       2.000       0.000      0.1000E-19   0.000    
    9198   9.198      0.1000E-02 FIXED          0   0.0%   0.000       0.000       2.000       2.000       0.000      0.1000E-19   0.000    
    9199   9.199      0.1000E-02 FIXED          0  -0.0%   0.000       0.000       2.000       2.000       0.000      0.1000E-19   0.000    
    9200   9.200      0.1000E-02 FIXED          0   0.0%   0.000       0.000       2.000       2.000       0.000      0.1000E-19   0.000    
    9201   9.201      0.1000E-02 FIXED          0   0.0%   0.000       0.000       2.000       2.000       0.000      0.1000E-19   0.000    
    9202   9.202      0.1000E-02 FIXED          0  -0.0%   0.000       0.000       2.000       2.000       0.000      0.1000E-19   0.000    
    9203   9.203      0.1000E-02 FIXED          0  -0.0%   0.000       0.000       2.000       2.000       0.000      0.1000E-19   0.000    
    9204   9.204      0.1000E-02 FIXED          0   0.0%   0.000       0.000       2.000       2.000       0.000      0.1000E-19   0.000    
    9205   9.205      0.1000E-02 FIXED          0   0.0%   0.000       0.000       2.000       2.000       0.000      0.1000E-19   0.000    
    9206   9.206      0.1000E-02 FIXED          0  -0.0%   0.000       0.000       2.000       2.000       0.000      0.1000E-19   0.000    
    9207   9.207      0.1000E-02 FIXED          0   0.0%   0.000       0.000       2.000       2.000       0.000      0.1000E-19   0.000    
    9208   9.208      0.1000E-02 FIXED          0   0.0%   0.000       0.000       2.000       2.000       0.000      0.1000E-19   0.000    
    9209   9.209      0.1000E-02 FIXED          0  -0.0%   0.000       0.000       2.000       2.000       0.000      0.1000E-19   0.000    
    9210   9.210      0.1000E-02 FIXED          0   0.0%   0.000       0.000       2.000       2.000       0.000      0.1000E-19   0.000    
    9211   9.211      0.1000E-02 FIXED          0  -0.0%   0.000       0.000       2.000       2.000       0.000      0.1000E-19   0.000    
    9212   9.212      0.1000E-02 FIXED          0   0.0%   0.000       0.000       2.000       2.000       0.000      0.1000E-19   0.000    
    9213   9.213      0.1000E-02 FIXED          0   0.0%   0.000       0.000       2.000       2.000       0.000      0.1000E-19   0.000    
    9214   9.214      0.1000E-02 FIXED          0  -0.0%   0.000       0.000       2.000       2.000       0.000      0.1000E-19   0.000    
    9215   9.215      0.1000E-02 FIXED          0   0.0%   0.000       0.000       2.000       2.000       0.000      0.1000E-19   0.000    
    9216   9.216      0.1000E-02 FIXED          0   0.0%   0.000       0.000       2.000       2.000       0.000      0.1000E-19   0.000    
    9217   9.217      0.1000E-02 FIXED          0  -0.0%   0.000       0.000       2.000       2.000       0.000      0.1000E-19   0.000    
    9218   9.218      0.1000E-02 FIXED          0  -0.0%   0.000       0.000       2.000       2.000       0.000      0.1000E-19   0.000    
    9219   9.219      0.1000E-02 FIXED          0  -0.0%   0.000       0.000       2.000       2.000       0.000      0.1000E-19   0.000    
    9220   9.220      0.1000E-02 FIXED          0  -0.0%   0.000       0.000       2.000       2.000       0.000      0.1000E-19   0.000    
    9221   9.221      0.1000E-02 FIXED          0   0.0%   0.000       0.000       2.000       2.000       0.000      0.1000E-19   0.000    
    9222   9.222      0.1000E-02 FIXED          0  -0.0%   0.000       0.000       2.000       2.000       0.000      0.1000E-19   0.000    
    9223   9.223      0.1000E-02 FIXED          0   0.0%   0.000       0.000       2.000       2.000       0.000      0.1000E-19   0.000    
    9224   9.224      0.1000E-02 FIXED          0   0.0%   0.000       0.000       2.000       2.000       0.000      0.1000E-19   0.000    
    9225   9.225      0.1000E-02 FIXED          0  -0.0%   0.000       0.000       2.000       2.000       0.000      0.1000E-19   0.000    
    9226   9.226      0.1000E-02 FIXED          0   0.0%   0.000       0.000       2.000       2.000       0.000      0.1000E-19   0.000    
    9227   9.227      0.1000E-02 FIXED          0  -0.0%   0.000       0.000       2.000       2.000       0.000      0.1000E-19   0.000    
    9228   9.228      0.1000E-02 FIXED          0   0.0%   0.000       0.000       2.000       2.000       0.000      0.1000E-19   0.000    
    9229   9.229      0.1000E-02 FIXED          0   0.0%   0.000       0.000       2.000       2.000       0.000      0.1000E-19   0.000    
    9230   9.230      0.1000E-02 FIXED          0  -0.0%   0.000       0.000       2.000       2.000       0.000      0.1000E-19   0.000    
    9231   9.231      0.1000E-02 FIXED          0  -0.0%   0.000       0.000       2.000       2.000       0.000      0.1000E-19   0.000    
    9232   9.232      0.1000E-02 FIXED          0   0.0%   0.000       0.000       2.000       2.000       0.000      0.1000E-19   0.000    
    9233   9.233      0.1000E-02 FIXED          0   0.0%   0.000       0.000       2.000       2.000       0.000      0.1000E-19   0.000    
    9234   9.234      0.1000E-02 FIXED          0  -0.0%   0.000       0.000       2.000       2.000       0.000      0.1000E-19   0.000    
    9235   9.235      0.1000E-02 FIXED          0   0.0%   0.000       0.000       2.000       2.000       0.000      0.1000E-19   0.000    
    9236   9.236      0.1000E-02 FIXED          0  -0.0%   0.000       0.000       2.000       2.000       0.000      0.1000E-19   0.000    
    9237   9.237      0.1000E-02 FIXED          0   0.0%   0.000       0.000       2.000       2.000       0.000      0.1000E-19   0.000    
    9238   9.238      0.1000E-02 FIXED          0  -0.0%   0.000       0.000       2.000       2.000       0.000      0.1000E-19   0.000    
    9239   9.239      0.1000E-02 FIXED          0  -0.0%   0.000       0.000       2.000       2.000       0.000      0.1000E-19   0.000    
   CYCLE    TIME      TIME-STEP  ELEMENT          ERROR  I-ENERGY    K-ENERGY T  K-ENERGY R  EXT-WORK     MAS.ERR     TOTAL MASS  MASS ADDED
    9240   9.240      0.1000E-02 FIXED          0  -0.0%   0.000       0.000       2.000       2.000       0.000      0.1000E-19   0.000    
    9241   9.241      0.1000E-02 FIXED          0   0.0%   0.000       0.000       2.000       2.000       0.000      0.1000E-19   0.000    
    9242   9.242      0.1000E-02 FIXED          0   0.0%   0.000       0.000       2.000       2.000       0.000      0.1000E-19   0.000    
    9243   9.243      0.1000E-02 FIXED          0   0.0%   0.000       0.000       2.000       2.000       0.000      0.1000E-19   0.000    
    9244   9.244      0.1000E-02 FIXED          0  -0.0%   0.000       0.000       2.000       2.000       0.000      0.1000E-19   0.000    
    9245   9.245      0.1000E-02 FIXED          0   0.0%   0.000       0.000       2.000       2.000       0.000      0.1000E-19   0.000    
    9246   9.246      0.1000E-02 FIXED          0   0.0%   0.000       0.000       2.000       2.000       0.000      0.1000E-19   0.000    
    9247   9.247      0.1000E-02 FIXED          0  -0.0%   0.000       0.000       2.000       2.000       0.000      0.1000E-19   0.000    
    9248   9.248      0.1000E-02 FIXED          0   0.0%   0.000       0.000       2.000       2.000       0.000      0.1000E-19   0.000    
    9249   9.249      0.1000E-02 FIXED          0   0.0%   0.000       0.000       2.000       2.000       0.000      0.1000E-19   0.000    
    9250   9.250      0.1000E-02 FIXED          0   0.0%   0.000       0.000       2.000       2.000       0.000      0.1000E-19   0.000    
    9251   9.251      0.1000E-02 FIXED          0   0.0%   0.000       0.000       2.000       2.000       0.000      0.1000E-19   0.000    
    9252   9.252      0.1000E-02 FIXED          0   0.0%   0.000       0.000       2.000       2.000       0.000      0.1000E-19   0.000    
    9253   9.253      0.1000E-02 FIXED          0  -0.0%   0.000       0.000       2.000       2.000       0.000      0.1000E-19   0.000    
    9254   9.254      0.1000E-02 FIXED          0  -0.0%   0.000       0.000       2.000       2.000       0.000      0.1000E-19   0.000    
    9255   9.255      0.1000E-02 FIXED          0   0.0%   0.000       0.000       2.000       2.000       0.000      0.1000E-19   0.000    
    9256   9.256      0.1000E-02 FIXED          0  -0.0%   0.000       0.000       2.000       2.000       0.000      0.1000E-19   0.000    
    9257   9.257      0.1000E-02 FIXED          0   0.0%   0.000       0.000       2.000       2.000       0.000      0.1000E-19   0.000    
    9258   9.258      0.1000E-02 FIXED          0  -0.0%   0.000       0.000       2.000       2.000       0.000      0.1000E-19   0.000    
    9259   9.259      0.1000E-02 FIXED          0   0.0%   0.000       0.000       2.000       2.000       0.000      0.1000E-19   0.000    
    9260   9.260      0.1000E-02 FIXED          0   0.0%   0.000       0.000       2.000       2.000       0.000      0.1000E-19   0.000    
    9261   9.261      0.1000E-02 FIXED          0   0.0%   0.000       0.000       2.000       2.000       0.000      0.1000E-19   0.000    
    9262   9.262      0.1000E-02 FIXED          0   0.0%   0.000       0.000       2.000       2.000       0.000      0.1000E-19   0.000    
    9263   9.263      0.1000E-02 FIXED          0   0.0%   0.000       0.000       2.000       2.000       0.000      0.1000E-19   0.000    
    9264   9.264      0.1000E-02 FIXED          0   0.0%   0.000       0.000       2.000       2.000       0.000      0.1000E-19   0.000    
    9265   9.265      0.1000E-02 FIXED          0  -0.0%   0.000       0.000       2.000       2.000       0.000      0.1000E-19   0.000    
    9266   9.266      0.1000E-02 FIXED          0   0.0%   0.000       0.000       2.000       2.000       0.000      0.1000E-19   0.000    
    9267   9.267      0.1000E-02 FIXED          0  -0.0%   0.000       0.000       2.000       2.000       0.000      0.1000E-19   0.000    
    9268   9.268      0.1000E-02 FIXED          0   0.0%   0.000       0.000       2.000       2.000       0.000      0.1000E-19   0.000    
    9269   9.269      0.1000E-02 FIXED          0   0.0%   0.000       0.000       2.000       2.000       0.000      0.1000E-19   0.000    
    9270   9.270      0.1000E-02 FIXED          0   0.0%   0.000       0.000       2.000       2.000       0.000      0.1000E-19   0.000    
    9271   9.271      0.1000E-02 FIXED          0   0.0%   0.000       0.000       2.000       2.000       0.000      0.1000E-19   0.000    
    9272   9.272      0.1000E-02 FIXED          0  -0.0%   0.000       0.000       2.000       2.000       0.000      0.1000E-19   0.000    
    9273   9.273      0.1000E-02 FIXED          0   0.0%   0.000       0.000       2.000       2.000       0.000      0.1000E-19   0.000    
    9274   9.274      0.1000E-02 FIXED          0  -0.0%   0.000       0.000       2.000       2.000       0.000      0.1000E-19   0.000    
    9275   9.275      0.1000E-02 FIXED          0   0.0%   0.000       0.000       2.000       2.000       0.000      0.1000E-19   0.000    
    9276   9.276      0.1000E-02 FIXED          0  -0.0%   0.000       0.000       2.000       2.000       0.000      0.1000E-19   0.000    
    9277   9.277      0.1000E-02 FIXED          0   0.0%   0.000       0.000       2.000       2.000       0.000      0.1000E-19   0.000    
    9278   9.278      0.1000E-02 FIXED          0  -0.0%   0.000       0.000       2.000       2.000       0.000      0.1000E-19   0.000    
    9279   9.279      0.1000E-02 FIXED          0   0.0%   0.000       0.000       2.000       2.000       0.000      0.1000E-19   0.000    
    9280   9.280      0.1000E-02 FIXED          0   0.0%   0.000       0.000       2.000       2.000       0.000      0.1000E-19   0.000    
    9281   9.281      0.1000E-02 FIXED          0   0.0%   0.000       0.000       2.000       2.000       0.000      0.1000E-19   0.000    
    9282   9.282      0.1000E-02 FIXED          0   0.0%   0.000       0.000       2.000       2.000       0.000      0.1000E-19   0.000    
    9283   9.283      0.1000E-02 FIXED          0   0.0%   0.000       0.000       2.000       2.000       0.000      0.1000E-19   0.000    
    9284   9.284      0.1000E-02 FIXED          0   0.0%   0.000       0.000       2.000       2.000       0.000      0.1000E-19   0.000    
    9285   9.285      0.1000E-02 FIXED          0  -0.0%   0.000       0.000       2.000       2.000       0.000      0.1000E-19   0.000    
    9286   9.286      0.1000E-02 FIXED          0  -0.0%   0.000       0.000       2.000       2.000       0.000      0.1000E-19   0.000    
    9287   9.287      0.1000E-02 FIXED          0  -0.0%   0.000       0.000       2.000       2.000       0.000      0.1000E-19   0.000    
    9288   9.288      0.1000E-02 FIXED          0  -0.0%   0.000       0.000       2.000       2.000       0.000      0.1000E-19   0.000    
    9289   9.289      0.1000E-02 FIXED          0  -0.0%   0.000       0.000       2.000       2.000       0.000      0.1000E-19   0.000    
    9290   9.290      0.1000E-02 FIXED          0   0.0%   0.000       0.000       2.000       2.000       0.000      0.1000E-19   0.000    
    9291   9.291      0.1000E-02 FIXED          0  -0.0%   0.000       0.000       2.000       2.000       0.000      0.1000E-19   0.000    
    9292   9.292      0.1000E-02 FIXED          0   0.0%   0.000       0.000       2.000       2.000       0.000      0.1000E-19   0.000    
    9293   9.293      0.1000E-02 FIXED          0  -0.0%   0.000       0.000       2.000       2.000       0.000      0.1000E-19   0.000    
    9294   9.294      0.1000E-02 FIXED          0   0.0%   0.000       0.000       2.000       2.000       0.000      0.1000E-19   0.000    
   CYCLE    TIME      TIME-STEP  ELEMENT          ERROR  I-ENERGY    K-ENERGY T  K-ENERGY R  EXT-WORK     MAS.ERR     TOTAL MASS  MASS ADDED
    9295   9.295      0.1000E-02 FIXED          0  -0.0%   0.000       0.000       2.000       2.000       0.000      0.1000E-19   0.000    
    9296   9.296      0.1000E-02 FIXED          0   0.0%   0.000       0.000       2.000       2.000       0.000      0.1000E-19   0.000    
    9297   9.297      0.1000E-02 FIXED          0   0.0%   0.000       0.000       2.000       2.000       0.000      0.1000E-19   0.000    
    9298   9.298      0.1000E-02 FIXED          0   0.0%   0.000       0.000       2.000       2.000       0.000      0.1000E-19   0.000    
    9299   9.299      0.1000E-02 FIXED          0  -0.0%   0.000       0.000       2.000       2.000       0.000      0.1000E-19   0.000    
    9300   9.300      0.1000E-02 FIXED          0   0.0%   0.000       0.000       2.000       2.000       0.000      0.1000E-19   0.000    
    9301   9.301      0.1000E-02 FIXED          0  -0.0%   0.000       0.000       2.000       2.000       0.000      0.1000E-19   0.000    
    9302   9.302      0.1000E-02 FIXED          0  -0.0%   0.000       0.000       2.000       2.000       0.000      0.1000E-19   0.000    
    9303   9.303      0.1000E-02 FIXED          0  -0.0%   0.000       0.000       2.000       2.000       0.000      0.1000E-19   0.000    
    9304   9.304      0.1000E-02 FIXED          0   0.0%   0.000       0.000       2.000       2.000       0.000      0.1000E-19   0.000    
    9305   9.305      0.1000E-02 FIXED          0  -0.0%   0.000       0.000       2.000       2.000       0.000      0.1000E-19   0.000    
    9306   9.306      0.1000E-02 FIXED          0   0.0%   0.000       0.000       2.000       2.000       0.000      0.1000E-19   0.000    
    9307   9.307      0.1000E-02 FIXED          0  -0.0%   0.000       0.000       2.000       2.000       0.000      0.1000E-19   0.000    
    9308   9.308      0.1000E-02 FIXED          0  -0.0%   0.000       0.000       2.000       2.000       0.000      0.1000E-19   0.000    
    9309   9.309      0.1000E-02 FIXED          0   0.0%   0.000       0.000       2.000       2.000       0.000      0.1000E-19   0.000    
    9310   9.310      0.1000E-02 FIXED          0   0.0%   0.000       0.000       2.000       2.000       0.000      0.1000E-19   0.000    
    9311   9.311      0.1000E-02 FIXED          0  -0.0%   0.000       0.000       2.000       2.000       0.000      0.1000E-19   0.000    
    9312   9.312      0.1000E-02 FIXED          0  -0.0%   0.000       0.000       2.000       2.000       0.000      0.1000E-19   0.000    
    9313   9.313      0.1000E-02 FIXED          0  -0.0%   0.000       0.000       2.000       2.000       0.000      0.1000E-19   0.000    
    9314   9.314      0.1000E-02 FIXED          0   0.0%   0.000       0.000       2.000       2.000       0.000      0.1000E-19   0.000    
    9315   9.315      0.1000E-02 FIXED          0   0.0%   0.000       0.000       2.000       2.000       0.000      0.1000E-19   0.000    
    9316   9.316      0.1000E-02 FIXED          0  -0.0%   0.000       0.000       2.000       2.000       0.000      0.1000E-19   0.000    
    9317   9.317      0.1000E-02 FIXED          0   0.0%   0.000       0.000       2.000       2.000       0.000      0.1000E-19   0.000    
    9318   9.318      0.1000E-02 FIXED          0  -0.0%   0.000       0.000       2.000       2.000       0.000      0.1000E-19   0.000    
    9319   9.319      0.1000E-02 FIXED          0   0.0%   0.000       0.000       2.000       2.000       0.000      0.1000E-19   0.000    
    9320   9.320      0.1000E-02 FIXED          0  -0.0%   0.000       0.000       2.000       2.000       0.000      0.1000E-19   0.000    
    9321   9.321      0.1000E-02 FIXED          0  -0.0%   0.000       0.000       2.000       2.000       0.000      0.1000E-19   0.000    
    9322   9.322      0.1000E-02 FIXED          0   0.0%   0.000       0.000       2.000       2.000       0.000      0.1000E-19   0.000    
    9323   9.323      0.1000E-02 FIXED          0   0.0%   0.000       0.000       2.000       2.000       0.000      0.1000E-19   0.000    
    9324   9.324      0.1000E-02 FIXED          0   0.0%   0.000       0.000       2.000       2.000       0.000      0.1000E-19   0.000    
    9325   9.325      0.1000E-02 FIXED          0  -0.0%   0.000       0.000       2.000       2.000       0.000      0.1000E-19   0.000    
    9326   9.326      0.1000E-02 FIXED          0  -0.0%   0.000       0.000       2.000       2.000       0.000      0.1000E-19   0.000    
    9327   9.327      0.1000E-02 FIXED          0   0.0%   0.000       0.000       2.000       2.000       0.000      0.1000E-19   0.000    
    9328   9.328      0.1000E-02 FIXED          0   0.0%   0.000       0.000       2.000       2.000       0.000      0.1000E-19   0.000    
    9329   9.329      0.1000E-02 FIXED          0   0.0%   0.000       0.000       2.000       2.000       0.000      0.1000E-19   0.000    
    9330   9.330      0.1000E-02 FIXED          0  -0.0%   0.000       0.000       2.000       2.000       0.000      0.1000E-19   0.000    
    9331   9.331      0.1000E-02 FIXED          0  -0.0%   0.000       0.000       2.000       2.000       0.000      0.1000E-19   0.000    
    9332   9.332      0.1000E-02 FIXED          0   0.0%   0.000       0.000       2.000       2.000       0.000      0.1000E-19   0.000    
    9333   9.333      0.1000E-02 FIXED          0   0.0%   0.000       0.000       2.000       2.000       0.000      0.1000E-19   0.000    
    9334   9.334      0.1000E-02 FIXED          0  -0.0%   0.000       0.000       2.000       2.000       0.000      0.1000E-19   0.000    
    9335   9.335      0.1000E-02 FIXED          0   0.0%   0.000       0.000       2.000       2.000       0.000      0.1000E-19   0.000    
    9336   9.336      0.1000E-02 FIXED          0  -0.0%   0.000       0.000       2.000       2.000       0.000      0.1000E-19   0.000    
    9337   9.337      0.1000E-02 FIXED          0  -0.0%   0.000       0.000       2.000       2.000       0.000      0.1000E-19   0.000    
    9338   9.338      0.1000E-02 FIXED          0  -0.0%   0.000       0.000       2.000       2.000       0.000      0.1000E-19   0.000    
    9339   9.339      0.1000E-02 FIXED          0  -0.0%   0.000       0.000       2.000       2.000       0.000      0.1000E-19   0.000    
    9340   9.340      0.1000E-02 FIXED          0   0.0%   0.000       0.000       2.000       2.000       0.000      0.1000E-19   0.000    
    9341   9.341      0.1000E-02 FIXED          0   0.0%   0.000       0.000       2.000       2.000       0.000      0.1000E-19   0.000    
    9342   9.342      0.1000E-02 FIXED          0   0.0%   0.000       0.000       2.000       2.000       0.000      0.1000E-19   0.000    
    9343   9.343      0.1000E-02 FIXED          0  -0.0%   0.000       0.000       2.000       2.000       0.000      0.1000E-19   0.000    
    9344   9.344      0.1000E-02 FIXED          0   0.0%   0.000       0.000       2.000       2.000       0.000      0.1000E-19   0.000    
    9345   9.345      0.1000E-02 FIXED          0   0.0%   0.000       0.000       2.000       2.000       0.000      0.1000E-19   0.000    
    9346   9.346      0.1000E-02 FIXED          0   0.0%   0.000       0.000       2.000       2.000       0.000      0.1000E-19   0.000    
    9347   9.347      0.1000E-02 FIXED          0   0.0%   0.000       0.000       2.000       2.000       0.000      0.1000E-19   0.000    
    9348   9.348      0.1000E-02 FIXED          0  -0.0%   0.000       0.000       2.000       2.000       0.000      0.1000E-19   0.000    
    9349   9.349      0.1000E-02 FIXED          0   0.0%   0.000       0.000       2.000       2.000       0.000      0.1000E-19   0.000    
   CYCLE    TIME      TIME-STEP  ELEMENT          ERROR  I-ENERGY    K-ENERGY T  K-ENERGY R  EXT-WORK     MAS.ERR     TOTAL MASS  MASS ADDED
    9350   9.350      0.1000E-02 FIXED          0   0.0%   0.000       0.000       2.000       2.000       0.000      0.1000E-19   0.000    
    9351   9.351      0.1000E-02 FIXED          0   0.0%   0.000       0.000       2.000       2.000       0.000      0.1000E-19   0.000    
    9352   9.352      0.1000E-02 FIXED          0   0.0%   0.000       0.000       2.000       2.000       0.000      0.1000E-19   0.000    
    9353   9.353      0.1000E-02 FIXED          0  -0.0%   0.000       0.000       2.000       2.000       0.000      0.1000E-19   0.000    
    9354   9.354      0.1000E-02 FIXED          0  -0.0%   0.000       0.000       2.000       2.000       0.000      0.1000E-19   0.000    
    9355   9.355      0.1000E-02 FIXED          0  -0.0%   0.000       0.000       2.000       2.000       0.000      0.1000E-19   0.000    
    9356   9.356      0.1000E-02 FIXED          0   0.0%   0.000       0.000       2.000       2.000       0.000      0.1000E-19   0.000    
    9357   9.357      0.1000E-02 FIXED          0  -0.0%   0.000       0.000       2.000       2.000       0.000      0.1000E-19   0.000    
    9358   9.358      0.1000E-02 FIXED          0   0.0%   0.000       0.000       2.000       2.000       0.000      0.1000E-19   0.000    
    9359   9.359      0.1000E-02 FIXED          0   0.0%   0.000       0.000       2.000       2.000       0.000      0.1000E-19   0.000    
    9360   9.360      0.1000E-02 FIXED          0  -0.0%   0.000       0.000       2.000       2.000       0.000      0.1000E-19   0.000    
    9361   9.361      0.1000E-02 FIXED          0  -0.0%   0.000       0.000       2.000       2.000       0.000      0.1000E-19   0.000    
    9362   9.362      0.1000E-02 FIXED          0   0.0%   0.000       0.000       2.000       2.000       0.000      0.1000E-19   0.000    
    9363   9.363      0.1000E-02 FIXED          0  -0.0%   0.000       0.000       2.000       2.000       0.000      0.1000E-19   0.000    
    9364   9.364      0.1000E-02 FIXED          0  -0.0%   0.000       0.000       2.000       2.000       0.000      0.1000E-19   0.000    
    9365   9.365      0.1000E-02 FIXED          0  -0.0%   0.000       0.000       2.000       2.000       0.000      0.1000E-19   0.000    
    9366   9.366      0.1000E-02 FIXED          0  -0.0%   0.000       0.000       2.000       2.000       0.000      0.1000E-19   0.000    
    9367   9.367      0.1000E-02 FIXED          0   0.0%   0.000       0.000       2.000       2.000       0.000      0.1000E-19   0.000    
    9368   9.368      0.1000E-02 FIXED          0   0.0%   0.000       0.000       2.000       2.000       0.000      0.1000E-19   0.000    
    9369   9.369      0.1000E-02 FIXED          0   0.0%   0.000       0.000       2.000       2.000       0.000      0.1000E-19   0.000    
    9370   9.370      0.1000E-02 FIXED          0  -0.0%   0.000       0.000       2.000       2.000       0.000      0.1000E-19   0.000    
    9371   9.371      0.1000E-02 FIXED          0   0.0%   0.000       0.000       2.000       2.000       0.000      0.1000E-19   0.000    
    9372   9.372      0.1000E-02 FIXED          0   0.0%   0.000       0.000       2.000       2.000       0.000      0.1000E-19   0.000    
    9373   9.373      0.1000E-02 FIXED          0   0.0%   0.000       0.000       2.000       2.000       0.000      0.1000E-19   0.000    
    9374   9.374      0.1000E-02 FIXED          0   0.0%   0.000       0.000       2.000       2.000       0.000      0.1000E-19   0.000    
    9375   9.375      0.1000E-02 FIXED          0   0.0%   0.000       0.000       2.000       2.000       0.000      0.1000E-19   0.000    
    9376   9.376      0.1000E-02 FIXED          0   0.0%   0.000       0.000       2.000       2.000       0.000      0.1000E-19   0.000    
    9377   9.377      0.1000E-02 FIXED          0  -0.0%   0.000       0.000       2.000       2.000       0.000      0.1000E-19   0.000    
    9378   9.378      0.1000E-02 FIXED          0  -0.0%   0.000       0.000       2.000       2.000       0.000      0.1000E-19   0.000    
    9379   9.379      0.1000E-02 FIXED          0   0.0%   0.000       0.000       2.000       2.000       0.000      0.1000E-19   0.000    
    9380   9.380      0.1000E-02 FIXED          0  -0.0%   0.000       0.000       2.000       2.000       0.000      0.1000E-19   0.000    
    9381   9.381      0.1000E-02 FIXED          0   0.0%   0.000       0.000       2.000       2.000       0.000      0.1000E-19   0.000    
    9382   9.382      0.1000E-02 FIXED          0  -0.0%   0.000       0.000       2.000       2.000       0.000      0.1000E-19   0.000    
    9383   9.383      0.1000E-02 FIXED          0   0.0%   0.000       0.000       2.000       2.000       0.000      0.1000E-19   0.000    
    9384   9.384      0.1000E-02 FIXED          0   0.0%   0.000       0.000       2.000       2.000       0.000      0.1000E-19   0.000    
    9385   9.385      0.1000E-02 FIXED          0   0.0%   0.000       0.000       2.000       2.000       0.000      0.1000E-19   0.000    
    9386   9.386      0.1000E-02 FIXED          0  -0.0%   0.000       0.000       2.000       2.000       0.000      0.1000E-19   0.000    
    9387   9.387      0.1000E-02 FIXED          0   0.0%   0.000       0.000       2.000       2.000       0.000      0.1000E-19   0.000    
    9388   9.388      0.1000E-02 FIXED          0   0.0%   0.000       0.000       2.000       2.000       0.000      0.1000E-19   0.000    
    9389   9.389      0.1000E-02 FIXED          0  -0.0%   0.000       0.000       2.000       2.000       0.000      0.1000E-19   0.000    
    9390   9.390      0.1000E-02 FIXED          0   0.0%   0.000       0.000       2.000       2.000       0.000      0.1000E-19   0.000    
    9391   9.391      0.1000E-02 FIXED          0   0.0%   0.000       0.000       2.000       2.000       0.000      0.1000E-19   0.000    
    9392   9.392      0.1000E-02 FIXED          0   0.0%   0.000       0.000       2.000       2.000       0.000      0.1000E-19   0.000    
    9393   9.393      0.1000E-02 FIXED          0  -0.0%   0.000       0.000       2.000       2.000       0.000      0.1000E-19   0.000    
    9394   9.394      0.1000E-02 FIXED          0   0.0%   0.000       0.000       2.000       2.000       0.000      0.1000E-19   0.000    
    9395   9.395      0.1000E-02 FIXED          0   0.0%   0.000       0.000       2.000       2.000       0.000      0.1000E-19   0.000    
    9396   9.396      0.1000E-02 FIXED          0  -0.0%   0.000       0.000       2.000       2.000       0.000      0.1000E-19   0.000    
    9397   9.397      0.1000E-02 FIXED          0   0.0%   0.000       0.000       2.000       2.000       0.000      0.1000E-19   0.000    
    9398   9.398      0.1000E-02 FIXED          0   0.0%   0.000       0.000       2.000       2.000       0.000      0.1000E-19   0.000    
    9399   9.399      0.1000E-02 FIXED          0  -0.0%   0.000       0.000       2.000       2.000       0.000      0.1000E-19   0.000    
    9400   9.400      0.1000E-02 FIXED          0   0.0%   0.000       0.000       2.000       2.000       0.000      0.1000E-19   0.000    
    9401   9.401      0.1000E-02 FIXED          0   0.0%   0.000       0.000       2.000       2.000       0.000      0.1000E-19   0.000    
    9402   9.402      0.1000E-02 FIXED          0   0.0%   0.000       0.000       2.000       2.000       0.000      0.1000E-19   0.000    
    9403   9.403      0.1000E-02 FIXED          0  -0.0%   0.000       0.000       2.000       2.000       0.000      0.1000E-19   0.000    
    9404   9.404      0.1000E-02 FIXED          0  -0.0%   0.000       0.000       2.000       2.000       0.000      0.1000E-19   0.000    
   CYCLE    TIME      TIME-STEP  ELEMENT          ERROR  I-ENERGY    K-ENERGY T  K-ENERGY R  EXT-WORK     MAS.ERR     TOTAL MASS  MASS ADDED
    9405   9.405      0.1000E-02 FIXED          0   0.0%   0.000       0.000       2.000       2.000       0.000      0.1000E-19   0.000    
    9406   9.406      0.1000E-02 FIXED          0   0.0%   0.000       0.000       2.000       2.000       0.000      0.1000E-19   0.000    
    9407   9.407      0.1000E-02 FIXED          0   0.0%   0.000       0.000       2.000       2.000       0.000      0.1000E-19   0.000    
    9408   9.408      0.1000E-02 FIXED          0  -0.0%   0.000       0.000       2.000       2.000       0.000      0.1000E-19   0.000    
    9409   9.409      0.1000E-02 FIXED          0   0.0%   0.000       0.000       2.000       2.000       0.000      0.1000E-19   0.000    
    9410   9.410      0.1000E-02 FIXED          0   0.0%   0.000       0.000       2.000       2.000       0.000      0.1000E-19   0.000    
    9411   9.411      0.1000E-02 FIXED          0  -0.0%   0.000       0.000       2.000       2.000       0.000      0.1000E-19   0.000    
    9412   9.412      0.1000E-02 FIXED          0   0.0%   0.000       0.000       2.000       2.000       0.000      0.1000E-19   0.000    
    9413   9.413      0.1000E-02 FIXED          0   0.0%   0.000       0.000       2.000       2.000       0.000      0.1000E-19   0.000    
    9414   9.414      0.1000E-02 FIXED          0  -0.0%   0.000       0.000       2.000       2.000       0.000      0.1000E-19   0.000    
    9415   9.415      0.1000E-02 FIXED          0   0.0%   0.000       0.000       2.000       2.000       0.000      0.1000E-19   0.000    
    9416   9.416      0.1000E-02 FIXED          0   0.0%   0.000       0.000       2.000       2.000       0.000      0.1000E-19   0.000    
    9417   9.417      0.1000E-02 FIXED          0   0.0%   0.000       0.000       2.000       2.000       0.000      0.1000E-19   0.000    
    9418   9.418      0.1000E-02 FIXED          0  -0.0%   0.000       0.000       2.000       2.000       0.000      0.1000E-19   0.000    
    9419   9.419      0.1000E-02 FIXED          0  -0.0%   0.000       0.000       2.000       2.000       0.000      0.1000E-19   0.000    
    9420   9.420      0.1000E-02 FIXED          0   0.0%   0.000       0.000       2.000       2.000       0.000      0.1000E-19   0.000    
    9421   9.421      0.1000E-02 FIXED          0   0.0%   0.000       0.000       2.000       2.000       0.000      0.1000E-19   0.000    
    9422   9.422      0.1000E-02 FIXED          0  -0.0%   0.000       0.000       2.000       2.000       0.000      0.1000E-19   0.000    
    9423   9.423      0.1000E-02 FIXED          0  -0.0%   0.000       0.000       2.000       2.000       0.000      0.1000E-19   0.000    
    9424   9.424      0.1000E-02 FIXED          0  -0.0%   0.000       0.000       2.000       2.000       0.000      0.1000E-19   0.000    
    9425   9.425      0.1000E-02 FIXED          0   0.0%   0.000       0.000       2.000       2.000       0.000      0.1000E-19   0.000    
    9426   9.426      0.1000E-02 FIXED          0   0.0%   0.000       0.000       2.000       2.000       0.000      0.1000E-19   0.000    
    9427   9.427      0.1000E-02 FIXED          0   0.0%   0.000       0.000       2.000       2.000       0.000      0.1000E-19   0.000    
    9428   9.428      0.1000E-02 FIXED          0   0.0%   0.000       0.000       2.000       2.000       0.000      0.1000E-19   0.000    
    9429   9.429      0.1000E-02 FIXED          0  -0.0%   0.000       0.000       2.000       2.000       0.000      0.1000E-19   0.000    
    9430   9.430      0.1000E-02 FIXED          0   0.0%   0.000       0.000       2.000       2.000       0.000      0.1000E-19   0.000    
    9431   9.431      0.1000E-02 FIXED          0   0.0%   0.000       0.000       2.000       2.000       0.000      0.1000E-19   0.000    
    9432   9.432      0.1000E-02 FIXED          0  -0.0%   0.000       0.000       2.000       2.000       0.000      0.1000E-19   0.000    
    9433   9.433      0.1000E-02 FIXED          0   0.0%   0.000       0.000       2.000       2.000       0.000      0.1000E-19   0.000    
    9434   9.434      0.1000E-02 FIXED          0   0.0%   0.000       0.000       2.000       2.000       0.000      0.1000E-19   0.000    
    9435   9.435      0.1000E-02 FIXED          0  -0.0%   0.000       0.000       2.000       2.000       0.000      0.1000E-19   0.000    
    9436   9.436      0.1000E-02 FIXED          0   0.0%   0.000       0.000       2.000       2.000       0.000      0.1000E-19   0.000    
    9437   9.437      0.1000E-02 FIXED          0  -0.0%   0.000       0.000       2.000       2.000       0.000      0.1000E-19   0.000    
    9438   9.438      0.1000E-02 FIXED          0   0.0%   0.000       0.000       2.000       2.000       0.000      0.1000E-19   0.000    
    9439   9.439      0.1000E-02 FIXED          0  -0.0%   0.000       0.000       2.000       2.000       0.000      0.1000E-19   0.000    
    9440   9.440      0.1000E-02 FIXED          0   0.0%   0.000       0.000       2.000       2.000       0.000      0.1000E-19   0.000    
    9441   9.441      0.1000E-02 FIXED          0   0.0%   0.000       0.000       2.000       2.000       0.000      0.1000E-19   0.000    
    9442   9.442      0.1000E-02 FIXED          0   0.0%   0.000       0.000       2.000       2.000       0.000      0.1000E-19   0.000    
    9443   9.443      0.1000E-02 FIXED          0  -0.0%   0.000       0.000       2.000       2.000       0.000      0.1000E-19   0.000    
    9444   9.444      0.1000E-02 FIXED          0   0.0%   0.000       0.000       2.000       2.000       0.000      0.1000E-19   0.000    
    9445   9.445      0.1000E-02 FIXED          0  -0.0%   0.000       0.000       2.000       2.000       0.000      0.1000E-19   0.000    
    9446   9.446      0.1000E-02 FIXED          0   0.0%   0.000       0.000       2.000       2.000       0.000      0.1000E-19   0.000    
    9447   9.447      0.1000E-02 FIXED          0  -0.0%   0.000       0.000       2.000       2.000       0.000      0.1000E-19   0.000    
    9448   9.448      0.1000E-02 FIXED          0  -0.0%   0.000       0.000       2.000       2.000       0.000      0.1000E-19   0.000    
    9449   9.449      0.1000E-02 FIXED          0   0.0%   0.000       0.000       2.000       2.000       0.000      0.1000E-19   0.000    
    9450   9.450      0.1000E-02 FIXED          0  -0.0%   0.000       0.000       2.000       2.000       0.000      0.1000E-19   0.000    
    9451   9.451      0.1000E-02 FIXED          0  -0.0%   0.000       0.000       2.000       2.000       0.000      0.1000E-19   0.000    
    9452   9.452      0.1000E-02 FIXED          0   0.0%   0.000       0.000       2.000       2.000       0.000      0.1000E-19   0.000    
    9453   9.453      0.1000E-02 FIXED          0   0.0%   0.000       0.000       2.000       2.000       0.000      0.1000E-19   0.000    
    9454   9.454      0.1000E-02 FIXED          0   0.0%   0.000       0.000       2.000       2.000       0.000      0.1000E-19   0.000    
    9455   9.455      0.1000E-02 FIXED          0  -0.0%   0.000       0.000       2.000       2.000       0.000      0.1000E-19   0.000    
    9456   9.456      0.1000E-02 FIXED          0   0.0%   0.000       0.000       2.000       2.000       0.000      0.1000E-19   0.000    
    9457   9.457      0.1000E-02 FIXED          0   0.0%   0.000       0.000       2.000       2.000       0.000      0.1000E-19   0.000    
    9458   9.458      0.1000E-02 FIXED          0  -0.0%   0.000       0.000       2.000       2.000       0.000      0.1000E-19   0.000    
    9459   9.459      0.1000E-02 FIXED          0   0.0%   0.000       0.000       2.000       2.000       0.000      0.1000E-19   0.000    
   CYCLE    TIME      TIME-STEP  ELEMENT          ERROR  I-ENERGY    K-ENERGY T  K-ENERGY R  EXT-WORK     MAS.ERR     TOTAL MASS  MASS ADDED
    9460   9.460      0.1000E-02 FIXED          0  -0.0%   0.000       0.000       2.000       2.000       0.000      0.1000E-19   0.000    
    9461   9.461      0.1000E-02 FIXED          0  -0.0%   0.000       0.000       2.000       2.000       0.000      0.1000E-19   0.000    
    9462   9.462      0.1000E-02 FIXED          0  -0.0%   0.000       0.000       2.000       2.000       0.000      0.1000E-19   0.000    
    9463   9.463      0.1000E-02 FIXED          0  -0.0%   0.000       0.000       2.000       2.000       0.000      0.1000E-19   0.000    
    9464   9.464      0.1000E-02 FIXED          0   0.0%   0.000       0.000       2.000       2.000       0.000      0.1000E-19   0.000    
    9465   9.465      0.1000E-02 FIXED          0   0.0%   0.000       0.000       2.000       2.000       0.000      0.1000E-19   0.000    
    9466   9.466      0.1000E-02 FIXED          0  -0.0%   0.000       0.000       2.000       2.000       0.000      0.1000E-19   0.000    
    9467   9.467      0.1000E-02 FIXED          0   0.0%   0.000       0.000       2.000       2.000       0.000      0.1000E-19   0.000    
    9468   9.468      0.1000E-02 FIXED          0  -0.0%   0.000       0.000       2.000       2.000       0.000      0.1000E-19   0.000    
    9469   9.469      0.1000E-02 FIXED          0   0.0%   0.000       0.000       2.000       2.000       0.000      0.1000E-19   0.000    
    9470   9.470      0.1000E-02 FIXED          0   0.0%   0.000       0.000       2.000       2.000       0.000      0.1000E-19   0.000    
    9471   9.471      0.1000E-02 FIXED          0  -0.0%   0.000       0.000       2.000       2.000       0.000      0.1000E-19   0.000    
    9472   9.472      0.1000E-02 FIXED          0  -0.0%   0.000       0.000       2.000       2.000       0.000      0.1000E-19   0.000    
    9473   9.473      0.1000E-02 FIXED          0  -0.0%   0.000       0.000       2.000       2.000       0.000      0.1000E-19   0.000    
    9474   9.474      0.1000E-02 FIXED          0   0.0%   0.000       0.000       2.000       2.000       0.000      0.1000E-19   0.000    
    9475   9.475      0.1000E-02 FIXED          0  -0.0%   0.000       0.000       2.000       2.000       0.000      0.1000E-19   0.000    
    9476   9.476      0.1000E-02 FIXED          0  -0.0%   0.000       0.000       2.000       2.000       0.000      0.1000E-19   0.000    
    9477   9.477      0.1000E-02 FIXED          0   0.0%   0.000       0.000       2.000       2.000       0.000      0.1000E-19   0.000    
    9478   9.478      0.1000E-02 FIXED          0  -0.0%   0.000       0.000       2.000       2.000       0.000      0.1000E-19   0.000    
    9479   9.479      0.1000E-02 FIXED          0   0.0%   0.000       0.000       2.000       2.000       0.000      0.1000E-19   0.000    
    9480   9.480      0.1000E-02 FIXED          0  -0.0%   0.000       0.000       2.000       2.000       0.000      0.1000E-19   0.000    
    9481   9.481      0.1000E-02 FIXED          0   0.0%   0.000       0.000       2.000       2.000       0.000      0.1000E-19   0.000    
    9482   9.482      0.1000E-02 FIXED          0   0.0%   0.000       0.000       2.000       2.000       0.000      0.1000E-19   0.000    
    9483   9.483      0.1000E-02 FIXED          0  -0.0%   0.000       0.000       2.000       2.000       0.000      0.1000E-19   0.000    
    9484   9.484      0.1000E-02 FIXED          0   0.0%   0.000       0.000       2.000       2.000       0.000      0.1000E-19   0.000    
    9485   9.485      0.1000E-02 FIXED          0   0.0%   0.000       0.000       2.000       2.000       0.000      0.1000E-19   0.000    
    9486   9.486      0.1000E-02 FIXED          0   0.0%   0.000       0.000       2.000       2.000       0.000      0.1000E-19   0.000    
    9487   9.487      0.1000E-02 FIXED          0  -0.0%   0.000       0.000       2.000       2.000       0.000      0.1000E-19   0.000    
    9488   9.488      0.1000E-02 FIXED          0  -0.0%   0.000       0.000       2.000       2.000       0.000      0.1000E-19   0.000    
    9489   9.489      0.1000E-02 FIXED          0   0.0%   0.000       0.000       2.000       2.000       0.000      0.1000E-19   0.000    
    9490   9.490      0.1000E-02 FIXED          0  -0.0%   0.000       0.000       2.000       2.000       0.000      0.1000E-19   0.000    
    9491   9.491      0.1000E-02 FIXED          0  -0.0%   0.000       0.000       2.000       2.000       0.000      0.1000E-19   0.000    
    9492   9.492      0.1000E-02 FIXED          0   0.0%   0.000       0.000       2.000       2.000       0.000      0.1000E-19   0.000    
    9493   9.493      0.1000E-02 FIXED          0   0.0%   0.000       0.000       2.000       2.000       0.000      0.1000E-19   0.000    
    9494   9.494      0.1000E-02 FIXED          0  -0.0%   0.000       0.000       2.000       2.000       0.000      0.1000E-19   0.000    
    9495   9.495      0.1000E-02 FIXED          0   0.0%   0.000       0.000       2.000       2.000       0.000      0.1000E-19   0.000    
    9496   9.496      0.1000E-02 FIXED          0   0.0%   0.000       0.000       2.000       2.000       0.000      0.1000E-19   0.000    
    9497   9.497      0.1000E-02 FIXED          0   0.0%   0.000       0.000       2.000       2.000       0.000      0.1000E-19   0.000    
    9498   9.498      0.1000E-02 FIXED          0  -0.0%   0.000       0.000       2.000       2.000       0.000      0.1000E-19   0.000    
    9499   9.499      0.1000E-02 FIXED          0   0.0%   0.000       0.000       2.000       2.000       0.000      0.1000E-19   0.000    
    9500   9.500      0.1000E-02 FIXED          0  -0.0%   0.000       0.000       2.000       2.000       0.000      0.1000E-19   0.000    
    9501   9.501      0.1000E-02 FIXED          0   0.0%   0.000       0.000       2.000       2.000       0.000      0.1000E-19   0.000    
    9502   9.502      0.1000E-02 FIXED          0  -0.0%   0.000       0.000       2.000       2.000       0.000      0.1000E-19   0.000    
    9503   9.503      0.1000E-02 FIXED          0   0.0%   0.000       0.000       2.000       2.000       0.000      0.1000E-19   0.000    
    9504   9.504      0.1000E-02 FIXED          0   0.0%   0.000       0.000       2.000       2.000       0.000      0.1000E-19   0.000    
    9505   9.505      0.1000E-02 FIXED          0  -0.0%   0.000       0.000       2.000       2.000       0.000      0.1000E-19   0.000    
    9506   9.506      0.1000E-02 FIXED          0   0.0%   0.000       0.000       2.000       2.000       0.000      0.1000E-19   0.000    
    9507   9.507      0.1000E-02 FIXED          0  -0.0%   0.000       0.000       2.000       2.000       0.000      0.1000E-19   0.000    
    9508   9.508      0.1000E-02 FIXED          0   0.0%   0.000       0.000       2.000       2.000       0.000      0.1000E-19   0.000    
    9509   9.509      0.1000E-02 FIXED          0  -0.0%   0.000       0.000       2.000       2.000       0.000      0.1000E-19   0.000    
    9510   9.510      0.1000E-02 FIXED          0  -0.0%   0.000       0.000       2.000       2.000       0.000      0.1000E-19   0.000    
    9511   9.511      0.1000E-02 FIXED          0   0.0%   0.000       0.000       2.000       2.000       0.000      0.1000E-19   0.000    
    9512   9.512      0.1000E-02 FIXED          0  -0.0%   0.000       0.000       2.000       2.000       0.000      0.1000E-19   0.000    
    9513   9.513      0.1000E-02 FIXED          0   0.0%   0.000       0.000       2.000       2.000       0.000      0.1000E-19   0.000    
    9514   9.514      0.1000E-02 FIXED          0   0.0%   0.000       0.000       2.000       2.000       0.000      0.1000E-19   0.000    
   CYCLE    TIME      TIME-STEP  ELEMENT          ERROR  I-ENERGY    K-ENERGY T  K-ENERGY R  EXT-WORK     MAS.ERR     TOTAL MASS  MASS ADDED
    9515   9.515      0.1000E-02 FIXED          0  -0.0%   0.000       0.000       2.000       2.000       0.000      0.1000E-19   0.000    
    9516   9.516      0.1000E-02 FIXED          0   0.0%   0.000       0.000       2.000       2.000       0.000      0.1000E-19   0.000    
    9517   9.517      0.1000E-02 FIXED          0  -0.0%   0.000       0.000       2.000       2.000       0.000      0.1000E-19   0.000    
    9518   9.518      0.1000E-02 FIXED          0   0.0%   0.000       0.000       2.000       2.000       0.000      0.1000E-19   0.000    
    9519   9.519      0.1000E-02 FIXED          0  -0.0%   0.000       0.000       2.000       2.000       0.000      0.1000E-19   0.000    
    9520   9.520      0.1000E-02 FIXED          0   0.0%   0.000       0.000       2.000       2.000       0.000      0.1000E-19   0.000    
    9521   9.521      0.1000E-02 FIXED          0  -0.0%   0.000       0.000       2.000       2.000       0.000      0.1000E-19   0.000    
    9522   9.522      0.1000E-02 FIXED          0   0.0%   0.000       0.000       2.000       2.000       0.000      0.1000E-19   0.000    
    9523   9.523      0.1000E-02 FIXED          0   0.0%   0.000       0.000       2.000       2.000       0.000      0.1000E-19   0.000    
    9524   9.524      0.1000E-02 FIXED          0   0.0%   0.000       0.000       2.000       2.000       0.000      0.1000E-19   0.000    
    9525   9.525      0.1000E-02 FIXED          0  -0.0%   0.000       0.000       2.000       2.000       0.000      0.1000E-19   0.000    
    9526   9.526      0.1000E-02 FIXED          0  -0.0%   0.000       0.000       2.000       2.000       0.000      0.1000E-19   0.000    
    9527   9.527      0.1000E-02 FIXED          0  -0.0%   0.000       0.000       2.000       2.000       0.000      0.1000E-19   0.000    
    9528   9.528      0.1000E-02 FIXED          0   0.0%   0.000       0.000       2.000       2.000       0.000      0.1000E-19   0.000    
    9529   9.529      0.1000E-02 FIXED          0   0.0%   0.000       0.000       2.000       2.000       0.000      0.1000E-19   0.000    
    9530   9.530      0.1000E-02 FIXED          0  -0.0%   0.000       0.000       2.000       2.000       0.000      0.1000E-19   0.000    
    9531   9.531      0.1000E-02 FIXED          0  -0.0%   0.000       0.000       2.000       2.000       0.000      0.1000E-19   0.000    
    9532   9.532      0.1000E-02 FIXED          0   0.0%   0.000       0.000       2.000       2.000       0.000      0.1000E-19   0.000    
    9533   9.533      0.1000E-02 FIXED          0   0.0%   0.000       0.000       2.000       2.000       0.000      0.1000E-19   0.000    
    9534   9.534      0.1000E-02 FIXED          0   0.0%   0.000       0.000       2.000       2.000       0.000      0.1000E-19   0.000    
    9535   9.535      0.1000E-02 FIXED          0  -0.0%   0.000       0.000       2.000       2.000       0.000      0.1000E-19   0.000    
    9536   9.536      0.1000E-02 FIXED          0   0.0%   0.000       0.000       2.000       2.000       0.000      0.1000E-19   0.000    
    9537   9.537      0.1000E-02 FIXED          0  -0.0%   0.000       0.000       2.000       2.000       0.000      0.1000E-19   0.000    
    9538   9.538      0.1000E-02 FIXED          0  -0.0%   0.000       0.000       2.000       2.000       0.000      0.1000E-19   0.000    
    9539   9.539      0.1000E-02 FIXED          0  -0.0%   0.000       0.000       2.000       2.000       0.000      0.1000E-19   0.000    
    9540   9.540      0.1000E-02 FIXED          0   0.0%   0.000       0.000       2.000       2.000       0.000      0.1000E-19   0.000    
    9541   9.541      0.1000E-02 FIXED          0  -0.0%   0.000       0.000       2.000       2.000       0.000      0.1000E-19   0.000    
    9542   9.542      0.1000E-02 FIXED          0  -0.0%   0.000       0.000       2.000       2.000       0.000      0.1000E-19   0.000    
    9543   9.543      0.1000E-02 FIXED          0  -0.0%   0.000       0.000       2.000       2.000       0.000      0.1000E-19   0.000    
    9544   9.544      0.1000E-02 FIXED          0   0.0%   0.000       0.000       2.000       2.000       0.000      0.1000E-19   0.000    
    9545   9.545      0.1000E-02 FIXED          0  -0.0%   0.000       0.000       2.000       2.000       0.000      0.1000E-19   0.000    
    9546   9.546      0.1000E-02 FIXED          0   0.0%   0.000       0.000       2.000       2.000       0.000      0.1000E-19   0.000    
    9547   9.547      0.1000E-02 FIXED          0   0.0%   0.000       0.000       2.000       2.000       0.000      0.1000E-19   0.000    
    9548   9.548      0.1000E-02 FIXED          0   0.0%   0.000       0.000       2.000       2.000       0.000      0.1000E-19   0.000    
    9549   9.549      0.1000E-02 FIXED          0   0.0%   0.000       0.000       2.000       2.000       0.000      0.1000E-19   0.000    
    9550   9.550      0.1000E-02 FIXED          0  -0.0%   0.000       0.000       2.000       2.000       0.000      0.1000E-19   0.000    
    9551   9.551      0.1000E-02 FIXED          0   0.0%   0.000       0.000       2.000       2.000       0.000      0.1000E-19   0.000    
    9552   9.552      0.1000E-02 FIXED          0   0.0%   0.000       0.000       2.000       2.000       0.000      0.1000E-19   0.000    
    9553   9.553      0.1000E-02 FIXED          0   0.0%   0.000       0.000       2.000       2.000       0.000      0.1000E-19   0.000    
    9554   9.554      0.1000E-02 FIXED          0   0.0%   0.000       0.000       2.000       2.000       0.000      0.1000E-19   0.000    
    9555   9.555      0.1000E-02 FIXED          0  -0.0%   0.000       0.000       2.000       2.000       0.000      0.1000E-19   0.000    
    9556   9.556      0.1000E-02 FIXED          0   0.0%   0.000       0.000       2.000       2.000       0.000      0.1000E-19   0.000    
    9557   9.557      0.1000E-02 FIXED          0   0.0%   0.000       0.000       2.000       2.000       0.000      0.1000E-19   0.000    
    9558   9.558      0.1000E-02 FIXED          0   0.0%   0.000       0.000       2.000       2.000       0.000      0.1000E-19   0.000    
    9559   9.559      0.1000E-02 FIXED          0  -0.0%   0.000       0.000       2.000       2.000       0.000      0.1000E-19   0.000    
    9560   9.560      0.1000E-02 FIXED          0   0.0%   0.000       0.000       2.000       2.000       0.000      0.1000E-19   0.000    
    9561   9.561      0.1000E-02 FIXED          0   0.0%   0.000       0.000       2.000       2.000       0.000      0.1000E-19   0.000    
    9562   9.562      0.1000E-02 FIXED          0  -0.0%   0.000       0.000       2.000       2.000       0.000      0.1000E-19   0.000    
    9563   9.563      0.1000E-02 FIXED          0   0.0%   0.000       0.000       2.000       2.000       0.000      0.1000E-19   0.000    
    9564   9.564      0.1000E-02 FIXED          0   0.0%   0.000       0.000       2.000       2.000       0.000      0.1000E-19   0.000    
    9565   9.565      0.1000E-02 FIXED          0   0.0%   0.000       0.000       2.000       2.000       0.000      0.1000E-19   0.000    
    9566   9.566      0.1000E-02 FIXED          0  -0.0%   0.000       0.000       2.000       2.000       0.000      0.1000E-19   0.000    
    9567   9.567      0.1000E-02 FIXED          0   0.0%   0.000       0.000       2.000       2.000       0.000      0.1000E-19   0.000    
    9568   9.568      0.1000E-02 FIXED          0  -0.0%   0.000       0.000       2.000       2.000       0.000      0.1000E-19   0.000    
    9569   9.569      0.1000E-02 FIXED          0   0.0%   0.000       0.000       2.000       2.000       0.000      0.1000E-19   0.000    
   CYCLE    TIME      TIME-STEP  ELEMENT          ERROR  I-ENERGY    K-ENERGY T  K-ENERGY R  EXT-WORK     MAS.ERR     TOTAL MASS  MASS ADDED
    9570   9.570      0.1000E-02 FIXED          0  -0.0%   0.000       0.000       2.000       2.000       0.000      0.1000E-19   0.000    
    9571   9.571      0.1000E-02 FIXED          0   0.0%   0.000       0.000       2.000       2.000       0.000      0.1000E-19   0.000    
    9572   9.572      0.1000E-02 FIXED          0   0.0%   0.000       0.000       2.000       2.000       0.000      0.1000E-19   0.000    
    9573   9.573      0.1000E-02 FIXED          0   0.0%   0.000       0.000       2.000       2.000       0.000      0.1000E-19   0.000    
    9574   9.574      0.1000E-02 FIXED          0  -0.0%   0.000       0.000       2.000       2.000       0.000      0.1000E-19   0.000    
    9575   9.575      0.1000E-02 FIXED          0   0.0%   0.000       0.000       2.000       2.000       0.000      0.1000E-19   0.000    
    9576   9.576      0.1000E-02 FIXED          0  -0.0%   0.000       0.000       2.000       2.000       0.000      0.1000E-19   0.000    
    9577   9.577      0.1000E-02 FIXED          0   0.0%   0.000       0.000       2.000       2.000       0.000      0.1000E-19   0.000    
    9578   9.578      0.1000E-02 FIXED          0   0.0%   0.000       0.000       2.000       2.000       0.000      0.1000E-19   0.000    
    9579   9.579      0.1000E-02 FIXED          0   0.0%   0.000       0.000       2.000       2.000       0.000      0.1000E-19   0.000    
    9580   9.580      0.1000E-02 FIXED          0   0.0%   0.000       0.000       2.000       2.000       0.000      0.1000E-19   0.000    
    9581   9.581      0.1000E-02 FIXED          0   0.0%   0.000       0.000       2.000       2.000       0.000      0.1000E-19   0.000    
    9582   9.582      0.1000E-02 FIXED          0   0.0%   0.000       0.000       2.000       2.000       0.000      0.1000E-19   0.000    
    9583   9.583      0.1000E-02 FIXED          0   0.0%   0.000       0.000       2.000       2.000       0.000      0.1000E-19   0.000    
    9584   9.584      0.1000E-02 FIXED          0   0.0%   0.000       0.000       2.000       2.000       0.000      0.1000E-19   0.000    
    9585   9.585      0.1000E-02 FIXED          0  -0.0%   0.000       0.000       2.000       2.000       0.000      0.1000E-19   0.000    
    9586   9.586      0.1000E-02 FIXED          0  -0.0%   0.000       0.000       2.000       2.000       0.000      0.1000E-19   0.000    
    9587   9.587      0.1000E-02 FIXED          0   0.0%   0.000       0.000       2.000       2.000       0.000      0.1000E-19   0.000    
    9588   9.588      0.1000E-02 FIXED          0  -0.0%   0.000       0.000       2.000       2.000       0.000      0.1000E-19   0.000    
    9589   9.589      0.1000E-02 FIXED          0  -0.0%   0.000       0.000       2.000       2.000       0.000      0.1000E-19   0.000    
    9590   9.590      0.1000E-02 FIXED          0   0.0%   0.000       0.000       2.000       2.000       0.000      0.1000E-19   0.000    
    9591   9.591      0.1000E-02 FIXED          0  -0.0%   0.000       0.000       2.000       2.000       0.000      0.1000E-19   0.000    
    9592   9.592      0.1000E-02 FIXED          0   0.0%   0.000       0.000       2.000       2.000       0.000      0.1000E-19   0.000    
    9593   9.593      0.1000E-02 FIXED          0  -0.0%   0.000       0.000       2.000       2.000       0.000      0.1000E-19   0.000    
    9594   9.594      0.1000E-02 FIXED          0  -0.0%   0.000       0.000       2.000       2.000       0.000      0.1000E-19   0.000    
    9595   9.595      0.1000E-02 FIXED          0  -0.0%   0.000       0.000       2.000       2.000       0.000      0.1000E-19   0.000    
    9596   9.596      0.1000E-02 FIXED          0   0.0%   0.000       0.000       2.000       2.000       0.000      0.1000E-19   0.000    
    9597   9.597      0.1000E-02 FIXED          0  -0.0%   0.000       0.000       2.000       2.000       0.000      0.1000E-19   0.000    
    9598   9.598      0.1000E-02 FIXED          0   0.0%   0.000       0.000       2.000       2.000       0.000      0.1000E-19   0.000    
    9599   9.599      0.1000E-02 FIXED          0  -0.0%   0.000       0.000       2.000       2.000       0.000      0.1000E-19   0.000    
    9600   9.600      0.1000E-02 FIXED          0  -0.0%   0.000       0.000       2.000       2.000       0.000      0.1000E-19   0.000    
    9601   9.601      0.1000E-02 FIXED          0   0.0%   0.000       0.000       2.000       2.000       0.000      0.1000E-19   0.000    
    9602   9.602      0.1000E-02 FIXED          0  -0.0%   0.000       0.000       2.000       2.000       0.000      0.1000E-19   0.000    
    9603   9.603      0.1000E-02 FIXED          0  -0.0%   0.000       0.000       2.000       2.000       0.000      0.1000E-19   0.000    
    9604   9.604      0.1000E-02 FIXED          0   0.0%   0.000       0.000       2.000       2.000       0.000      0.1000E-19   0.000    
    9605   9.605      0.1000E-02 FIXED          0  -0.0%   0.000       0.000       2.000       2.000       0.000      0.1000E-19   0.000    
    9606   9.606      0.1000E-02 FIXED          0   0.0%   0.000       0.000       2.000       2.000       0.000      0.1000E-19   0.000    
    9607   9.607      0.1000E-02 FIXED          0  -0.0%   0.000       0.000       2.000       2.000       0.000      0.1000E-19   0.000    
    9608   9.608      0.1000E-02 FIXED          0  -0.0%   0.000       0.000       2.000       2.000       0.000      0.1000E-19   0.000    
    9609   9.609      0.1000E-02 FIXED          0   0.0%   0.000       0.000       2.000       2.000       0.000      0.1000E-19   0.000    
    9610   9.610      0.1000E-02 FIXED          0   0.0%   0.000       0.000       2.000       2.000       0.000      0.1000E-19   0.000    
    9611   9.611      0.1000E-02 FIXED          0   0.0%   0.000       0.000       2.000       2.000       0.000      0.1000E-19   0.000    
    9612   9.612      0.1000E-02 FIXED          0   0.0%   0.000       0.000       2.000       2.000       0.000      0.1000E-19   0.000    
    9613   9.613      0.1000E-02 FIXED          0   0.0%   0.000       0.000       2.000       2.000       0.000      0.1000E-19   0.000    
    9614   9.614      0.1000E-02 FIXED          0   0.0%   0.000       0.000       2.000       2.000       0.000      0.1000E-19   0.000    
    9615   9.615      0.1000E-02 FIXED          0  -0.0%   0.000       0.000       2.000       2.000       0.000      0.1000E-19   0.000    
    9616   9.616      0.1000E-02 FIXED          0  -0.0%   0.000       0.000       2.000       2.000       0.000      0.1000E-19   0.000    
    9617   9.617      0.1000E-02 FIXED          0   0.0%   0.000       0.000       2.000       2.000       0.000      0.1000E-19   0.000    
    9618   9.618      0.1000E-02 FIXED          0   0.0%   0.000       0.000       2.000       2.000       0.000      0.1000E-19   0.000    
    9619   9.619      0.1000E-02 FIXED          0   0.0%   0.000       0.000       2.000       2.000       0.000      0.1000E-19   0.000    
    9620   9.620      0.1000E-02 FIXED          0  -0.0%   0.000       0.000       2.000       2.000       0.000      0.1000E-19   0.000    
    9621   9.621      0.1000E-02 FIXED          0   0.0%   0.000       0.000       2.000       2.000       0.000      0.1000E-19   0.000    
    9622   9.622      0.1000E-02 FIXED          0   0.0%   0.000       0.000       2.000       2.000       0.000      0.1000E-19   0.000    
    9623   9.623      0.1000E-02 FIXED          0   0.0%   0.000       0.000       2.000       2.000       0.000      0.1000E-19   0.000    
    9624   9.624      0.1000E-02 FIXED          0   0.0%   0.000       0.000       2.000       2.000       0.000      0.1000E-19   0.000    
   CYCLE    TIME      TIME-STEP  ELEMENT          ERROR  I-ENERGY    K-ENERGY T  K-ENERGY R  EXT-WORK     MAS.ERR     TOTAL MASS  MASS ADDED
    9625   9.625      0.1000E-02 FIXED          0   0.0%   0.000       0.000       2.000       2.000       0.000      0.1000E-19   0.000    
    9626   9.626      0.1000E-02 FIXED          0   0.0%   0.000       0.000       2.000       2.000       0.000      0.1000E-19   0.000    
    9627   9.627      0.1000E-02 FIXED          0   0.0%   0.000       0.000       2.000       2.000       0.000      0.1000E-19   0.000    
    9628   9.628      0.1000E-02 FIXED          0  -0.0%   0.000       0.000       2.000       2.000       0.000      0.1000E-19   0.000    
    9629   9.629      0.1000E-02 FIXED          0   0.0%   0.000       0.000       2.000       2.000       0.000      0.1000E-19   0.000    
    9630   9.630      0.1000E-02 FIXED          0   0.0%   0.000       0.000       2.000       2.000       0.000      0.1000E-19   0.000    
    9631   9.631      0.1000E-02 FIXED          0  -0.0%   0.000       0.000       2.000       2.000       0.000      0.1000E-19   0.000    
    9632   9.632      0.1000E-02 FIXED          0   0.0%   0.000       0.000       2.000       2.000       0.000      0.1000E-19   0.000    
    9633   9.633      0.1000E-02 FIXED          0   0.0%   0.000       0.000       2.000       2.000       0.000      0.1000E-19   0.000    
    9634   9.634      0.1000E-02 FIXED          0  -0.0%   0.000       0.000       2.000       2.000       0.000      0.1000E-19   0.000    
    9635   9.635      0.1000E-02 FIXED          0   0.0%   0.000       0.000       2.000       2.000       0.000      0.1000E-19   0.000    
    9636   9.636      0.1000E-02 FIXED          0   0.0%   0.000       0.000       2.000       2.000       0.000      0.1000E-19   0.000    
    9637   9.637      0.1000E-02 FIXED          0  -0.0%   0.000       0.000       2.000       2.000       0.000      0.1000E-19   0.000    
    9638   9.638      0.1000E-02 FIXED          0   0.0%   0.000       0.000       2.000       2.000       0.000      0.1000E-19   0.000    
    9639   9.639      0.1000E-02 FIXED          0  -0.0%   0.000       0.000       2.000       2.000       0.000      0.1000E-19   0.000    
    9640   9.640      0.1000E-02 FIXED          0   0.0%   0.000       0.000       2.000       2.000       0.000      0.1000E-19   0.000    
    9641   9.641      0.1000E-02 FIXED          0  -0.0%   0.000       0.000       2.000       2.000       0.000      0.1000E-19   0.000    
    9642   9.642      0.1000E-02 FIXED          0   0.0%   0.000       0.000       2.000       2.000       0.000      0.1000E-19   0.000    
    9643   9.643      0.1000E-02 FIXED          0   0.0%   0.000       0.000       2.000       2.000       0.000      0.1000E-19   0.000    
    9644   9.644      0.1000E-02 FIXED          0   0.0%   0.000       0.000       2.000       2.000       0.000      0.1000E-19   0.000    
    9645   9.645      0.1000E-02 FIXED          0  -0.0%   0.000       0.000       2.000       2.000       0.000      0.1000E-19   0.000    
    9646   9.646      0.1000E-02 FIXED          0   0.0%   0.000       0.000       2.000       2.000       0.000      0.1000E-19   0.000    
    9647   9.647      0.1000E-02 FIXED          0  -0.0%   0.000       0.000       2.000       2.000       0.000      0.1000E-19   0.000    
    9648   9.648      0.1000E-02 FIXED          0   0.0%   0.000       0.000       2.000       2.000       0.000      0.1000E-19   0.000    
    9649   9.649      0.1000E-02 FIXED          0   0.0%   0.000       0.000       2.000       2.000       0.000      0.1000E-19   0.000    
    9650   9.650      0.1000E-02 FIXED          0  -0.0%   0.000       0.000       2.000       2.000       0.000      0.1000E-19   0.000    
    9651   9.651      0.1000E-02 FIXED          0   0.0%   0.000       0.000       2.000       2.000       0.000      0.1000E-19   0.000    
    9652   9.652      0.1000E-02 FIXED          0  -0.0%   0.000       0.000       2.000       2.000       0.000      0.1000E-19   0.000    
    9653   9.653      0.1000E-02 FIXED          0   0.0%   0.000       0.000       2.000       2.000       0.000      0.1000E-19   0.000    
    9654   9.654      0.1000E-02 FIXED          0  -0.0%   0.000       0.000       2.000       2.000       0.000      0.1000E-19   0.000    
    9655   9.655      0.1000E-02 FIXED          0   0.0%   0.000       0.000       2.000       2.000       0.000      0.1000E-19   0.000    
    9656   9.656      0.1000E-02 FIXED          0   0.0%   0.000       0.000       2.000       2.000       0.000      0.1000E-19   0.000    
    9657   9.657      0.1000E-02 FIXED          0  -0.0%   0.000       0.000       2.000       2.000       0.000      0.1000E-19   0.000    
    9658   9.658      0.1000E-02 FIXED          0  -0.0%   0.000       0.000       2.000       2.000       0.000      0.1000E-19   0.000    
    9659   9.659      0.1000E-02 FIXED          0   0.0%   0.000       0.000       2.000       2.000       0.000      0.1000E-19   0.000    
    9660   9.660      0.1000E-02 FIXED          0  -0.0%   0.000       0.000       2.000       2.000       0.000      0.1000E-19   0.000    
    9661   9.661      0.1000E-02 FIXED          0   0.0%   0.000       0.000       2.000       2.000       0.000      0.1000E-19   0.000    
    9662   9.662      0.1000E-02 FIXED          0  -0.0%   0.000       0.000       2.000       2.000       0.000      0.1000E-19   0.000    
    9663   9.663      0.1000E-02 FIXED          0   0.0%   0.000       0.000       2.000       2.000       0.000      0.1000E-19   0.000    
    9664   9.664      0.1000E-02 FIXED          0  -0.0%   0.000       0.000       2.000       2.000       0.000      0.1000E-19   0.000    
    9665   9.665      0.1000E-02 FIXED          0   0.0%   0.000       0.000       2.000       2.000       0.000      0.1000E-19   0.000    
    9666   9.666      0.1000E-02 FIXED          0   0.0%   0.000       0.000       2.000       2.000       0.000      0.1000E-19   0.000    
    9667   9.667      0.1000E-02 FIXED          0   0.0%   0.000       0.000       2.000       2.000       0.000      0.1000E-19   0.000    
    9668   9.668      0.1000E-02 FIXED          0   0.0%   0.000       0.000       2.000       2.000       0.000      0.1000E-19   0.000    
    9669   9.669      0.1000E-02 FIXED          0  -0.0%   0.000       0.000       2.000       2.000       0.000      0.1000E-19   0.000    
    9670   9.670      0.1000E-02 FIXED          0   0.0%   0.000       0.000       2.000       2.000       0.000      0.1000E-19   0.000    
    9671   9.671      0.1000E-02 FIXED          0  -0.0%   0.000       0.000       2.000       2.000       0.000      0.1000E-19   0.000    
    9672   9.672      0.1000E-02 FIXED          0   0.0%   0.000       0.000       2.000       2.000       0.000      0.1000E-19   0.000    
    9673   9.673      0.1000E-02 FIXED          0   0.0%   0.000       0.000       2.000       2.000       0.000      0.1000E-19   0.000    
    9674   9.674      0.1000E-02 FIXED          0  -0.0%   0.000       0.000       2.000       2.000       0.000      0.1000E-19   0.000    
    9675   9.675      0.1000E-02 FIXED          0   0.0%   0.000       0.000       2.000       2.000       0.000      0.1000E-19   0.000    
    9676   9.676      0.1000E-02 FIXED          0  -0.0%   0.000       0.000       2.000       2.000       0.000      0.1000E-19   0.000    
    9677   9.677      0.1000E-02 FIXED          0   0.0%   0.000       0.000       2.000       2.000       0.000      0.1000E-19   0.000    
    9678   9.678      0.1000E-02 FIXED          0   0.0%   0.000       0.000       2.000       2.000       0.000      0.1000E-19   0.000    
    9679   9.679      0.1000E-02 FIXED          0   0.0%   0.000       0.000       2.000       2.000       0.000      0.1000E-19   0.000    
   CYCLE    TIME      TIME-STEP  ELEMENT          ERROR  I-ENERGY    K-ENERGY T  K-ENERGY R  EXT-WORK     MAS.ERR     TOTAL MASS  MASS ADDED
    9680   9.680      0.1000E-02 FIXED          0  -0.0%   0.000       0.000       2.000       2.000       0.000      0.1000E-19   0.000    
    9681   9.681      0.1000E-02 FIXED          0  -0.0%   0.000       0.000       2.000       2.000       0.000      0.1000E-19   0.000    
    9682   9.682      0.1000E-02 FIXED          0   0.0%   0.000       0.000       2.000       2.000       0.000      0.1000E-19   0.000    
    9683   9.683      0.1000E-02 FIXED          0  -0.0%   0.000       0.000       2.000       2.000       0.000      0.1000E-19   0.000    
    9684   9.684      0.1000E-02 FIXED          0   0.0%   0.000       0.000       2.000       2.000       0.000      0.1000E-19   0.000    
    9685   9.685      0.1000E-02 FIXED          0  -0.0%   0.000       0.000       2.000       2.000       0.000      0.1000E-19   0.000    
    9686   9.686      0.1000E-02 FIXED          0   0.0%   0.000       0.000       2.000       2.000       0.000      0.1000E-19   0.000    
    9687   9.687      0.1000E-02 FIXED          0  -0.0%   0.000       0.000       2.000       2.000       0.000      0.1000E-19   0.000    
    9688   9.688      0.1000E-02 FIXED          0  -0.0%   0.000       0.000       2.000       2.000       0.000      0.1000E-19   0.000    
    9689   9.689      0.1000E-02 FIXED          0   0.0%   0.000       0.000       2.000       2.000       0.000      0.1000E-19   0.000    
    9690   9.690      0.1000E-02 FIXED          0   0.0%   0.000       0.000       2.000       2.000       0.000      0.1000E-19   0.000    
    9691   9.691      0.1000E-02 FIXED          0  -0.0%   0.000       0.000       2.000       2.000       0.000      0.1000E-19   0.000    
    9692   9.692      0.1000E-02 FIXED          0   0.0%   0.000       0.000       2.000       2.000       0.000      0.1000E-19   0.000    
    9693   9.693      0.1000E-02 FIXED          0   0.0%   0.000       0.000       2.000       2.000       0.000      0.1000E-19   0.000    
    9694   9.694      0.1000E-02 FIXED          0   0.0%   0.000       0.000       2.000       2.000       0.000      0.1000E-19   0.000    
    9695   9.695      0.1000E-02 FIXED          0  -0.0%   0.000       0.000       2.000       2.000       0.000      0.1000E-19   0.000    
    9696   9.696      0.1000E-02 FIXED          0  -0.0%   0.000       0.000       2.000       2.000       0.000      0.1000E-19   0.000    
    9697   9.697      0.1000E-02 FIXED          0   0.0%   0.000       0.000       2.000       2.000       0.000      0.1000E-19   0.000    
    9698   9.698      0.1000E-02 FIXED          0  -0.0%   0.000       0.000       2.000       2.000       0.000      0.1000E-19   0.000    
    9699   9.699      0.1000E-02 FIXED          0   0.0%   0.000       0.000       2.000       2.000       0.000      0.1000E-19   0.000    
    9700   9.700      0.1000E-02 FIXED          0  -0.0%   0.000       0.000       2.000       2.000       0.000      0.1000E-19   0.000    
    9701   9.701      0.1000E-02 FIXED          0   0.0%   0.000       0.000       2.000       2.000       0.000      0.1000E-19   0.000    
    9702   9.702      0.1000E-02 FIXED          0  -0.0%   0.000       0.000       2.000       2.000       0.000      0.1000E-19   0.000    
    9703   9.703      0.1000E-02 FIXED          0  -0.0%   0.000       0.000       2.000       2.000       0.000      0.1000E-19   0.000    
    9704   9.704      0.1000E-02 FIXED          0   0.0%   0.000       0.000       2.000       2.000       0.000      0.1000E-19   0.000    
    9705   9.705      0.1000E-02 FIXED          0   0.0%   0.000       0.000       2.000       2.000       0.000      0.1000E-19   0.000    
    9706   9.706      0.1000E-02 FIXED          0   0.0%   0.000       0.000       2.000       2.000       0.000      0.1000E-19   0.000    
    9707   9.707      0.1000E-02 FIXED          0   0.0%   0.000       0.000       2.000       2.000       0.000      0.1000E-19   0.000    
    9708   9.708      0.1000E-02 FIXED          0   0.0%   0.000       0.000       2.000       2.000       0.000      0.1000E-19   0.000    
    9709   9.709      0.1000E-02 FIXED          0   0.0%   0.000       0.000       2.000       2.000       0.000      0.1000E-19   0.000    
    9710   9.710      0.1000E-02 FIXED          0   0.0%   0.000       0.000       2.000       2.000       0.000      0.1000E-19   0.000    
    9711   9.711      0.1000E-02 FIXED          0  -0.0%   0.000       0.000       2.000       2.000       0.000      0.1000E-19   0.000    
    9712   9.712      0.1000E-02 FIXED          0  -0.0%   0.000       0.000       2.000       2.000       0.000      0.1000E-19   0.000    
    9713   9.713      0.1000E-02 FIXED          0   0.0%   0.000       0.000       2.000       2.000       0.000      0.1000E-19   0.000    
    9714   9.714      0.1000E-02 FIXED          0  -0.0%   0.000       0.000       2.000       2.000       0.000      0.1000E-19   0.000    
    9715   9.715      0.1000E-02 FIXED          0   0.0%   0.000       0.000       2.000       2.000       0.000      0.1000E-19   0.000    
    9716   9.716      0.1000E-02 FIXED          0  -0.0%   0.000       0.000       2.000       2.000       0.000      0.1000E-19   0.000    
    9717   9.717      0.1000E-02 FIXED          0   0.0%   0.000       0.000       2.000       2.000       0.000      0.1000E-19   0.000    
    9718   9.718      0.1000E-02 FIXED          0  -0.0%   0.000       0.000       2.000       2.000       0.000      0.1000E-19   0.000    
    9719   9.719      0.1000E-02 FIXED          0  -0.0%   0.000       0.000       2.000       2.000       0.000      0.1000E-19   0.000    
    9720   9.720      0.1000E-02 FIXED          0  -0.0%   0.000       0.000       2.000       2.000       0.000      0.1000E-19   0.000    
    9721   9.721      0.1000E-02 FIXED          0   0.0%   0.000       0.000       2.000       2.000       0.000      0.1000E-19   0.000    
    9722   9.722      0.1000E-02 FIXED          0  -0.0%   0.000       0.000       2.000       2.000       0.000      0.1000E-19   0.000    
    9723   9.723      0.1000E-02 FIXED          0   0.0%   0.000       0.000       2.000       2.000       0.000      0.1000E-19   0.000    
    9724   9.724      0.1000E-02 FIXED          0   0.0%   0.000       0.000       2.000       2.000       0.000      0.1000E-19   0.000    
    9725   9.725      0.1000E-02 FIXED          0  -0.0%   0.000       0.000       2.000       2.000       0.000      0.1000E-19   0.000    
    9726   9.726      0.1000E-02 FIXED          0  -0.0%   0.000       0.000       2.000       2.000       0.000      0.1000E-19   0.000    
    9727   9.727      0.1000E-02 FIXED          0   0.0%   0.000       0.000       2.000       2.000       0.000      0.1000E-19   0.000    
    9728   9.728      0.1000E-02 FIXED          0   0.0%   0.000       0.000       2.000       2.000       0.000      0.1000E-19   0.000    
    9729   9.729      0.1000E-02 FIXED          0  -0.0%   0.000       0.000       2.000       2.000       0.000      0.1000E-19   0.000    
    9730   9.730      0.1000E-02 FIXED          0   0.0%   0.000       0.000       2.000       2.000       0.000      0.1000E-19   0.000    
    9731   9.731      0.1000E-02 FIXED          0  -0.0%   0.000       0.000       2.000       2.000       0.000      0.1000E-19   0.000    
    9732   9.732      0.1000E-02 FIXED          0   0.0%   0.000       0.000       2.000       2.000       0.000      0.1000E-19   0.000    
    9733   9.733      0.1000E-02 FIXED          0  -0.0%   0.000       0.000       2.000       2.000       0.000      0.1000E-19   0.000    
    9734   9.734      0.1000E-02 FIXED          0  -0.0%   0.000       0.000       2.000       2.000       0.000      0.1000E-19   0.000    
   CYCLE    TIME      TIME-STEP  ELEMENT          ERROR  I-ENERGY    K-ENERGY T  K-ENERGY R  EXT-WORK     MAS.ERR     TOTAL MASS  MASS ADDED
    9735   9.735      0.1000E-02 FIXED          0   0.0%   0.000       0.000       2.000       2.000       0.000      0.1000E-19   0.000    
    9736   9.736      0.1000E-02 FIXED          0  -0.0%   0.000       0.000       2.000       2.000       0.000      0.1000E-19   0.000    
    9737   9.737      0.1000E-02 FIXED          0   0.0%   0.000       0.000       2.000       2.000       0.000      0.1000E-19   0.000    
    9738   9.738      0.1000E-02 FIXED          0  -0.0%   0.000       0.000       2.000       2.000       0.000      0.1000E-19   0.000    
    9739   9.739      0.1000E-02 FIXED          0  -0.0%   0.000       0.000       2.000       2.000       0.000      0.1000E-19   0.000    
    9740   9.740      0.1000E-02 FIXED          0   0.0%   0.000       0.000       2.000       2.000       0.000      0.1000E-19   0.000    
    9741   9.741      0.1000E-02 FIXED          0  -0.0%   0.000       0.000       2.000       2.000       0.000      0.1000E-19   0.000    
    9742   9.742      0.1000E-02 FIXED          0  -0.0%   0.000       0.000       2.000       2.000       0.000      0.1000E-19   0.000    
    9743   9.743      0.1000E-02 FIXED          0   0.0%   0.000       0.000       2.000       2.000       0.000      0.1000E-19   0.000    
    9744   9.744      0.1000E-02 FIXED          0  -0.0%   0.000       0.000       2.000       2.000       0.000      0.1000E-19   0.000    
    9745   9.745      0.1000E-02 FIXED          0   0.0%   0.000       0.000       2.000       2.000       0.000      0.1000E-19   0.000    
    9746   9.746      0.1000E-02 FIXED          0   0.0%   0.000       0.000       2.000       2.000       0.000      0.1000E-19   0.000    
    9747   9.747      0.1000E-02 FIXED          0   0.0%   0.000       0.000       2.000       2.000       0.000      0.1000E-19   0.000    
    9748   9.748      0.1000E-02 FIXED          0   0.0%   0.000       0.000       2.000       2.000       0.000      0.1000E-19   0.000    
    9749   9.749      0.1000E-02 FIXED          0  -0.0%   0.000       0.000       2.000       2.000       0.000      0.1000E-19   0.000    
    9750   9.750      0.1000E-02 FIXED          0   0.0%   0.000       0.000       2.000       2.000       0.000      0.1000E-19   0.000    
    9751   9.751      0.1000E-02 FIXED          0  -0.0%   0.000       0.000       2.000       2.000       0.000      0.1000E-19   0.000    
    9752   9.752      0.1000E-02 FIXED          0   0.0%   0.000       0.000       2.000       2.000       0.000      0.1000E-19   0.000    
    9753   9.753      0.1000E-02 FIXED          0   0.0%   0.000       0.000       2.000       2.000       0.000      0.1000E-19   0.000    
    9754   9.754      0.1000E-02 FIXED          0   0.0%   0.000       0.000       2.000       2.000       0.000      0.1000E-19   0.000    
    9755   9.755      0.1000E-02 FIXED          0  -0.0%   0.000       0.000       2.000       2.000       0.000      0.1000E-19   0.000    
    9756   9.756      0.1000E-02 FIXED          0   0.0%   0.000       0.000       2.000       2.000       0.000      0.1000E-19   0.000    
    9757   9.757      0.1000E-02 FIXED          0  -0.0%   0.000       0.000       2.000       2.000       0.000      0.1000E-19   0.000    
    9758   9.758      0.1000E-02 FIXED          0   0.0%   0.000       0.000       2.000       2.000       0.000      0.1000E-19   0.000    
    9759   9.759      0.1000E-02 FIXED          0  -0.0%   0.000       0.000       2.000       2.000       0.000      0.1000E-19   0.000    
    9760   9.760      0.1000E-02 FIXED          0  -0.0%   0.000       0.000       2.000       2.000       0.000      0.1000E-19   0.000    
    9761   9.761      0.1000E-02 FIXED          0   0.0%   0.000       0.000       2.000       2.000       0.000      0.1000E-19   0.000    
    9762   9.762      0.1000E-02 FIXED          0   0.0%   0.000       0.000       2.000       2.000       0.000      0.1000E-19   0.000    
    9763   9.763      0.1000E-02 FIXED          0  -0.0%   0.000       0.000       2.000       2.000       0.000      0.1000E-19   0.000    
    9764   9.764      0.1000E-02 FIXED          0   0.0%   0.000       0.000       2.000       2.000       0.000      0.1000E-19   0.000    
    9765   9.765      0.1000E-02 FIXED          0  -0.0%   0.000       0.000       2.000       2.000       0.000      0.1000E-19   0.000    
    9766   9.766      0.1000E-02 FIXED          0  -0.0%   0.000       0.000       2.000       2.000       0.000      0.1000E-19   0.000    
    9767   9.767      0.1000E-02 FIXED          0   0.0%   0.000       0.000       2.000       2.000       0.000      0.1000E-19   0.000    
    9768   9.768      0.1000E-02 FIXED          0  -0.0%   0.000       0.000       2.000       2.000       0.000      0.1000E-19   0.000    
    9769   9.769      0.1000E-02 FIXED          0  -0.0%   0.000       0.000       2.000       2.000       0.000      0.1000E-19   0.000    
    9770   9.770      0.1000E-02 FIXED          0   0.0%   0.000       0.000       2.000       2.000       0.000      0.1000E-19   0.000    
    9771   9.771      0.1000E-02 FIXED          0  -0.0%   0.000       0.000       2.000       2.000       0.000      0.1000E-19   0.000    
    9772   9.772      0.1000E-02 FIXED          0   0.0%   0.000       0.000       2.000       2.000       0.000      0.1000E-19   0.000    
    9773   9.773      0.1000E-02 FIXED          0   0.0%   0.000       0.000       2.000       2.000       0.000      0.1000E-19   0.000    
    9774   9.774      0.1000E-02 FIXED          0   0.0%   0.000       0.000       2.000       2.000       0.000      0.1000E-19   0.000    
    9775   9.775      0.1000E-02 FIXED          0   0.0%   0.000       0.000       2.000       2.000       0.000      0.1000E-19   0.000    
    9776   9.776      0.1000E-02 FIXED          0   0.0%   0.000       0.000       2.000       2.000       0.000      0.1000E-19   0.000    
    9777   9.777      0.1000E-02 FIXED          0  -0.0%   0.000       0.000       2.000       2.000       0.000      0.1000E-19   0.000    
    9778   9.778      0.1000E-02 FIXED          0   0.0%   0.000       0.000       2.000       2.000       0.000      0.1000E-19   0.000    
    9779   9.779      0.1000E-02 FIXED          0   0.0%   0.000       0.000       2.000       2.000       0.000      0.1000E-19   0.000    
    9780   9.780      0.1000E-02 FIXED          0   0.0%   0.000       0.000       2.000       2.000       0.000      0.1000E-19   0.000    
    9781   9.781      0.1000E-02 FIXED          0   0.0%   0.000       0.000       2.000       2.000       0.000      0.1000E-19   0.000    
    9782   9.782      0.1000E-02 FIXED          0  -0.0%   0.000       0.000       2.000       2.000       0.000      0.1000E-19   0.000    
    9783   9.783      0.1000E-02 FIXED          0   0.0%   0.000       0.000       2.000       2.000       0.000      0.1000E-19   0.000    
    9784   9.784      0.1000E-02 FIXED          0   0.0%   0.000       0.000       2.000       2.000       0.000      0.1000E-19   0.000    
    9785   9.785      0.1000E-02 FIXED          0  -0.0%   0.000       0.000       2.000       2.000       0.000      0.1000E-19   0.000    
    9786   9.786      0.1000E-02 FIXED          0   0.0%   0.000       0.000       2.000       2.000       0.000      0.1000E-19   0.000    
    9787   9.787      0.1000E-02 FIXED          0  -0.0%   0.000       0.000       2.000       2.000       0.000      0.1000E-19   0.000    
    9788   9.788      0.1000E-02 FIXED          0   0.0%   0.000       0.000       2.000       2.000       0.000      0.1000E-19   0.000    
    9789   9.789      0.1000E-02 FIXED          0   0.0%   0.000       0.000       2.000       2.000       0.000      0.1000E-19   0.000    
   CYCLE    TIME      TIME-STEP  ELEMENT          ERROR  I-ENERGY    K-ENERGY T  K-ENERGY R  EXT-WORK     MAS.ERR     TOTAL MASS  MASS ADDED
    9790   9.790      0.1000E-02 FIXED          0  -0.0%   0.000       0.000       2.000       2.000       0.000      0.1000E-19   0.000    
    9791   9.791      0.1000E-02 FIXED          0   0.0%   0.000       0.000       2.000       2.000       0.000      0.1000E-19   0.000    
    9792   9.792      0.1000E-02 FIXED          0  -0.0%   0.000       0.000       2.000       2.000       0.000      0.1000E-19   0.000    
    9793   9.793      0.1000E-02 FIXED          0   0.0%   0.000       0.000       2.000       2.000       0.000      0.1000E-19   0.000    
    9794   9.794      0.1000E-02 FIXED          0  -0.0%   0.000       0.000       2.000       2.000       0.000      0.1000E-19   0.000    
    9795   9.795      0.1000E-02 FIXED          0   0.0%   0.000       0.000       2.000       2.000       0.000      0.1000E-19   0.000    
    9796   9.796      0.1000E-02 FIXED          0  -0.0%   0.000       0.000       2.000       2.000       0.000      0.1000E-19   0.000    
    9797   9.797      0.1000E-02 FIXED          0  -0.0%   0.000       0.000       2.000       2.000       0.000      0.1000E-19   0.000    
    9798   9.798      0.1000E-02 FIXED          0  -0.0%   0.000       0.000       2.000       2.000       0.000      0.1000E-19   0.000    
    9799   9.799      0.1000E-02 FIXED          0   0.0%   0.000       0.000       2.000       2.000       0.000      0.1000E-19   0.000    
    9800   9.800      0.1000E-02 FIXED          0   0.0%   0.000       0.000       2.000       2.000       0.000      0.1000E-19   0.000    
    9801   9.801      0.1000E-02 FIXED          0   0.0%   0.000       0.000       2.000       2.000       0.000      0.1000E-19   0.000    
    9802   9.802      0.1000E-02 FIXED          0   0.0%   0.000       0.000       2.000       2.000       0.000      0.1000E-19   0.000    
    9803   9.803      0.1000E-02 FIXED          0  -0.0%   0.000       0.000       2.000       2.000       0.000      0.1000E-19   0.000    
    9804   9.804      0.1000E-02 FIXED          0  -0.0%   0.000       0.000       2.000       2.000       0.000      0.1000E-19   0.000    
    9805   9.805      0.1000E-02 FIXED          0  -0.0%   0.000       0.000       2.000       2.000       0.000      0.1000E-19   0.000    
    9806   9.806      0.1000E-02 FIXED          0   0.0%   0.000       0.000       2.000       2.000       0.000      0.1000E-19   0.000    
    9807   9.807      0.1000E-02 FIXED          0   0.0%   0.000       0.000       2.000       2.000       0.000      0.1000E-19   0.000    
    9808   9.808      0.1000E-02 FIXED          0  -0.0%   0.000       0.000       2.000       2.000       0.000      0.1000E-19   0.000    
    9809   9.809      0.1000E-02 FIXED          0   0.0%   0.000       0.000       2.000       2.000       0.000      0.1000E-19   0.000    
    9810   9.810      0.1000E-02 FIXED          0  -0.0%   0.000       0.000       2.000       2.000       0.000      0.1000E-19   0.000    
    9811   9.811      0.1000E-02 FIXED          0  -0.0%   0.000       0.000       2.000       2.000       0.000      0.1000E-19   0.000    
    9812   9.812      0.1000E-02 FIXED          0   0.0%   0.000       0.000       2.000       2.000       0.000      0.1000E-19   0.000    
    9813   9.813      0.1000E-02 FIXED          0  -0.0%   0.000       0.000       2.000       2.000       0.000      0.1000E-19   0.000    
    9814   9.814      0.1000E-02 FIXED          0  -0.0%   0.000       0.000       2.000       2.000       0.000      0.1000E-19   0.000    
    9815   9.815      0.1000E-02 FIXED          0   0.0%   0.000       0.000       2.000       2.000       0.000      0.1000E-19   0.000    
    9816   9.816      0.1000E-02 FIXED          0  -0.0%   0.000       0.000       2.000       2.000       0.000      0.1000E-19   0.000    
    9817   9.817      0.1000E-02 FIXED          0   0.0%   0.000       0.000       2.000       2.000       0.000      0.1000E-19   0.000    
    9818   9.818      0.1000E-02 FIXED          0   0.0%   0.000       0.000       2.000       2.000       0.000      0.1000E-19   0.000    
    9819   9.819      0.1000E-02 FIXED          0  -0.0%   0.000       0.000       2.000       2.000       0.000      0.1000E-19   0.000    
    9820   9.820      0.1000E-02 FIXED          0   0.0%   0.000       0.000       2.000       2.000       0.000      0.1000E-19   0.000    
    9821   9.821      0.1000E-02 FIXED          0  -0.0%   0.000       0.000       2.000       2.000       0.000      0.1000E-19   0.000    
    9822   9.822      0.1000E-02 FIXED          0   0.0%   0.000       0.000       2.000       2.000       0.000      0.1000E-19   0.000    
    9823   9.823      0.1000E-02 FIXED          0  -0.0%   0.000       0.000       2.000       2.000       0.000      0.1000E-19   0.000    
    9824   9.824      0.1000E-02 FIXED          0  -0.0%   0.000       0.000       2.000       2.000       0.000      0.1000E-19   0.000    
    9825   9.825      0.1000E-02 FIXED          0  -0.0%   0.000       0.000       2.000       2.000       0.000      0.1000E-19   0.000    
    9826   9.826      0.1000E-02 FIXED          0  -0.0%   0.000       0.000       2.000       2.000       0.000      0.1000E-19   0.000    
    9827   9.827      0.1000E-02 FIXED          0   0.0%   0.000       0.000       2.000       2.000       0.000      0.1000E-19   0.000    
    9828   9.828      0.1000E-02 FIXED          0   0.0%   0.000       0.000       2.000       2.000       0.000      0.1000E-19   0.000    
    9829   9.829      0.1000E-02 FIXED          0  -0.0%   0.000       0.000       2.000       2.000       0.000      0.1000E-19   0.000    
    9830   9.830      0.1000E-02 FIXED          0   0.0%   0.000       0.000       2.000       2.000       0.000      0.1000E-19   0.000    
    9831   9.831      0.1000E-02 FIXED          0   0.0%   0.000       0.000       2.000       2.000       0.000      0.1000E-19   0.000    
    9832   9.832      0.1000E-02 FIXED          0  -0.0%   0.000       0.000       2.000       2.000       0.000      0.1000E-19   0.000    
    9833   9.833      0.1000E-02 FIXED          0   0.0%   0.000       0.000       2.000       2.000       0.000      0.1000E-19   0.000    
    9834   9.834      0.1000E-02 FIXED          0   0.0%   0.000       0.000       2.000       2.000       0.000      0.1000E-19   0.000    
    9835   9.835      0.1000E-02 FIXED          0  -0.0%   0.000       0.000       2.000       2.000       0.000      0.1000E-19   0.000    
    9836   9.836      0.1000E-02 FIXED          0   0.0%   0.000       0.000       2.000       2.000       0.000      0.1000E-19   0.000    
    9837   9.837      0.1000E-02 FIXED          0   0.0%   0.000       0.000       2.000       2.000       0.000      0.1000E-19   0.000    
    9838   9.838      0.1000E-02 FIXED          0  -0.0%   0.000       0.000       2.000       2.000       0.000      0.1000E-19   0.000    
    9839   9.839      0.1000E-02 FIXED          0   0.0%   0.000       0.000       2.000       2.000       0.000      0.1000E-19   0.000    
    9840   9.840      0.1000E-02 FIXED          0  -0.0%   0.000       0.000       2.000       2.000       0.000      0.1000E-19   0.000    
    9841   9.841      0.1000E-02 FIXED          0  -0.0%   0.000       0.000       2.000       2.000       0.000      0.1000E-19   0.000    
    9842   9.842      0.1000E-02 FIXED          0   0.0%   0.000       0.000       2.000       2.000       0.000      0.1000E-19   0.000    
    9843   9.843      0.1000E-02 FIXED          0   0.0%   0.000       0.000       2.000       2.000       0.000      0.1000E-19   0.000    
    9844   9.844      0.1000E-02 FIXED          0  -0.0%   0.000       0.000       2.000       2.000       0.000      0.1000E-19   0.000    
   CYCLE    TIME      TIME-STEP  ELEMENT          ERROR  I-ENERGY    K-ENERGY T  K-ENERGY R  EXT-WORK     MAS.ERR     TOTAL MASS  MASS ADDED
    9845   9.845      0.1000E-02 FIXED          0   0.0%   0.000       0.000       2.000       2.000       0.000      0.1000E-19   0.000    
    9846   9.846      0.1000E-02 FIXED          0   0.0%   0.000       0.000       2.000       2.000       0.000      0.1000E-19   0.000    
    9847   9.847      0.1000E-02 FIXED          0  -0.0%   0.000       0.000       2.000       2.000       0.000      0.1000E-19   0.000    
    9848   9.848      0.1000E-02 FIXED          0   0.0%   0.000       0.000       2.000       2.000       0.000      0.1000E-19   0.000    
    9849   9.849      0.1000E-02 FIXED          0   0.0%   0.000       0.000       2.000       2.000       0.000      0.1000E-19   0.000    
    9850   9.850      0.1000E-02 FIXED          0   0.0%   0.000       0.000       2.000       2.000       0.000      0.1000E-19   0.000    
    9851   9.851      0.1000E-02 FIXED          0   0.0%   0.000       0.000       2.000       2.000       0.000      0.1000E-19   0.000    
    9852   9.852      0.1000E-02 FIXED          0   0.0%   0.000       0.000       2.000       2.000       0.000      0.1000E-19   0.000    
    9853   9.853      0.1000E-02 FIXED          0   0.0%   0.000       0.000       2.000       2.000       0.000      0.1000E-19   0.000    
    9854   9.854      0.1000E-02 FIXED          0  -0.0%   0.000       0.000       2.000       2.000       0.000      0.1000E-19   0.000    
    9855   9.855      0.1000E-02 FIXED          0  -0.0%   0.000       0.000       2.000       2.000       0.000      0.1000E-19   0.000    
    9856   9.856      0.1000E-02 FIXED          0  -0.0%   0.000       0.000       2.000       2.000       0.000      0.1000E-19   0.000    
    9857   9.857      0.1000E-02 FIXED          0   0.0%   0.000       0.000       2.000       2.000       0.000      0.1000E-19   0.000    
    9858   9.858      0.1000E-02 FIXED          0  -0.0%   0.000       0.000       2.000       2.000       0.000      0.1000E-19   0.000    
    9859   9.859      0.1000E-02 FIXED          0   0.0%   0.000       0.000       2.000       2.000       0.000      0.1000E-19   0.000    
    9860   9.860      0.1000E-02 FIXED          0  -0.0%   0.000       0.000       2.000       2.000       0.000      0.1000E-19   0.000    
    9861   9.861      0.1000E-02 FIXED          0   0.0%   0.000       0.000       2.000       2.000       0.000      0.1000E-19   0.000    
    9862   9.862      0.1000E-02 FIXED          0  -0.0%   0.000       0.000       2.000       2.000       0.000      0.1000E-19   0.000    
    9863   9.863      0.1000E-02 FIXED          0  -0.0%   0.000       0.000       2.000       2.000       0.000      0.1000E-19   0.000    
    9864   9.864      0.1000E-02 FIXED          0   0.0%   0.000       0.000       2.000       2.000       0.000      0.1000E-19   0.000    
    9865   9.865      0.1000E-02 FIXED          0   0.0%   0.000       0.000       2.000       2.000       0.000      0.1000E-19   0.000    
    9866   9.866      0.1000E-02 FIXED          0   0.0%   0.000       0.000       2.000       2.000       0.000      0.1000E-19   0.000    
    9867   9.867      0.1000E-02 FIXED          0   0.0%   0.000       0.000       2.000       2.000       0.000      0.1000E-19   0.000    
    9868   9.868      0.1000E-02 FIXED          0  -0.0%   0.000       0.000       2.000       2.000       0.000      0.1000E-19   0.000    
    9869   9.869      0.1000E-02 FIXED          0   0.0%   0.000       0.000       2.000       2.000       0.000      0.1000E-19   0.000    
    9870   9.870      0.1000E-02 FIXED          0  -0.0%   0.000       0.000       2.000       2.000       0.000      0.1000E-19   0.000    
    9871   9.871      0.1000E-02 FIXED          0   0.0%   0.000       0.000       2.000       2.000       0.000      0.1000E-19   0.000    
    9872   9.872      0.1000E-02 FIXED          0  -0.0%   0.000       0.000       2.000       2.000       0.000      0.1000E-19   0.000    
    9873   9.873      0.1000E-02 FIXED          0   0.0%   0.000       0.000       2.000       2.000       0.000      0.1000E-19   0.000    
    9874   9.874      0.1000E-02 FIXED          0  -0.0%   0.000       0.000       2.000       2.000       0.000      0.1000E-19   0.000    
    9875   9.875      0.1000E-02 FIXED          0   0.0%   0.000       0.000       2.000       2.000       0.000      0.1000E-19   0.000    
    9876   9.876      0.1000E-02 FIXED          0   0.0%   0.000       0.000       2.000       2.000       0.000      0.1000E-19   0.000    
    9877   9.877      0.1000E-02 FIXED          0   0.0%   0.000       0.000       2.000       2.000       0.000      0.1000E-19   0.000    
    9878   9.878      0.1000E-02 FIXED          0   0.0%   0.000       0.000       2.000       2.000       0.000      0.1000E-19   0.000    
    9879   9.879      0.1000E-02 FIXED          0   0.0%   0.000       0.000       2.000       2.000       0.000      0.1000E-19   0.000    
    9880   9.880      0.1000E-02 FIXED          0   0.0%   0.000       0.000       2.000       2.000       0.000      0.1000E-19   0.000    
    9881   9.881      0.1000E-02 FIXED          0  -0.0%   0.000       0.000       2.000       2.000       0.000      0.1000E-19   0.000    
    9882   9.882      0.1000E-02 FIXED          0  -0.0%   0.000       0.000       2.000       2.000       0.000      0.1000E-19   0.000    
    9883   9.883      0.1000E-02 FIXED          0   0.0%   0.000       0.000       2.000       2.000       0.000      0.1000E-19   0.000    
    9884   9.884      0.1000E-02 FIXED          0  -0.0%   0.000       0.000       2.000       2.000       0.000      0.1000E-19   0.000    
    9885   9.885      0.1000E-02 FIXED          0  -0.0%   0.000       0.000       2.000       2.000       0.000      0.1000E-19   0.000    
    9886   9.886      0.1000E-02 FIXED          0  -0.0%   0.000       0.000       2.000       2.000       0.000      0.1000E-19   0.000    
    9887   9.887      0.1000E-02 FIXED          0   0.0%   0.000       0.000       2.000       2.000       0.000      0.1000E-19   0.000    
    9888   9.888      0.1000E-02 FIXED          0  -0.0%   0.000       0.000       2.000       2.000       0.000      0.1000E-19   0.000    
    9889   9.889      0.1000E-02 FIXED          0   0.0%   0.000       0.000       2.000       2.000       0.000      0.1000E-19   0.000    
    9890   9.890      0.1000E-02 FIXED          0   0.0%   0.000       0.000       2.000       2.000       0.000      0.1000E-19   0.000    
    9891   9.891      0.1000E-02 FIXED          0   0.0%   0.000       0.000       2.000       2.000       0.000      0.1000E-19   0.000    
    9892   9.892      0.1000E-02 FIXED          0   0.0%   0.000       0.000       2.000       2.000       0.000      0.1000E-19   0.000    
    9893   9.893      0.1000E-02 FIXED          0  -0.0%   0.000       0.000       2.000       2.000       0.000      0.1000E-19   0.000    
    9894   9.894      0.1000E-02 FIXED          0   0.0%   0.000       0.000       2.000       2.000       0.000      0.1000E-19   0.000    
    9895   9.895      0.1000E-02 FIXED          0   0.0%   0.000       0.000       2.000       2.000       0.000      0.1000E-19   0.000    
    9896   9.896      0.1000E-02 FIXED          0   0.0%   0.000       0.000       2.000       2.000       0.000      0.1000E-19   0.000    
    9897   9.897      0.1000E-02 FIXED          0   0.0%   0.000       0.000       2.000       2.000       0.000      0.1000E-19   0.000    
    9898   9.898      0.1000E-02 FIXED          0   0.0%   0.000       0.000       2.000       2.000       0.000      0.1000E-19   0.000    
    9899   9.899      0.1000E-02 FIXED          0  -0.0%   0.000       0.000       2.000       2.000       0.000      0.1000E-19   0.000    
   CYCLE    TIME      TIME-STEP  ELEMENT          ERROR  I-ENERGY    K-ENERGY T  K-ENERGY R  EXT-WORK     MAS.ERR     TOTAL MASS  MASS ADDED
    9900   9.900      0.1000E-02 FIXED          0  -0.0%   0.000       0.000       2.000       2.000       0.000      0.1000E-19   0.000    
    9901   9.901      0.1000E-02 FIXED          0   0.0%   0.000       0.000       2.000       2.000       0.000      0.1000E-19   0.000    
    9902   9.902      0.1000E-02 FIXED          0  -0.0%   0.000       0.000       2.000       2.000       0.000      0.1000E-19   0.000    
    9903   9.903      0.1000E-02 FIXED          0   0.0%   0.000       0.000       2.000       2.000       0.000      0.1000E-19   0.000    
    9904   9.904      0.1000E-02 FIXED          0  -0.0%   0.000       0.000       2.000       2.000       0.000      0.1000E-19   0.000    
    9905   9.905      0.1000E-02 FIXED          0   0.0%   0.000       0.000       2.000       2.000       0.000      0.1000E-19   0.000    
    9906   9.906      0.1000E-02 FIXED          0   0.0%   0.000       0.000       2.000       2.000       0.000      0.1000E-19   0.000    
    9907   9.907      0.1000E-02 FIXED          0  -0.0%   0.000       0.000       2.000       2.000       0.000      0.1000E-19   0.000    
    9908   9.908      0.1000E-02 FIXED          0   0.0%   0.000       0.000       2.000       2.000       0.000      0.1000E-19   0.000    
    9909   9.909      0.1000E-02 FIXED          0   0.0%   0.000       0.000       2.000       2.000       0.000      0.1000E-19   0.000    
    9910   9.910      0.1000E-02 FIXED          0   0.0%   0.000       0.000       2.000       2.000       0.000      0.1000E-19   0.000    
    9911   9.911      0.1000E-02 FIXED          0   0.0%   0.000       0.000       2.000       2.000       0.000      0.1000E-19   0.000    
    9912   9.912      0.1000E-02 FIXED          0  -0.0%   0.000       0.000       2.000       2.000       0.000      0.1000E-19   0.000    
    9913   9.913      0.1000E-02 FIXED          0  -0.0%   0.000       0.000       2.000       2.000       0.000      0.1000E-19   0.000    
    9914   9.914      0.1000E-02 FIXED          0  -0.0%   0.000       0.000       2.000       2.000       0.000      0.1000E-19   0.000    
    9915   9.915      0.1000E-02 FIXED          0   0.0%   0.000       0.000       2.000       2.000       0.000      0.1000E-19   0.000    
    9916   9.916      0.1000E-02 FIXED          0   0.0%   0.000       0.000       2.000       2.000       0.000      0.1000E-19   0.000    
    9917   9.917      0.1000E-02 FIXED          0  -0.0%   0.000       0.000       2.000       2.000       0.000      0.1000E-19   0.000    
    9918   9.918      0.1000E-02 FIXED          0  -0.0%   0.000       0.000       2.000       2.000       0.000      0.1000E-19   0.000    
    9919   9.919      0.1000E-02 FIXED          0   0.0%   0.000       0.000       2.000       2.000       0.000      0.1000E-19   0.000    
    9920   9.920      0.1000E-02 FIXED          0   0.0%   0.000       0.000       2.000       2.000       0.000      0.1000E-19   0.000    
    9921   9.921      0.1000E-02 FIXED          0  -0.0%   0.000       0.000       2.000       2.000       0.000      0.1000E-19   0.000    
    9922   9.922      0.1000E-02 FIXED          0   0.0%   0.000       0.000       2.000       2.000       0.000      0.1000E-19   0.000    
    9923   9.923      0.1000E-02 FIXED          0   0.0%   0.000       0.000       2.000       2.000       0.000      0.1000E-19   0.000    
    9924   9.924      0.1000E-02 FIXED          0   0.0%   0.000       0.000       2.000       2.000       0.000      0.1000E-19   0.000    
    9925   9.925      0.1000E-02 FIXED          0   0.0%   0.000       0.000       2.000       2.000       0.000      0.1000E-19   0.000    
    9926   9.926      0.1000E-02 FIXED          0  -0.0%   0.000       0.000       2.000       2.000       0.000      0.1000E-19   0.000    
    9927   9.927      0.1000E-02 FIXED          0  -0.0%   0.000       0.000       2.000       2.000       0.000      0.1000E-19   0.000    
    9928   9.928      0.1000E-02 FIXED          0   0.0%   0.000       0.000       2.000       2.000       0.000      0.1000E-19   0.000    
    9929   9.929      0.1000E-02 FIXED          0  -0.0%   0.000       0.000       2.000       2.000       0.000      0.1000E-19   0.000    
    9930   9.930      0.1000E-02 FIXED          0   0.0%   0.000       0.000       2.000       2.000       0.000      0.1000E-19   0.000    
    9931   9.931      0.1000E-02 FIXED          0  -0.0%   0.000       0.000       2.000       2.000       0.000      0.1000E-19   0.000    
    9932   9.932      0.1000E-02 FIXED          0   0.0%   0.000       0.000       2.000       2.000       0.000      0.1000E-19   0.000    
    9933   9.933      0.1000E-02 FIXED          0   0.0%   0.000       0.000       2.000       2.000       0.000      0.1000E-19   0.000    
    9934   9.934      0.1000E-02 FIXED          0  -0.0%   0.000       0.000       2.000       2.000       0.000      0.1000E-19   0.000    
    9935   9.935      0.1000E-02 FIXED          0   0.0%   0.000       0.000       2.000       2.000       0.000      0.1000E-19   0.000    
    9936   9.936      0.1000E-02 FIXED          0  -0.0%   0.000       0.000       2.000       2.000       0.000      0.1000E-19   0.000    
    9937   9.937      0.1000E-02 FIXED          0   0.0%   0.000       0.000       2.000       2.000       0.000      0.1000E-19   0.000    
    9938   9.938      0.1000E-02 FIXED          0  -0.0%   0.000       0.000       2.000       2.000       0.000      0.1000E-19   0.000    
    9939   9.939      0.1000E-02 FIXED          0   0.0%   0.000       0.000       2.000       2.000       0.000      0.1000E-19   0.000    
    9940   9.940      0.1000E-02 FIXED          0   0.0%   0.000       0.000       2.000       2.000       0.000      0.1000E-19   0.000    
    9941   9.941      0.1000E-02 FIXED          0  -0.0%   0.000       0.000       2.000       2.000       0.000      0.1000E-19   0.000    
    9942   9.942      0.1000E-02 FIXED          0   0.0%   0.000       0.000       2.000       2.000       0.000      0.1000E-19   0.000    
    9943   9.943      0.1000E-02 FIXED          0  -0.0%   0.000       0.000       2.000       2.000       0.000      0.1000E-19   0.000    
    9944   9.944      0.1000E-02 FIXED          0   0.0%   0.000       0.000       2.000       2.000       0.000      0.1000E-19   0.000    
    9945   9.945      0.1000E-02 FIXED          0   0.0%   0.000       0.000       2.000       2.000       0.000      0.1000E-19   0.000    
    9946   9.946      0.1000E-02 FIXED          0   0.0%   0.000       0.000       2.000       2.000       0.000      0.1000E-19   0.000    
    9947   9.947      0.1000E-02 FIXED          0  -0.0%   0.000       0.000       2.000       2.000       0.000      0.1000E-19   0.000    
    9948   9.948      0.1000E-02 FIXED          0   0.0%   0.000       0.000       2.000       2.000       0.000      0.1000E-19   0.000    
    9949   9.949      0.1000E-02 FIXED          0  -0.0%   0.000       0.000       2.000       2.000       0.000      0.1000E-19   0.000    
    9950   9.950      0.1000E-02 FIXED          0   0.0%   0.000       0.000       2.000       2.000       0.000      0.1000E-19   0.000    
    9951   9.951      0.1000E-02 FIXED          0  -0.0%   0.000       0.000       2.000       2.000       0.000      0.1000E-19   0.000    
    9952   9.952      0.1000E-02 FIXED          0  -0.0%   0.000       0.000       2.000       2.000       0.000      0.1000E-19   0.000    
    9953   9.953      0.1000E-02 FIXED          0   0.0%   0.000       0.000       2.000       2.000       0.000      0.1000E-19   0.000    
    9954   9.954      0.1000E-02 FIXED          0  -0.0%   0.000       0.000       2.000       2.000       0.000      0.1000E-19   0.000    
   CYCLE    TIME      TIME-STEP  ELEMENT          ERROR  I-ENERGY    K-ENERGY T  K-ENERGY R  EXT-WORK     MAS.ERR     TOTAL MASS  MASS ADDED
    9955   9.955      0.1000E-02 FIXED          0   0.0%   0.000       0.000       2.000       2.000       0.000      0.1000E-19   0.000    
    9956   9.956      0.1000E-02 FIXED          0  -0.0%   0.000       0.000       2.000       2.000       0.000      0.1000E-19   0.000    
    9957   9.957      0.1000E-02 FIXED          0  -0.0%   0.000       0.000       2.000       2.000       0.000      0.1000E-19   0.000    
    9958   9.958      0.1000E-02 FIXED          0   0.0%   0.000       0.000       2.000       2.000       0.000      0.1000E-19   0.000    
    9959   9.959      0.1000E-02 FIXED          0   0.0%   0.000       0.000       2.000       2.000       0.000      0.1000E-19   0.000    
    9960   9.960      0.1000E-02 FIXED          0   0.0%   0.000       0.000       2.000       2.000       0.000      0.1000E-19   0.000    
    9961   9.961      0.1000E-02 FIXED          0   0.0%   0.000       0.000       2.000       2.000       0.000      0.1000E-19   0.000    
    9962   9.962      0.1000E-02 FIXED          0   0.0%   0.000       0.000       2.000       2.000       0.000      0.1000E-19   0.000    
    9963   9.963      0.1000E-02 FIXED          0   0.0%   0.000       0.000       2.000       2.000       0.000      0.1000E-19   0.000    
    9964   9.964      0.1000E-02 FIXED          0   0.0%   0.000       0.000       2.000       2.000       0.000      0.1000E-19   0.000    
    9965   9.965      0.1000E-02 FIXED          0  -0.0%   0.000       0.000       2.000       2.000       0.000      0.1000E-19   0.000    
    9966   9.966      0.1000E-02 FIXED          0   0.0%   0.000       0.000       2.000       2.000       0.000      0.1000E-19   0.000    
    9967   9.967      0.1000E-02 FIXED          0  -0.0%   0.000       0.000       2.000       2.000       0.000      0.1000E-19   0.000    
    9968   9.968      0.1000E-02 FIXED          0   0.0%   0.000       0.000       2.000       2.000       0.000      0.1000E-19   0.000    
    9969   9.969      0.1000E-02 FIXED          0  -0.0%   0.000       0.000       2.000       2.000       0.000      0.1000E-19   0.000    
    9970   9.970      0.1000E-02 FIXED          0   0.0%   0.000       0.000       2.000       2.000       0.000      0.1000E-19   0.000    
    9971   9.971      0.1000E-02 FIXED          0  -0.0%   0.000       0.000       2.000       2.000       0.000      0.1000E-19   0.000    
    9972   9.972      0.1000E-02 FIXED          0   0.0%   0.000       0.000       2.000       2.000       0.000      0.1000E-19   0.000    
    9973   9.973      0.1000E-02 FIXED          0  -0.0%   0.000       0.000       2.000       2.000       0.000      0.1000E-19   0.000    
    9974   9.974      0.1000E-02 FIXED          0   0.0%   0.000       0.000       2.000       2.000       0.000      0.1000E-19   0.000    
    9975   9.975      0.1000E-02 FIXED          0   0.0%   0.000       0.000       2.000       2.000       0.000      0.1000E-19   0.000    
    9976   9.976      0.1000E-02 FIXED          0   0.0%   0.000       0.000       2.000       2.000       0.000      0.1000E-19   0.000    
    9977   9.977      0.1000E-02 FIXED          0  -0.0%   0.000       0.000       2.000       2.000       0.000      0.1000E-19   0.000    
    9978   9.978      0.1000E-02 FIXED          0   0.0%   0.000       0.000       2.000       2.000       0.000      0.1000E-19   0.000    
    9979   9.979      0.1000E-02 FIXED          0   0.0%   0.000       0.000       2.000       2.000       0.000      0.1000E-19   0.000    
    9980   9.980      0.1000E-02 FIXED          0  -0.0%   0.000       0.000       2.000       2.000       0.000      0.1000E-19   0.000    
    9981   9.981      0.1000E-02 FIXED          0  -0.0%   0.000       0.000       2.000       2.000       0.000      0.1000E-19   0.000    
    9982   9.982      0.1000E-02 FIXED          0   0.0%   0.000       0.000       2.000       2.000       0.000      0.1000E-19   0.000    
    9983   9.983      0.1000E-02 FIXED          0  -0.0%   0.000       0.000       2.000       2.000       0.000      0.1000E-19   0.000    
    9984   9.984      0.1000E-02 FIXED          0   0.0%   0.000       0.000       2.000       2.000       0.000      0.1000E-19   0.000    
    9985   9.985      0.1000E-02 FIXED          0  -0.0%   0.000       0.000       2.000       2.000       0.000      0.1000E-19   0.000    
    9986   9.986      0.1000E-02 FIXED          0  -0.0%   0.000       0.000       2.000       2.000       0.000      0.1000E-19   0.000    
    9987   9.987      0.1000E-02 FIXED          0   0.0%   0.000       0.000       2.000       2.000       0.000      0.1000E-19   0.000    
    9988   9.988      0.1000E-02 FIXED          0  -0.0%   0.000       0.000       2.000       2.000       0.000      0.1000E-19   0.000    
    9989   9.989      0.1000E-02 FIXED          0   0.0%   0.000       0.000       2.000       2.000       0.000      0.1000E-19   0.000    
    9990   9.990      0.1000E-02 FIXED          0  -0.0%   0.000       0.000       2.000       2.000       0.000      0.1000E-19   0.000    
    9991   9.991      0.1000E-02 FIXED          0   0.0%   0.000       0.000       2.000       2.000       0.000      0.1000E-19   0.000    
    9992   9.992      0.1000E-02 FIXED          0   0.0%   0.000       0.000       2.000       2.000       0.000      0.1000E-19   0.000    
    9993   9.993      0.1000E-02 FIXED          0  -0.0%   0.000       0.000       2.000       2.000       0.000      0.1000E-19   0.000    
    9994   9.994      0.1000E-02 FIXED          0   0.0%   0.000       0.000       2.000       2.000       0.000      0.1000E-19   0.000    
    9995   9.995      0.1000E-02 FIXED          0  -0.0%   0.000       0.000       2.000       2.000       0.000      0.1000E-19   0.000    
    9996   9.996      0.1000E-02 FIXED          0  -0.0%   0.000       0.000       2.000       2.000       0.000      0.1000E-19   0.000    
    9997   9.997      0.1000E-02 FIXED          0   0.0%   0.000       0.000       2.000       2.000       0.000      0.1000E-19   0.000    
    9998   9.998      0.1000E-02 FIXED          0   0.0%   0.000       0.000       2.000       2.000       0.000      0.1000E-19   0.000    
    9999   9.999      0.1000E-02 FIXED          0   0.0%   0.000       0.000       2.000       2.000       0.000      0.1000E-19   0.000    
   10000   10.00      0.1000E-02 FIXED          0  -0.0%   0.000       0.000       2.000       2.000       0.000      0.1000E-19   0.000    

     RESTART FILES: BLOCK_0001_[0001-0004].rst WRITTEN
     -------------

   10001   10.00      0.1000E-02 FIXED          0   0.0%   0.000       0.000       2.000       2.000       0.000      0.1000E-19   0.000    
     ANIMATION FILE: BLOCKA011 WRITTEN
  
                           ** CPU USER TIME **
  
  
                        ** SUMMARY **
  
 #PROC  ELEMENT   KINCOND   INTEG     IO        T0        ASM       RESOL    
   1   .1320E+00 .3837E+00 .1241E+00 .1044E+01 .3622E+00 .6431E-01 .2821E+01
   2   .1346E+00 .3458E+00 .1221E+00 .5899E+00 .1034E+01 .6293E-01 .3078E+01
   3   .1302E+00 .3507E+00 .1231E+00 .5583E+00 .1057E+01 .6373E-01 .3054E+01
   4   .1327E+00 .3414E+00 .1204E+00 .5936E+00 .1052E+01 .6429E-01 .3078E+01
  
                 ** SPMD COM. TIME **
  
 #PROC  FORCES    RBYFOR    RBYVEL    VEL       TOT       %        
   1   .3844E-01 .2055E-01 .0000E+00 .4232E-01 .1013E+00 .3591E+01
   2   .3964E-01 .2268E-01 .0000E+00 .4124E-01 .1036E+00 .3365E+01
   3   .3888E-01 .2227E-01 .0000E+00 .4202E-01 .1032E+00 .3378E+01
   4   .3885E-01 .2315E-01 .0000E+00 .4140E-01 .1034E+00 .3360E+01
  
 
                   ** CUMULATIVE CPU TIME SUMMARY **
  
 CONTACT SORTING.............: .0000E+00     0.00 % 
 CONTACT FORCES..............: .5716E-01     0.48 % 
 ELEMENT FORCES..............: .5295E+00     4.40 % 
 KINEMATIC COND..............: .1422E+01    11.82 % 
 INTEGRATION.................: .4897E+00     4.07 % 
 ASSEMBLING..................: .2553E+00     2.12 % 
 OTHERS (including I/O)......: .9277E+01    77.11 % 
 TOTAL.......................: .1203E+02   100.00 % 
  
  
                           ** ELAPSED TIME **
  
  
                        ** SUMMARY **
  
 #PROC  ELEMENT   KINCOND   INTEG     IO        T0        ASM       RESOL    
   1   .8472E-01 .2451E+00 .7869E-01 .7173E+00 .2308E+00 .4106E-01 .1838E+01
   2   .8102E-01 .2101E+00 .7311E-01 .3555E+00 .6171E+00 .3796E-01 .1838E+01
   3   .7961E-01 .2145E+00 .7423E-01 .3385E+00 .6354E+00 .3873E-01 .1838E+01
   4   .8047E-01 .2076E+00 .7251E-01 .3563E+00 .6266E+00 .3890E-01 .1838E+01
  
        ELEMENT   KINCOND   INTEG     IO        T0        ASM       RESOL    
 MIN   .7961E-01 .2076E+00 .7251E-01 .3385E+00 .2308E+00 .3796E-01 .1838E+01
 MAX   .8472E-01 .2451E+00 .7869E-01 .7173E+00 .6354E+00 .4106E-01 .1838E+01
 AVG   .8145E-01 .2193E+00 .7464E-01 .4419E+00 .5275E+00 .3916E-01 .1838E+01
  
                 ** SPMD COM. TIME **
  
 #PROC  FORCES    RBYFOR    RBYVEL    VEL       TOT       %        
   1   .2453E-01 .1276E-01 .0000E+00 .2728E-01 .6458E-01 .3514E+01
   2   .2399E-01 .1214E-01 .0000E+00 .2538E-01 .6151E-01 .3347E+01
   3   .2368E-01 .1182E-01 .0000E+00 .2585E-01 .6135E-01 .3338E+01
   4   .2349E-01 .1250E-01 .0000E+00 .2537E-01 .6136E-01 .3339E+01
  
        FORCES    RBYFOR    RBYVEL    VEL       TOT       %        
 MIN   .2349E-01 .1182E-01 .0000E+00 .2537E-01 .6135E-01 .3338E+01
 MAX   .2453E-01 .1276E-01 .0000E+00 .2728E-01 .6458E-01 .3514E+01
 AVG   .2392E-01 .1231E-01 .0000E+00 .2597E-01 .6220E-01 .3384E+01
  
                   ** MEMORY USAGE STATISTICS **
  
 TOTAL MEMORY USED .........................:      228 MB
 MAXIMUM MEMORY PER PROCESSOR...............:       57 MB
 MINIMUM MEMORY PER PROCESSOR...............:       57 MB
 AVERAGE MEMORY PER PROCESSOR...............:       57 MB
  
                   ** DISK USAGE STATISTICS **
  
 TOTAL DISK SPACE USED .....................:          1 MB
 ANIMATION/H3D/TH/OUTP SIZE ................:          0 MB
 RESTART FILE SIZE .........................:          1 MB
  
                   ** COMPUTE TIME INFORMATION **
                        ** CURRENT ENGINE **
  
 EXECUTION STARTED .........................:      2022/11/23  16:21:26
 EXECUTION COMPLETED .......................:      2022/11/23  16:21:28
  
 ELAPSED TIME     =          1.92 s
                          0:00:01
 ESTIMATED SPEEDUP=          6.27



     NORMAL TERMINATION      



     TOTAL NUMBER OF CYCLES  :   10002

  
                   ** COMPUTE RUNTIME INFORMATION SUMMARY **
  
        STARTER RUNTIME =          0.60s (00:00:00)
 # 001   ENGINE RUNTIME =          1.92s (00:00:01)
 ------------------------------ 
 STARTER+ENGINE RUNTIME =          2.52s (00:00:02)
  
