 DEUXELC_0001.out
************************************************************************
**                                                                    **
**                                                                    **
**                         OpenRadioss Engine                         **
**                                                                    **
**            Non-linear Finite Element Analysis Software             **
**                                                                    **
**                                                                    **
**                                                                    **
**                Linux 64 bits, GNU compiler, OpenMPI                **
**                                                                    **
**                                                                    **
**                                                                    **
** CommitID: 440deeba848d606665f88afb8302e85b1ecf72bf                 **
************************************************************************
** OpenRadioss Software                                               **
** COPYRIGHT (C) 1986-2022 Altair Engineering, Inc.                   **
** Licensed under GNU Affero General Public License.                  **
** See License file.                                                  **
************************************************************************
 
 NUMBER OF SPMD DOMAINS           4
 NUMBER OF THREADS PER DOMAIN     2
 NUMBER OF HMPP PROCESSES         8
  
 COMPUTATION HARDWARE DESCRIPTION
  
 CPU#  HOSTNAME     CPU TYPE, FREQUENCY AND MEMORY
   1   fr-shady.europe.altair.com   Intel(R) Xeon(R) CPU           X5680  @ 3.33GHz (x86_64), 1596 MHz,  20012 MB RAM,  49126 MB swap
   2   fr-shady.europe.altair.com   Intel(R) Xeon(R) CPU           X5680  @ 3.33GHz (x86_64), 1596 MHz,  20012 MB RAM,  49126 MB swap
   3   fr-shady.europe.altair.com   Intel(R) Xeon(R) CPU           X5680  @ 3.33GHz (x86_64), 1596 MHz,  20012 MB RAM,  49126 MB swap
   4   fr-shady.europe.altair.com   Intel(R) Xeon(R) CPU           X5680  @ 3.33GHz (x86_64), 1596 MHz,  20012 MB RAM,  49126 MB swap
  
************************************************************************


 DEUXELCD01simple specimen traction                                              


 FINAL TIME . . . . . . . . . . . . . . . . . . .   1.500000    

 TIME INTERVAL FOR TIME HISTORY PLOTS . . . . . .  0.1000000    

 TIME STEP SCALE FACTOR . . . . . . . . . . . . .  0.9000000    

 MINIMUM TIME STEP  . . . . . . . . . . . . . . .   0.000000    


 BRICK TIME STEP SCALE FACTOR . . . . . . . . . .  0.9000000    
 BRICK MINIMUM TIME STEP. . . . . . . . . . . . .   0.000000    
 MIN. TIME STEP FLAG (1:STOP RUN, 2:DELETE BRICK)     1

 QUAD TIME STEP SCALE FACTOR. . . . . . . . . . .  0.9000000    
 QUAD MINIMUM TIME STEP . . . . . . . . . . . . .   0.000000    
 MIN. TIME STEP FLAG (1:STOP RUN, 2:DELETE QUAD).     1

 SHELL TIME STEP SCALE FACTOR . . . . . . . . . .  0.9000000    
 SHELL MINIMUM TIME STEP. . . . . . . . . . . . .   0.000000    
 MIN. TIME FLAG (1:STOP, 2:DELETE, 3:SMALL STRAIN)    2

 TRUSS TIME STEP SCALE FACTOR . . . . . . . . . .  0.9000000    
 TRUSS MINIMUM TIME STEP. . . . . . . . . . . . .   0.000000    
 MIN. TIME FLAG (1:STOP, 2:DELETE). . . . . . . .     0

 BEAM TIME STEP SCALE FACTOR. . . . . . . . . . .  0.9000000    
 BEAM MINIMUM TIME STEP . . . . . . . . . . . . .   0.000000    
 MIN. TIME FLAG (1:STOP, 2:DELETE). . . . . . . .     0

 SPRING TIME STEP SCALE FACTOR. . . . . . . . . .  0.9000000    
 SPRING MINIMUM TIME STEP . . . . . . . . . . . .   0.000000    
 MIN. TIME FLAG (1:STOP, 2:DELETE). . . . . . . .     0

 AIRBAG TIME STEP SCALE FACTOR. . . . . . . . . .  0.9000000    
 AIRBAG MINIMUM TIME STEP . . . . . . . . . . . .   0.000000    
 MIN. TIME FLAG (1:STOP). . . . . . . . . . . . .     0

 CONTACT TIME STEP SCALE FACTOR . . . . . . . . .  0.9000000    
 CONTACT MINIMUM TIME STEP. . . . . . . . . . . .   0.000000    
 MIN. TIME FLAG(1:STOP, 2:REMOVE NODE FROM INTERF)    0

 PRINTOUT CYCLE FREQUENCY . . . . . . . . . . . .   -10

 RESTART CYCLE FREQUENCY. . . . . . . . . . . . .   10000000

 MAXIMUM RESTART WRITE BEFORE OVERWRITE . . . . .     0

 INVERS: INPUT DECK VERSION . . . . . . . . . . .  2017
 ITTYP : FLAG FOR TYPE OF T-FILE. . . . . . . . .     4


 TIME FOR FIRST ANIMATION-FILE PLOT . . . . . . .   0.000000    
 TIME INTERVAL FOR ANIMATION-FILE PLOTS . . . . .  0.2000000    
 SENSOR FOR ANIMATION-FILE PLOTS. . . . . . . . .          0
 TIME INTERVAL FOR SENSOR ANIMATION-FILE PLOTS. .   0.000000    

 VARIABLE SAVED ON ANIMATION FILES (1: YES) :
      PLASTIC STRAIN. . . . . .     0
      DENSITY     (SOLID ONLY).     0
      SPECIFIC ENERGY . . . . .     0
      HOURGLASS ENERGY. . . . .     0
      TEMPERATURE (SOLID ONLY).     0
      THICKNESS   (SHELL ONLY).     0
      PRESSURE    (SOLID ONLY).     1
      VON MISES . . . . . . . .     0
      TURBULENT ENERGY (FLUID).     0
      TURBULENT VISCOSITY(FLUID)    0
      VORTICITY (FLUID) . . . .     0
 NODAL VALUES SAVED ON ANIMATION FILES (1: YES) :
      PRESSURE. . . . . . . . .     0
      DENSITY . . . . . . . . .     0
      TEMPERATURE . . . . . . .     0
 VECTOR SAVED ON ANIMATION FILES (1: YES) :
      VELOCITY VECTOR . . . . .     0
      DISPLACEMENT VECTOR . . .     0
      ACCELERATION VECTOR . . .     0
      CONTACT FORCES. . . . . .     0
      INTERNAL FORCES . . . . .     0
      EXTERNAL FORCES . . . . .     0
      SECTION RBY RWALL FORCES.     0
      ROTATIONAL VELOCITY VECTOR    0
      CONTACT PRESSURE (VECTORS)    0
 SHELL TENSOR SAVED ON ANIMATION FILES (1: YES) :
      MEMBRANE STRESS . . . . .     0
      BENDING STRESS(MOMENT/T^2)    0
      UPPER LAYER STRESS. . . .     0
      LOWER LAYER STRESS. . . .     0
      MEMBRANE STRAIN . . . . .     0
      CURVATURE . . . . . . . .     0
      UPPER LAYER STRAIN. . . .     0
      LOWER LAYER STRAIN. . . .     0
 NODAL MASS SAVED ON ANIMATION FILES (1: YES) :    0
 KEEP DELETED ELEMENT (1: YES) :    0


 INITIAL TIME STEP. . . . . . . . . . . . . . . .   0.000000    
 MAXIMUM TIME STEP. . . . . . . . . . . . . . . .  0.1000000E+31

 PARALLEL ARITHMETIC ON
 NUMBER OF INTERFACES TO BE ELIMINATED. . . . . .        0

 NUMBER OF SOLID  ELEMENT BLOCKS TO BE ELIMINATED        0

 NUMBER OF QUAD   ELEMENT BLOCKS TO BE ELIMINATED        0

 NUMBER OF SHELL  ELEMENT BLOCKS TO BE ELIMINATED        0

 NUMBER OF TRUSS  ELEMENT BLOCKS TO BE ELIMINATED        0

 NUMBER OF BEAM   ELEMENT BLOCKS TO BE ELIMINATED        0

 NUMBER OF SPRING ELEMENT BLOCKS TO BE ELIMINATED        0

 NUMBER OF SH_3N  ELEMENT BLOCKS TO BE ELIMINATED        0

 NUMBER OF  SPH PARTICLES BLOCKS TO BE ELIMINATED        0

 NUMBER OF RIGID LINKS. . . . . . . . . . . . . .        0

 NUMBER OF NEW BOUNDARY CONDITIONS. . . . . . . .        0

 23/11/2022
   CYCLE    TIME      TIME-STEP  ELEMENT          ERROR  I-ENERGY    K-ENERGY T  K-ENERGY R  EXT-WORK     MAS.ERR     TOTAL MASS  MASS ADDED
       0   0.000      0.4605E-03 SHELL    1000001   0.0%   0.000       0.000       0.000       0.000       0.000      0.4200       0.000    
     ANIMATION FILE: DEUXELCA001 WRITTEN
      10  0.4605E-02  0.4605E-03 SHELL    1000000   0.0%  0.3563       2.629       0.000       2.985       0.000      0.4200       0.000    
      20  0.9210E-02  0.4605E-03 SHELL    1000000   0.0%  0.7256       2.629       0.000       3.355       0.000      0.4200       0.000    
      30  0.1381E-01  0.4605E-03 SHELL    1000000   0.0%   1.095       2.629       0.000       3.725       0.000      0.4200       0.000    
      40  0.1842E-01  0.4605E-03 SHELL    1000000   0.0%   1.466       2.629       0.000       4.095       0.000      0.4200       0.000    
      50  0.2302E-01  0.4605E-03 SHELL    1000000   0.0%   1.837       2.629       0.000       4.466       0.000      0.4200       0.000    
      60  0.2763E-01  0.4605E-03 SHELL    1000000   0.0%   2.209       2.629       0.000       4.838       0.000      0.4200       0.000    
      70  0.3223E-01  0.4605E-03 SHELL    1000000   0.0%   2.581       2.629       0.000       5.210       0.000      0.4200       0.000    
      80  0.3684E-01  0.4605E-03 SHELL    1000000   0.0%   2.955       2.629       0.000       5.584       0.000      0.4200       0.000    
      90  0.4144E-01  0.4605E-03 SHELL    1000000   0.0%   3.329       2.629       0.000       5.958       0.000      0.4200       0.000    
     100  0.4605E-01  0.4605E-03 SHELL    1000000   0.0%   3.704       2.629       0.000       6.333       0.000      0.4200       0.000    
     110  0.5065E-01  0.4605E-03 SHELL    1000000   0.0%   4.079       2.629       0.000       6.708       0.000      0.4200       0.000    
     120  0.5526E-01  0.4605E-03 SHELL    1000000   0.0%   4.455       2.630       0.000       7.084       0.000      0.4200       0.000    
     130  0.5986E-01  0.4605E-03 SHELL    1000000   0.0%   4.832       2.630       0.000       7.461       0.000      0.4200       0.000    
     140  0.6447E-01  0.4605E-03 SHELL    1000000   0.0%   5.210       2.630       0.000       7.839       0.000      0.4200       0.000    
     150  0.6907E-01  0.4605E-03 SHELL    1000000   0.0%   5.589       2.630       0.000       8.218       0.000      0.4200       0.000    
     160  0.7368E-01  0.4605E-03 SHELL    1000000   0.0%   5.968       2.630       0.000       8.597       0.000      0.4200       0.000    
     170  0.7828E-01  0.4605E-03 SHELL    1000000   0.0%   6.348       2.630       0.000       8.977       0.000      0.4200       0.000    
     180  0.8289E-01  0.4605E-03 SHELL    1000000   0.0%   6.729       2.630       0.000       9.358       0.000      0.4200       0.000    
     190  0.8749E-01  0.4605E-03 SHELL    1000000   0.0%   7.111       2.630       0.000       9.740       0.000      0.4200       0.000    
     200  0.9210E-01  0.4605E-03 SHELL    1000000   0.0%   7.493       2.630       0.000       10.12       0.000      0.4200       0.000    
     210  0.9670E-01  0.4605E-03 SHELL    1000000   0.0%   7.876       2.630       0.000       10.51       0.000      0.4200       0.000    
     220  0.1013      0.4605E-03 SHELL    1000000   0.0%   8.260       2.630       0.000       10.89       0.000      0.4200       0.000    
     230  0.1059      0.4605E-03 SHELL    1000000   0.0%   8.645       2.630       0.000       11.27       0.000      0.4200       0.000    
     240  0.1105      0.4605E-03 SHELL    1000000   0.0%   9.030       2.630       0.000       11.66       0.000      0.4200       0.000    
     250  0.1151      0.4605E-03 SHELL    1000000   0.0%   9.417       2.630       0.000       12.05       0.000      0.4200       0.000    
     260  0.1197      0.4605E-03 SHELL    1000000   0.0%   9.804       2.630       0.000       12.43       0.000      0.4200       0.000    
     270  0.1243      0.4605E-03 SHELL    1000000   0.0%   10.19       2.630       0.000       12.82       0.000      0.4200       0.000    
     280  0.1289      0.4605E-03 SHELL    1000000   0.0%   10.58       2.630       0.000       13.21       0.000      0.4200       0.000    
     290  0.1335      0.4605E-03 SHELL    1000000   0.0%   10.97       2.630       0.000       13.60       0.000      0.4200       0.000    
     300  0.1381      0.4605E-03 SHELL    1000000   0.0%   11.36       2.630       0.000       13.99       0.000      0.4200       0.000    
     310  0.1428      0.4605E-03 SHELL    1000000   0.0%   11.75       2.630       0.000       14.38       0.000      0.4200       0.000    
     320  0.1474      0.4605E-03 SHELL    1000000   0.0%   12.14       2.630       0.000       14.77       0.000      0.4200       0.000    
     330  0.1520      0.4605E-03 SHELL    1000000   0.0%   12.54       2.630       0.000       15.17       0.000      0.4200       0.000    
     340  0.1566      0.4605E-03 SHELL    1000000   0.0%   12.93       2.630       0.000       15.56       0.000      0.4200       0.000    
     350  0.1612      0.4605E-03 SHELL    1000000   0.0%   13.32       2.630       0.000       15.95       0.000      0.4200       0.000    
     360  0.1658      0.4605E-03 SHELL    1000000   0.0%   13.72       2.630       0.000       16.35       0.000      0.4200       0.000    
     370  0.1704      0.4605E-03 SHELL    1000000   0.0%   14.12       2.630       0.000       16.74       0.000      0.4200       0.000    
     380  0.1750      0.4605E-03 SHELL    1000000   0.0%   14.51       2.630       0.000       17.14       0.000      0.4200       0.000    
     390  0.1796      0.4605E-03 SHELL    1000000   0.0%   14.91       2.630       0.000       17.54       0.000      0.4200       0.000    
     400  0.1842      0.4605E-03 SHELL    1000000   0.0%   15.31       2.630       0.000       17.94       0.000      0.4200       0.000    
     410  0.1888      0.4605E-03 SHELL    1000000   0.0%   15.71       2.630       0.000       18.34       0.000      0.4200       0.000    
     420  0.1934      0.4605E-03 SHELL    1000000   0.0%   16.11       2.630       0.000       18.74       0.000      0.4200       0.000    
     430  0.1980      0.4605E-03 SHELL    1000000   0.0%   16.51       2.631       0.000       19.14       0.000      0.4200       0.000    
     ANIMATION FILE: DEUXELCA002 WRITTEN
     440  0.2026      0.4605E-03 SHELL    1000000   0.0%   16.91       2.631       0.000       19.54       0.000      0.4200       0.000    
     450  0.2072      0.4605E-03 SHELL    1000000   0.0%   17.31       2.631       0.000       19.94       0.000      0.4200       0.000    
     460  0.2118      0.4605E-03 SHELL    1000000   0.0%   17.72       2.631       0.000       20.35       0.000      0.4200       0.000    
     470  0.2164      0.4605E-03 SHELL    1000000   0.0%   18.12       2.631       0.000       20.75       0.000      0.4200       0.000    
     480  0.2210      0.4605E-03 SHELL    1000000   0.0%   18.53       2.631       0.000       21.16       0.000      0.4200       0.000    
     490  0.2256      0.4605E-03 SHELL    1000000   0.0%   18.94       2.631       0.000       21.56       0.000      0.4200       0.000    
     500  0.2302      0.4605E-03 SHELL    1000000   0.0%   19.34       2.631       0.000       21.97       0.000      0.4200       0.000    
     510  0.2349      0.4605E-03 SHELL    1000000   0.0%   19.75       2.631       0.000       22.38       0.000      0.4200       0.000    
     520  0.2395      0.4605E-03 SHELL    1000000   0.0%   20.16       2.631       0.000       22.79       0.000      0.4200       0.000    
     530  0.2441      0.4605E-03 SHELL    1000000   0.0%   20.57       2.631       0.000       23.20       0.000      0.4200       0.000    
     540  0.2487      0.4605E-03 SHELL    1000000   0.0%   20.98       2.631       0.000       23.61       0.000      0.4200       0.000    
   CYCLE    TIME      TIME-STEP  ELEMENT          ERROR  I-ENERGY    K-ENERGY T  K-ENERGY R  EXT-WORK     MAS.ERR     TOTAL MASS  MASS ADDED
     550  0.2533      0.4605E-03 SHELL    1000000   0.0%   21.39       2.631       0.000       24.02       0.000      0.4200       0.000    
     560  0.2579      0.4605E-03 SHELL    1000000   0.0%   21.81       2.631       0.000       24.43       0.000      0.4200       0.000    
     570  0.2625      0.4605E-03 SHELL    1000000   0.0%   22.22       2.631       0.000       24.85       0.000      0.4200       0.000    
     580  0.2671      0.4605E-03 SHELL    1000000   0.0%   22.63       2.631       0.000       25.26       0.000      0.4200       0.000    
     590  0.2717      0.4605E-03 SHELL    1000000   0.0%   23.05       2.631       0.000       25.68       0.000      0.4200       0.000    
     600  0.2763      0.4605E-03 SHELL    1000000   0.0%   23.47       2.631       0.000       26.09       0.000      0.4200       0.000    
     610  0.2809      0.4605E-03 SHELL    1000000   0.0%   23.88       2.631       0.000       26.51       0.000      0.4200       0.000    
     620  0.2855      0.4605E-03 SHELL    1000000   0.0%   24.30       2.631       0.000       26.93       0.000      0.4200       0.000    
     630  0.2901      0.4605E-03 SHELL    1000000   0.0%   24.72       2.631       0.000       27.35       0.000      0.4200       0.000    
     640  0.2947      0.4605E-03 SHELL    1000000   0.0%   25.14       2.631       0.000       27.77       0.000      0.4200       0.000    
     650  0.2993      0.4605E-03 SHELL    1000000   0.0%   25.56       2.631       0.000       28.19       0.000      0.4200       0.000    
     660  0.3039      0.4605E-03 SHELL    1000000   0.0%   25.98       2.631       0.000       28.61       0.000      0.4200       0.000    
     670  0.3085      0.4605E-03 SHELL    1000000   0.0%   26.41       2.632       0.000       29.04       0.000      0.4200       0.000    
     680  0.3131      0.4605E-03 SHELL    1000000   0.0%   26.83       2.632       0.000       29.46       0.000      0.4200       0.000    
     690  0.3177      0.4605E-03 SHELL    1000000   0.0%   27.26       2.632       0.000       29.89       0.000      0.4200       0.000    
     700  0.3223      0.4605E-03 SHELL    1000000   0.0%   27.68       2.632       0.000       30.31       0.000      0.4200       0.000    
     710  0.3270      0.4605E-03 SHELL    1000000   0.0%   28.11       2.632       0.000       30.74       0.000      0.4200       0.000    
     720  0.3316      0.4605E-03 SHELL    1000000   0.0%   28.54       2.632       0.000       31.17       0.000      0.4200       0.000    
     730  0.3362      0.4605E-03 SHELL    1000000   0.0%   28.97       2.632       0.000       31.60       0.000      0.4200       0.000    
     740  0.3408      0.4605E-03 SHELL    1000000   0.0%   29.40       2.632       0.000       32.03       0.000      0.4200       0.000    
     750  0.3454      0.4605E-03 SHELL    1000000   0.0%   29.83       2.632       0.000       32.46       0.000      0.4200       0.000    
     760  0.3500      0.4605E-03 SHELL    1000000   0.0%   30.26       2.632       0.000       32.89       0.000      0.4200       0.000    
     770  0.3546      0.4605E-03 SHELL    1000000   0.0%   30.69       2.632       0.000       33.32       0.000      0.4200       0.000    
     780  0.3592      0.4605E-03 SHELL    1000000   0.0%   31.13       2.632       0.000       33.76       0.000      0.4200       0.000    
     790  0.3638      0.4605E-03 SHELL    1000000   0.0%   31.56       2.632       0.000       34.19       0.000      0.4200       0.000    
     800  0.3684      0.4605E-03 SHELL    1000000   0.0%   32.00       2.632       0.000       34.63       0.000      0.4200       0.000    
     810  0.3730      0.4605E-03 SHELL    1000000   0.0%   32.43       2.632       0.000       35.06       0.000      0.4200       0.000    
     820  0.3776      0.4605E-03 SHELL    1000000   0.0%   32.87       2.632       0.000       35.50       0.000      0.4200       0.000    
     830  0.3822      0.4605E-03 SHELL    1000000   0.0%   33.31       2.632       0.000       35.94       0.000      0.4200       0.000    
     840  0.3868      0.4605E-03 SHELL    1000000   0.0%   33.75       2.632       0.000       36.38       0.000      0.4200       0.000    
     850  0.3914      0.4605E-03 SHELL    1000000   0.0%   34.19       2.632       0.000       36.82       0.000      0.4200       0.000    
     860  0.3960      0.4605E-03 SHELL    1000000   0.0%   34.64       2.632       0.000       37.27       0.000      0.4200       0.000    
     ANIMATION FILE: DEUXELCA003 WRITTEN
     870  0.4006      0.4605E-03 SHELL    1000000   0.0%   35.08       2.633       0.000       37.71       0.000      0.4200       0.000    
     880  0.4052      0.4605E-03 SHELL    1000000   0.0%   35.52       2.633       0.000       38.15       0.000      0.4200       0.000    
     890  0.4098      0.4605E-03 SHELL    1000000   0.0%   35.97       2.633       0.000       38.60       0.000      0.4200       0.000    
     900  0.4144      0.4605E-03 SHELL    1000000   0.0%   36.42       2.633       0.000       39.05       0.000      0.4200       0.000    
     910  0.4191      0.4605E-03 SHELL    1000000   0.0%   36.86       2.633       0.000       39.49       0.000      0.4200       0.000    
     920  0.4237      0.4605E-03 SHELL    1000000   0.0%   37.31       2.633       0.000       39.94       0.000      0.4200       0.000    
     930  0.4283      0.4605E-03 SHELL    1000000   0.0%   37.76       2.633       0.000       40.39       0.000      0.4200       0.000    
     940  0.4329      0.4605E-03 SHELL    1000000   0.0%   38.21       2.633       0.000       40.84       0.000      0.4200       0.000    
     950  0.4375      0.4605E-03 SHELL    1000000   0.0%   38.67       2.633       0.000       41.30       0.000      0.4200       0.000    
     960  0.4421      0.4605E-03 SHELL    1000000   0.0%   39.12       2.633       0.000       41.75       0.000      0.4200       0.000    
     970  0.4467      0.4605E-03 SHELL    1000000   0.0%   39.57       2.633       0.000       42.20       0.000      0.4200       0.000    
     980  0.4513      0.4605E-03 SHELL    1000000   0.0%   40.03       2.633       0.000       42.66       0.000      0.4200       0.000    
     990  0.4559      0.4605E-03 SHELL    1000000   0.0%   40.49       2.633       0.000       43.12       0.000      0.4200       0.000    
    1000  0.4605      0.4605E-03 SHELL    1000000   0.0%   40.95       2.633       0.000       43.57       0.000      0.4200       0.000    
    1010  0.4651      0.4605E-03 SHELL    1000000   0.0%   41.40       2.633       0.000       44.03       0.000      0.4200       0.000    
    1020  0.4697      0.4605E-03 SHELL    1000000   0.0%   41.86       2.633       0.000       44.49       0.000      0.4200       0.000    
    1030  0.4743      0.4605E-03 SHELL    1000000   0.0%   42.33       2.634       0.000       44.95       0.000      0.4200       0.000    
    1040  0.4789      0.4605E-03 SHELL    1000000   0.0%   42.79       2.634       0.000       45.42       0.000      0.4200       0.000    
    1050  0.4835      0.4605E-03 SHELL    1000000   0.0%   43.25       2.634       0.000       45.88       0.000      0.4200       0.000    
    1060  0.4881      0.4605E-03 SHELL    1000000   0.0%   43.72       2.634       0.000       46.35       0.000      0.4200       0.000    
    1070  0.4927      0.4605E-03 SHELL    1000000   0.0%   44.18       2.634       0.000       46.81       0.000      0.4200       0.000    
    1080  0.4973      0.4605E-03 SHELL    1000000   0.0%   44.65       2.634       0.000       47.28       0.000      0.4200       0.000    
    1090  0.5019      0.4605E-03 SHELL    1000000   0.0%   45.12       2.634       0.000       47.75       0.000      0.4200       0.000    
   CYCLE    TIME      TIME-STEP  ELEMENT          ERROR  I-ENERGY    K-ENERGY T  K-ENERGY R  EXT-WORK     MAS.ERR     TOTAL MASS  MASS ADDED
    1100  0.5065      0.4605E-03 SHELL    1000000   0.0%   45.59       2.634       0.000       48.22       0.000      0.4200       0.000    
    1110  0.5112      0.4605E-03 SHELL    1000000   0.0%   46.06       2.634       0.000       48.69       0.000      0.4200       0.000    
    1120  0.5158      0.4605E-03 SHELL    1000000   0.0%   46.53       2.634       0.000       49.16       0.000      0.4200       0.000    
    1130  0.5204      0.4605E-03 SHELL    1000000   0.0%   47.01       2.634       0.000       49.63       0.000      0.4200       0.000    
    1140  0.5250      0.4605E-03 SHELL    1000000   0.0%   47.48       2.634       0.000       50.11       0.000      0.4200       0.000    
    1150  0.5296      0.4605E-03 SHELL    1000000   0.0%   47.96       2.634       0.000       50.59       0.000      0.4200       0.000    
    1160  0.5342      0.4605E-03 SHELL    1000000   0.0%   48.43       2.634       0.000       51.06       0.000      0.4200       0.000    
    1170  0.5388      0.4605E-03 SHELL    1000000   0.0%   48.91       2.635       0.000       51.54       0.000      0.4200       0.000    
    1180  0.5434      0.4605E-03 SHELL    1000000   0.0%   49.39       2.635       0.000       52.02       0.000      0.4200       0.000    
    1190  0.5480      0.4605E-03 SHELL    1000000   0.0%   49.87       2.635       0.000       52.50       0.000      0.4200       0.000    
    1200  0.5526      0.4605E-03 SHELL    1000000   0.0%   50.36       2.635       0.000       52.98       0.000      0.4200       0.000    
    1210  0.5572      0.4605E-03 SHELL    1000000   0.0%   50.84       2.635       0.000       53.47       0.000      0.4200       0.000    
    1220  0.5618      0.4605E-03 SHELL    1000000   0.0%   51.32       2.635       0.000       53.95       0.000      0.4200       0.000    
    1230  0.5664      0.4605E-03 SHELL    1000000   0.0%   51.81       2.635       0.000       54.44       0.000      0.4200       0.000    
    1240  0.5710      0.4605E-03 SHELL    1000000   0.0%   52.30       2.635       0.000       54.93       0.000      0.4200       0.000    
    1250  0.5756      0.4605E-03 SHELL    1000000   0.0%   52.79       2.635       0.000       55.42       0.000      0.4200       0.000    
    1260  0.5802      0.4605E-03 SHELL    1000000   0.0%   53.28       2.635       0.000       55.91       0.000      0.4200       0.000    
    1270  0.5848      0.4605E-03 SHELL    1000000   0.0%   53.77       2.635       0.000       56.40       0.000      0.4200       0.000    
    1280  0.5894      0.4605E-03 SHELL    1000000   0.0%   54.26       2.635       0.000       56.89       0.000      0.4200       0.000    
    1290  0.5940      0.4605E-03 SHELL    1000000   0.0%   54.76       2.636       0.000       57.38       0.000      0.4200       0.000    
    1300  0.5986      0.4605E-03 SHELL    1000000   0.0%   55.25       2.636       0.000       57.88       0.000      0.4200       0.000    
     ANIMATION FILE: DEUXELCA004 WRITTEN
    1310  0.6033      0.4605E-03 SHELL    1000000   0.0%   55.75       2.636       0.000       58.38       0.000      0.4200       0.000    
    1320  0.6079      0.4605E-03 SHELL    1000000   0.0%   56.25       2.636       0.000       58.88       0.000      0.4200       0.000    
    1330  0.6125      0.4605E-03 SHELL    1000000   0.0%   56.75       2.636       0.000       59.38       0.000      0.4200       0.000    
    1340  0.6171      0.4605E-03 SHELL    1000000   0.0%   57.25       2.636       0.000       59.88       0.000      0.4200       0.000    
    1350  0.6217      0.4605E-03 SHELL    1000000   0.0%   57.75       2.636       0.000       60.38       0.000      0.4200       0.000    
    1360  0.6263      0.4605E-03 SHELL    1000000   0.0%   58.25       2.636       0.000       60.88       0.000      0.4200       0.000    
    1370  0.6309      0.4605E-03 SHELL    1000000   0.0%   58.76       2.636       0.000       61.39       0.000      0.4200       0.000    
    1380  0.6355      0.4605E-03 SHELL    1000000   0.0%   59.27       2.636       0.000       61.89       0.000      0.4200       0.000    
    1390  0.6401      0.4605E-03 SHELL    1000000   0.0%   59.77       2.637       0.000       62.40       0.000      0.4200       0.000    
    1400  0.6447      0.4605E-03 SHELL    1000000   0.0%   60.28       2.637       0.000       62.91       0.000      0.4200       0.000    
    1410  0.6493      0.4605E-03 SHELL    1000000   0.0%   60.79       2.637       0.000       63.42       0.000      0.4200       0.000    
    1420  0.6539      0.4605E-03 SHELL    1000000   0.0%   61.31       2.637       0.000       63.94       0.000      0.4200       0.000    
    1430  0.6585      0.4605E-03 SHELL    1000000   0.0%   61.82       2.637       0.000       64.45       0.000      0.4200       0.000    
    1440  0.6631      0.4605E-03 SHELL    1000000   0.0%   62.34       2.637       0.000       64.97       0.000      0.4200       0.000    
    1450  0.6677      0.4605E-03 SHELL    1000000   0.0%   62.85       2.637       0.000       65.48       0.000      0.4200       0.000    
    1460  0.6723      0.4605E-03 SHELL    1000000   0.0%   63.37       2.637       0.000       66.00       0.000      0.4200       0.000    
    1470  0.6769      0.4605E-03 SHELL    1000000   0.0%   63.89       2.637       0.000       66.52       0.000      0.4200       0.000    
    1480  0.6815      0.4605E-03 SHELL    1000000   0.0%   64.41       2.638       0.000       67.04       0.000      0.4200       0.000    
    1490  0.6861      0.4605E-03 SHELL    1000000   0.0%   64.94       2.638       0.000       67.57       0.000      0.4200       0.000    
    1500  0.6907      0.4605E-03 SHELL    1000000   0.0%   65.46       2.638       0.000       68.09       0.000      0.4200       0.000    
    1510  0.6954      0.4605E-03 SHELL    1000000   0.0%   65.99       2.638       0.000       68.62       0.000      0.4200       0.000    
    1520  0.7000      0.4605E-03 SHELL    1000000   0.0%   66.52       2.638       0.000       69.15       0.000      0.4200       0.000    
    1530  0.7046      0.4605E-03 SHELL    1000000   0.0%   67.05       2.638       0.000       69.68       0.000      0.4200       0.000    
    1540  0.7092      0.4605E-03 SHELL    1000000   0.0%   67.58       2.638       0.000       70.21       0.000      0.4200       0.000    
    1550  0.7138      0.4605E-03 SHELL    1000000   0.0%   68.11       2.638       0.000       70.74       0.000      0.4200       0.000    
    1560  0.7184      0.4605E-03 SHELL    1000000   0.0%   68.64       2.638       0.000       71.27       0.000      0.4200       0.000    
    1570  0.7230      0.4605E-03 SHELL    1000000   0.0%   69.18       2.639       0.000       71.81       0.000      0.4200       0.000    
    1580  0.7276      0.4605E-03 SHELL    1000000   0.0%   69.72       2.639       0.000       72.35       0.000      0.4200       0.000    
    1590  0.7322      0.4605E-03 SHELL    1000000   0.0%   70.26       2.639       0.000       72.89       0.000      0.4200       0.000    
    1600  0.7368      0.4605E-03 SHELL    1000000   0.0%   70.80       2.639       0.000       73.43       0.000      0.4200       0.000    
    1610  0.7414      0.4605E-03 SHELL    1000000   0.0%   71.34       2.639       0.000       73.97       0.000      0.4200       0.000    
    1620  0.7460      0.4605E-03 SHELL    1000000   0.0%   71.88       2.639       0.000       74.51       0.000      0.4200       0.000    
    1630  0.7506      0.4605E-03 SHELL    1000000   0.0%   72.43       2.639       0.000       75.06       0.000      0.4200       0.000    
    1640  0.7552      0.4605E-03 SHELL    1000000   0.0%   72.98       2.640       0.000       75.61       0.000      0.4200       0.000    
   CYCLE    TIME      TIME-STEP  ELEMENT          ERROR  I-ENERGY    K-ENERGY T  K-ENERGY R  EXT-WORK     MAS.ERR     TOTAL MASS  MASS ADDED
    1650  0.7598      0.4605E-03 SHELL    1000000   0.0%   73.53       2.640       0.000       76.16       0.000      0.4200       0.000    
    1660  0.7644      0.4605E-03 SHELL    1000000   0.0%   74.08       2.640       0.000       76.71       0.000      0.4200       0.000    
    1670  0.7690      0.4605E-03 SHELL    1000000   0.0%   74.63       2.640       0.000       77.26       0.000      0.4200       0.000    
    1680  0.7736      0.4605E-03 SHELL    1000000   0.0%   75.18       2.640       0.000       77.81       0.000      0.4200       0.000    
    1690  0.7782      0.4605E-03 SHELL    1000000   0.0%   75.74       2.640       0.000       78.37       0.000      0.4200       0.000    
    1700  0.7828      0.4605E-03 SHELL    1000000   0.0%   76.30       2.640       0.000       78.93       0.000      0.4200       0.000    
    1710  0.7875      0.4605E-03 SHELL    1000000   0.0%   76.86       2.641       0.000       79.49       0.000      0.4200       0.000    
    1720  0.7921      0.4605E-03 SHELL    1000000   0.0%   77.42       2.641       0.000       80.05       0.000      0.4200       0.000    
    1730  0.7967      0.4605E-03 SHELL    1000000   0.0%   77.98       2.641       0.000       80.61       0.000      0.4200       0.000    
     ANIMATION FILE: DEUXELCA005 WRITTEN
    1740  0.8013      0.4605E-03 SHELL    1000000   0.0%   78.55       2.641       0.000       81.18       0.000      0.4200       0.000    
    1750  0.8059      0.4605E-03 SHELL    1000000   0.0%   79.11       2.641       0.000       81.75       0.000      0.4200       0.000    
    1760  0.8105      0.4605E-03 SHELL    1000000   0.0%   79.68       2.641       0.000       82.31       0.000      0.4200       0.000    
    1770  0.8151      0.4605E-03 SHELL    1000000   0.0%   80.25       2.642       0.000       82.88       0.000      0.4200       0.000    
    1780  0.8197      0.4605E-03 SHELL    1000000   0.0%   80.83       2.642       0.000       83.46       0.000      0.4200       0.000    
    1790  0.8243      0.4605E-03 SHELL    1000000   0.0%   81.40       2.642       0.000       84.03       0.000      0.4200       0.000    
    1800  0.8289      0.4605E-03 SHELL    1000000   0.0%   81.98       2.642       0.000       84.61       0.000      0.4200       0.000    
    1810  0.8335      0.4605E-03 SHELL    1000000   0.0%   82.55       2.642       0.000       85.19       0.000      0.4200       0.000    
    1820  0.8381      0.4605E-03 SHELL    1000000   0.0%   83.13       2.642       0.000       85.77       0.000      0.4200       0.000    
    1830  0.8427      0.4605E-03 SHELL    1000000   0.0%   83.72       2.643       0.000       86.35       0.000      0.4200       0.000    
    1840  0.8473      0.4605E-03 SHELL    1000000   0.0%   84.30       2.643       0.000       86.93       0.000      0.4200       0.000    
    1850  0.8519      0.4605E-03 SHELL    1000000   0.0%   84.89       2.643       0.000       87.52       0.000      0.4200       0.000    
    1860  0.8565      0.4605E-03 SHELL    1000000   0.0%   85.47       2.643       0.000       88.11       0.000      0.4200       0.000    
    1870  0.8611      0.4605E-03 SHELL    1000000   0.0%   86.06       2.643       0.000       88.70       0.000      0.4200       0.000    
    1880  0.8657      0.4605E-03 SHELL    1000000   0.0%   86.66       2.644       0.000       89.29       0.000      0.4200       0.000    
    1890  0.8703      0.4605E-03 SHELL    1000000   0.0%   87.25       2.644       0.000       89.88       0.000      0.4200       0.000    
    1900  0.8749      0.4605E-03 SHELL    1000000   0.0%   87.85       2.644       0.000       90.48       0.000      0.4200       0.000    
    1910  0.8796      0.4605E-03 SHELL    1000000   0.0%   88.44       2.644       0.000       91.08       0.000      0.4200       0.000    
    1920  0.8842      0.4605E-03 SHELL    1000000   0.0%   89.04       2.644       0.000       91.68       0.000      0.4200       0.000    
    1930  0.8888      0.4605E-03 SHELL    1000000   0.0%   89.65       2.645       0.000       92.28       0.000      0.4200       0.000    
    1940  0.8934      0.4605E-03 SHELL    1000000   0.0%   90.25       2.645       0.000       92.88       0.000      0.4200       0.000    
    1950  0.8980      0.4605E-03 SHELL    1000000   0.0%   90.86       2.645       0.000       93.49       0.000      0.4200       0.000    
    1960  0.9026      0.4605E-03 SHELL    1000000   0.0%   91.47       2.645       0.000       94.10       0.000      0.4200       0.000    
    1970  0.9072      0.4605E-03 SHELL    1000000   0.0%   92.08       2.645       0.000       94.71       0.000      0.4200       0.000    
    1980  0.9118      0.4605E-03 SHELL    1000000   0.0%   92.69       2.646       0.000       95.32       0.000      0.4200       0.000    
    1990  0.9164      0.4605E-03 SHELL    1000000   0.0%   93.31       2.646       0.000       95.94       0.000      0.4200       0.000    
    2000  0.9210      0.4605E-03 SHELL    1000000   0.0%   93.92       2.646       0.000       96.56       0.000      0.4200       0.000    
    2010  0.9256      0.4605E-03 SHELL    1000000   0.0%   94.54       2.646       0.000       97.18       0.000      0.4200       0.000    
    2020  0.9302      0.4605E-03 SHELL    1000000   0.0%   95.16       2.647       0.000       97.80       0.000      0.4200       0.000    
    2030  0.9348      0.4605E-03 SHELL    1000000   0.0%   95.79       2.647       0.000       98.42       0.000      0.4200       0.000    
    2040  0.9394      0.4605E-03 SHELL    1000000   0.0%   96.41       2.647       0.000       99.05       0.000      0.4200       0.000    
    2050  0.9440      0.4605E-03 SHELL    1000000   0.0%   97.04       2.647       0.000       99.68       0.000      0.4200       0.000    
    2060  0.9486      0.4605E-03 SHELL    1000000   0.0%   97.67       2.648       0.000       100.3       0.000      0.4200       0.000    
    2070  0.9532      0.4605E-03 SHELL    1000000   0.0%   98.31       2.648       0.000       100.9       0.000      0.4200       0.000    
    2080  0.9578      0.4605E-03 SHELL    1000000   0.0%   98.94       2.648       0.000       101.6       0.000      0.4200       0.000    
    2090  0.9624      0.4605E-03 SHELL    1000000   0.0%   99.58       2.648       0.000       102.2       0.000      0.4200       0.000    
    2100  0.9670      0.4605E-03 SHELL    1000000   0.0%   100.2       2.649       0.000       102.9       0.000      0.4200       0.000    
    2110  0.9716      0.4605E-03 SHELL    1000000   0.0%   100.9       2.649       0.000       103.5       0.000      0.4200       0.000    
    2120  0.9763      0.4605E-03 SHELL    1000000   0.0%   101.5       2.649       0.000       104.1       0.000      0.4200       0.000    
    2130  0.9809      0.4605E-03 SHELL    1000000   0.0%   102.2       2.649       0.000       104.8       0.000      0.4200       0.000    
    2140  0.9855      0.4605E-03 SHELL    1000000   0.0%   102.8       2.650       0.000       105.4       0.000      0.4200       0.000    
    2150  0.9901      0.4605E-03 SHELL    1000000   0.0%   103.5       2.650       0.000       106.1       0.000      0.4200       0.000    
    2160  0.9947      0.4605E-03 SHELL    1000000   0.0%   104.1       2.650       0.000       106.8       0.000      0.4200       0.000    
    2170  0.9993      0.4605E-03 SHELL    1000000   0.0%   104.8       2.651       0.000       107.4       0.000      0.4200       0.000    
     ANIMATION FILE: DEUXELCA006 WRITTEN
    2180   1.004      0.4605E-03 SHELL    1000000   0.0%   105.4       2.651       0.000       108.1       0.000      0.4200       0.000    
    2190   1.008      0.4605E-03 SHELL    1000000   0.0%   106.1       2.651       0.000       108.7       0.000      0.4200       0.000    
   CYCLE    TIME      TIME-STEP  ELEMENT          ERROR  I-ENERGY    K-ENERGY T  K-ENERGY R  EXT-WORK     MAS.ERR     TOTAL MASS  MASS ADDED
    2200   1.013      0.4605E-03 SHELL    1000000   0.0%   106.8       2.652       0.000       109.4       0.000      0.4200       0.000    
    2210   1.018      0.4605E-03 SHELL    1000000   0.0%   107.4       2.652       0.000       110.1       0.000      0.4200       0.000    
    2220   1.022      0.4605E-03 SHELL    1000000   0.0%   108.1       2.652       0.000       110.7       0.000      0.4200       0.000    
    2230   1.027      0.4605E-03 SHELL    1000000   0.0%   108.8       2.653       0.000       111.4       0.000      0.4200       0.000    
    2240   1.032      0.4605E-03 SHELL    1000000   0.0%   109.4       2.653       0.000       112.1       0.000      0.4200       0.000    
    2250   1.036      0.4605E-03 SHELL    1000000   0.0%   110.1       2.653       0.000       112.8       0.000      0.4200       0.000    
    2260   1.041      0.4605E-03 SHELL    1000000   0.0%   110.8       2.654       0.000       113.4       0.000      0.4200       0.000    
    2270   1.045      0.4605E-03 SHELL    1000000   0.0%   111.5       2.654       0.000       114.1       0.000      0.4200       0.000    
    2280   1.050      0.4605E-03 SHELL    1000000   0.0%   112.2       2.654       0.000       114.8       0.000      0.4200       0.000    
    2290   1.055      0.4605E-03 SHELL    1000000   0.0%   112.9       2.655       0.000       115.5       0.000      0.4200       0.000    
    2300   1.059      0.4605E-03 SHELL    1000000   0.0%   113.6       2.655       0.000       116.2       0.000      0.4200       0.000    
    2310   1.064      0.4605E-03 SHELL    1000000   0.0%   114.3       2.655       0.000       116.9       0.000      0.4200       0.000    
    2320   1.068      0.4605E-03 SHELL    1000000   0.0%   115.0       2.656       0.000       117.6       0.000      0.4200       0.000    
    2330   1.073      0.4605E-03 SHELL    1000000   0.0%   115.7       2.656       0.000       118.3       0.000      0.4200       0.000    
    2340   1.078      0.4605E-03 SHELL    1000000   0.0%   116.4       2.657       0.000       119.0       0.000      0.4200       0.000    
    2350   1.082      0.4605E-03 SHELL    1000000   0.0%   117.1       2.657       0.000       119.7       0.000      0.4200       0.000    
    2360   1.087      0.4605E-03 SHELL    1000000   0.0%   117.8       2.657       0.000       120.4       0.000      0.4200       0.000    
    2370   1.091      0.4605E-03 SHELL    1000000   0.0%   118.5       2.658       0.000       121.1       0.000      0.4200       0.000    
    2380   1.096      0.4605E-03 SHELL    1000000   0.0%   119.2       2.658       0.000       121.8       0.000      0.4200       0.000    
    2390   1.101      0.4605E-03 SHELL    1000000   0.0%   119.9       2.659       0.000       122.6       0.000      0.4200       0.000    
    2400   1.105      0.4605E-03 SHELL    1000000   0.0%   120.7       2.659       0.000       123.3       0.000      0.4200       0.000    
    2410   1.110      0.4605E-03 SHELL    1000000   0.0%   121.4       2.660       0.000       124.0       0.000      0.4200       0.000    
    2420   1.114      0.4605E-03 SHELL    1000000   0.0%   122.1       2.660       0.000       124.7       0.000      0.4200       0.000    
    2430   1.119      0.4605E-03 SHELL    1000000   0.0%   122.8       2.661       0.000       125.5       0.000      0.4200       0.000    
    2440   1.124      0.4605E-03 SHELL    1000000   0.0%   123.6       2.661       0.000       126.2       0.000      0.4200       0.000    
    2450   1.128      0.4605E-03 SHELL    1000000   0.0%   124.3       2.662       0.000       127.0       0.000      0.4200       0.000    
    2460   1.133      0.4605E-03 SHELL    1000000   0.0%   125.1       2.662       0.000       127.7       0.000      0.4200       0.000    
    2470   1.137      0.4605E-03 SHELL    1000000   0.0%   125.8       2.663       0.000       128.4       0.000      0.4200       0.000    
    2480   1.142      0.4605E-03 SHELL    1000000   0.0%   126.5       2.663       0.000       129.2       0.000      0.4200       0.000    
    2490   1.147      0.4605E-03 SHELL    1000000   0.0%   127.3       2.664       0.000       129.9       0.000      0.4200       0.000    
    2500   1.151      0.4605E-03 SHELL    1000000   0.0%   128.1       2.664       0.000       130.7       0.000      0.4200       0.000    
    2510   1.156      0.4605E-03 SHELL    1000000   0.0%   128.8       2.665       0.000       131.5       0.000      0.4200       0.000    
    2520   1.160      0.4605E-03 SHELL    1000000   0.0%   129.6       2.665       0.000       132.2       0.000      0.4200       0.000    
    2530   1.165      0.4605E-03 SHELL    1000000   0.0%   130.3       2.666       0.000       133.0       0.000      0.4200       0.000    
    2540   1.170      0.4605E-03 SHELL    1000000   0.0%   131.1       2.666       0.000       133.8       0.000      0.4200       0.000    
    2550   1.174      0.4605E-03 SHELL    1000000   0.0%   131.9       2.667       0.000       134.5       0.000      0.4200       0.000    
    2560   1.179      0.4605E-03 SHELL    1000000   0.0%   132.7       2.668       0.000       135.3       0.000      0.4200       0.000    
    2570   1.183      0.4605E-03 SHELL    1000000   0.0%   133.4       2.668       0.000       136.1       0.000      0.4200       0.000    
    2580   1.188      0.4605E-03 SHELL    1000000   0.0%   134.2       2.669       0.000       136.9       0.000      0.4200       0.000    
    2590   1.193      0.4605E-03 SHELL    1000000   0.0%   135.0       2.670       0.000       137.7       0.000      0.4200       0.000    
    2600   1.197      0.4605E-03 SHELL    1000000   0.0%   135.8       2.670       0.000       138.5       0.000      0.4200       0.000    
     ANIMATION FILE: DEUXELCA007 WRITTEN
    2610   1.202      0.4605E-03 SHELL    1000000   0.0%   136.6       2.671       0.000       139.2       0.000      0.4200       0.000    
    2620   1.207      0.4605E-03 SHELL    1000000   0.0%   137.4       2.672       0.000       140.0       0.000      0.4200       0.000    
    2630   1.211      0.4605E-03 SHELL    1000000   0.0%   138.2       2.672       0.000       140.9       0.000      0.4200       0.000    
    2640   1.216      0.4605E-03 SHELL    1000000   0.0%   139.0       2.673       0.000       141.7       0.000      0.4200       0.000    
    2650   1.220      0.4605E-03 SHELL    1000000   0.0%   139.8       2.674       0.000       142.5       0.000      0.4200       0.000    
    2660   1.225      0.4605E-03 SHELL    1000000   0.0%   140.6       2.674       0.000       143.3       0.000      0.4200       0.000    
    2670   1.230      0.4605E-03 SHELL    1000000   0.0%   141.5       2.675       0.000       144.1       0.000      0.4200       0.000    
    2680   1.234      0.4605E-03 SHELL    1000000   0.0%   142.3       2.676       0.000       144.9       0.000      0.4200       0.000    
    2690   1.239      0.4605E-03 SHELL    1000000   0.0%   143.1       2.677       0.000       145.8       0.000      0.4200       0.000    
    2700   1.243      0.4605E-03 SHELL    1000000   0.0%   143.9       2.678       0.000       146.6       0.000      0.4200       0.000    
    2710   1.248      0.4605E-03 SHELL    1000000   0.0%   144.8       2.678       0.000       147.4       0.000      0.4200       0.000    
    2720   1.253      0.4605E-03 SHELL    1000000   0.0%   145.6       2.679       0.000       148.3       0.000      0.4200       0.000    
    2730   1.257      0.4605E-03 SHELL    1000000   0.0%   146.5       2.680       0.000       149.1       0.000      0.4200       0.000    
    2740   1.262      0.4605E-03 SHELL    1000000   0.0%   147.3       2.681       0.000       150.0       0.000      0.4200       0.000    
   CYCLE    TIME      TIME-STEP  ELEMENT          ERROR  I-ENERGY    K-ENERGY T  K-ENERGY R  EXT-WORK     MAS.ERR     TOTAL MASS  MASS ADDED
    2750   1.266      0.4605E-03 SHELL    1000000   0.0%   148.2       2.682       0.000       150.8       0.000      0.4200       0.000    
    2760   1.271      0.4605E-03 SHELL    1000000   0.0%   149.0       2.683       0.000       151.7       0.000      0.4200       0.000    
    2770   1.276      0.4605E-03 SHELL    1000000   0.0%   149.9       2.684       0.000       152.5       0.000      0.4200       0.000    
    2780   1.280      0.4605E-03 SHELL    1000000   0.0%   150.7       2.685       0.000       153.4       0.000      0.4200       0.000    
    2790   1.285      0.4605E-03 SHELL    1000000   0.0%   151.6       2.686       0.000       154.3       0.000      0.4200       0.000    
    2800   1.289      0.4605E-03 SHELL    1000000   0.0%   152.5       2.687       0.000       155.2       0.000      0.4200       0.000    
    2810   1.294      0.4605E-03 SHELL    1000000   0.0%   153.4       2.688       0.000       156.0       0.000      0.4200       0.000    
    2820   1.299      0.4605E-03 SHELL    1000000   0.0%   154.3       2.689       0.000       156.9       0.000      0.4200       0.000    
    2830   1.303      0.4605E-03 SHELL    1000000   0.0%   155.2       2.690       0.000       157.8       0.000      0.4200       0.000    
    2840   1.308      0.4605E-03 SHELL    1000000   0.0%   156.1       2.691       0.000       158.7       0.000      0.4200       0.000    
    2850   1.312      0.4605E-03 SHELL    1000000   0.0%   157.0       2.692       0.000       159.6       0.000      0.4200       0.000    
    2860   1.317      0.4605E-03 SHELL    1000000   0.0%   157.9       2.693       0.000       160.5       0.000      0.4200       0.000    
    2870   1.322      0.4605E-03 SHELL    1000000   0.0%   158.8       2.694       0.000       161.4       0.000      0.4200       0.000    
    2880   1.326      0.4605E-03 SHELL    1000000   0.0%   159.7       2.695       0.000       162.4       0.000      0.4200       0.000    
    2890   1.331      0.4605E-03 SHELL    1000000   0.0%   160.6       2.697       0.000       163.3       0.000      0.4200       0.000    
    2900   1.335      0.4605E-03 SHELL    1000000   0.0%   161.5       2.698       0.000       164.2       0.000      0.4200       0.000    
    2910   1.340      0.4605E-03 SHELL    1000000   0.0%   162.5       2.699       0.000       165.1       0.000      0.4200       0.000    
    2920   1.345      0.4605E-03 SHELL    1000000   0.0%   163.4       2.700       0.000       166.1       0.000      0.4200       0.000    
    2930   1.349      0.4605E-03 SHELL    1000000   0.0%   164.4       2.702       0.000       167.0       0.000      0.4200       0.000    
    2940   1.354      0.4605E-03 SHELL    1000000   0.0%   165.3       2.703       0.000       168.0       0.000      0.4200       0.000    
    2950   1.358      0.4605E-03 SHELL    1000000   0.0%   166.3       2.704       0.000       168.9       0.000      0.4200       0.000    
    2960   1.363      0.4605E-03 SHELL    1000000   0.0%   167.2       2.706       0.000       169.9       0.000      0.4200       0.000    
    2970   1.368      0.4605E-03 SHELL    1000000   0.0%   168.2       2.707       0.000       170.9       0.000      0.4200       0.000    
    2980   1.372      0.4605E-03 SHELL    1000000   0.0%   169.2       2.709       0.000       171.8       0.000      0.4200       0.000    
    2990   1.377      0.4605E-03 SHELL    1000000   0.0%   170.1       2.710       0.000       172.8       0.000      0.4200       0.000    
    3000   1.381      0.4605E-03 SHELL    1000000   0.0%   171.1       2.712       0.000       173.8       0.000      0.4200       0.000    
    3010   1.386      0.4605E-03 SHELL    1000000   0.0%   172.1       2.714       0.000       174.8       0.000      0.4200       0.000    
    3020   1.391      0.4605E-03 SHELL    1000000   0.0%   173.1       2.715       0.000       175.8       0.000      0.4200       0.000    
    3030   1.395      0.4605E-03 SHELL    1000000   0.0%   174.1       2.717       0.000       176.8       0.000      0.4200       0.000    
    3040   1.400      0.4605E-03 SHELL    1000000   0.0%   175.1       2.719       0.000       177.8       0.000      0.4200       0.000    
     ANIMATION FILE: DEUXELCA008 WRITTEN
    3050   1.405      0.4605E-03 SHELL    1000000   0.0%   176.2       2.721       0.000       178.8       0.000      0.4200       0.000    
    3060   1.409      0.4605E-03 SHELL    1000000   0.0%   177.2       2.722       0.000       179.9       0.000      0.4200       0.000    
    3070   1.414      0.4605E-03 SHELL    1000000   0.0%   178.2       2.724       0.000       180.9       0.000      0.4200       0.000    
    3080   1.418      0.4605E-03 SHELL    1000000   0.0%   179.2       2.726       0.000       181.9       0.000      0.4200       0.000    
    3090   1.423      0.4605E-03 SHELL    1000000   0.0%   180.3       2.728       0.000       183.0       0.000      0.4200       0.000    
    3100   1.428      0.4605E-03 SHELL    1000000   0.0%   181.3       2.730       0.000       184.0       0.000      0.4200       0.000    
    3110   1.432      0.4605E-03 SHELL    1000000   0.0%   182.4       2.732       0.000       185.1       0.000      0.4200       0.000    
    3120   1.437      0.4605E-03 SHELL    1000000   0.0%   183.5       2.734       0.000       186.2       0.000      0.4200       0.000    
    3130   1.441      0.4605E-03 SHELL    1000000   0.0%   184.5       2.737       0.000       187.2       0.000      0.4200       0.000    
    3140   1.446      0.4605E-03 SHELL    1000000   0.0%   185.6       2.739       0.000       188.3       0.000      0.4200       0.000    
    3150   1.451      0.4605E-03 SHELL    1000000   0.0%   186.7       2.741       0.000       189.4       0.000      0.4200       0.000    
    3160   1.455      0.4605E-03 SHELL    1000000   0.0%   187.8       2.744       0.000       190.5       0.000      0.4200       0.000    
    3170   1.460      0.4605E-03 SHELL    1000000   0.0%   188.9       2.746       0.000       191.6       0.000      0.4200       0.000    
    3180   1.464      0.4605E-03 SHELL    1000000   0.0%   190.0       2.749       0.000       192.7       0.000      0.4200       0.000    
    3190   1.469      0.4605E-03 SHELL    1000000   0.0%   191.1       2.751       0.000       193.9       0.000      0.4200       0.000    
    3200   1.474      0.4605E-03 SHELL    1000000   0.0%   192.3       2.754       0.000       195.0       0.000      0.4200       0.000    
    3210   1.478      0.4605E-03 SHELL    1000000   0.0%   193.4       2.756       0.000       196.1       0.000      0.4200       0.000    
    3220   1.483      0.4605E-03 SHELL    1000000   0.0%   194.6       2.759       0.000       197.3       0.000      0.4200       0.000    
    3230   1.487      0.4605E-03 SHELL    1000000   0.0%   195.7       2.762       0.000       198.4       0.000      0.4200       0.000    
    3240   1.492      0.4605E-03 SHELL    1000000   0.0%   196.9       2.765       0.000       199.6       0.000      0.4200       0.000    
    3250   1.497      0.4605E-03 SHELL    1000000   0.0%   198.0       2.768       0.000       200.8       0.000      0.4200       0.000    

     RESTART FILES: DEUXELC_0001_[0001-0004].rst WRITTEN
     -------------

     ANIMATION FILE: DEUXELCA009 WRITTEN
  
                           ** CPU USER TIME **
  
  
                        ** SUMMARY **
  
 #PROC  ELEMENT   KINCOND   INTEG     IO        T0        ASM       RESOL    
   1   .1304E+00 .6149E-01 .3954E-01 .1304E+00 .1255E+00 .2147E-01 .7387E+00
   2   .4512E-01 .4856E-01 .4091E-01 .7551E+00 .2429E+00 .2042E-01 .1397E+01
   3   .4211E-01 .4644E-01 .3928E-01 .7547E+00 .2665E+00 .1998E-01 .1408E+01
   4   .4516E-01 .4782E-01 .4111E-01 .7577E+00 .2648E+00 .2041E-01 .1417E+01
  
                 ** SPMD COM. TIME **
  
 #PROC  FORCES    RBYFOR    RBYVEL    VEL       TOT       %        
   1   .1225E-01 .0000E+00 .0000E+00 .1369E-01 .2594E-01 .3512E+01
   2   .1227E-01 .0000E+00 .0000E+00 .1323E-01 .2549E-01 .1825E+01
   3   .1228E-01 .0000E+00 .0000E+00 .1295E-01 .2523E-01 .1792E+01
   4   .1239E-01 .0000E+00 .0000E+00 .1321E-01 .2561E-01 .1807E+01
  
 
                   ** CUMULATIVE CPU TIME SUMMARY **
  
 CONTACT SORTING.............: .0000E+00     0.00 % 
 CONTACT FORCES..............: .1852E-01     0.37 % 
 ELEMENT FORCES..............: .2628E+00     5.30 % 
 KINEMATIC COND..............: .2043E+00     4.12 % 
 INTEGRATION.................: .1609E+00     3.24 % 
 ASSEMBLING..................: .8229E-01     1.66 % 
 OTHERS (including I/O)......: .4233E+01    85.31 % 
 TOTAL.......................: .4962E+01   100.00 % 
  
  
                           ** ELAPSED TIME **
  
  
                        ** SUMMARY **
  
 #PROC  ELEMENT   KINCOND   INTEG     IO        T0        ASM       RESOL    
   1   .8517E-01 .3983E-01 .2549E-01 .7290E+00 .8074E-01 .1376E-01 .1119E+01
   2   .2863E-01 .3110E-01 .2560E-01 .7146E+00 .1517E+00 .1313E-01 .1119E+01
   3   .2669E-01 .2899E-01 .2456E-01 .7112E+00 .1658E+00 .1258E-01 .1119E+01
   4   .2798E-01 .2976E-01 .2535E-01 .7119E+00 .1612E+00 .1263E-01 .1119E+01
  
        ELEMENT   KINCOND   INTEG     IO        T0        ASM       RESOL    
 MIN   .2669E-01 .2899E-01 .2456E-01 .7112E+00 .8074E-01 .1258E-01 .1119E+01
 MAX   .8517E-01 .3983E-01 .2560E-01 .7290E+00 .1658E+00 .1376E-01 .1119E+01
 AVG   .4212E-01 .3242E-01 .2525E-01 .7167E+00 .1399E+00 .1302E-01 .1119E+01
  
                 ** SPMD COM. TIME **
  
 #PROC  FORCES    RBYFOR    RBYVEL    VEL       TOT       %        
   1   .7929E-02 .0000E+00 .0000E+00 .8977E-02 .1691E-01 .1510E+01
   2   .7699E-02 .0000E+00 .0000E+00 .8374E-02 .1607E-01 .1436E+01
   3   .7758E-02 .0000E+00 .0000E+00 .8323E-02 .1608E-01 .1437E+01
   4   .7687E-02 .0000E+00 .0000E+00 .8272E-02 .1596E-01 .1426E+01
  
        FORCES    RBYFOR    RBYVEL    VEL       TOT       %        
 MIN   .7687E-02 .0000E+00 .0000E+00 .8272E-02 .1596E-01 .1426E+01
 MAX   .7929E-02 .0000E+00 .0000E+00 .8977E-02 .1691E-01 .1510E+01
 AVG   .7768E-02 .0000E+00 .0000E+00 .8487E-02 .1625E-01 .1453E+01
  
                   ** MEMORY USAGE STATISTICS **
  
 TOTAL MEMORY USED .........................:      228 MB
 MAXIMUM MEMORY PER PROCESSOR...............:       57 MB
 MINIMUM MEMORY PER PROCESSOR...............:       57 MB
 AVERAGE MEMORY PER PROCESSOR...............:       57 MB
  
                   ** DISK USAGE STATISTICS **
  
 TOTAL DISK SPACE USED .....................:          1 MB
 ANIMATION/H3D/TH/OUTP SIZE ................:          0 MB
 RESTART FILE SIZE .........................:          1 MB
  
                   ** COMPUTE TIME INFORMATION **
                        ** CURRENT ENGINE **
  
 EXECUTION STARTED .........................:      2022/11/23  16:22:15
 EXECUTION COMPLETED .......................:      2022/11/23  16:22:16
  
 ELAPSED TIME     =          1.20 s
                          0:00:01
 ESTIMATED SPEEDUP=          4.12



     NORMAL TERMINATION      



     TOTAL NUMBER OF CYCLES  :    3259

  
                   ** COMPUTE RUNTIME INFORMATION SUMMARY **
  
        STARTER RUNTIME =          0.60s (00:00:00)
 # 001   ENGINE RUNTIME =          1.20s (00:00:01)
 ------------------------------ 
 STARTER+ENGINE RUNTIME =          1.80s (00:00:01)
  
