 M50B_0001.out
************************************************************************
**                                                                    **
**                                                                    **
**                         OpenRadioss Engine                         **
**                                                                    **
**            Non-linear Finite Element Analysis Software             **
**                                                                    **
**                                                                    **
**                                                                    **
**                Linux 64 bits, GNU compiler, OpenMPI                **
**                                                                    **
**                                                                    **
**                                                                    **
** CommitID: 440deeba848d606665f88afb8302e85b1ecf72bf                 **
************************************************************************
** OpenRadioss Software                                               **
** COPYRIGHT (C) 1986-2022 Altair Engineering, Inc.                   **
** Licensed under GNU Affero General Public License.                  **
** See License file.                                                  **
************************************************************************
 
 NUMBER OF SPMD DOMAINS           4
 NUMBER OF THREADS PER DOMAIN     2
 NUMBER OF HMPP PROCESSES         8
  
 COMPUTATION HARDWARE DESCRIPTION
  
 CPU#  HOSTNAME     CPU TYPE, FREQUENCY AND MEMORY
   1   fr-shady.europe.altair.com   Intel(R) Xeon(R) CPU           X5680  @ 3.33GHz (x86_64), 1596 MHz,  20012 MB RAM,  49126 MB swap
   2   fr-shady.europe.altair.com   Intel(R) Xeon(R) CPU           X5680  @ 3.33GHz (x86_64), 1596 MHz,  20012 MB RAM,  49126 MB swap
   3   fr-shady.europe.altair.com   Intel(R) Xeon(R) CPU           X5680  @ 3.33GHz (x86_64), 1596 MHz,  20012 MB RAM,  49126 MB swap
   4   fr-shady.europe.altair.com   Intel(R) Xeon(R) CPU           X5680  @ 3.33GHz (x86_64), 1596 MHz,  20012 MB RAM,  49126 MB swap
  
************************************************************************


 M50BD01                                                                         


 FINAL TIME . . . . . . . . . . . . . . . . . . .  0.5000000    

 TIME INTERVAL FOR TIME HISTORY PLOTS . . . . . .  0.1000000E-02

 TIME STEP SCALE FACTOR . . . . . . . . . . . . .  0.1000000    

 MINIMUM TIME STEP  . . . . . . . . . . . . . . .   0.000000    


 BRICK TIME STEP SCALE FACTOR . . . . . . . . . .  0.1000000    
 BRICK MINIMUM TIME STEP. . . . . . . . . . . . .   0.000000    
 MIN. TIME STEP FLAG (1:STOP RUN, 2:DELETE BRICK)     1

 QUAD TIME STEP SCALE FACTOR. . . . . . . . . . .  0.1000000    
 QUAD MINIMUM TIME STEP . . . . . . . . . . . . .   0.000000    
 MIN. TIME STEP FLAG (1:STOP RUN, 2:DELETE QUAD).     1

 SHELL TIME STEP SCALE FACTOR . . . . . . . . . .  0.1000000    
 SHELL MINIMUM TIME STEP. . . . . . . . . . . . .   0.000000    
 MIN. TIME FLAG (1:STOP, 2:DELETE, 3:SMALL STRAIN)    2

 TRUSS TIME STEP SCALE FACTOR . . . . . . . . . .  0.1000000    
 TRUSS MINIMUM TIME STEP. . . . . . . . . . . . .   0.000000    
 MIN. TIME FLAG (1:STOP, 2:DELETE). . . . . . . .     0

 BEAM TIME STEP SCALE FACTOR. . . . . . . . . . .  0.1000000    
 BEAM MINIMUM TIME STEP . . . . . . . . . . . . .   0.000000    
 MIN. TIME FLAG (1:STOP, 2:DELETE). . . . . . . .     0

 SPRING TIME STEP SCALE FACTOR. . . . . . . . . .  0.1000000    
 SPRING MINIMUM TIME STEP . . . . . . . . . . . .   0.000000    
 MIN. TIME FLAG (1:STOP, 2:DELETE). . . . . . . .     0

 AIRBAG TIME STEP SCALE FACTOR. . . . . . . . . .  0.1000000    
 AIRBAG MINIMUM TIME STEP . . . . . . . . . . . .   0.000000    
 MIN. TIME FLAG (1:STOP). . . . . . . . . . . . .     0

 CONTACT TIME STEP SCALE FACTOR . . . . . . . . .  0.1000000    
 CONTACT MINIMUM TIME STEP. . . . . . . . . . . .   0.000000    
 MIN. TIME FLAG(1:STOP, 2:REMOVE NODE FROM INTERF)    0

 PRINTOUT CYCLE FREQUENCY . . . . . . . . . . . .    -1

 RESTART CYCLE FREQUENCY. . . . . . . . . . . . .   10000000

 MAXIMUM RESTART WRITE BEFORE OVERWRITE . . . . .     0

 INVERS: INPUT DECK VERSION . . . . . . . . . . .  2019
 ITTYP : FLAG FOR TYPE OF T-FILE. . . . . . . . .     4


 TIME FOR FIRST ANIMATION-FILE PLOT . . . . . . .   0.000000    
 TIME INTERVAL FOR ANIMATION-FILE PLOTS . . . . .  0.5000000E-01
 SENSOR FOR ANIMATION-FILE PLOTS. . . . . . . . .          0
 TIME INTERVAL FOR SENSOR ANIMATION-FILE PLOTS. .   0.000000    

 VARIABLE SAVED ON ANIMATION FILES (1: YES) :
      PLASTIC STRAIN. . . . . .     0
      DENSITY     (SOLID ONLY).     0
      SPECIFIC ENERGY . . . . .     0
      HOURGLASS ENERGY. . . . .     0
      TEMPERATURE (SOLID ONLY).     0
      THICKNESS   (SHELL ONLY).     0
      PRESSURE    (SOLID ONLY).     0
      VON MISES . . . . . . . .     0
      TURBULENT ENERGY (FLUID).     0
      TURBULENT VISCOSITY(FLUID)    0
      VORTICITY (FLUID) . . . .     0
 NODAL VALUES SAVED ON ANIMATION FILES (1: YES) :
      PRESSURE. . . . . . . . .     0
      DENSITY . . . . . . . . .     0
      TEMPERATURE . . . . . . .     0
 VECTOR SAVED ON ANIMATION FILES (1: YES) :
      VELOCITY VECTOR . . . . .     0
      DISPLACEMENT VECTOR . . .     0
      ACCELERATION VECTOR . . .     0
      CONTACT FORCES. . . . . .     0
      INTERNAL FORCES . . . . .     0
      EXTERNAL FORCES . . . . .     0
      SECTION RBY RWALL FORCES.     0
      ROTATIONAL VELOCITY VECTOR    0
      CONTACT PRESSURE (VECTORS)    0
 SHELL TENSOR SAVED ON ANIMATION FILES (1: YES) :
      MEMBRANE STRESS . . . . .     0
      BENDING STRESS(MOMENT/T^2)    0
      UPPER LAYER STRESS. . . .     0
      LOWER LAYER STRESS. . . .     0
      MEMBRANE STRAIN . . . . .     0
      CURVATURE . . . . . . . .     0
      UPPER LAYER STRAIN. . . .     0
      LOWER LAYER STRAIN. . . .     0
 NODAL MASS SAVED ON ANIMATION FILES (1: YES) :    0
 KEEP DELETED ELEMENT (1: YES) :    0


 INITIAL TIME STEP. . . . . . . . . . . . . . . .   0.000000    
 MAXIMUM TIME STEP. . . . . . . . . . . . . . . .  0.1000000E+31

 PARALLEL ARITHMETIC ON
 NUMBER OF INTERFACES TO BE ELIMINATED. . . . . .        0

 NUMBER OF SOLID  ELEMENT BLOCKS TO BE ELIMINATED        0

 NUMBER OF QUAD   ELEMENT BLOCKS TO BE ELIMINATED        0

 NUMBER OF SHELL  ELEMENT BLOCKS TO BE ELIMINATED        0

 NUMBER OF TRUSS  ELEMENT BLOCKS TO BE ELIMINATED        0

 NUMBER OF BEAM   ELEMENT BLOCKS TO BE ELIMINATED        0

 NUMBER OF SPRING ELEMENT BLOCKS TO BE ELIMINATED        0

 NUMBER OF SH_3N  ELEMENT BLOCKS TO BE ELIMINATED        0

 NUMBER OF  SPH PARTICLES BLOCKS TO BE ELIMINATED        0

 NUMBER OF RIGID LINKS. . . . . . . . . . . . . .        0

 NUMBER OF NEW BOUNDARY CONDITIONS. . . . . . . .        0

 23/11/2022
   CYCLE    TIME      TIME-STEP  ELEMENT          ERROR  I-ENERGY    K-ENERGY T  K-ENERGY R  EXT-WORK     MAS.ERR     TOTAL MASS  MASS ADDED
       0   0.000      0.1562E-03 SOLID          1   0.0%   0.000       0.000       0.000       0.000       0.000      0.5120E-07   0.000    
     ANIMATION FILE: M50BA001 WRITTEN
       1  0.1562E-03  0.1562E-03 SOLID          1   0.0%  0.3978E-11  0.2880E-07   0.000      0.2880E-07   0.000      0.5120E-07   0.000    
       2  0.3123E-03  0.1562E-03 SOLID          1   0.0%  0.1591E-10  0.2880E-07   0.000      0.2882E-07   0.000      0.5120E-07   0.000    
       3  0.4685E-03  0.1562E-03 SOLID          1   0.0%  0.3579E-10  0.2880E-07   0.000      0.2884E-07   0.000      0.5120E-07   0.000    
       4  0.6246E-03  0.1562E-03 SOLID          1  -0.0%  0.6360E-10  0.2880E-07   0.000      0.2886E-07   0.000      0.5120E-07   0.000    
       5  0.7808E-03  0.1562E-03 SOLID          1  -0.0%  0.9934E-10  0.2880E-07   0.000      0.2890E-07   0.000      0.5120E-07   0.000    
       6  0.9369E-03  0.1562E-03 SOLID          1  -0.0%  0.1430E-09  0.2880E-07   0.000      0.2894E-07   0.000      0.5120E-07   0.000    
       7  0.1093E-02  0.1562E-03 SOLID          1  -0.0%  0.1945E-09  0.2880E-07   0.000      0.2899E-07   0.000      0.5120E-07   0.000    
       8  0.1249E-02  0.1562E-03 SOLID          1  -0.0%  0.2539E-09  0.2880E-07   0.000      0.2905E-07   0.000      0.5120E-07   0.000    
       9  0.1405E-02  0.1562E-03 SOLID          1  -0.0%  0.3211E-09  0.2880E-07   0.000      0.2912E-07   0.000      0.5120E-07   0.000    
      10  0.1562E-02  0.1562E-03 SOLID          1  -0.0%  0.3962E-09  0.2880E-07   0.000      0.2920E-07   0.000      0.5120E-07   0.000    
      11  0.1718E-02  0.1562E-03 SOLID          1  -0.0%  0.4790E-09  0.2880E-07   0.000      0.2928E-07   0.000      0.5120E-07   0.000    
      12  0.1874E-02  0.1562E-03 SOLID          1  -0.0%  0.5696E-09  0.2880E-07   0.000      0.2937E-07   0.000      0.5120E-07   0.000    
      13  0.2030E-02  0.1562E-03 SOLID          1  -0.0%  0.6680E-09  0.2880E-07   0.000      0.2947E-07   0.000      0.5120E-07   0.000    
      14  0.2186E-02  0.1562E-03 SOLID          1  -0.0%  0.7740E-09  0.2880E-07   0.000      0.2958E-07   0.000      0.5120E-07   0.000    
      15  0.2342E-02  0.1562E-03 SOLID          1  -0.0%  0.8877E-09  0.2880E-07   0.000      0.2969E-07   0.000      0.5120E-07   0.000    
      16  0.2498E-02  0.1562E-03 SOLID          1  -0.0%  0.1009E-08  0.2880E-07   0.000      0.2982E-07   0.000      0.5120E-07   0.000    
      17  0.2655E-02  0.1561E-03 SOLID          1  -0.0%  0.1138E-08  0.2881E-07   0.000      0.2995E-07   0.000      0.5120E-07   0.000    
      18  0.2811E-02  0.1561E-03 SOLID          1  -0.0%  0.1274E-08  0.2881E-07   0.000      0.3008E-07   0.000      0.5120E-07   0.000    
      19  0.2967E-02  0.1561E-03 SOLID          1  -0.0%  0.1418E-08  0.2881E-07   0.000      0.3023E-07   0.000      0.5120E-07   0.000    
      20  0.3123E-02  0.1561E-03 SOLID          1  -0.0%  0.1570E-08  0.2881E-07   0.000      0.3039E-07   0.000      0.5120E-07   0.000    
      21  0.3279E-02  0.1561E-03 SOLID          1  -0.0%  0.1729E-08  0.2881E-07   0.000      0.3055E-07   0.000      0.5120E-07   0.000    
      22  0.3435E-02  0.1561E-03 SOLID          1  -0.0%  0.1895E-08  0.2881E-07   0.000      0.3072E-07   0.000      0.5120E-07   0.000    
      23  0.3591E-02  0.1561E-03 SOLID          1  -0.0%  0.2069E-08  0.2881E-07   0.000      0.3089E-07   0.000      0.5120E-07   0.000    
      24  0.3748E-02  0.1561E-03 SOLID          1  -0.0%  0.2250E-08  0.2882E-07   0.000      0.3108E-07   0.000      0.5120E-07   0.000    
      25  0.3904E-02  0.1561E-03 SOLID          1  -0.1%  0.2438E-08  0.2882E-07   0.000      0.3127E-07   0.000      0.5120E-07   0.000    
      26  0.4060E-02  0.1561E-03 SOLID          1  -0.1%  0.2633E-08  0.2882E-07   0.000      0.3147E-07   0.000      0.5120E-07   0.000    
      27  0.4216E-02  0.1561E-03 SOLID          1  -0.1%  0.2836E-08  0.2882E-07   0.000      0.3168E-07   0.000      0.5120E-07   0.000    
      28  0.4372E-02  0.1561E-03 SOLID          1  -0.1%  0.3046E-08  0.2883E-07   0.000      0.3190E-07   0.000      0.5120E-07   0.000    
      29  0.4528E-02  0.1561E-03 SOLID          1  -0.1%  0.3263E-08  0.2883E-07   0.000      0.3212E-07   0.000      0.5120E-07   0.000    
      30  0.4684E-02  0.1561E-03 SOLID          1  -0.1%  0.3487E-08  0.2883E-07   0.000      0.3235E-07   0.000      0.5120E-07   0.000    
      31  0.4841E-02  0.1561E-03 SOLID          1  -0.1%  0.3718E-08  0.2884E-07   0.000      0.3259E-07   0.000      0.5120E-07   0.000    
      32  0.4997E-02  0.1561E-03 SOLID          1  -0.1%  0.3957E-08  0.2884E-07   0.000      0.3284E-07   0.000      0.5120E-07   0.000    
      33  0.5153E-02  0.1561E-03 SOLID          1  -0.2%  0.4202E-08  0.2884E-07   0.000      0.3310E-07   0.000      0.5120E-07   0.000    
      34  0.5309E-02  0.1561E-03 SOLID          1  -0.2%  0.4454E-08  0.2885E-07   0.000      0.3336E-07   0.000      0.5120E-07   0.000    
      35  0.5465E-02  0.1561E-03 SOLID          1  -0.2%  0.4713E-08  0.2885E-07   0.000      0.3363E-07   0.000      0.5120E-07   0.000    
      36  0.5621E-02  0.1561E-03 SOLID          1  -0.2%  0.4979E-08  0.2885E-07   0.000      0.3390E-07   0.000      0.5120E-07   0.000    
      37  0.5777E-02  0.1561E-03 SOLID          1  -0.2%  0.5251E-08  0.2886E-07   0.000      0.3419E-07   0.000      0.5120E-07   0.000    
      38  0.5934E-02  0.1561E-03 SOLID          1  -0.3%  0.5531E-08  0.2886E-07   0.000      0.3448E-07   0.000      0.5120E-07   0.000    
      39  0.6090E-02  0.1561E-03 SOLID          1  -0.3%  0.5817E-08  0.2887E-07   0.000      0.3478E-07   0.000      0.5120E-07   0.000    
      40  0.6246E-02  0.1561E-03 SOLID          1  -0.3%  0.6110E-08  0.2887E-07   0.000      0.3509E-07   0.000      0.5120E-07   0.000    
      41  0.6402E-02  0.1561E-03 SOLID          1  -0.3%  0.6409E-08  0.2888E-07   0.000      0.3541E-07   0.000      0.5120E-07   0.000    
      42  0.6558E-02  0.1561E-03 SOLID          1  -0.4%  0.6715E-08  0.2888E-07   0.000      0.3573E-07   0.000      0.5120E-07   0.000    
      43  0.6714E-02  0.1561E-03 SOLID          1  -0.4%  0.7028E-08  0.2889E-07   0.000      0.3606E-07   0.000      0.5120E-07   0.000    
      44  0.6870E-02  0.1561E-03 SOLID          1  -0.4%  0.7347E-08  0.2889E-07   0.000      0.3640E-07   0.000      0.5120E-07   0.000    
      45  0.7026E-02  0.1561E-03 SOLID          1  -0.5%  0.7673E-08  0.2890E-07   0.000      0.3674E-07   0.000      0.5120E-07   0.000    
      46  0.7182E-02  0.1561E-03 SOLID          1  -0.5%  0.8005E-08  0.2890E-07   0.000      0.3710E-07   0.000      0.5120E-07   0.000    
      47  0.7339E-02  0.1561E-03 SOLID          1  -0.5%  0.8343E-08  0.2891E-07   0.000      0.3746E-07   0.000      0.5120E-07   0.000    
      48  0.7495E-02  0.1561E-03 SOLID          1  -0.6%  0.8688E-08  0.2892E-07   0.000      0.3782E-07   0.000      0.5120E-07   0.000    
      49  0.7651E-02  0.1561E-03 SOLID          1  -0.6%  0.9039E-08  0.2892E-07   0.000      0.3820E-07   0.000      0.5120E-07   0.000    
      50  0.7807E-02  0.1561E-03 SOLID          1  -0.7%  0.9397E-08  0.2893E-07   0.000      0.3858E-07   0.000      0.5120E-07   0.000    
      51  0.7963E-02  0.1561E-03 SOLID          1  -0.7%  0.9760E-08  0.2893E-07   0.000      0.3897E-07   0.000      0.5120E-07   0.000    
      52  0.8119E-02  0.1561E-03 SOLID          1  -0.8%  0.1013E-07  0.2894E-07   0.000      0.3937E-07   0.000      0.5120E-07   0.000    
      53  0.8275E-02  0.1561E-03 SOLID          1  -0.8%  0.1051E-07  0.2895E-07   0.000      0.3978E-07   0.000      0.5120E-07   0.000    
      54  0.8431E-02  0.1561E-03 SOLID          1  -0.9%  0.1089E-07  0.2896E-07   0.000      0.4019E-07   0.000      0.5120E-07   0.000    
   CYCLE    TIME      TIME-STEP  ELEMENT          ERROR  I-ENERGY    K-ENERGY T  K-ENERGY R  EXT-WORK     MAS.ERR     TOTAL MASS  MASS ADDED
      55  0.8587E-02  0.1561E-03 SOLID          1  -0.9%  0.1128E-07  0.2896E-07   0.000      0.4061E-07   0.000      0.5120E-07   0.000    
      56  0.8743E-02  0.1561E-03 SOLID          1  -1.0%  0.1167E-07  0.2897E-07   0.000      0.4103E-07   0.000      0.5120E-07   0.000    
      57  0.8899E-02  0.1561E-03 SOLID          1  -1.0%  0.1207E-07  0.2898E-07   0.000      0.4147E-07   0.000      0.5120E-07   0.000    
      58  0.9055E-02  0.1561E-03 SOLID          1  -1.1%  0.1248E-07  0.2899E-07   0.000      0.4191E-07   0.000      0.5120E-07   0.000    
      59  0.9212E-02  0.1561E-03 SOLID          1  -1.1%  0.1289E-07  0.2899E-07   0.000      0.4236E-07   0.000      0.5120E-07   0.000    
      60  0.9368E-02  0.1561E-03 SOLID          1  -1.2%  0.1331E-07  0.2900E-07   0.000      0.4282E-07   0.000      0.5120E-07   0.000    
      61  0.9524E-02  0.1561E-03 SOLID          1  -1.2%  0.1373E-07  0.2901E-07   0.000      0.4328E-07   0.000      0.5120E-07   0.000    
      62  0.9680E-02  0.1561E-03 SOLID          1  -1.3%  0.1416E-07  0.2902E-07   0.000      0.4375E-07   0.000      0.5120E-07   0.000    
      63  0.9836E-02  0.1560E-03 SOLID          1  -1.4%  0.1460E-07  0.2903E-07   0.000      0.4423E-07   0.000      0.5120E-07   0.000    
      64  0.9992E-02  0.1560E-03 SOLID          1  -1.4%  0.1504E-07  0.2904E-07   0.000      0.4471E-07   0.000      0.5120E-07   0.000    
      65  0.1015E-01  0.1560E-03 SOLID          1  -1.5%  0.1549E-07  0.2904E-07   0.000      0.4520E-07   0.000      0.5120E-07   0.000    
      66  0.1030E-01  0.1560E-03 SOLID          1  -1.6%  0.1594E-07  0.2905E-07   0.000      0.4570E-07   0.000      0.5120E-07   0.000    
      67  0.1046E-01  0.1560E-03 SOLID          1  -1.6%  0.1640E-07  0.2906E-07   0.000      0.4621E-07   0.000      0.5120E-07   0.000    
      68  0.1062E-01  0.1560E-03 SOLID          1  -1.7%  0.1687E-07  0.2907E-07   0.000      0.4672E-07   0.000      0.5120E-07   0.000    
      69  0.1077E-01  0.1560E-03 SOLID          1  -1.8%  0.1734E-07  0.2908E-07   0.000      0.4725E-07   0.000      0.5120E-07   0.000    
      70  0.1093E-01  0.1560E-03 SOLID          1  -1.8%  0.1781E-07  0.2909E-07   0.000      0.4777E-07   0.000      0.5120E-07   0.000    
      71  0.1108E-01  0.1560E-03 SOLID          1  -1.9%  0.1829E-07  0.2910E-07   0.000      0.4831E-07   0.000      0.5120E-07   0.000    
      72  0.1124E-01  0.1560E-03 SOLID          1  -2.0%  0.1878E-07  0.2911E-07   0.000      0.4885E-07   0.000      0.5120E-07   0.000    
      73  0.1140E-01  0.1560E-03 SOLID          1  -2.0%  0.1927E-07  0.2912E-07   0.000      0.4940E-07   0.000      0.5120E-07   0.000    
      74  0.1155E-01  0.1560E-03 SOLID          1  -2.1%  0.1977E-07  0.2913E-07   0.000      0.4996E-07   0.000      0.5120E-07   0.000    
      75  0.1171E-01  0.1560E-03 SOLID          1  -2.2%  0.2027E-07  0.2914E-07   0.000      0.5052E-07   0.000      0.5120E-07   0.000    
      76  0.1186E-01  0.1560E-03 SOLID          1  -2.3%  0.2078E-07  0.2915E-07   0.000      0.5109E-07   0.000      0.5120E-07   0.000    
      77  0.1202E-01  0.1560E-03 SOLID          1  -2.4%  0.2129E-07  0.2916E-07   0.000      0.5167E-07   0.000      0.5120E-07   0.000    
      78  0.1218E-01  0.1560E-03 SOLID          1  -2.4%  0.2181E-07  0.2917E-07   0.000      0.5225E-07   0.000      0.5120E-07   0.000    
      79  0.1233E-01  0.1560E-03 SOLID          1  -2.5%  0.2234E-07  0.2918E-07   0.000      0.5285E-07   0.000      0.5120E-07   0.000    
      80  0.1249E-01  0.1560E-03 SOLID          1  -2.6%  0.2286E-07  0.2919E-07   0.000      0.5344E-07   0.000      0.5120E-07   0.000    
      81  0.1264E-01  0.1560E-03 SOLID          1  -2.7%  0.2340E-07  0.2920E-07   0.000      0.5405E-07   0.000      0.5120E-07   0.000    
      82  0.1280E-01  0.1560E-03 SOLID          1  -2.8%  0.2394E-07  0.2922E-07   0.000      0.5466E-07   0.000      0.5120E-07   0.000    
      83  0.1296E-01  0.1560E-03 SOLID          1  -2.8%  0.2448E-07  0.2923E-07   0.000      0.5528E-07   0.000      0.5120E-07   0.000    
      84  0.1311E-01  0.1560E-03 SOLID          1  -2.9%  0.2503E-07  0.2924E-07   0.000      0.5591E-07   0.000      0.5120E-07   0.000    
      85  0.1327E-01  0.1559E-03 SOLID          1  -3.0%  0.2559E-07  0.2925E-07   0.000      0.5654E-07   0.000      0.5120E-07   0.000    
      86  0.1342E-01  0.1559E-03 SOLID          1  -3.1%  0.2615E-07  0.2926E-07   0.000      0.5718E-07   0.000      0.5120E-07   0.000    
      87  0.1358E-01  0.1559E-03 SOLID          1  -3.2%  0.2671E-07  0.2927E-07   0.000      0.5783E-07   0.000      0.5120E-07   0.000    
      88  0.1374E-01  0.1559E-03 SOLID          1  -3.3%  0.2728E-07  0.2929E-07   0.000      0.5848E-07   0.000      0.5120E-07   0.000    
      89  0.1389E-01  0.1559E-03 SOLID          1  -3.4%  0.2786E-07  0.2930E-07   0.000      0.5915E-07   0.000      0.5120E-07   0.000    
      90  0.1405E-01  0.1559E-03 SOLID          1  -3.5%  0.2844E-07  0.2931E-07   0.000      0.5981E-07   0.000      0.5120E-07   0.000    
      91  0.1420E-01  0.1559E-03 SOLID          1  -3.5%  0.2902E-07  0.2932E-07   0.000      0.6049E-07   0.000      0.5120E-07   0.000    
      92  0.1436E-01  0.1559E-03 SOLID          1  -3.6%  0.2961E-07  0.2934E-07   0.000      0.6117E-07   0.000      0.5120E-07   0.000    
      93  0.1452E-01  0.1559E-03 SOLID          1  -3.7%  0.3020E-07  0.2935E-07   0.000      0.6186E-07   0.000      0.5120E-07   0.000    
      94  0.1467E-01  0.1559E-03 SOLID          1  -3.8%  0.3080E-07  0.2936E-07   0.000      0.6255E-07   0.000      0.5120E-07   0.000    
      95  0.1483E-01  0.1559E-03 SOLID          1  -3.9%  0.3140E-07  0.2937E-07   0.000      0.6325E-07   0.000      0.5120E-07   0.000    
      96  0.1498E-01  0.1559E-03 SOLID          1  -4.0%  0.3201E-07  0.2939E-07   0.000      0.6396E-07   0.000      0.5120E-07   0.000    
      97  0.1514E-01  0.1559E-03 SOLID          1  -4.1%  0.3263E-07  0.2940E-07   0.000      0.6468E-07   0.000      0.5120E-07   0.000    
      98  0.1529E-01  0.1559E-03 SOLID          1  -4.2%  0.3324E-07  0.2941E-07   0.000      0.6540E-07   0.000      0.5120E-07   0.000    
      99  0.1545E-01  0.1559E-03 SOLID          1  -4.3%  0.3386E-07  0.2943E-07   0.000      0.6613E-07   0.000      0.5120E-07   0.000    
     100  0.1561E-01  0.1559E-03 SOLID          1  -4.4%  0.3449E-07  0.2944E-07   0.000      0.6687E-07   0.000      0.5120E-07   0.000    
     101  0.1576E-01  0.1559E-03 SOLID          1  -4.5%  0.3512E-07  0.2946E-07   0.000      0.6761E-07   0.000      0.5120E-07   0.000    
     102  0.1592E-01  0.1558E-03 SOLID          1  -4.6%  0.3576E-07  0.2947E-07   0.000      0.6836E-07   0.000      0.5120E-07   0.000    
     103  0.1607E-01  0.1558E-03 SOLID          1  -4.7%  0.3640E-07  0.2948E-07   0.000      0.6911E-07   0.000      0.5120E-07   0.000    
     104  0.1623E-01  0.1558E-03 SOLID          1  -4.8%  0.3704E-07  0.2950E-07   0.000      0.6987E-07   0.000      0.5120E-07   0.000    
     105  0.1639E-01  0.1558E-03 SOLID          1  -4.9%  0.3769E-07  0.2951E-07   0.000      0.7064E-07   0.000      0.5120E-07   0.000    
     106  0.1654E-01  0.1558E-03 SOLID          1  -5.0%  0.3834E-07  0.2953E-07   0.000      0.7142E-07   0.000      0.5120E-07   0.000    
     107  0.1670E-01  0.1558E-03 SOLID          1  -5.1%  0.3900E-07  0.2954E-07   0.000      0.7220E-07   0.000      0.5120E-07   0.000    
     108  0.1685E-01  0.1558E-03 SOLID          1  -5.2%  0.3966E-07  0.2956E-07   0.000      0.7299E-07   0.000      0.5120E-07   0.000    
     109  0.1701E-01  0.1558E-03 SOLID          1  -5.3%  0.4033E-07  0.2957E-07   0.000      0.7379E-07   0.000      0.5120E-07   0.000    
   CYCLE    TIME      TIME-STEP  ELEMENT          ERROR  I-ENERGY    K-ENERGY T  K-ENERGY R  EXT-WORK     MAS.ERR     TOTAL MASS  MASS ADDED
     110  0.1716E-01  0.1558E-03 SOLID          1  -5.4%  0.4100E-07  0.2959E-07   0.000      0.7459E-07   0.000      0.5120E-07   0.000    
     111  0.1732E-01  0.1558E-03 SOLID          1  -5.5%  0.4167E-07  0.2960E-07   0.000      0.7540E-07   0.000      0.5120E-07   0.000    
     112  0.1748E-01  0.1558E-03 SOLID          1  -5.6%  0.4235E-07  0.2962E-07   0.000      0.7621E-07   0.000      0.5120E-07   0.000    
     113  0.1763E-01  0.1558E-03 SOLID          1  -5.7%  0.4304E-07  0.2963E-07   0.000      0.7703E-07   0.000      0.5120E-07   0.000    
     114  0.1779E-01  0.1558E-03 SOLID          1  -5.8%  0.4372E-07  0.2965E-07   0.000      0.7786E-07   0.000      0.5120E-07   0.000    
     115  0.1794E-01  0.1558E-03 SOLID          1  -5.9%  0.4441E-07  0.2966E-07   0.000      0.7870E-07   0.000      0.5120E-07   0.000    
     116  0.1810E-01  0.1557E-03 SOLID          1  -6.0%  0.4511E-07  0.2968E-07   0.000      0.7954E-07   0.000      0.5120E-07   0.000    
     117  0.1826E-01  0.1557E-03 SOLID          1  -6.1%  0.4581E-07  0.2969E-07   0.000      0.8038E-07   0.000      0.5120E-07   0.000    
     118  0.1841E-01  0.1557E-03 SOLID          1  -6.2%  0.4651E-07  0.2971E-07   0.000      0.8124E-07   0.000      0.5120E-07   0.000    
     119  0.1857E-01  0.1557E-03 SOLID          1  -6.3%  0.4722E-07  0.2973E-07   0.000      0.8210E-07   0.000      0.5120E-07   0.000    
     120  0.1872E-01  0.1557E-03 SOLID          1  -6.4%  0.4793E-07  0.2974E-07   0.000      0.8297E-07   0.000      0.5120E-07   0.000    
     121  0.1888E-01  0.1557E-03 SOLID          1  -6.5%  0.4865E-07  0.2976E-07   0.000      0.8384E-07   0.000      0.5120E-07   0.000    
     122  0.1903E-01  0.1557E-03 SOLID          1  -6.6%  0.4936E-07  0.2977E-07   0.000      0.8472E-07   0.000      0.5120E-07   0.000    
     123  0.1919E-01  0.1557E-03 SOLID          1  -6.7%  0.5009E-07  0.2979E-07   0.000      0.8560E-07   0.000      0.5120E-07   0.000    
     124  0.1935E-01  0.1557E-03 SOLID          1  -6.8%  0.5081E-07  0.2981E-07   0.000      0.8650E-07   0.000      0.5120E-07   0.000    
     125  0.1950E-01  0.1557E-03 SOLID          1  -6.9%  0.5154E-07  0.2982E-07   0.000      0.8740E-07   0.000      0.5120E-07   0.000    
     126  0.1966E-01  0.1557E-03 SOLID          1  -7.0%  0.5228E-07  0.2984E-07   0.000      0.8830E-07   0.000      0.5120E-07   0.000    
     127  0.1981E-01  0.1557E-03 SOLID          1  -7.1%  0.5302E-07  0.2986E-07   0.000      0.8921E-07   0.000      0.5120E-07   0.000    
     128  0.1997E-01  0.1557E-03 SOLID          1  -7.2%  0.5376E-07  0.2987E-07   0.000      0.9013E-07   0.000      0.5120E-07   0.000    
     129  0.2012E-01  0.1556E-03 SOLID          1  -7.3%  0.5450E-07  0.2989E-07   0.000      0.9105E-07   0.000      0.5120E-07   0.000    
     130  0.2028E-01  0.1556E-03 SOLID          1  -7.4%  0.5525E-07  0.2991E-07   0.000      0.9198E-07   0.000      0.5120E-07   0.000    
     131  0.2043E-01  0.1556E-03 SOLID          1  -7.5%  0.5601E-07  0.2993E-07   0.000      0.9292E-07   0.000      0.5120E-07   0.000    
     132  0.2059E-01  0.1556E-03 SOLID          1  -7.6%  0.5676E-07  0.2994E-07   0.000      0.9386E-07   0.000      0.5120E-07   0.000    
     133  0.2075E-01  0.1556E-03 SOLID          1  -7.7%  0.5752E-07  0.2996E-07   0.000      0.9481E-07   0.000      0.5120E-07   0.000    
     134  0.2090E-01  0.1556E-03 SOLID          1  -7.8%  0.5829E-07  0.2998E-07   0.000      0.9577E-07   0.000      0.5120E-07   0.000    
     135  0.2106E-01  0.1556E-03 SOLID          1  -7.9%  0.5905E-07  0.3000E-07   0.000      0.9673E-07   0.000      0.5120E-07   0.000    
     136  0.2121E-01  0.1556E-03 SOLID          1  -8.0%  0.5983E-07  0.3002E-07   0.000      0.9770E-07   0.000      0.5120E-07   0.000    
     137  0.2137E-01  0.1556E-03 SOLID          1  -8.1%  0.6060E-07  0.3003E-07   0.000      0.9867E-07   0.000      0.5120E-07   0.000    
     138  0.2152E-01  0.1556E-03 SOLID          1  -8.3%  0.6138E-07  0.3005E-07   0.000      0.9965E-07   0.000      0.5120E-07   0.000    
     139  0.2168E-01  0.1556E-03 SOLID          1  -8.4%  0.6216E-07  0.3007E-07   0.000      0.1006E-06   0.000      0.5120E-07   0.000    
     140  0.2184E-01  0.1555E-03 SOLID          1  -8.5%  0.6294E-07  0.3009E-07   0.000      0.1016E-06   0.000      0.5120E-07   0.000    
     141  0.2199E-01  0.1555E-03 SOLID          1  -8.6%  0.6373E-07  0.3011E-07   0.000      0.1026E-06   0.000      0.5120E-07   0.000    
     142  0.2215E-01  0.1555E-03 SOLID          1  -8.7%  0.6452E-07  0.3013E-07   0.000      0.1036E-06   0.000      0.5120E-07   0.000    
     143  0.2230E-01  0.1555E-03 SOLID          1  -8.8%  0.6532E-07  0.3015E-07   0.000      0.1046E-06   0.000      0.5120E-07   0.000    
     144  0.2246E-01  0.1555E-03 SOLID          1  -8.9%  0.6611E-07  0.3016E-07   0.000      0.1057E-06   0.000      0.5120E-07   0.000    
     145  0.2261E-01  0.1555E-03 SOLID          1  -9.0%  0.6692E-07  0.3018E-07   0.000      0.1067E-06   0.000      0.5120E-07   0.000    
     146  0.2277E-01  0.1555E-03 SOLID          1  -9.1%  0.6772E-07  0.3020E-07   0.000      0.1077E-06   0.000      0.5120E-07   0.000    
     147  0.2292E-01  0.1555E-03 SOLID          1  -9.2%  0.6853E-07  0.3022E-07   0.000      0.1088E-06   0.000      0.5120E-07   0.000    
     148  0.2308E-01  0.1555E-03 SOLID          1  -9.3%  0.6934E-07  0.3024E-07   0.000      0.1098E-06   0.000      0.5120E-07   0.000    
     149  0.2323E-01  0.1555E-03 SOLID          1  -9.4%  0.7015E-07  0.3026E-07   0.000      0.1108E-06   0.000      0.5120E-07   0.000    
     150  0.2339E-01  0.1555E-03 SOLID          1  -9.5%  0.7097E-07  0.3028E-07   0.000      0.1119E-06   0.000      0.5120E-07   0.000    
     151  0.2355E-01  0.1554E-03 SOLID          1  -9.6%  0.7179E-07  0.3030E-07   0.000      0.1130E-06   0.000      0.5120E-07   0.000    
     152  0.2370E-01  0.1554E-03 SOLID          1  -9.7%  0.7261E-07  0.3032E-07   0.000      0.1140E-06   0.000      0.5120E-07   0.000    
     153  0.2386E-01  0.1554E-03 SOLID          1  -9.8%  0.7344E-07  0.3034E-07   0.000      0.1151E-06   0.000      0.5120E-07   0.000    
     154  0.2401E-01  0.1554E-03 SOLID          1  -9.9%  0.7427E-07  0.3036E-07   0.000      0.1162E-06   0.000      0.5120E-07   0.000    
     155  0.2417E-01  0.1554E-03 SOLID          1 -10.0%  0.7510E-07  0.3038E-07   0.000      0.1173E-06   0.000      0.5120E-07   0.000    
     156  0.2432E-01  0.1554E-03 SOLID          1 -10.1%  0.7594E-07  0.3040E-07   0.000      0.1183E-06   0.000      0.5120E-07   0.000    
     157  0.2448E-01  0.1554E-03 SOLID          1 -10.2%  0.7678E-07  0.3042E-07   0.000      0.1194E-06   0.000      0.5120E-07   0.000    
     158  0.2463E-01  0.1554E-03 SOLID          1 -10.4%  0.7762E-07  0.3044E-07   0.000      0.1205E-06   0.000      0.5120E-07   0.000    
     159  0.2479E-01  0.1554E-03 SOLID          1 -10.5%  0.7846E-07  0.3046E-07   0.000      0.1216E-06   0.000      0.5120E-07   0.000    
     160  0.2494E-01  0.1554E-03 SOLID          1 -10.6%  0.7931E-07  0.3048E-07   0.000      0.1228E-06   0.000      0.5120E-07   0.000    
     161  0.2510E-01  0.1553E-03 SOLID          1 -10.7%  0.8016E-07  0.3051E-07   0.000      0.1239E-06   0.000      0.5120E-07   0.000    
     162  0.2525E-01  0.1553E-03 SOLID          1 -10.8%  0.8101E-07  0.3053E-07   0.000      0.1250E-06   0.000      0.5120E-07   0.000    
     163  0.2541E-01  0.1553E-03 SOLID          1 -10.9%  0.8187E-07  0.3055E-07   0.000      0.1261E-06   0.000      0.5120E-07   0.000    
     164  0.2557E-01  0.1553E-03 SOLID          1 -11.0%  0.8273E-07  0.3057E-07   0.000      0.1273E-06   0.000      0.5120E-07   0.000    
   CYCLE    TIME      TIME-STEP  ELEMENT          ERROR  I-ENERGY    K-ENERGY T  K-ENERGY R  EXT-WORK     MAS.ERR     TOTAL MASS  MASS ADDED
     165  0.2572E-01  0.1553E-03 SOLID          1 -11.1%  0.8359E-07  0.3059E-07   0.000      0.1284E-06   0.000      0.5120E-07   0.000    
     166  0.2588E-01  0.1553E-03 SOLID          1 -11.2%  0.8445E-07  0.3061E-07   0.000      0.1296E-06   0.000      0.5120E-07   0.000    
     167  0.2603E-01  0.1553E-03 SOLID          1 -11.3%  0.8532E-07  0.3063E-07   0.000      0.1307E-06   0.000      0.5120E-07   0.000    
     168  0.2619E-01  0.1553E-03 SOLID          1 -11.4%  0.8619E-07  0.3065E-07   0.000      0.1319E-06   0.000      0.5120E-07   0.000    
     169  0.2634E-01  0.1553E-03 SOLID          1 -11.5%  0.8706E-07  0.3068E-07   0.000      0.1330E-06   0.000      0.5120E-07   0.000    
     170  0.2650E-01  0.1552E-03 SOLID          1 -11.6%  0.8794E-07  0.3070E-07   0.000      0.1342E-06   0.000      0.5120E-07   0.000    
     171  0.2665E-01  0.1552E-03 SOLID          1 -11.7%  0.8881E-07  0.3072E-07   0.000      0.1354E-06   0.000      0.5120E-07   0.000    
     172  0.2681E-01  0.1552E-03 SOLID          1 -11.8%  0.8970E-07  0.3074E-07   0.000      0.1366E-06   0.000      0.5120E-07   0.000    
     173  0.2696E-01  0.1552E-03 SOLID          1 -11.9%  0.9058E-07  0.3076E-07   0.000      0.1378E-06   0.000      0.5120E-07   0.000    
     174  0.2712E-01  0.1552E-03 SOLID          1 -12.0%  0.9146E-07  0.3079E-07   0.000      0.1389E-06   0.000      0.5120E-07   0.000    
     175  0.2727E-01  0.1552E-03 SOLID          1 -12.1%  0.9235E-07  0.3081E-07   0.000      0.1401E-06   0.000      0.5120E-07   0.000    
     176  0.2743E-01  0.1552E-03 SOLID          1 -12.2%  0.9324E-07  0.3083E-07   0.000      0.1414E-06   0.000      0.5120E-07   0.000    
     177  0.2758E-01  0.1552E-03 SOLID          1 -12.3%  0.9414E-07  0.3086E-07   0.000      0.1426E-06   0.000      0.5120E-07   0.000    
     178  0.2774E-01  0.1552E-03 SOLID          1 -12.4%  0.9503E-07  0.3088E-07   0.000      0.1438E-06   0.000      0.5120E-07   0.000    
     179  0.2789E-01  0.1551E-03 SOLID          1 -12.5%  0.9593E-07  0.3090E-07   0.000      0.1450E-06   0.000      0.5120E-07   0.000    
     180  0.2805E-01  0.1551E-03 SOLID          1 -12.6%  0.9683E-07  0.3092E-07   0.000      0.1462E-06   0.000      0.5120E-07   0.000    
     181  0.2820E-01  0.1551E-03 SOLID          1 -12.7%  0.9773E-07  0.3095E-07   0.000      0.1475E-06   0.000      0.5120E-07   0.000    
     182  0.2836E-01  0.1551E-03 SOLID          1 -12.8%  0.9864E-07  0.3097E-07   0.000      0.1487E-06   0.000      0.5120E-07   0.000    
     183  0.2851E-01  0.1551E-03 SOLID          1 -12.9%  0.9955E-07  0.3099E-07   0.000      0.1499E-06   0.000      0.5120E-07   0.000    
     184  0.2867E-01  0.1551E-03 SOLID          1 -13.0%  0.1005E-06  0.3102E-07   0.000      0.1512E-06   0.000      0.5120E-07   0.000    
     185  0.2882E-01  0.1551E-03 SOLID          1 -13.1%  0.1014E-06  0.3104E-07   0.000      0.1525E-06   0.000      0.5120E-07   0.000    
     186  0.2898E-01  0.1551E-03 SOLID          1 -13.3%  0.1023E-06  0.3106E-07   0.000      0.1537E-06   0.000      0.5120E-07   0.000    
     187  0.2913E-01  0.1550E-03 SOLID          1 -13.4%  0.1032E-06  0.3109E-07   0.000      0.1550E-06   0.000      0.5120E-07   0.000    
     188  0.2929E-01  0.1550E-03 SOLID          1 -13.5%  0.1041E-06  0.3111E-07   0.000      0.1563E-06   0.000      0.5120E-07   0.000    
     189  0.2944E-01  0.1550E-03 SOLID          1 -13.6%  0.1050E-06  0.3114E-07   0.000      0.1575E-06   0.000      0.5120E-07   0.000    
     190  0.2960E-01  0.1550E-03 SOLID          1 -13.7%  0.1060E-06  0.3116E-07   0.000      0.1588E-06   0.000      0.5120E-07   0.000    
     191  0.2975E-01  0.1550E-03 SOLID          1 -13.8%  0.1069E-06  0.3118E-07   0.000      0.1601E-06   0.000      0.5120E-07   0.000    
     192  0.2991E-01  0.1550E-03 SOLID          1 -13.9%  0.1078E-06  0.3121E-07   0.000      0.1614E-06   0.000      0.5120E-07   0.000    
     193  0.3006E-01  0.1550E-03 SOLID          1 -14.0%  0.1088E-06  0.3123E-07   0.000      0.1627E-06   0.000      0.5120E-07   0.000    
     194  0.3022E-01  0.1550E-03 SOLID          1 -14.1%  0.1097E-06  0.3126E-07   0.000      0.1640E-06   0.000      0.5120E-07   0.000    
     195  0.3037E-01  0.1549E-03 SOLID          1 -14.2%  0.1106E-06  0.3128E-07   0.000      0.1653E-06   0.000      0.5120E-07   0.000    
     196  0.3053E-01  0.1549E-03 SOLID          1 -14.3%  0.1116E-06  0.3131E-07   0.000      0.1666E-06   0.000      0.5120E-07   0.000    
     197  0.3068E-01  0.1549E-03 SOLID          1 -14.4%  0.1125E-06  0.3133E-07   0.000      0.1680E-06   0.000      0.5120E-07   0.000    
     198  0.3084E-01  0.1549E-03 SOLID          1 -14.5%  0.1134E-06  0.3136E-07   0.000      0.1693E-06   0.000      0.5120E-07   0.000    
     199  0.3099E-01  0.1549E-03 SOLID          1 -14.6%  0.1144E-06  0.3138E-07   0.000      0.1706E-06   0.000      0.5120E-07   0.000    
     200  0.3115E-01  0.1549E-03 SOLID          1 -14.7%  0.1153E-06  0.3141E-07   0.000      0.1720E-06   0.000      0.5120E-07   0.000    
     201  0.3130E-01  0.1549E-03 SOLID          1 -14.8%  0.1163E-06  0.3143E-07   0.000      0.1733E-06   0.000      0.5120E-07   0.000    
     202  0.3146E-01  0.1549E-03 SOLID          1 -14.9%  0.1172E-06  0.3146E-07   0.000      0.1746E-06   0.000      0.5120E-07   0.000    
     203  0.3161E-01  0.1548E-03 SOLID          1 -15.0%  0.1182E-06  0.3148E-07   0.000      0.1760E-06   0.000      0.5120E-07   0.000    
     204  0.3177E-01  0.1548E-03 SOLID          1 -15.1%  0.1191E-06  0.3151E-07   0.000      0.1774E-06   0.000      0.5120E-07   0.000    
     205  0.3192E-01  0.1548E-03 SOLID          1 -15.2%  0.1201E-06  0.3153E-07   0.000      0.1787E-06   0.000      0.5120E-07   0.000    
     206  0.3208E-01  0.1548E-03 SOLID          1 -15.3%  0.1210E-06  0.3156E-07   0.000      0.1801E-06   0.000      0.5120E-07   0.000    
     207  0.3223E-01  0.1548E-03 SOLID          1 -15.4%  0.1220E-06  0.3158E-07   0.000      0.1815E-06   0.000      0.5120E-07   0.000    
     208  0.3239E-01  0.1548E-03 SOLID          1 -15.5%  0.1230E-06  0.3161E-07   0.000      0.1828E-06   0.000      0.5120E-07   0.000    
     209  0.3254E-01  0.1548E-03 SOLID          1 -15.6%  0.1239E-06  0.3163E-07   0.000      0.1842E-06   0.000      0.5120E-07   0.000    
     210  0.3270E-01  0.1547E-03 SOLID          1 -15.7%  0.1249E-06  0.3166E-07   0.000      0.1856E-06   0.000      0.5120E-07   0.000    
     211  0.3285E-01  0.1547E-03 SOLID          1 -15.8%  0.1258E-06  0.3169E-07   0.000      0.1870E-06   0.000      0.5120E-07   0.000    
     212  0.3301E-01  0.1547E-03 SOLID          1 -15.9%  0.1268E-06  0.3171E-07   0.000      0.1884E-06   0.000      0.5120E-07   0.000    
     213  0.3316E-01  0.1547E-03 SOLID          1 -16.0%  0.1278E-06  0.3174E-07   0.000      0.1898E-06   0.000      0.5120E-07   0.000    
     214  0.3332E-01  0.1547E-03 SOLID          1 -16.1%  0.1288E-06  0.3177E-07   0.000      0.1912E-06   0.000      0.5120E-07   0.000    
     215  0.3347E-01  0.1547E-03 SOLID          1 -16.2%  0.1297E-06  0.3179E-07   0.000      0.1927E-06   0.000      0.5120E-07   0.000    
     216  0.3363E-01  0.1547E-03 SOLID          1 -16.3%  0.1307E-06  0.3182E-07   0.000      0.1941E-06   0.000      0.5120E-07   0.000    
     217  0.3378E-01  0.1547E-03 SOLID          1 -16.4%  0.1317E-06  0.3184E-07   0.000      0.1955E-06   0.000      0.5120E-07   0.000    
     218  0.3394E-01  0.1546E-03 SOLID          1 -16.5%  0.1327E-06  0.3187E-07   0.000      0.1969E-06   0.000      0.5120E-07   0.000    
     219  0.3409E-01  0.1546E-03 SOLID          1 -16.5%  0.1336E-06  0.3190E-07   0.000      0.1984E-06   0.000      0.5120E-07   0.000    
   CYCLE    TIME      TIME-STEP  ELEMENT          ERROR  I-ENERGY    K-ENERGY T  K-ENERGY R  EXT-WORK     MAS.ERR     TOTAL MASS  MASS ADDED
     220  0.3424E-01  0.1546E-03 SOLID          1 -16.6%  0.1346E-06  0.3192E-07   0.000      0.1998E-06   0.000      0.5120E-07   0.000    
     221  0.3440E-01  0.1546E-03 SOLID          1 -16.7%  0.1356E-06  0.3195E-07   0.000      0.2013E-06   0.000      0.5120E-07   0.000    
     222  0.3455E-01  0.1546E-03 SOLID          1 -16.8%  0.1366E-06  0.3198E-07   0.000      0.2027E-06   0.000      0.5120E-07   0.000    
     223  0.3471E-01  0.1546E-03 SOLID          1 -16.9%  0.1376E-06  0.3200E-07   0.000      0.2042E-06   0.000      0.5120E-07   0.000    
     224  0.3486E-01  0.1546E-03 SOLID          1 -17.0%  0.1386E-06  0.3203E-07   0.000      0.2056E-06   0.000      0.5120E-07   0.000    
     225  0.3502E-01  0.1545E-03 SOLID          1 -17.1%  0.1396E-06  0.3206E-07   0.000      0.2071E-06   0.000      0.5120E-07   0.000    
     226  0.3517E-01  0.1545E-03 SOLID          1 -17.2%  0.1406E-06  0.3209E-07   0.000      0.2086E-06   0.000      0.5120E-07   0.000    
     227  0.3533E-01  0.1545E-03 SOLID          1 -17.3%  0.1415E-06  0.3211E-07   0.000      0.2101E-06   0.000      0.5120E-07   0.000    
     228  0.3548E-01  0.1545E-03 SOLID          1 -17.4%  0.1425E-06  0.3214E-07   0.000      0.2115E-06   0.000      0.5120E-07   0.000    
     229  0.3564E-01  0.1545E-03 SOLID          1 -17.5%  0.1435E-06  0.3217E-07   0.000      0.2130E-06   0.000      0.5120E-07   0.000    
     230  0.3579E-01  0.1545E-03 SOLID          1 -17.6%  0.1445E-06  0.3220E-07   0.000      0.2145E-06   0.000      0.5120E-07   0.000    
     231  0.3594E-01  0.1544E-03 SOLID          1 -17.7%  0.1455E-06  0.3222E-07   0.000      0.2160E-06   0.000      0.5120E-07   0.000    
     232  0.3610E-01  0.1544E-03 SOLID          1 -17.8%  0.1465E-06  0.3225E-07   0.000      0.2175E-06   0.000      0.5120E-07   0.000    
     233  0.3625E-01  0.1544E-03 SOLID          1 -17.9%  0.1475E-06  0.3228E-07   0.000      0.2190E-06   0.000      0.5120E-07   0.000    
     234  0.3641E-01  0.1544E-03 SOLID          1 -18.0%  0.1485E-06  0.3231E-07   0.000      0.2205E-06   0.000      0.5120E-07   0.000    
     235  0.3656E-01  0.1544E-03 SOLID          1 -18.1%  0.1496E-06  0.3233E-07   0.000      0.2221E-06   0.000      0.5120E-07   0.000    
     236  0.3672E-01  0.1544E-03 SOLID          1 -18.2%  0.1506E-06  0.3236E-07   0.000      0.2236E-06   0.000      0.5120E-07   0.000    
     237  0.3687E-01  0.1544E-03 SOLID          1 -18.3%  0.1516E-06  0.3239E-07   0.000      0.2251E-06   0.000      0.5120E-07   0.000    
     238  0.3703E-01  0.1543E-03 SOLID          1 -18.4%  0.1526E-06  0.3242E-07   0.000      0.2266E-06   0.000      0.5120E-07   0.000    
     239  0.3718E-01  0.1543E-03 SOLID          1 -18.5%  0.1536E-06  0.3245E-07   0.000      0.2282E-06   0.000      0.5120E-07   0.000    
     240  0.3733E-01  0.1543E-03 SOLID          1 -18.6%  0.1546E-06  0.3247E-07   0.000      0.2297E-06   0.000      0.5120E-07   0.000    
     241  0.3749E-01  0.1543E-03 SOLID          1 -18.7%  0.1556E-06  0.3250E-07   0.000      0.2313E-06   0.000      0.5120E-07   0.000    
     242  0.3764E-01  0.1543E-03 SOLID          1 -18.8%  0.1566E-06  0.3253E-07   0.000      0.2328E-06   0.000      0.5120E-07   0.000    
     243  0.3780E-01  0.1543E-03 SOLID          1 -18.8%  0.1576E-06  0.3256E-07   0.000      0.2344E-06   0.000      0.5120E-07   0.000    
     244  0.3795E-01  0.1543E-03 SOLID          1 -18.9%  0.1587E-06  0.3259E-07   0.000      0.2359E-06   0.000      0.5120E-07   0.000    
     245  0.3811E-01  0.1542E-03 SOLID          1 -19.0%  0.1597E-06  0.3261E-07   0.000      0.2375E-06   0.000      0.5120E-07   0.000    
     246  0.3826E-01  0.1542E-03 SOLID          1 -19.1%  0.1607E-06  0.3264E-07   0.000      0.2391E-06   0.000      0.5120E-07   0.000    
     247  0.3841E-01  0.1542E-03 SOLID          1 -19.2%  0.1617E-06  0.3267E-07   0.000      0.2406E-06   0.000      0.5120E-07   0.000    
     248  0.3857E-01  0.1542E-03 SOLID          1 -19.3%  0.1627E-06  0.3270E-07   0.000      0.2422E-06   0.000      0.5120E-07   0.000    
     249  0.3872E-01  0.1542E-03 SOLID          1 -19.4%  0.1638E-06  0.3273E-07   0.000      0.2438E-06   0.000      0.5120E-07   0.000    
     250  0.3888E-01  0.1542E-03 SOLID          1 -19.5%  0.1648E-06  0.3276E-07   0.000      0.2454E-06   0.000      0.5120E-07   0.000    
     251  0.3903E-01  0.1541E-03 SOLID          1 -19.6%  0.1658E-06  0.3278E-07   0.000      0.2470E-06   0.000      0.5120E-07   0.000    
     252  0.3918E-01  0.1541E-03 SOLID          1 -19.7%  0.1668E-06  0.3281E-07   0.000      0.2486E-06   0.000      0.5120E-07   0.000    
     253  0.3934E-01  0.1541E-03 SOLID          1 -19.8%  0.1679E-06  0.3284E-07   0.000      0.2502E-06   0.000      0.5120E-07   0.000    
     254  0.3949E-01  0.1541E-03 SOLID          1 -19.9%  0.1689E-06  0.3287E-07   0.000      0.2518E-06   0.000      0.5120E-07   0.000    
     255  0.3965E-01  0.1541E-03 SOLID          1 -20.0%  0.1699E-06  0.3290E-07   0.000      0.2534E-06   0.000      0.5120E-07   0.000    
     256  0.3980E-01  0.1541E-03 SOLID          1 -20.1%  0.1710E-06  0.3293E-07   0.000      0.2550E-06   0.000      0.5120E-07   0.000    
     257  0.3996E-01  0.1540E-03 SOLID          1 -20.1%  0.1720E-06  0.3296E-07   0.000      0.2567E-06   0.000      0.5120E-07   0.000    
     258  0.4011E-01  0.1540E-03 SOLID          1 -20.2%  0.1730E-06  0.3299E-07   0.000      0.2583E-06   0.000      0.5120E-07   0.000    
     259  0.4026E-01  0.1540E-03 SOLID          1 -20.3%  0.1741E-06  0.3301E-07   0.000      0.2599E-06   0.000      0.5120E-07   0.000    
     260  0.4042E-01  0.1540E-03 SOLID          1 -20.4%  0.1751E-06  0.3304E-07   0.000      0.2616E-06   0.000      0.5120E-07   0.000    
     261  0.4057E-01  0.1540E-03 SOLID          1 -20.5%  0.1761E-06  0.3307E-07   0.000      0.2632E-06   0.000      0.5120E-07   0.000    
     262  0.4073E-01  0.1540E-03 SOLID          1 -20.6%  0.1772E-06  0.3310E-07   0.000      0.2648E-06   0.000      0.5120E-07   0.000    
     263  0.4088E-01  0.1539E-03 SOLID          1 -20.7%  0.1782E-06  0.3313E-07   0.000      0.2665E-06   0.000      0.5120E-07   0.000    
     264  0.4103E-01  0.1539E-03 SOLID          1 -20.8%  0.1793E-06  0.3316E-07   0.000      0.2682E-06   0.000      0.5120E-07   0.000    
     265  0.4119E-01  0.1539E-03 SOLID          1 -20.9%  0.1803E-06  0.3319E-07   0.000      0.2698E-06   0.000      0.5120E-07   0.000    
     266  0.4134E-01  0.1539E-03 SOLID          1 -21.0%  0.1814E-06  0.3322E-07   0.000      0.2715E-06   0.000      0.5120E-07   0.000    
     267  0.4149E-01  0.1539E-03 SOLID          1 -21.1%  0.1824E-06  0.3325E-07   0.000      0.2731E-06   0.000      0.5120E-07   0.000    
     268  0.4165E-01  0.1539E-03 SOLID          1 -21.1%  0.1834E-06  0.3327E-07   0.000      0.2748E-06   0.000      0.5120E-07   0.000    
     269  0.4180E-01  0.1538E-03 SOLID          1 -21.2%  0.1845E-06  0.3330E-07   0.000      0.2765E-06   0.000      0.5120E-07   0.000    
     270  0.4196E-01  0.1538E-03 SOLID          1 -21.3%  0.1855E-06  0.3333E-07   0.000      0.2782E-06   0.000      0.5120E-07   0.000    
     271  0.4211E-01  0.1538E-03 SOLID          1 -21.4%  0.1866E-06  0.3336E-07   0.000      0.2799E-06   0.000      0.5120E-07   0.000    
     272  0.4226E-01  0.1538E-03 SOLID          1 -21.5%  0.1876E-06  0.3339E-07   0.000      0.2816E-06   0.000      0.5120E-07   0.000    
     273  0.4242E-01  0.1538E-03 SOLID          1 -21.6%  0.1887E-06  0.3342E-07   0.000      0.2833E-06   0.000      0.5120E-07   0.000    
     274  0.4257E-01  0.1538E-03 SOLID          1 -21.7%  0.1897E-06  0.3345E-07   0.000      0.2850E-06   0.000      0.5120E-07   0.000    
   CYCLE    TIME      TIME-STEP  ELEMENT          ERROR  I-ENERGY    K-ENERGY T  K-ENERGY R  EXT-WORK     MAS.ERR     TOTAL MASS  MASS ADDED
     275  0.4273E-01  0.1537E-03 SOLID          1 -21.8%  0.1908E-06  0.3348E-07   0.000      0.2867E-06   0.000      0.5120E-07   0.000    
     276  0.4288E-01  0.1537E-03 SOLID          1 -21.9%  0.1918E-06  0.3351E-07   0.000      0.2884E-06   0.000      0.5120E-07   0.000    
     277  0.4303E-01  0.1537E-03 SOLID          1 -21.9%  0.1929E-06  0.3354E-07   0.000      0.2901E-06   0.000      0.5120E-07   0.000    
     278  0.4319E-01  0.1537E-03 SOLID          1 -22.0%  0.1939E-06  0.3356E-07   0.000      0.2918E-06   0.000      0.5120E-07   0.000    
     279  0.4334E-01  0.1537E-03 SOLID          1 -22.1%  0.1950E-06  0.3359E-07   0.000      0.2935E-06   0.000      0.5120E-07   0.000    
     280  0.4349E-01  0.1537E-03 SOLID          1 -22.2%  0.1961E-06  0.3362E-07   0.000      0.2953E-06   0.000      0.5120E-07   0.000    
     281  0.4365E-01  0.1536E-03 SOLID          1 -22.3%  0.1971E-06  0.3365E-07   0.000      0.2970E-06   0.000      0.5120E-07   0.000    
     282  0.4380E-01  0.1536E-03 SOLID          1 -22.4%  0.1982E-06  0.3368E-07   0.000      0.2987E-06   0.000      0.5120E-07   0.000    
     283  0.4396E-01  0.1536E-03 SOLID          1 -22.5%  0.1992E-06  0.3371E-07   0.000      0.3005E-06   0.000      0.5120E-07   0.000    
     284  0.4411E-01  0.1536E-03 SOLID          1 -22.6%  0.2003E-06  0.3374E-07   0.000      0.3022E-06   0.000      0.5120E-07   0.000    
     285  0.4426E-01  0.1536E-03 SOLID          1 -22.6%  0.2013E-06  0.3377E-07   0.000      0.3040E-06   0.000      0.5120E-07   0.000    
     286  0.4442E-01  0.1536E-03 SOLID          1 -22.7%  0.2024E-06  0.3380E-07   0.000      0.3057E-06   0.000      0.5120E-07   0.000    
     287  0.4457E-01  0.1535E-03 SOLID          1 -22.8%  0.2035E-06  0.3383E-07   0.000      0.3075E-06   0.000      0.5120E-07   0.000    
     288  0.4472E-01  0.1535E-03 SOLID          1 -22.9%  0.2045E-06  0.3385E-07   0.000      0.3092E-06   0.000      0.5120E-07   0.000    
     289  0.4488E-01  0.1535E-03 SOLID          1 -23.0%  0.2056E-06  0.3388E-07   0.000      0.3110E-06   0.000      0.5120E-07   0.000    
     290  0.4503E-01  0.1535E-03 SOLID          1 -23.1%  0.2067E-06  0.3391E-07   0.000      0.3128E-06   0.000      0.5120E-07   0.000    
     291  0.4518E-01  0.1535E-03 SOLID          1 -23.2%  0.2077E-06  0.3394E-07   0.000      0.3145E-06   0.000      0.5120E-07   0.000    
     292  0.4534E-01  0.1535E-03 SOLID          1 -23.3%  0.2088E-06  0.3397E-07   0.000      0.3163E-06   0.000      0.5120E-07   0.000    
     293  0.4549E-01  0.1534E-03 SOLID          1 -23.3%  0.2098E-06  0.3400E-07   0.000      0.3181E-06   0.000      0.5120E-07   0.000    
     294  0.4564E-01  0.1534E-03 SOLID          1 -23.4%  0.2109E-06  0.3403E-07   0.000      0.3199E-06   0.000      0.5120E-07   0.000    
     295  0.4580E-01  0.1534E-03 SOLID          1 -23.5%  0.2120E-06  0.3406E-07   0.000      0.3217E-06   0.000      0.5120E-07   0.000    
     296  0.4595E-01  0.1534E-03 SOLID          1 -23.6%  0.2131E-06  0.3408E-07   0.000      0.3235E-06   0.000      0.5120E-07   0.000    
     297  0.4610E-01  0.1534E-03 SOLID          1 -23.7%  0.2141E-06  0.3411E-07   0.000      0.3253E-06   0.000      0.5120E-07   0.000    
     298  0.4626E-01  0.1533E-03 SOLID          1 -23.8%  0.2152E-06  0.3414E-07   0.000      0.3271E-06   0.000      0.5120E-07   0.000    
     299  0.4641E-01  0.1533E-03 SOLID          1 -23.9%  0.2163E-06  0.3417E-07   0.000      0.3289E-06   0.000      0.5120E-07   0.000    
     300  0.4656E-01  0.1533E-03 SOLID          1 -23.9%  0.2173E-06  0.3420E-07   0.000      0.3307E-06   0.000      0.5120E-07   0.000    
     301  0.4672E-01  0.1533E-03 SOLID          1 -24.0%  0.2184E-06  0.3423E-07   0.000      0.3325E-06   0.000      0.5120E-07   0.000    
     302  0.4687E-01  0.1533E-03 SOLID          1 -24.1%  0.2195E-06  0.3426E-07   0.000      0.3343E-06   0.000      0.5120E-07   0.000    
     303  0.4702E-01  0.1533E-03 SOLID          1 -24.2%  0.2205E-06  0.3428E-07   0.000      0.3362E-06   0.000      0.5120E-07   0.000    
     304  0.4718E-01  0.1532E-03 SOLID          1 -24.3%  0.2216E-06  0.3431E-07   0.000      0.3380E-06   0.000      0.5120E-07   0.000    
     305  0.4733E-01  0.1532E-03 SOLID          1 -24.4%  0.2227E-06  0.3434E-07   0.000      0.3398E-06   0.000      0.5120E-07   0.000    
     306  0.4748E-01  0.1532E-03 SOLID          1 -24.4%  0.2238E-06  0.3437E-07   0.000      0.3417E-06   0.000      0.5120E-07   0.000    
     307  0.4764E-01  0.1532E-03 SOLID          1 -24.5%  0.2248E-06  0.3440E-07   0.000      0.3435E-06   0.000      0.5120E-07   0.000    
     308  0.4779E-01  0.1532E-03 SOLID          1 -24.6%  0.2259E-06  0.3443E-07   0.000      0.3454E-06   0.000      0.5120E-07   0.000    
     309  0.4794E-01  0.1531E-03 SOLID          1 -24.7%  0.2270E-06  0.3445E-07   0.000      0.3472E-06   0.000      0.5120E-07   0.000    
     310  0.4810E-01  0.1531E-03 SOLID          1 -24.8%  0.2281E-06  0.3448E-07   0.000      0.3491E-06   0.000      0.5120E-07   0.000    
     311  0.4825E-01  0.1531E-03 SOLID          1 -24.9%  0.2291E-06  0.3451E-07   0.000      0.3509E-06   0.000      0.5120E-07   0.000    
     312  0.4840E-01  0.1531E-03 SOLID          1 -24.9%  0.2302E-06  0.3454E-07   0.000      0.3528E-06   0.000      0.5120E-07   0.000    
     313  0.4856E-01  0.1531E-03 SOLID          1 -25.0%  0.2313E-06  0.3457E-07   0.000      0.3546E-06   0.000      0.5120E-07   0.000    
     314  0.4871E-01  0.1530E-03 SOLID          1 -25.1%  0.2324E-06  0.3459E-07   0.000      0.3565E-06   0.000      0.5120E-07   0.000    
     315  0.4886E-01  0.1530E-03 SOLID          1 -25.2%  0.2335E-06  0.3462E-07   0.000      0.3584E-06   0.000      0.5120E-07   0.000    
     316  0.4901E-01  0.1530E-03 SOLID          1 -25.3%  0.2345E-06  0.3465E-07   0.000      0.3603E-06   0.000      0.5120E-07   0.000    
     317  0.4917E-01  0.1530E-03 SOLID          1 -25.4%  0.2356E-06  0.3468E-07   0.000      0.3621E-06   0.000      0.5120E-07   0.000    
     318  0.4932E-01  0.1530E-03 SOLID          1 -25.4%  0.2367E-06  0.3470E-07   0.000      0.3640E-06   0.000      0.5120E-07   0.000    
     319  0.4947E-01  0.1530E-03 SOLID          1 -25.5%  0.2378E-06  0.3473E-07   0.000      0.3659E-06   0.000      0.5120E-07   0.000    
     320  0.4963E-01  0.1529E-03 SOLID          1 -25.6%  0.2389E-06  0.3476E-07   0.000      0.3678E-06   0.000      0.5120E-07   0.000    
     321  0.4978E-01  0.1529E-03 SOLID          1 -25.7%  0.2399E-06  0.3479E-07   0.000      0.3697E-06   0.000      0.5120E-07   0.000    
     322  0.4993E-01  0.1529E-03 SOLID          1 -25.8%  0.2410E-06  0.3481E-07   0.000      0.3716E-06   0.000      0.5120E-07   0.000    
     323  0.5009E-01  0.1529E-03 SOLID          1 -25.9%  0.2421E-06  0.3484E-07   0.000      0.3735E-06   0.000      0.5120E-07   0.000    
     ANIMATION FILE: M50BA002 WRITTEN
     324  0.5024E-01  0.1529E-03 SOLID          1 -25.9%  0.2432E-06  0.3487E-07   0.000      0.3754E-06   0.000      0.5120E-07   0.000    
     325  0.5039E-01  0.1528E-03 SOLID          1 -26.0%  0.2443E-06  0.3490E-07   0.000      0.3773E-06   0.000      0.5120E-07   0.000    
     326  0.5054E-01  0.1528E-03 SOLID          1 -26.1%  0.2454E-06  0.3492E-07   0.000      0.3793E-06   0.000      0.5120E-07   0.000    
     327  0.5070E-01  0.1528E-03 SOLID          1 -26.2%  0.2464E-06  0.3495E-07   0.000      0.3812E-06   0.000      0.5120E-07   0.000    
     328  0.5085E-01  0.1528E-03 SOLID          1 -26.3%  0.2475E-06  0.3498E-07   0.000      0.3831E-06   0.000      0.5120E-07   0.000    
     329  0.5100E-01  0.1528E-03 SOLID          1 -26.3%  0.2486E-06  0.3500E-07   0.000      0.3850E-06   0.000      0.5120E-07   0.000    
   CYCLE    TIME      TIME-STEP  ELEMENT          ERROR  I-ENERGY    K-ENERGY T  K-ENERGY R  EXT-WORK     MAS.ERR     TOTAL MASS  MASS ADDED
     330  0.5116E-01  0.1527E-03 SOLID          1 -26.4%  0.2497E-06  0.3503E-07   0.000      0.3870E-06   0.000      0.5120E-07   0.000    
     331  0.5131E-01  0.1527E-03 SOLID          1 -26.5%  0.2508E-06  0.3506E-07   0.000      0.3889E-06   0.000      0.5120E-07   0.000    
     332  0.5146E-01  0.1527E-03 SOLID          1 -26.6%  0.2519E-06  0.3508E-07   0.000      0.3908E-06   0.000      0.5120E-07   0.000    
     333  0.5161E-01  0.1527E-03 SOLID          1 -26.7%  0.2530E-06  0.3511E-07   0.000      0.3928E-06   0.000      0.5120E-07   0.000    
     334  0.5177E-01  0.1527E-03 SOLID          1 -26.7%  0.2540E-06  0.3514E-07   0.000      0.3947E-06   0.000      0.5120E-07   0.000    
     335  0.5192E-01  0.1526E-03 SOLID          1 -26.8%  0.2551E-06  0.3516E-07   0.000      0.3967E-06   0.000      0.5120E-07   0.000    
     336  0.5207E-01  0.1526E-03 SOLID          1 -26.9%  0.2562E-06  0.3519E-07   0.000      0.3987E-06   0.000      0.5120E-07   0.000    
     337  0.5222E-01  0.1526E-03 SOLID          1 -27.0%  0.2573E-06  0.3522E-07   0.000      0.4006E-06   0.000      0.5120E-07   0.000    
     338  0.5238E-01  0.1526E-03 SOLID          1 -27.1%  0.2584E-06  0.3524E-07   0.000      0.4026E-06   0.000      0.5120E-07   0.000    
     339  0.5253E-01  0.1526E-03 SOLID          1 -27.1%  0.2595E-06  0.3527E-07   0.000      0.4045E-06   0.000      0.5120E-07   0.000    
     340  0.5268E-01  0.1526E-03 SOLID          1 -27.2%  0.2606E-06  0.3529E-07   0.000      0.4065E-06   0.000      0.5120E-07   0.000    
     341  0.5283E-01  0.1525E-03 SOLID          1 -27.3%  0.2617E-06  0.3532E-07   0.000      0.4085E-06   0.000      0.5120E-07   0.000    
     342  0.5299E-01  0.1525E-03 SOLID          1 -27.4%  0.2627E-06  0.3535E-07   0.000      0.4105E-06   0.000      0.5120E-07   0.000    
     343  0.5314E-01  0.1525E-03 SOLID          1 -27.5%  0.2638E-06  0.3537E-07   0.000      0.4124E-06   0.000      0.5120E-07   0.000    
     344  0.5329E-01  0.1525E-03 SOLID          1 -27.5%  0.2649E-06  0.3540E-07   0.000      0.4144E-06   0.000      0.5120E-07   0.000    
     345  0.5344E-01  0.1525E-03 SOLID          1 -27.6%  0.2660E-06  0.3542E-07   0.000      0.4164E-06   0.000      0.5120E-07   0.000    
     346  0.5360E-01  0.1524E-03 SOLID          1 -27.7%  0.2671E-06  0.3545E-07   0.000      0.4184E-06   0.000      0.5120E-07   0.000    
     347  0.5375E-01  0.1524E-03 SOLID          1 -27.8%  0.2682E-06  0.3547E-07   0.000      0.4204E-06   0.000      0.5120E-07   0.000    
     348  0.5390E-01  0.1524E-03 SOLID          1 -27.8%  0.2693E-06  0.3550E-07   0.000      0.4224E-06   0.000      0.5120E-07   0.000    
     349  0.5405E-01  0.1524E-03 SOLID          1 -27.9%  0.2704E-06  0.3552E-07   0.000      0.4244E-06   0.000      0.5120E-07   0.000    
     350  0.5421E-01  0.1524E-03 SOLID          1 -28.0%  0.2715E-06  0.3555E-07   0.000      0.4264E-06   0.000      0.5120E-07   0.000    
     351  0.5436E-01  0.1523E-03 SOLID          1 -28.1%  0.2726E-06  0.3557E-07   0.000      0.4284E-06   0.000      0.5120E-07   0.000    
     352  0.5451E-01  0.1523E-03 SOLID          1 -28.2%  0.2736E-06  0.3560E-07   0.000      0.4305E-06   0.000      0.5120E-07   0.000    
     353  0.5466E-01  0.1523E-03 SOLID          1 -28.2%  0.2747E-06  0.3562E-07   0.000      0.4325E-06   0.000      0.5120E-07   0.000    
     354  0.5482E-01  0.1523E-03 SOLID          1 -28.3%  0.2758E-06  0.3565E-07   0.000      0.4345E-06   0.000      0.5120E-07   0.000    
     355  0.5497E-01  0.1523E-03 SOLID          1 -28.4%  0.2769E-06  0.3567E-07   0.000      0.4365E-06   0.000      0.5120E-07   0.000    
     356  0.5512E-01  0.1522E-03 SOLID          1 -28.5%  0.2780E-06  0.3570E-07   0.000      0.4386E-06   0.000      0.5120E-07   0.000    
     357  0.5527E-01  0.1522E-03 SOLID          1 -28.5%  0.2791E-06  0.3572E-07   0.000      0.4406E-06   0.000      0.5120E-07   0.000    
     358  0.5542E-01  0.1522E-03 SOLID          1 -28.6%  0.2802E-06  0.3575E-07   0.000      0.4426E-06   0.000      0.5120E-07   0.000    
     359  0.5558E-01  0.1522E-03 SOLID          1 -28.7%  0.2813E-06  0.3577E-07   0.000      0.4447E-06   0.000      0.5120E-07   0.000    
     360  0.5573E-01  0.1522E-03 SOLID          1 -28.8%  0.2824E-06  0.3580E-07   0.000      0.4467E-06   0.000      0.5120E-07   0.000    
     361  0.5588E-01  0.1521E-03 SOLID          1 -28.8%  0.2835E-06  0.3582E-07   0.000      0.4488E-06   0.000      0.5120E-07   0.000    
     362  0.5603E-01  0.1521E-03 SOLID          1 -28.9%  0.2846E-06  0.3584E-07   0.000      0.4508E-06   0.000      0.5120E-07   0.000    
     363  0.5619E-01  0.1521E-03 SOLID          1 -29.0%  0.2857E-06  0.3587E-07   0.000      0.4529E-06   0.000      0.5120E-07   0.000    
     364  0.5634E-01  0.1521E-03 SOLID          1 -29.1%  0.2868E-06  0.3589E-07   0.000      0.4549E-06   0.000      0.5120E-07   0.000    
     365  0.5649E-01  0.1521E-03 SOLID          1 -29.2%  0.2878E-06  0.3592E-07   0.000      0.4570E-06   0.000      0.5120E-07   0.000    
     366  0.5664E-01  0.1520E-03 SOLID          1 -29.2%  0.2889E-06  0.3594E-07   0.000      0.4591E-06   0.000      0.5120E-07   0.000    
     367  0.5679E-01  0.1520E-03 SOLID          1 -29.3%  0.2900E-06  0.3596E-07   0.000      0.4611E-06   0.000      0.5120E-07   0.000    
     368  0.5695E-01  0.1520E-03 SOLID          1 -29.4%  0.2911E-06  0.3599E-07   0.000      0.4632E-06   0.000      0.5120E-07   0.000    
     369  0.5710E-01  0.1520E-03 SOLID          1 -29.5%  0.2922E-06  0.3601E-07   0.000      0.4653E-06   0.000      0.5120E-07   0.000    
     370  0.5725E-01  0.1520E-03 SOLID          1 -29.5%  0.2933E-06  0.3603E-07   0.000      0.4674E-06   0.000      0.5120E-07   0.000    
     371  0.5740E-01  0.1519E-03 SOLID          1 -29.6%  0.2944E-06  0.3606E-07   0.000      0.4694E-06   0.000      0.5120E-07   0.000    
     372  0.5755E-01  0.1519E-03 SOLID          1 -29.7%  0.2955E-06  0.3608E-07   0.000      0.4715E-06   0.000      0.5120E-07   0.000    
     373  0.5771E-01  0.1519E-03 SOLID          1 -29.8%  0.2966E-06  0.3610E-07   0.000      0.4736E-06   0.000      0.5120E-07   0.000    
     374  0.5786E-01  0.1519E-03 SOLID          1 -29.8%  0.2977E-06  0.3612E-07   0.000      0.4757E-06   0.000      0.5120E-07   0.000    
     375  0.5801E-01  0.1519E-03 SOLID          1 -29.9%  0.2988E-06  0.3615E-07   0.000      0.4778E-06   0.000      0.5120E-07   0.000    
     376  0.5816E-01  0.1518E-03 SOLID          1 -30.0%  0.2999E-06  0.3617E-07   0.000      0.4799E-06   0.000      0.5120E-07   0.000    
     377  0.5831E-01  0.1518E-03 SOLID          1 -30.1%  0.3010E-06  0.3619E-07   0.000      0.4820E-06   0.000      0.5120E-07   0.000    
     378  0.5846E-01  0.1518E-03 SOLID          1 -30.1%  0.3021E-06  0.3622E-07   0.000      0.4841E-06   0.000      0.5120E-07   0.000    
     379  0.5862E-01  0.1518E-03 SOLID          1 -30.2%  0.3032E-06  0.3624E-07   0.000      0.4862E-06   0.000      0.5120E-07   0.000    
     380  0.5877E-01  0.1518E-03 SOLID          1 -30.3%  0.3043E-06  0.3626E-07   0.000      0.4883E-06   0.000      0.5120E-07   0.000    
     381  0.5892E-01  0.1517E-03 SOLID          1 -30.3%  0.3053E-06  0.3628E-07   0.000      0.4905E-06   0.000      0.5120E-07   0.000    
     382  0.5907E-01  0.1517E-03 SOLID          1 -30.4%  0.3064E-06  0.3630E-07   0.000      0.4926E-06   0.000      0.5120E-07   0.000    
     383  0.5922E-01  0.1517E-03 SOLID          1 -30.5%  0.3075E-06  0.3633E-07   0.000      0.4947E-06   0.000      0.5120E-07   0.000    
     384  0.5938E-01  0.1517E-03 SOLID          1 -30.6%  0.3086E-06  0.3635E-07   0.000      0.4968E-06   0.000      0.5120E-07   0.000    
   CYCLE    TIME      TIME-STEP  ELEMENT          ERROR  I-ENERGY    K-ENERGY T  K-ENERGY R  EXT-WORK     MAS.ERR     TOTAL MASS  MASS ADDED
     385  0.5953E-01  0.1516E-03 SOLID          1 -30.6%  0.3097E-06  0.3637E-07   0.000      0.4990E-06   0.000      0.5120E-07   0.000    
     386  0.5968E-01  0.1516E-03 SOLID          1 -30.7%  0.3108E-06  0.3639E-07   0.000      0.5011E-06   0.000      0.5120E-07   0.000    
     387  0.5983E-01  0.1516E-03 SOLID          1 -30.8%  0.3119E-06  0.3641E-07   0.000      0.5032E-06   0.000      0.5120E-07   0.000    
     388  0.5998E-01  0.1516E-03 SOLID          1 -30.9%  0.3130E-06  0.3643E-07   0.000      0.5054E-06   0.000      0.5120E-07   0.000    
     389  0.6013E-01  0.1516E-03 SOLID          1 -30.9%  0.3141E-06  0.3646E-07   0.000      0.5075E-06   0.000      0.5120E-07   0.000    
     390  0.6028E-01  0.1515E-03 SOLID          1 -31.0%  0.3152E-06  0.3648E-07   0.000      0.5097E-06   0.000      0.5120E-07   0.000    
     391  0.6044E-01  0.1515E-03 SOLID          1 -31.1%  0.3163E-06  0.3650E-07   0.000      0.5118E-06   0.000      0.5120E-07   0.000    
     392  0.6059E-01  0.1515E-03 SOLID          1 -31.1%  0.3174E-06  0.3652E-07   0.000      0.5140E-06   0.000      0.5120E-07   0.000    
     393  0.6074E-01  0.1515E-03 SOLID          1 -31.2%  0.3185E-06  0.3654E-07   0.000      0.5161E-06   0.000      0.5120E-07   0.000    
     394  0.6089E-01  0.1515E-03 SOLID          1 -31.3%  0.3196E-06  0.3656E-07   0.000      0.5183E-06   0.000      0.5120E-07   0.000    
     395  0.6104E-01  0.1514E-03 SOLID          1 -31.4%  0.3207E-06  0.3658E-07   0.000      0.5205E-06   0.000      0.5120E-07   0.000    
     396  0.6119E-01  0.1514E-03 SOLID          1 -31.4%  0.3218E-06  0.3660E-07   0.000      0.5226E-06   0.000      0.5120E-07   0.000    
     397  0.6135E-01  0.1514E-03 SOLID          1 -31.5%  0.3228E-06  0.3662E-07   0.000      0.5248E-06   0.000      0.5120E-07   0.000    
     398  0.6150E-01  0.1514E-03 SOLID          1 -31.6%  0.3239E-06  0.3665E-07   0.000      0.5270E-06   0.000      0.5120E-07   0.000    
     399  0.6165E-01  0.1514E-03 SOLID          1 -31.6%  0.3250E-06  0.3667E-07   0.000      0.5291E-06   0.000      0.5120E-07   0.000    
     400  0.6180E-01  0.1513E-03 SOLID          1 -31.7%  0.3261E-06  0.3669E-07   0.000      0.5313E-06   0.000      0.5120E-07   0.000    
     401  0.6195E-01  0.1513E-03 SOLID          1 -31.8%  0.3272E-06  0.3671E-07   0.000      0.5335E-06   0.000      0.5120E-07   0.000    
     402  0.6210E-01  0.1513E-03 SOLID          1 -31.9%  0.3283E-06  0.3673E-07   0.000      0.5357E-06   0.000      0.5120E-07   0.000    
     403  0.6225E-01  0.1513E-03 SOLID          1 -31.9%  0.3294E-06  0.3675E-07   0.000      0.5379E-06   0.000      0.5120E-07   0.000    
     404  0.6240E-01  0.1513E-03 SOLID          1 -32.0%  0.3305E-06  0.3677E-07   0.000      0.5401E-06   0.000      0.5120E-07   0.000    
     405  0.6256E-01  0.1512E-03 SOLID          1 -32.1%  0.3316E-06  0.3679E-07   0.000      0.5423E-06   0.000      0.5120E-07   0.000    
     406  0.6271E-01  0.1512E-03 SOLID          1 -32.1%  0.3327E-06  0.3681E-07   0.000      0.5445E-06   0.000      0.5120E-07   0.000    
     407  0.6286E-01  0.1512E-03 SOLID          1 -32.2%  0.3338E-06  0.3683E-07   0.000      0.5467E-06   0.000      0.5120E-07   0.000    
     408  0.6301E-01  0.1512E-03 SOLID          1 -32.3%  0.3349E-06  0.3685E-07   0.000      0.5489E-06   0.000      0.5120E-07   0.000    
     409  0.6316E-01  0.1512E-03 SOLID          1 -32.4%  0.3359E-06  0.3687E-07   0.000      0.5511E-06   0.000      0.5120E-07   0.000    
     410  0.6331E-01  0.1511E-03 SOLID          1 -32.4%  0.3370E-06  0.3689E-07   0.000      0.5533E-06   0.000      0.5120E-07   0.000    
     411  0.6346E-01  0.1511E-03 SOLID          1 -32.5%  0.3381E-06  0.3691E-07   0.000      0.5555E-06   0.000      0.5120E-07   0.000    
     412  0.6361E-01  0.1511E-03 SOLID          1 -32.6%  0.3392E-06  0.3693E-07   0.000      0.5577E-06   0.000      0.5120E-07   0.000    
     413  0.6377E-01  0.1511E-03 SOLID          1 -32.6%  0.3403E-06  0.3695E-07   0.000      0.5600E-06   0.000      0.5120E-07   0.000    
     414  0.6392E-01  0.1510E-03 SOLID          1 -32.7%  0.3414E-06  0.3697E-07   0.000      0.5622E-06   0.000      0.5120E-07   0.000    
     415  0.6407E-01  0.1510E-03 SOLID          1 -32.8%  0.3425E-06  0.3698E-07   0.000      0.5644E-06   0.000      0.5120E-07   0.000    
     416  0.6422E-01  0.1510E-03 SOLID          1 -32.8%  0.3436E-06  0.3700E-07   0.000      0.5666E-06   0.000      0.5120E-07   0.000    
     417  0.6437E-01  0.1510E-03 SOLID          1 -32.9%  0.3447E-06  0.3702E-07   0.000      0.5689E-06   0.000      0.5120E-07   0.000    
     418  0.6452E-01  0.1510E-03 SOLID          1 -33.0%  0.3458E-06  0.3704E-07   0.000      0.5711E-06   0.000      0.5120E-07   0.000    
     419  0.6467E-01  0.1509E-03 SOLID          1 -33.0%  0.3468E-06  0.3706E-07   0.000      0.5734E-06   0.000      0.5120E-07   0.000    
     420  0.6482E-01  0.1509E-03 SOLID          1 -33.1%  0.3479E-06  0.3708E-07   0.000      0.5756E-06   0.000      0.5120E-07   0.000    
     421  0.6497E-01  0.1509E-03 SOLID          1 -33.2%  0.3490E-06  0.3710E-07   0.000      0.5778E-06   0.000      0.5120E-07   0.000    
     422  0.6512E-01  0.1509E-03 SOLID          1 -33.2%  0.3501E-06  0.3712E-07   0.000      0.5801E-06   0.000      0.5120E-07   0.000    
     423  0.6527E-01  0.1509E-03 SOLID          1 -33.3%  0.3512E-06  0.3714E-07   0.000      0.5823E-06   0.000      0.5120E-07   0.000    
     424  0.6543E-01  0.1508E-03 SOLID          1 -33.4%  0.3523E-06  0.3716E-07   0.000      0.5846E-06   0.000      0.5120E-07   0.000    
     425  0.6558E-01  0.1508E-03 SOLID          1 -33.5%  0.3534E-06  0.3717E-07   0.000      0.5869E-06   0.000      0.5120E-07   0.000    
     426  0.6573E-01  0.1508E-03 SOLID          1 -33.5%  0.3545E-06  0.3719E-07   0.000      0.5891E-06   0.000      0.5120E-07   0.000    
     427  0.6588E-01  0.1508E-03 SOLID          1 -33.6%  0.3555E-06  0.3721E-07   0.000      0.5914E-06   0.000      0.5120E-07   0.000    
     428  0.6603E-01  0.1508E-03 SOLID          1 -33.7%  0.3566E-06  0.3723E-07   0.000      0.5936E-06   0.000      0.5120E-07   0.000    
     429  0.6618E-01  0.1507E-03 SOLID          1 -33.7%  0.3577E-06  0.3725E-07   0.000      0.5959E-06   0.000      0.5120E-07   0.000    
     430  0.6633E-01  0.1507E-03 SOLID          1 -33.8%  0.3588E-06  0.3727E-07   0.000      0.5982E-06   0.000      0.5120E-07   0.000    
     431  0.6648E-01  0.1507E-03 SOLID          1 -33.9%  0.3599E-06  0.3729E-07   0.000      0.6005E-06   0.000      0.5120E-07   0.000    
     432  0.6663E-01  0.1507E-03 SOLID          1 -33.9%  0.3610E-06  0.3730E-07   0.000      0.6027E-06   0.000      0.5120E-07   0.000    
     433  0.6678E-01  0.1506E-03 SOLID          1 -34.0%  0.3621E-06  0.3732E-07   0.000      0.6050E-06   0.000      0.5120E-07   0.000    
     434  0.6693E-01  0.1506E-03 SOLID          1 -34.1%  0.3631E-06  0.3734E-07   0.000      0.6073E-06   0.000      0.5120E-07   0.000    
     435  0.6708E-01  0.1506E-03 SOLID          1 -34.1%  0.3642E-06  0.3736E-07   0.000      0.6096E-06   0.000      0.5120E-07   0.000    
     436  0.6723E-01  0.1506E-03 SOLID          1 -34.2%  0.3653E-06  0.3738E-07   0.000      0.6119E-06   0.000      0.5120E-07   0.000    
     437  0.6739E-01  0.1506E-03 SOLID          1 -34.3%  0.3664E-06  0.3739E-07   0.000      0.6142E-06   0.000      0.5120E-07   0.000    
     438  0.6754E-01  0.1505E-03 SOLID          1 -34.3%  0.3675E-06  0.3741E-07   0.000      0.6165E-06   0.000      0.5120E-07   0.000    
     439  0.6769E-01  0.1505E-03 SOLID          1 -34.4%  0.3686E-06  0.3743E-07   0.000      0.6188E-06   0.000      0.5120E-07   0.000    
   CYCLE    TIME      TIME-STEP  ELEMENT          ERROR  I-ENERGY    K-ENERGY T  K-ENERGY R  EXT-WORK     MAS.ERR     TOTAL MASS  MASS ADDED
     440  0.6784E-01  0.1505E-03 SOLID          1 -34.5%  0.3696E-06  0.3745E-07   0.000      0.6211E-06   0.000      0.5120E-07   0.000    
     441  0.6799E-01  0.1505E-03 SOLID          1 -34.5%  0.3707E-06  0.3747E-07   0.000      0.6234E-06   0.000      0.5120E-07   0.000    
     442  0.6814E-01  0.1505E-03 SOLID          1 -34.6%  0.3718E-06  0.3748E-07   0.000      0.6257E-06   0.000      0.5120E-07   0.000    
     443  0.6829E-01  0.1504E-03 SOLID          1 -34.7%  0.3729E-06  0.3750E-07   0.000      0.6280E-06   0.000      0.5120E-07   0.000    
     444  0.6844E-01  0.1504E-03 SOLID          1 -34.7%  0.3740E-06  0.3752E-07   0.000      0.6303E-06   0.000      0.5120E-07   0.000    
     445  0.6859E-01  0.1504E-03 SOLID          1 -34.8%  0.3750E-06  0.3754E-07   0.000      0.6326E-06   0.000      0.5120E-07   0.000    
     446  0.6874E-01  0.1504E-03 SOLID          1 -34.9%  0.3761E-06  0.3756E-07   0.000      0.6350E-06   0.000      0.5120E-07   0.000    
     447  0.6889E-01  0.1504E-03 SOLID          1 -34.9%  0.3772E-06  0.3757E-07   0.000      0.6373E-06   0.000      0.5120E-07   0.000    
     448  0.6904E-01  0.1503E-03 SOLID          1 -35.0%  0.3783E-06  0.3759E-07   0.000      0.6396E-06   0.000      0.5120E-07   0.000    
     449  0.6919E-01  0.1503E-03 SOLID          1 -35.0%  0.3794E-06  0.3761E-07   0.000      0.6419E-06   0.000      0.5120E-07   0.000    
     450  0.6934E-01  0.1503E-03 SOLID          1 -35.1%  0.3804E-06  0.3763E-07   0.000      0.6443E-06   0.000      0.5120E-07   0.000    
     451  0.6949E-01  0.1503E-03 SOLID          1 -35.2%  0.3815E-06  0.3764E-07   0.000      0.6466E-06   0.000      0.5120E-07   0.000    
     452  0.6964E-01  0.1502E-03 SOLID          1 -35.2%  0.3826E-06  0.3766E-07   0.000      0.6489E-06   0.000      0.5120E-07   0.000    
     453  0.6979E-01  0.1502E-03 SOLID          1 -35.3%  0.3837E-06  0.3768E-07   0.000      0.6513E-06   0.000      0.5120E-07   0.000    
     454  0.6994E-01  0.1502E-03 SOLID          1 -35.4%  0.3847E-06  0.3770E-07   0.000      0.6536E-06   0.000      0.5120E-07   0.000    
     455  0.7009E-01  0.1502E-03 SOLID          1 -35.4%  0.3858E-06  0.3771E-07   0.000      0.6560E-06   0.000      0.5120E-07   0.000    
     456  0.7024E-01  0.1502E-03 SOLID          1 -35.5%  0.3869E-06  0.3773E-07   0.000      0.6583E-06   0.000      0.5120E-07   0.000    
     457  0.7039E-01  0.1501E-03 SOLID          1 -35.6%  0.3880E-06  0.3775E-07   0.000      0.6607E-06   0.000      0.5120E-07   0.000    
     458  0.7054E-01  0.1501E-03 SOLID          1 -35.6%  0.3890E-06  0.3777E-07   0.000      0.6630E-06   0.000      0.5120E-07   0.000    
     459  0.7069E-01  0.1501E-03 SOLID          1 -35.7%  0.3901E-06  0.3778E-07   0.000      0.6654E-06   0.000      0.5120E-07   0.000    
     460  0.7084E-01  0.1501E-03 SOLID          1 -35.8%  0.3912E-06  0.3780E-07   0.000      0.6677E-06   0.000      0.5120E-07   0.000    
     461  0.7099E-01  0.1501E-03 SOLID          1 -35.8%  0.3923E-06  0.3782E-07   0.000      0.6701E-06   0.000      0.5120E-07   0.000    
     462  0.7114E-01  0.1500E-03 SOLID          1 -35.9%  0.3933E-06  0.3784E-07   0.000      0.6725E-06   0.000      0.5120E-07   0.000    
     463  0.7129E-01  0.1500E-03 SOLID          1 -35.9%  0.3944E-06  0.3785E-07   0.000      0.6748E-06   0.000      0.5120E-07   0.000    
     464  0.7144E-01  0.1500E-03 SOLID          1 -36.0%  0.3955E-06  0.3787E-07   0.000      0.6772E-06   0.000      0.5120E-07   0.000    
     465  0.7159E-01  0.1500E-03 SOLID          1 -36.1%  0.3966E-06  0.3789E-07   0.000      0.6796E-06   0.000      0.5120E-07   0.000    
     466  0.7174E-01  0.1500E-03 SOLID          1 -36.1%  0.3976E-06  0.3790E-07   0.000      0.6820E-06   0.000      0.5120E-07   0.000    
     467  0.7189E-01  0.1499E-03 SOLID          1 -36.2%  0.3987E-06  0.3792E-07   0.000      0.6843E-06   0.000      0.5120E-07   0.000    
     468  0.7204E-01  0.1499E-03 SOLID          1 -36.3%  0.3998E-06  0.3794E-07   0.000      0.6867E-06   0.000      0.5120E-07   0.000    
     469  0.7219E-01  0.1499E-03 SOLID          1 -36.3%  0.4008E-06  0.3796E-07   0.000      0.6891E-06   0.000      0.5120E-07   0.000    
     470  0.7234E-01  0.1499E-03 SOLID          1 -36.4%  0.4019E-06  0.3797E-07   0.000      0.6915E-06   0.000      0.5120E-07   0.000    
     471  0.7249E-01  0.1498E-03 SOLID          1 -36.5%  0.4030E-06  0.3799E-07   0.000      0.6939E-06   0.000      0.5120E-07   0.000    
     472  0.7264E-01  0.1498E-03 SOLID          1 -36.5%  0.4040E-06  0.3801E-07   0.000      0.6963E-06   0.000      0.5120E-07   0.000    
     473  0.7279E-01  0.1498E-03 SOLID          1 -36.6%  0.4051E-06  0.3803E-07   0.000      0.6987E-06   0.000      0.5120E-07   0.000    
     474  0.7294E-01  0.1498E-03 SOLID          1 -36.6%  0.4062E-06  0.3804E-07   0.000      0.7011E-06   0.000      0.5120E-07   0.000    
     475  0.7309E-01  0.1498E-03 SOLID          1 -36.7%  0.4072E-06  0.3806E-07   0.000      0.7035E-06   0.000      0.5120E-07   0.000    
     476  0.7324E-01  0.1497E-03 SOLID          1 -36.8%  0.4083E-06  0.3808E-07   0.000      0.7059E-06   0.000      0.5120E-07   0.000    
     477  0.7339E-01  0.1497E-03 SOLID          1 -36.8%  0.4094E-06  0.3809E-07   0.000      0.7083E-06   0.000      0.5120E-07   0.000    
     478  0.7354E-01  0.1497E-03 SOLID          1 -36.9%  0.4104E-06  0.3811E-07   0.000      0.7107E-06   0.000      0.5120E-07   0.000    
     479  0.7369E-01  0.1497E-03 SOLID          1 -36.9%  0.4115E-06  0.3813E-07   0.000      0.7131E-06   0.000      0.5120E-07   0.000    
     480  0.7384E-01  0.1497E-03 SOLID          1 -37.0%  0.4126E-06  0.3815E-07   0.000      0.7155E-06   0.000      0.5120E-07   0.000    
     481  0.7399E-01  0.1496E-03 SOLID          1 -37.1%  0.4136E-06  0.3816E-07   0.000      0.7179E-06   0.000      0.5120E-07   0.000    
     482  0.7414E-01  0.1496E-03 SOLID          1 -37.1%  0.4147E-06  0.3818E-07   0.000      0.7204E-06   0.000      0.5120E-07   0.000    
     483  0.7429E-01  0.1496E-03 SOLID          1 -37.2%  0.4157E-06  0.3820E-07   0.000      0.7228E-06   0.000      0.5120E-07   0.000    
     484  0.7444E-01  0.1496E-03 SOLID          1 -37.3%  0.4168E-06  0.3822E-07   0.000      0.7252E-06   0.000      0.5120E-07   0.000    
     485  0.7459E-01  0.1495E-03 SOLID          1 -37.3%  0.4179E-06  0.3823E-07   0.000      0.7276E-06   0.000      0.5120E-07   0.000    
     486  0.7474E-01  0.1495E-03 SOLID          1 -37.4%  0.4189E-06  0.3825E-07   0.000      0.7301E-06   0.000      0.5120E-07   0.000    
     487  0.7489E-01  0.1495E-03 SOLID          1 -37.4%  0.4200E-06  0.3827E-07   0.000      0.7325E-06   0.000      0.5120E-07   0.000    
     488  0.7504E-01  0.1495E-03 SOLID          1 -37.5%  0.4210E-06  0.3828E-07   0.000      0.7349E-06   0.000      0.5120E-07   0.000    
     489  0.7519E-01  0.1495E-03 SOLID          1 -37.6%  0.4221E-06  0.3830E-07   0.000      0.7374E-06   0.000      0.5120E-07   0.000    
     490  0.7534E-01  0.1494E-03 SOLID          1 -37.6%  0.4232E-06  0.3832E-07   0.000      0.7398E-06   0.000      0.5120E-07   0.000    
     491  0.7549E-01  0.1494E-03 SOLID          1 -37.7%  0.4242E-06  0.3834E-07   0.000      0.7422E-06   0.000      0.5120E-07   0.000    
     492  0.7563E-01  0.1494E-03 SOLID          1 -37.7%  0.4253E-06  0.3835E-07   0.000      0.7447E-06   0.000      0.5120E-07   0.000    
     493  0.7578E-01  0.1494E-03 SOLID          1 -37.8%  0.4263E-06  0.3837E-07   0.000      0.7471E-06   0.000      0.5120E-07   0.000    
     494  0.7593E-01  0.1494E-03 SOLID          1 -37.9%  0.4274E-06  0.3839E-07   0.000      0.7496E-06   0.000      0.5120E-07   0.000    
   CYCLE    TIME      TIME-STEP  ELEMENT          ERROR  I-ENERGY    K-ENERGY T  K-ENERGY R  EXT-WORK     MAS.ERR     TOTAL MASS  MASS ADDED
     495  0.7608E-01  0.1493E-03 SOLID          1 -37.9%  0.4284E-06  0.3841E-07   0.000      0.7520E-06   0.000      0.5120E-07   0.000    
     496  0.7623E-01  0.1493E-03 SOLID          1 -38.0%  0.4295E-06  0.3842E-07   0.000      0.7545E-06   0.000      0.5120E-07   0.000    
     497  0.7638E-01  0.1493E-03 SOLID          1 -38.0%  0.4305E-06  0.3844E-07   0.000      0.7570E-06   0.000      0.5120E-07   0.000    
     498  0.7653E-01  0.1493E-03 SOLID          1 -38.1%  0.4316E-06  0.3846E-07   0.000      0.7594E-06   0.000      0.5120E-07   0.000    
     499  0.7668E-01  0.1493E-03 SOLID          1 -38.2%  0.4326E-06  0.3848E-07   0.000      0.7619E-06   0.000      0.5120E-07   0.000    
     500  0.7683E-01  0.1492E-03 SOLID          1 -38.2%  0.4337E-06  0.3849E-07   0.000      0.7643E-06   0.000      0.5120E-07   0.000    
     501  0.7698E-01  0.1492E-03 SOLID          1 -38.3%  0.4347E-06  0.3851E-07   0.000      0.7668E-06   0.000      0.5120E-07   0.000    
     502  0.7713E-01  0.1492E-03 SOLID          1 -38.3%  0.4358E-06  0.3853E-07   0.000      0.7693E-06   0.000      0.5120E-07   0.000    
     503  0.7728E-01  0.1492E-03 SOLID          1 -38.4%  0.4368E-06  0.3855E-07   0.000      0.7718E-06   0.000      0.5120E-07   0.000    
     504  0.7743E-01  0.1491E-03 SOLID          1 -38.5%  0.4379E-06  0.3857E-07   0.000      0.7742E-06   0.000      0.5120E-07   0.000    
     505  0.7758E-01  0.1491E-03 SOLID          1 -38.5%  0.4389E-06  0.3858E-07   0.000      0.7767E-06   0.000      0.5120E-07   0.000    
     506  0.7772E-01  0.1491E-03 SOLID          1 -38.6%  0.4400E-06  0.3860E-07   0.000      0.7792E-06   0.000      0.5120E-07   0.000    
     507  0.7787E-01  0.1491E-03 SOLID          1 -38.6%  0.4410E-06  0.3862E-07   0.000      0.7817E-06   0.000      0.5120E-07   0.000    
     508  0.7802E-01  0.1491E-03 SOLID          1 -38.7%  0.4421E-06  0.3864E-07   0.000      0.7842E-06   0.000      0.5120E-07   0.000    
     509  0.7817E-01  0.1490E-03 SOLID          1 -38.8%  0.4431E-06  0.3865E-07   0.000      0.7866E-06   0.000      0.5120E-07   0.000    
     510  0.7832E-01  0.1490E-03 SOLID          1 -38.8%  0.4442E-06  0.3867E-07   0.000      0.7891E-06   0.000      0.5120E-07   0.000    
     511  0.7847E-01  0.1490E-03 SOLID          1 -38.9%  0.4452E-06  0.3869E-07   0.000      0.7916E-06   0.000      0.5120E-07   0.000    
     512  0.7862E-01  0.1490E-03 SOLID          1 -38.9%  0.4463E-06  0.3871E-07   0.000      0.7941E-06   0.000      0.5120E-07   0.000    
     513  0.7877E-01  0.1490E-03 SOLID          1 -39.0%  0.4473E-06  0.3873E-07   0.000      0.7966E-06   0.000      0.5120E-07   0.000    
     514  0.7892E-01  0.1489E-03 SOLID          1 -39.0%  0.4483E-06  0.3874E-07   0.000      0.7991E-06   0.000      0.5120E-07   0.000    
     515  0.7907E-01  0.1489E-03 SOLID          1 -39.1%  0.4494E-06  0.3876E-07   0.000      0.8016E-06   0.000      0.5120E-07   0.000    
     516  0.7921E-01  0.1489E-03 SOLID          1 -39.2%  0.4504E-06  0.3878E-07   0.000      0.8041E-06   0.000      0.5120E-07   0.000    
     517  0.7936E-01  0.1489E-03 SOLID          1 -39.2%  0.4515E-06  0.3880E-07   0.000      0.8066E-06   0.000      0.5120E-07   0.000    
     518  0.7951E-01  0.1489E-03 SOLID          1 -39.3%  0.4525E-06  0.3882E-07   0.000      0.8091E-06   0.000      0.5120E-07   0.000    
     519  0.7966E-01  0.1488E-03 SOLID          1 -39.3%  0.4535E-06  0.3883E-07   0.000      0.8117E-06   0.000      0.5120E-07   0.000    
     520  0.7981E-01  0.1488E-03 SOLID          1 -39.4%  0.4546E-06  0.3885E-07   0.000      0.8142E-06   0.000      0.5120E-07   0.000    
     521  0.7996E-01  0.1488E-03 SOLID          1 -39.5%  0.4556E-06  0.3887E-07   0.000      0.8167E-06   0.000      0.5120E-07   0.000    
     522  0.8011E-01  0.1488E-03 SOLID          1 -39.5%  0.4567E-06  0.3889E-07   0.000      0.8192E-06   0.000      0.5120E-07   0.000    
     523  0.8026E-01  0.1487E-03 SOLID          1 -39.6%  0.4577E-06  0.3891E-07   0.000      0.8217E-06   0.000      0.5120E-07   0.000    
     524  0.8041E-01  0.1487E-03 SOLID          1 -39.6%  0.4587E-06  0.3893E-07   0.000      0.8243E-06   0.000      0.5120E-07   0.000    
     525  0.8055E-01  0.1487E-03 SOLID          1 -39.7%  0.4598E-06  0.3894E-07   0.000      0.8268E-06   0.000      0.5120E-07   0.000    
     526  0.8070E-01  0.1487E-03 SOLID          1 -39.7%  0.4608E-06  0.3896E-07   0.000      0.8293E-06   0.000      0.5120E-07   0.000    
     527  0.8085E-01  0.1487E-03 SOLID          1 -39.8%  0.4618E-06  0.3898E-07   0.000      0.8318E-06   0.000      0.5120E-07   0.000    
     528  0.8100E-01  0.1486E-03 SOLID          1 -39.9%  0.4629E-06  0.3900E-07   0.000      0.8344E-06   0.000      0.5120E-07   0.000    
     529  0.8115E-01  0.1486E-03 SOLID          1 -39.9%  0.4639E-06  0.3902E-07   0.000      0.8369E-06   0.000      0.5120E-07   0.000    
     530  0.8130E-01  0.1486E-03 SOLID          1 -40.0%  0.4649E-06  0.3904E-07   0.000      0.8395E-06   0.000      0.5120E-07   0.000    
     531  0.8145E-01  0.1486E-03 SOLID          1 -40.0%  0.4660E-06  0.3905E-07   0.000      0.8420E-06   0.000      0.5120E-07   0.000    
     532  0.8159E-01  0.1486E-03 SOLID          1 -40.1%  0.4670E-06  0.3907E-07   0.000      0.8445E-06   0.000      0.5120E-07   0.000    
     533  0.8174E-01  0.1485E-03 SOLID          1 -40.1%  0.4680E-06  0.3909E-07   0.000      0.8471E-06   0.000      0.5120E-07   0.000    
     534  0.8189E-01  0.1485E-03 SOLID          1 -40.2%  0.4690E-06  0.3911E-07   0.000      0.8496E-06   0.000      0.5120E-07   0.000    
     535  0.8204E-01  0.1485E-03 SOLID          1 -40.2%  0.4701E-06  0.3913E-07   0.000      0.8522E-06   0.000      0.5120E-07   0.000    
     536  0.8219E-01  0.1485E-03 SOLID          1 -40.3%  0.4711E-06  0.3915E-07   0.000      0.8547E-06   0.000      0.5120E-07   0.000    
     537  0.8234E-01  0.1484E-03 SOLID          1 -40.4%  0.4721E-06  0.3917E-07   0.000      0.8573E-06   0.000      0.5120E-07   0.000    
     538  0.8249E-01  0.1484E-03 SOLID          1 -40.4%  0.4731E-06  0.3919E-07   0.000      0.8598E-06   0.000      0.5120E-07   0.000    
     539  0.8263E-01  0.1484E-03 SOLID          1 -40.5%  0.4742E-06  0.3920E-07   0.000      0.8624E-06   0.000      0.5120E-07   0.000    
     540  0.8278E-01  0.1484E-03 SOLID          1 -40.5%  0.4752E-06  0.3922E-07   0.000      0.8650E-06   0.000      0.5120E-07   0.000    
     541  0.8293E-01  0.1484E-03 SOLID          1 -40.6%  0.4762E-06  0.3924E-07   0.000      0.8675E-06   0.000      0.5120E-07   0.000    
     542  0.8308E-01  0.1483E-03 SOLID          1 -40.6%  0.4772E-06  0.3926E-07   0.000      0.8701E-06   0.000      0.5120E-07   0.000    
     543  0.8323E-01  0.1483E-03 SOLID          1 -40.7%  0.4783E-06  0.3928E-07   0.000      0.8727E-06   0.000      0.5120E-07   0.000    
     544  0.8338E-01  0.1483E-03 SOLID          1 -40.8%  0.4793E-06  0.3930E-07   0.000      0.8752E-06   0.000      0.5120E-07   0.000    
     545  0.8352E-01  0.1483E-03 SOLID          1 -40.8%  0.4803E-06  0.3932E-07   0.000      0.8778E-06   0.000      0.5120E-07   0.000    
     546  0.8367E-01  0.1483E-03 SOLID          1 -40.9%  0.4813E-06  0.3934E-07   0.000      0.8804E-06   0.000      0.5120E-07   0.000    
     547  0.8382E-01  0.1482E-03 SOLID          1 -40.9%  0.4823E-06  0.3936E-07   0.000      0.8830E-06   0.000      0.5120E-07   0.000    
     548  0.8397E-01  0.1482E-03 SOLID          1 -41.0%  0.4833E-06  0.3938E-07   0.000      0.8855E-06   0.000      0.5120E-07   0.000    
     549  0.8412E-01  0.1482E-03 SOLID          1 -41.0%  0.4844E-06  0.3939E-07   0.000      0.8881E-06   0.000      0.5120E-07   0.000    
   CYCLE    TIME      TIME-STEP  ELEMENT          ERROR  I-ENERGY    K-ENERGY T  K-ENERGY R  EXT-WORK     MAS.ERR     TOTAL MASS  MASS ADDED
     550  0.8427E-01  0.1482E-03 SOLID          1 -41.1%  0.4854E-06  0.3941E-07   0.000      0.8907E-06   0.000      0.5120E-07   0.000    
     551  0.8441E-01  0.1482E-03 SOLID          1 -41.1%  0.4864E-06  0.3943E-07   0.000      0.8933E-06   0.000      0.5120E-07   0.000    
     552  0.8456E-01  0.1481E-03 SOLID          1 -41.2%  0.4874E-06  0.3945E-07   0.000      0.8959E-06   0.000      0.5120E-07   0.000    
     553  0.8471E-01  0.1481E-03 SOLID          1 -41.2%  0.4884E-06  0.3947E-07   0.000      0.8985E-06   0.000      0.5120E-07   0.000    
     554  0.8486E-01  0.1481E-03 SOLID          1 -41.3%  0.4894E-06  0.3949E-07   0.000      0.9011E-06   0.000      0.5120E-07   0.000    
     555  0.8501E-01  0.1481E-03 SOLID          1 -41.4%  0.4904E-06  0.3951E-07   0.000      0.9037E-06   0.000      0.5120E-07   0.000    
     556  0.8515E-01  0.1481E-03 SOLID          1 -41.4%  0.4915E-06  0.3953E-07   0.000      0.9063E-06   0.000      0.5120E-07   0.000    
     557  0.8530E-01  0.1480E-03 SOLID          1 -41.5%  0.4925E-06  0.3955E-07   0.000      0.9089E-06   0.000      0.5120E-07   0.000    
     558  0.8545E-01  0.1480E-03 SOLID          1 -41.5%  0.4935E-06  0.3957E-07   0.000      0.9115E-06   0.000      0.5120E-07   0.000    
     559  0.8560E-01  0.1480E-03 SOLID          1 -41.6%  0.4945E-06  0.3959E-07   0.000      0.9141E-06   0.000      0.5120E-07   0.000    
     560  0.8575E-01  0.1480E-03 SOLID          1 -41.6%  0.4955E-06  0.3961E-07   0.000      0.9167E-06   0.000      0.5120E-07   0.000    
     561  0.8589E-01  0.1479E-03 SOLID          1 -41.7%  0.4965E-06  0.3963E-07   0.000      0.9193E-06   0.000      0.5120E-07   0.000    
     562  0.8604E-01  0.1479E-03 SOLID          1 -41.7%  0.4975E-06  0.3965E-07   0.000      0.9219E-06   0.000      0.5120E-07   0.000    
     563  0.8619E-01  0.1479E-03 SOLID          1 -41.8%  0.4985E-06  0.3967E-07   0.000      0.9245E-06   0.000      0.5120E-07   0.000    
     564  0.8634E-01  0.1479E-03 SOLID          1 -41.8%  0.4995E-06  0.3969E-07   0.000      0.9271E-06   0.000      0.5120E-07   0.000    
     565  0.8649E-01  0.1479E-03 SOLID          1 -41.9%  0.5005E-06  0.3971E-07   0.000      0.9297E-06   0.000      0.5120E-07   0.000    
     566  0.8663E-01  0.1478E-03 SOLID          1 -41.9%  0.5015E-06  0.3973E-07   0.000      0.9324E-06   0.000      0.5120E-07   0.000    
     567  0.8678E-01  0.1478E-03 SOLID          1 -42.0%  0.5025E-06  0.3975E-07   0.000      0.9350E-06   0.000      0.5120E-07   0.000    
     568  0.8693E-01  0.1478E-03 SOLID          1 -42.1%  0.5035E-06  0.3977E-07   0.000      0.9376E-06   0.000      0.5120E-07   0.000    
     569  0.8708E-01  0.1478E-03 SOLID          1 -42.1%  0.5045E-06  0.3979E-07   0.000      0.9402E-06   0.000      0.5120E-07   0.000    
     570  0.8722E-01  0.1478E-03 SOLID          1 -42.2%  0.5055E-06  0.3980E-07   0.000      0.9429E-06   0.000      0.5120E-07   0.000    
     571  0.8737E-01  0.1477E-03 SOLID          1 -42.2%  0.5065E-06  0.3982E-07   0.000      0.9455E-06   0.000      0.5120E-07   0.000    
     572  0.8752E-01  0.1477E-03 SOLID          1 -42.3%  0.5075E-06  0.3984E-07   0.000      0.9481E-06   0.000      0.5120E-07   0.000    
     573  0.8767E-01  0.1477E-03 SOLID          1 -42.3%  0.5085E-06  0.3986E-07   0.000      0.9508E-06   0.000      0.5120E-07   0.000    
     574  0.8782E-01  0.1477E-03 SOLID          1 -42.4%  0.5095E-06  0.3988E-07   0.000      0.9534E-06   0.000      0.5120E-07   0.000    
     575  0.8796E-01  0.1477E-03 SOLID          1 -42.4%  0.5105E-06  0.3990E-07   0.000      0.9560E-06   0.000      0.5120E-07   0.000    
     576  0.8811E-01  0.1476E-03 SOLID          1 -42.5%  0.5115E-06  0.3992E-07   0.000      0.9587E-06   0.000      0.5120E-07   0.000    
     577  0.8826E-01  0.1476E-03 SOLID          1 -42.5%  0.5125E-06  0.3994E-07   0.000      0.9613E-06   0.000      0.5120E-07   0.000    
     578  0.8841E-01  0.1476E-03 SOLID          1 -42.6%  0.5135E-06  0.3996E-07   0.000      0.9640E-06   0.000      0.5120E-07   0.000    
     579  0.8855E-01  0.1476E-03 SOLID          1 -42.6%  0.5145E-06  0.3998E-07   0.000      0.9666E-06   0.000      0.5120E-07   0.000    
     580  0.8870E-01  0.1475E-03 SOLID          1 -42.7%  0.5155E-06  0.4000E-07   0.000      0.9693E-06   0.000      0.5120E-07   0.000    
     581  0.8885E-01  0.1475E-03 SOLID          1 -42.7%  0.5165E-06  0.4002E-07   0.000      0.9719E-06   0.000      0.5120E-07   0.000    
     582  0.8900E-01  0.1475E-03 SOLID          1 -42.8%  0.5175E-06  0.4004E-07   0.000      0.9746E-06   0.000      0.5120E-07   0.000    
     583  0.8914E-01  0.1475E-03 SOLID          1 -42.8%  0.5185E-06  0.4006E-07   0.000      0.9772E-06   0.000      0.5120E-07   0.000    
     584  0.8929E-01  0.1475E-03 SOLID          1 -42.9%  0.5195E-06  0.4009E-07   0.000      0.9799E-06   0.000      0.5120E-07   0.000    
     585  0.8944E-01  0.1474E-03 SOLID          1 -42.9%  0.5204E-06  0.4011E-07   0.000      0.9825E-06   0.000      0.5120E-07   0.000    
     586  0.8959E-01  0.1474E-03 SOLID          1 -43.0%  0.5214E-06  0.4013E-07   0.000      0.9852E-06   0.000      0.5120E-07   0.000    
     587  0.8973E-01  0.1474E-03 SOLID          1 -43.1%  0.5224E-06  0.4015E-07   0.000      0.9879E-06   0.000      0.5120E-07   0.000    
     588  0.8988E-01  0.1474E-03 SOLID          1 -43.1%  0.5234E-06  0.4017E-07   0.000      0.9905E-06   0.000      0.5120E-07   0.000    
     589  0.9003E-01  0.1474E-03 SOLID          1 -43.2%  0.5244E-06  0.4019E-07   0.000      0.9932E-06   0.000      0.5120E-07   0.000    
     590  0.9018E-01  0.1473E-03 SOLID          1 -43.2%  0.5254E-06  0.4021E-07   0.000      0.9959E-06   0.000      0.5120E-07   0.000    
     591  0.9032E-01  0.1473E-03 SOLID          1 -43.3%  0.5264E-06  0.4023E-07   0.000      0.9985E-06   0.000      0.5120E-07   0.000    
     592  0.9047E-01  0.1473E-03 SOLID          1 -43.3%  0.5273E-06  0.4025E-07   0.000      0.1001E-05   0.000      0.5120E-07   0.000    
     593  0.9062E-01  0.1473E-03 SOLID          1 -43.4%  0.5283E-06  0.4027E-07   0.000      0.1004E-05   0.000      0.5120E-07   0.000    
     594  0.9077E-01  0.1473E-03 SOLID          1 -43.4%  0.5293E-06  0.4029E-07   0.000      0.1007E-05   0.000      0.5120E-07   0.000    
     595  0.9091E-01  0.1472E-03 SOLID          1 -43.5%  0.5303E-06  0.4031E-07   0.000      0.1009E-05   0.000      0.5120E-07   0.000    
     596  0.9106E-01  0.1472E-03 SOLID          1 -43.5%  0.5313E-06  0.4033E-07   0.000      0.1012E-05   0.000      0.5120E-07   0.000    
     597  0.9121E-01  0.1472E-03 SOLID          1 -43.6%  0.5322E-06  0.4035E-07   0.000      0.1015E-05   0.000      0.5120E-07   0.000    
     598  0.9135E-01  0.1472E-03 SOLID          1 -43.6%  0.5332E-06  0.4037E-07   0.000      0.1017E-05   0.000      0.5120E-07   0.000    
     599  0.9150E-01  0.1472E-03 SOLID          1 -43.7%  0.5342E-06  0.4039E-07   0.000      0.1020E-05   0.000      0.5120E-07   0.000    
     600  0.9165E-01  0.1471E-03 SOLID          1 -43.7%  0.5352E-06  0.4041E-07   0.000      0.1023E-05   0.000      0.5120E-07   0.000    
     601  0.9180E-01  0.1471E-03 SOLID          1 -43.8%  0.5362E-06  0.4043E-07   0.000      0.1025E-05   0.000      0.5120E-07   0.000    
     602  0.9194E-01  0.1471E-03 SOLID          1 -43.8%  0.5371E-06  0.4045E-07   0.000      0.1028E-05   0.000      0.5120E-07   0.000    
     603  0.9209E-01  0.1471E-03 SOLID          1 -43.9%  0.5381E-06  0.4047E-07   0.000      0.1031E-05   0.000      0.5120E-07   0.000    
     604  0.9224E-01  0.1470E-03 SOLID          1 -43.9%  0.5391E-06  0.4049E-07   0.000      0.1033E-05   0.000      0.5120E-07   0.000    
   CYCLE    TIME      TIME-STEP  ELEMENT          ERROR  I-ENERGY    K-ENERGY T  K-ENERGY R  EXT-WORK     MAS.ERR     TOTAL MASS  MASS ADDED
     605  0.9238E-01  0.1470E-03 SOLID          1 -44.0%  0.5401E-06  0.4051E-07   0.000      0.1036E-05   0.000      0.5120E-07   0.000    
     606  0.9253E-01  0.1470E-03 SOLID          1 -44.0%  0.5410E-06  0.4053E-07   0.000      0.1039E-05   0.000      0.5120E-07   0.000    
     607  0.9268E-01  0.1470E-03 SOLID          1 -44.1%  0.5420E-06  0.4055E-07   0.000      0.1042E-05   0.000      0.5120E-07   0.000    
     608  0.9282E-01  0.1470E-03 SOLID          1 -44.1%  0.5430E-06  0.4057E-07   0.000      0.1044E-05   0.000      0.5120E-07   0.000    
     609  0.9297E-01  0.1469E-03 SOLID          1 -44.2%  0.5439E-06  0.4059E-07   0.000      0.1047E-05   0.000      0.5120E-07   0.000    
     610  0.9312E-01  0.1469E-03 SOLID          1 -44.2%  0.5449E-06  0.4061E-07   0.000      0.1050E-05   0.000      0.5120E-07   0.000    
     611  0.9327E-01  0.1469E-03 SOLID          1 -44.3%  0.5459E-06  0.4063E-07   0.000      0.1052E-05   0.000      0.5120E-07   0.000    
     612  0.9341E-01  0.1469E-03 SOLID          1 -44.3%  0.5468E-06  0.4065E-07   0.000      0.1055E-05   0.000      0.5120E-07   0.000    
     613  0.9356E-01  0.1469E-03 SOLID          1 -44.4%  0.5478E-06  0.4067E-07   0.000      0.1058E-05   0.000      0.5120E-07   0.000    
     614  0.9371E-01  0.1468E-03 SOLID          1 -44.4%  0.5488E-06  0.4069E-07   0.000      0.1061E-05   0.000      0.5120E-07   0.000    
     615  0.9385E-01  0.1468E-03 SOLID          1 -44.5%  0.5497E-06  0.4071E-07   0.000      0.1063E-05   0.000      0.5120E-07   0.000    
     616  0.9400E-01  0.1468E-03 SOLID          1 -44.5%  0.5507E-06  0.4073E-07   0.000      0.1066E-05   0.000      0.5120E-07   0.000    
     617  0.9415E-01  0.1468E-03 SOLID          1 -44.6%  0.5517E-06  0.4075E-07   0.000      0.1069E-05   0.000      0.5120E-07   0.000    
     618  0.9429E-01  0.1468E-03 SOLID          1 -44.6%  0.5526E-06  0.4077E-07   0.000      0.1071E-05   0.000      0.5120E-07   0.000    
     619  0.9444E-01  0.1467E-03 SOLID          1 -44.7%  0.5536E-06  0.4080E-07   0.000      0.1074E-05   0.000      0.5120E-07   0.000    
     620  0.9459E-01  0.1467E-03 SOLID          1 -44.7%  0.5545E-06  0.4082E-07   0.000      0.1077E-05   0.000      0.5120E-07   0.000    
     621  0.9473E-01  0.1467E-03 SOLID          1 -44.8%  0.5555E-06  0.4084E-07   0.000      0.1080E-05   0.000      0.5120E-07   0.000    
     622  0.9488E-01  0.1467E-03 SOLID          1 -44.8%  0.5565E-06  0.4086E-07   0.000      0.1082E-05   0.000      0.5120E-07   0.000    
     623  0.9503E-01  0.1467E-03 SOLID          1 -44.9%  0.5574E-06  0.4088E-07   0.000      0.1085E-05   0.000      0.5120E-07   0.000    
     624  0.9517E-01  0.1466E-03 SOLID          1 -44.9%  0.5584E-06  0.4090E-07   0.000      0.1088E-05   0.000      0.5120E-07   0.000    
     625  0.9532E-01  0.1466E-03 SOLID          1 -45.0%  0.5593E-06  0.4092E-07   0.000      0.1091E-05   0.000      0.5120E-07   0.000    
     626  0.9547E-01  0.1466E-03 SOLID          1 -45.0%  0.5603E-06  0.4094E-07   0.000      0.1093E-05   0.000      0.5120E-07   0.000    
     627  0.9561E-01  0.1466E-03 SOLID          1 -45.1%  0.5612E-06  0.4096E-07   0.000      0.1096E-05   0.000      0.5120E-07   0.000    
     628  0.9576E-01  0.1465E-03 SOLID          1 -45.1%  0.5622E-06  0.4098E-07   0.000      0.1099E-05   0.000      0.5120E-07   0.000    
     629  0.9591E-01  0.1465E-03 SOLID          1 -45.2%  0.5632E-06  0.4100E-07   0.000      0.1102E-05   0.000      0.5120E-07   0.000    
     630  0.9605E-01  0.1465E-03 SOLID          1 -45.2%  0.5641E-06  0.4102E-07   0.000      0.1104E-05   0.000      0.5120E-07   0.000    
     631  0.9620E-01  0.1465E-03 SOLID          1 -45.3%  0.5651E-06  0.4104E-07   0.000      0.1107E-05   0.000      0.5120E-07   0.000    
     632  0.9635E-01  0.1465E-03 SOLID          1 -45.3%  0.5660E-06  0.4106E-07   0.000      0.1110E-05   0.000      0.5120E-07   0.000    
     633  0.9649E-01  0.1464E-03 SOLID          1 -45.3%  0.5670E-06  0.4108E-07   0.000      0.1113E-05   0.000      0.5120E-07   0.000    
     634  0.9664E-01  0.1464E-03 SOLID          1 -45.4%  0.5679E-06  0.4110E-07   0.000      0.1115E-05   0.000      0.5120E-07   0.000    
     635  0.9679E-01  0.1464E-03 SOLID          1 -45.4%  0.5689E-06  0.4112E-07   0.000      0.1118E-05   0.000      0.5120E-07   0.000    
     636  0.9693E-01  0.1464E-03 SOLID          1 -45.5%  0.5698E-06  0.4114E-07   0.000      0.1121E-05   0.000      0.5120E-07   0.000    
     637  0.9708E-01  0.1464E-03 SOLID          1 -45.5%  0.5707E-06  0.4116E-07   0.000      0.1124E-05   0.000      0.5120E-07   0.000    
     638  0.9722E-01  0.1463E-03 SOLID          1 -45.6%  0.5717E-06  0.4118E-07   0.000      0.1126E-05   0.000      0.5120E-07   0.000    
     639  0.9737E-01  0.1463E-03 SOLID          1 -45.6%  0.5726E-06  0.4120E-07   0.000      0.1129E-05   0.000      0.5120E-07   0.000    
     640  0.9752E-01  0.1463E-03 SOLID          1 -45.7%  0.5736E-06  0.4122E-07   0.000      0.1132E-05   0.000      0.5120E-07   0.000    
     641  0.9766E-01  0.1463E-03 SOLID          1 -45.7%  0.5745E-06  0.4124E-07   0.000      0.1135E-05   0.000      0.5120E-07   0.000    
     642  0.9781E-01  0.1463E-03 SOLID          1 -45.8%  0.5755E-06  0.4126E-07   0.000      0.1137E-05   0.000      0.5120E-07   0.000    
     643  0.9796E-01  0.1462E-03 SOLID          1 -45.8%  0.5764E-06  0.4128E-07   0.000      0.1140E-05   0.000      0.5120E-07   0.000    
     644  0.9810E-01  0.1462E-03 SOLID          1 -45.9%  0.5774E-06  0.4130E-07   0.000      0.1143E-05   0.000      0.5120E-07   0.000    
     645  0.9825E-01  0.1462E-03 SOLID          1 -45.9%  0.5783E-06  0.4132E-07   0.000      0.1146E-05   0.000      0.5120E-07   0.000    
     646  0.9839E-01  0.1462E-03 SOLID          1 -46.0%  0.5792E-06  0.4134E-07   0.000      0.1149E-05   0.000      0.5120E-07   0.000    
     647  0.9854E-01  0.1462E-03 SOLID          1 -46.0%  0.5802E-06  0.4136E-07   0.000      0.1151E-05   0.000      0.5120E-07   0.000    
     648  0.9869E-01  0.1461E-03 SOLID          1 -46.1%  0.5811E-06  0.4138E-07   0.000      0.1154E-05   0.000      0.5120E-07   0.000    
     649  0.9883E-01  0.1461E-03 SOLID          1 -46.1%  0.5820E-06  0.4140E-07   0.000      0.1157E-05   0.000      0.5120E-07   0.000    
     650  0.9898E-01  0.1461E-03 SOLID          1 -46.2%  0.5830E-06  0.4142E-07   0.000      0.1160E-05   0.000      0.5120E-07   0.000    
     651  0.9913E-01  0.1461E-03 SOLID          1 -46.2%  0.5839E-06  0.4144E-07   0.000      0.1162E-05   0.000      0.5120E-07   0.000    
     652  0.9927E-01  0.1460E-03 SOLID          1 -46.3%  0.5849E-06  0.4146E-07   0.000      0.1165E-05   0.000      0.5120E-07   0.000    
     653  0.9942E-01  0.1460E-03 SOLID          1 -46.3%  0.5858E-06  0.4148E-07   0.000      0.1168E-05   0.000      0.5120E-07   0.000    
     654  0.9956E-01  0.1460E-03 SOLID          1 -46.3%  0.5867E-06  0.4150E-07   0.000      0.1171E-05   0.000      0.5120E-07   0.000    
     655  0.9971E-01  0.1460E-03 SOLID          1 -46.4%  0.5877E-06  0.4151E-07   0.000      0.1174E-05   0.000      0.5120E-07   0.000    
     656  0.9986E-01  0.1460E-03 SOLID          1 -46.4%  0.5886E-06  0.4153E-07   0.000      0.1176E-05   0.000      0.5120E-07   0.000    
     657  0.1000      0.1459E-03 SOLID          1 -46.5%  0.5895E-06  0.4155E-07   0.000      0.1179E-05   0.000      0.5120E-07   0.000    
     ANIMATION FILE: M50BA003 WRITTEN
     658  0.1001      0.1459E-03 SOLID          1 -46.5%  0.5904E-06  0.4157E-07   0.000      0.1182E-05   0.000      0.5120E-07   0.000    
     659  0.1003      0.1459E-03 SOLID          1 -46.6%  0.5914E-06  0.4159E-07   0.000      0.1185E-05   0.000      0.5120E-07   0.000    
   CYCLE    TIME      TIME-STEP  ELEMENT          ERROR  I-ENERGY    K-ENERGY T  K-ENERGY R  EXT-WORK     MAS.ERR     TOTAL MASS  MASS ADDED
     660  0.1004      0.1459E-03 SOLID          1 -46.6%  0.5923E-06  0.4161E-07   0.000      0.1188E-05   0.000      0.5120E-07   0.000    
     661  0.1006      0.1459E-03 SOLID          1 -46.7%  0.5932E-06  0.4163E-07   0.000      0.1190E-05   0.000      0.5120E-07   0.000    
     662  0.1007      0.1458E-03 SOLID          1 -46.7%  0.5942E-06  0.4165E-07   0.000      0.1193E-05   0.000      0.5120E-07   0.000    
     663  0.1009      0.1458E-03 SOLID          1 -46.8%  0.5951E-06  0.4167E-07   0.000      0.1196E-05   0.000      0.5120E-07   0.000    
     664  0.1010      0.1458E-03 SOLID          1 -46.8%  0.5960E-06  0.4169E-07   0.000      0.1199E-05   0.000      0.5120E-07   0.000    
     665  0.1012      0.1458E-03 SOLID          1 -46.9%  0.5969E-06  0.4171E-07   0.000      0.1202E-05   0.000      0.5120E-07   0.000    
     666  0.1013      0.1458E-03 SOLID          1 -46.9%  0.5979E-06  0.4173E-07   0.000      0.1204E-05   0.000      0.5120E-07   0.000    
     667  0.1015      0.1457E-03 SOLID          1 -46.9%  0.5988E-06  0.4175E-07   0.000      0.1207E-05   0.000      0.5120E-07   0.000    
     668  0.1016      0.1457E-03 SOLID          1 -47.0%  0.5997E-06  0.4177E-07   0.000      0.1210E-05   0.000      0.5120E-07   0.000    
     669  0.1018      0.1457E-03 SOLID          1 -47.0%  0.6006E-06  0.4179E-07   0.000      0.1213E-05   0.000      0.5120E-07   0.000    
     670  0.1019      0.1457E-03 SOLID          1 -47.1%  0.6015E-06  0.4180E-07   0.000      0.1216E-05   0.000      0.5120E-07   0.000    
     671  0.1020      0.1457E-03 SOLID          1 -47.1%  0.6025E-06  0.4182E-07   0.000      0.1219E-05   0.000      0.5120E-07   0.000    
     672  0.1022      0.1456E-03 SOLID          1 -47.2%  0.6034E-06  0.4184E-07   0.000      0.1221E-05   0.000      0.5120E-07   0.000    
     673  0.1023      0.1456E-03 SOLID          1 -47.2%  0.6043E-06  0.4186E-07   0.000      0.1224E-05   0.000      0.5120E-07   0.000    
     674  0.1025      0.1456E-03 SOLID          1 -47.3%  0.6052E-06  0.4188E-07   0.000      0.1227E-05   0.000      0.5120E-07   0.000    
     675  0.1026      0.1456E-03 SOLID          1 -47.3%  0.6061E-06  0.4190E-07   0.000      0.1230E-05   0.000      0.5120E-07   0.000    
     676  0.1028      0.1455E-03 SOLID          1 -47.4%  0.6070E-06  0.4192E-07   0.000      0.1233E-05   0.000      0.5120E-07   0.000    
     677  0.1029      0.1455E-03 SOLID          1 -47.4%  0.6080E-06  0.4194E-07   0.000      0.1235E-05   0.000      0.5120E-07   0.000    
     678  0.1031      0.1455E-03 SOLID          1 -47.4%  0.6089E-06  0.4196E-07   0.000      0.1238E-05   0.000      0.5120E-07   0.000    
     679  0.1032      0.1455E-03 SOLID          1 -47.5%  0.6098E-06  0.4198E-07   0.000      0.1241E-05   0.000      0.5120E-07   0.000    
     680  0.1034      0.1455E-03 SOLID          1 -47.5%  0.6107E-06  0.4199E-07   0.000      0.1244E-05   0.000      0.5120E-07   0.000    
     681  0.1035      0.1454E-03 SOLID          1 -47.6%  0.6116E-06  0.4201E-07   0.000      0.1247E-05   0.000      0.5120E-07   0.000    
     682  0.1036      0.1454E-03 SOLID          1 -47.6%  0.6125E-06  0.4203E-07   0.000      0.1250E-05   0.000      0.5120E-07   0.000    
     683  0.1038      0.1454E-03 SOLID          1 -47.7%  0.6134E-06  0.4205E-07   0.000      0.1252E-05   0.000      0.5120E-07   0.000    
     684  0.1039      0.1454E-03 SOLID          1 -47.7%  0.6143E-06  0.4207E-07   0.000      0.1255E-05   0.000      0.5120E-07   0.000    
     685  0.1041      0.1454E-03 SOLID          1 -47.8%  0.6152E-06  0.4209E-07   0.000      0.1258E-05   0.000      0.5120E-07   0.000    
     686  0.1042      0.1453E-03 SOLID          1 -47.8%  0.6162E-06  0.4211E-07   0.000      0.1261E-05   0.000      0.5120E-07   0.000    
     687  0.1044      0.1453E-03 SOLID          1 -47.8%  0.6171E-06  0.4212E-07   0.000      0.1264E-05   0.000      0.5120E-07   0.000    
     688  0.1045      0.1453E-03 SOLID          1 -47.9%  0.6180E-06  0.4214E-07   0.000      0.1267E-05   0.000      0.5120E-07   0.000    
     689  0.1047      0.1453E-03 SOLID          1 -47.9%  0.6189E-06  0.4216E-07   0.000      0.1270E-05   0.000      0.5120E-07   0.000    
     690  0.1048      0.1453E-03 SOLID          1 -48.0%  0.6198E-06  0.4218E-07   0.000      0.1272E-05   0.000      0.5120E-07   0.000    
     691  0.1050      0.1452E-03 SOLID          1 -48.0%  0.6207E-06  0.4220E-07   0.000      0.1275E-05   0.000      0.5120E-07   0.000    
     692  0.1051      0.1452E-03 SOLID          1 -48.1%  0.6216E-06  0.4222E-07   0.000      0.1278E-05   0.000      0.5120E-07   0.000    
     693  0.1052      0.1452E-03 SOLID          1 -48.1%  0.6225E-06  0.4223E-07   0.000      0.1281E-05   0.000      0.5120E-07   0.000    
     694  0.1054      0.1452E-03 SOLID          1 -48.2%  0.6234E-06  0.4225E-07   0.000      0.1284E-05   0.000      0.5120E-07   0.000    
     695  0.1055      0.1451E-03 SOLID          1 -48.2%  0.6243E-06  0.4227E-07   0.000      0.1287E-05   0.000      0.5120E-07   0.000    
     696  0.1057      0.1451E-03 SOLID          1 -48.2%  0.6252E-06  0.4229E-07   0.000      0.1290E-05   0.000      0.5120E-07   0.000    
     697  0.1058      0.1451E-03 SOLID          1 -48.3%  0.6261E-06  0.4231E-07   0.000      0.1292E-05   0.000      0.5120E-07   0.000    
     698  0.1060      0.1451E-03 SOLID          1 -48.3%  0.6270E-06  0.4233E-07   0.000      0.1295E-05   0.000      0.5120E-07   0.000    
     699  0.1061      0.1451E-03 SOLID          1 -48.4%  0.6279E-06  0.4234E-07   0.000      0.1298E-05   0.000      0.5120E-07   0.000    
     700  0.1063      0.1450E-03 SOLID          1 -48.4%  0.6288E-06  0.4236E-07   0.000      0.1301E-05   0.000      0.5120E-07   0.000    
     701  0.1064      0.1450E-03 SOLID          1 -48.5%  0.6297E-06  0.4238E-07   0.000      0.1304E-05   0.000      0.5120E-07   0.000    
     702  0.1065      0.1450E-03 SOLID          1 -48.5%  0.6306E-06  0.4240E-07   0.000      0.1307E-05   0.000      0.5120E-07   0.000    
     703  0.1067      0.1450E-03 SOLID          1 -48.5%  0.6315E-06  0.4242E-07   0.000      0.1310E-05   0.000      0.5120E-07   0.000    
     704  0.1068      0.1450E-03 SOLID          1 -48.6%  0.6323E-06  0.4243E-07   0.000      0.1313E-05   0.000      0.5120E-07   0.000    
     705  0.1070      0.1449E-03 SOLID          1 -48.6%  0.6332E-06  0.4245E-07   0.000      0.1315E-05   0.000      0.5120E-07   0.000    
     706  0.1071      0.1449E-03 SOLID          1 -48.7%  0.6341E-06  0.4247E-07   0.000      0.1318E-05   0.000      0.5120E-07   0.000    
     707  0.1073      0.1449E-03 SOLID          1 -48.7%  0.6350E-06  0.4249E-07   0.000      0.1321E-05   0.000      0.5120E-07   0.000    
     708  0.1074      0.1449E-03 SOLID          1 -48.8%  0.6359E-06  0.4251E-07   0.000      0.1324E-05   0.000      0.5120E-07   0.000    
     709  0.1076      0.1449E-03 SOLID          1 -48.8%  0.6368E-06  0.4252E-07   0.000      0.1327E-05   0.000      0.5120E-07   0.000    
     710  0.1077      0.1448E-03 SOLID          1 -48.8%  0.6377E-06  0.4254E-07   0.000      0.1330E-05   0.000      0.5120E-07   0.000    
     711  0.1079      0.1448E-03 SOLID          1 -48.9%  0.6386E-06  0.4256E-07   0.000      0.1333E-05   0.000      0.5120E-07   0.000    
     712  0.1080      0.1448E-03 SOLID          1 -48.9%  0.6395E-06  0.4258E-07   0.000      0.1336E-05   0.000      0.5120E-07   0.000    
     713  0.1081      0.1448E-03 SOLID          1 -49.0%  0.6403E-06  0.4259E-07   0.000      0.1338E-05   0.000      0.5120E-07   0.000    
     714  0.1083      0.1448E-03 SOLID          1 -49.0%  0.6412E-06  0.4261E-07   0.000      0.1341E-05   0.000      0.5120E-07   0.000    
   CYCLE    TIME      TIME-STEP  ELEMENT          ERROR  I-ENERGY    K-ENERGY T  K-ENERGY R  EXT-WORK     MAS.ERR     TOTAL MASS  MASS ADDED
     715  0.1084      0.1447E-03 SOLID          1 -49.1%  0.6421E-06  0.4263E-07   0.000      0.1344E-05   0.000      0.5120E-07   0.000    
     716  0.1086      0.1447E-03 SOLID          1 -49.1%  0.6430E-06  0.4265E-07   0.000      0.1347E-05   0.000      0.5120E-07   0.000    
     717  0.1087      0.1447E-03 SOLID          1 -49.1%  0.6439E-06  0.4266E-07   0.000      0.1350E-05   0.000      0.5120E-07   0.000    
     718  0.1089      0.1447E-03 SOLID          1 -49.2%  0.6448E-06  0.4268E-07   0.000      0.1353E-05   0.000      0.5120E-07   0.000    
     719  0.1090      0.1446E-03 SOLID          1 -49.2%  0.6456E-06  0.4270E-07   0.000      0.1356E-05   0.000      0.5120E-07   0.000    
     720  0.1092      0.1446E-03 SOLID          1 -49.3%  0.6465E-06  0.4272E-07   0.000      0.1359E-05   0.000      0.5120E-07   0.000    
     721  0.1093      0.1446E-03 SOLID          1 -49.3%  0.6474E-06  0.4273E-07   0.000      0.1362E-05   0.000      0.5120E-07   0.000    
     722  0.1094      0.1446E-03 SOLID          1 -49.4%  0.6483E-06  0.4275E-07   0.000      0.1364E-05   0.000      0.5120E-07   0.000    
     723  0.1096      0.1446E-03 SOLID          1 -49.4%  0.6492E-06  0.4277E-07   0.000      0.1367E-05   0.000      0.5120E-07   0.000    
     724  0.1097      0.1445E-03 SOLID          1 -49.4%  0.6500E-06  0.4279E-07   0.000      0.1370E-05   0.000      0.5120E-07   0.000    
     725  0.1099      0.1445E-03 SOLID          1 -49.5%  0.6509E-06  0.4280E-07   0.000      0.1373E-05   0.000      0.5120E-07   0.000    
     726  0.1100      0.1445E-03 SOLID          1 -49.5%  0.6518E-06  0.4282E-07   0.000      0.1376E-05   0.000      0.5120E-07   0.000    
     727  0.1102      0.1445E-03 SOLID          1 -49.6%  0.6527E-06  0.4284E-07   0.000      0.1379E-05   0.000      0.5120E-07   0.000    
     728  0.1103      0.1445E-03 SOLID          1 -49.6%  0.6535E-06  0.4285E-07   0.000      0.1382E-05   0.000      0.5120E-07   0.000    
     729  0.1105      0.1444E-03 SOLID          1 -49.6%  0.6544E-06  0.4287E-07   0.000      0.1385E-05   0.000      0.5120E-07   0.000    
     730  0.1106      0.1444E-03 SOLID          1 -49.7%  0.6553E-06  0.4289E-07   0.000      0.1388E-05   0.000      0.5120E-07   0.000    
     731  0.1107      0.1444E-03 SOLID          1 -49.7%  0.6562E-06  0.4291E-07   0.000      0.1391E-05   0.000      0.5120E-07   0.000    
     732  0.1109      0.1444E-03 SOLID          1 -49.8%  0.6570E-06  0.4292E-07   0.000      0.1394E-05   0.000      0.5120E-07   0.000    
     733  0.1110      0.1444E-03 SOLID          1 -49.8%  0.6579E-06  0.4294E-07   0.000      0.1396E-05   0.000      0.5120E-07   0.000    
     734  0.1112      0.1443E-03 SOLID          1 -49.9%  0.6588E-06  0.4296E-07   0.000      0.1399E-05   0.000      0.5120E-07   0.000    
     735  0.1113      0.1443E-03 SOLID          1 -49.9%  0.6596E-06  0.4297E-07   0.000      0.1402E-05   0.000      0.5120E-07   0.000    
     736  0.1115      0.1443E-03 SOLID          1 -49.9%  0.6605E-06  0.4299E-07   0.000      0.1405E-05   0.000      0.5120E-07   0.000    
     737  0.1116      0.1443E-03 SOLID          1 -50.0%  0.6614E-06  0.4301E-07   0.000      0.1408E-05   0.000      0.5120E-07   0.000    
     738  0.1118      0.1442E-03 SOLID          1 -50.0%  0.6622E-06  0.4302E-07   0.000      0.1411E-05   0.000      0.5120E-07   0.000    
     739  0.1119      0.1442E-03 SOLID          1 -50.1%  0.6631E-06  0.4304E-07   0.000      0.1414E-05   0.000      0.5120E-07   0.000    
     740  0.1120      0.1442E-03 SOLID          1 -50.1%  0.6640E-06  0.4306E-07   0.000      0.1417E-05   0.000      0.5120E-07   0.000    
     741  0.1122      0.1442E-03 SOLID          1 -50.1%  0.6648E-06  0.4307E-07   0.000      0.1420E-05   0.000      0.5120E-07   0.000    
     742  0.1123      0.1442E-03 SOLID          1 -50.2%  0.6657E-06  0.4309E-07   0.000      0.1423E-05   0.000      0.5120E-07   0.000    
     743  0.1125      0.1441E-03 SOLID          1 -50.2%  0.6666E-06  0.4311E-07   0.000      0.1426E-05   0.000      0.5120E-07   0.000    
     744  0.1126      0.1441E-03 SOLID          1 -50.3%  0.6674E-06  0.4312E-07   0.000      0.1429E-05   0.000      0.5120E-07   0.000    
     745  0.1128      0.1441E-03 SOLID          1 -50.3%  0.6683E-06  0.4314E-07   0.000      0.1432E-05   0.000      0.5120E-07   0.000    
     746  0.1129      0.1441E-03 SOLID          1 -50.3%  0.6691E-06  0.4316E-07   0.000      0.1435E-05   0.000      0.5120E-07   0.000    
     747  0.1131      0.1441E-03 SOLID          1 -50.4%  0.6700E-06  0.4317E-07   0.000      0.1437E-05   0.000      0.5120E-07   0.000    
     748  0.1132      0.1440E-03 SOLID          1 -50.4%  0.6709E-06  0.4319E-07   0.000      0.1440E-05   0.000      0.5120E-07   0.000    
     749  0.1133      0.1440E-03 SOLID          1 -50.5%  0.6717E-06  0.4321E-07   0.000      0.1443E-05   0.000      0.5120E-07   0.000    
     750  0.1135      0.1440E-03 SOLID          1 -50.5%  0.6726E-06  0.4322E-07   0.000      0.1446E-05   0.000      0.5120E-07   0.000    
     751  0.1136      0.1440E-03 SOLID          1 -50.5%  0.6734E-06  0.4324E-07   0.000      0.1449E-05   0.000      0.5120E-07   0.000    
     752  0.1138      0.1439E-03 SOLID          1 -50.6%  0.6743E-06  0.4326E-07   0.000      0.1452E-05   0.000      0.5120E-07   0.000    
     753  0.1139      0.1439E-03 SOLID          1 -50.6%  0.6751E-06  0.4327E-07   0.000      0.1455E-05   0.000      0.5120E-07   0.000    
     754  0.1141      0.1439E-03 SOLID          1 -50.7%  0.6760E-06  0.4329E-07   0.000      0.1458E-05   0.000      0.5120E-07   0.000    
     755  0.1142      0.1439E-03 SOLID          1 -50.7%  0.6769E-06  0.4331E-07   0.000      0.1461E-05   0.000      0.5120E-07   0.000    
     756  0.1143      0.1439E-03 SOLID          1 -50.7%  0.6777E-06  0.4332E-07   0.000      0.1464E-05   0.000      0.5120E-07   0.000    
     757  0.1145      0.1438E-03 SOLID          1 -50.8%  0.6786E-06  0.4334E-07   0.000      0.1467E-05   0.000      0.5120E-07   0.000    
     758  0.1146      0.1438E-03 SOLID          1 -50.8%  0.6794E-06  0.4335E-07   0.000      0.1470E-05   0.000      0.5120E-07   0.000    
     759  0.1148      0.1438E-03 SOLID          1 -50.9%  0.6803E-06  0.4337E-07   0.000      0.1473E-05   0.000      0.5120E-07   0.000    
     760  0.1149      0.1438E-03 SOLID          1 -50.9%  0.6811E-06  0.4339E-07   0.000      0.1476E-05   0.000      0.5120E-07   0.000    
     761  0.1151      0.1438E-03 SOLID          1 -50.9%  0.6820E-06  0.4340E-07   0.000      0.1479E-05   0.000      0.5120E-07   0.000    
     762  0.1152      0.1437E-03 SOLID          1 -51.0%  0.6828E-06  0.4342E-07   0.000      0.1482E-05   0.000      0.5120E-07   0.000    
     763  0.1154      0.1437E-03 SOLID          1 -51.0%  0.6837E-06  0.4344E-07   0.000      0.1485E-05   0.000      0.5120E-07   0.000    
     764  0.1155      0.1437E-03 SOLID          1 -51.1%  0.6845E-06  0.4345E-07   0.000      0.1488E-05   0.000      0.5120E-07   0.000    
     765  0.1156      0.1437E-03 SOLID          1 -51.1%  0.6854E-06  0.4347E-07   0.000      0.1491E-05   0.000      0.5120E-07   0.000    
     766  0.1158      0.1437E-03 SOLID          1 -51.1%  0.6862E-06  0.4348E-07   0.000      0.1493E-05   0.000      0.5120E-07   0.000    
     767  0.1159      0.1436E-03 SOLID          1 -51.2%  0.6870E-06  0.4350E-07   0.000      0.1496E-05   0.000      0.5120E-07   0.000    
     768  0.1161      0.1436E-03 SOLID          1 -51.2%  0.6879E-06  0.4352E-07   0.000      0.1499E-05   0.000      0.5120E-07   0.000    
     769  0.1162      0.1436E-03 SOLID          1 -51.3%  0.6887E-06  0.4353E-07   0.000      0.1502E-05   0.000      0.5120E-07   0.000    
   CYCLE    TIME      TIME-STEP  ELEMENT          ERROR  I-ENERGY    K-ENERGY T  K-ENERGY R  EXT-WORK     MAS.ERR     TOTAL MASS  MASS ADDED
     770  0.1164      0.1436E-03 SOLID          1 -51.3%  0.6896E-06  0.4355E-07   0.000      0.1505E-05   0.000      0.5120E-07   0.000    
     771  0.1165      0.1435E-03 SOLID          1 -51.3%  0.6904E-06  0.4357E-07   0.000      0.1508E-05   0.000      0.5120E-07   0.000    
     772  0.1166      0.1435E-03 SOLID          1 -51.4%  0.6913E-06  0.4358E-07   0.000      0.1511E-05   0.000      0.5120E-07   0.000    
     773  0.1168      0.1435E-03 SOLID          1 -51.4%  0.6921E-06  0.4360E-07   0.000      0.1514E-05   0.000      0.5120E-07   0.000    
     774  0.1169      0.1435E-03 SOLID          1 -51.5%  0.6929E-06  0.4361E-07   0.000      0.1517E-05   0.000      0.5120E-07   0.000    
     775  0.1171      0.1435E-03 SOLID          1 -51.5%  0.6938E-06  0.4363E-07   0.000      0.1520E-05   0.000      0.5120E-07   0.000    
     776  0.1172      0.1434E-03 SOLID          1 -51.5%  0.6946E-06  0.4365E-07   0.000      0.1523E-05   0.000      0.5120E-07   0.000    
     777  0.1174      0.1434E-03 SOLID          1 -51.6%  0.6954E-06  0.4366E-07   0.000      0.1526E-05   0.000      0.5120E-07   0.000    
     778  0.1175      0.1434E-03 SOLID          1 -51.6%  0.6963E-06  0.4368E-07   0.000      0.1529E-05   0.000      0.5120E-07   0.000    
     779  0.1177      0.1434E-03 SOLID          1 -51.6%  0.6971E-06  0.4369E-07   0.000      0.1532E-05   0.000      0.5120E-07   0.000    
     780  0.1178      0.1434E-03 SOLID          1 -51.7%  0.6980E-06  0.4371E-07   0.000      0.1535E-05   0.000      0.5120E-07   0.000    
     781  0.1179      0.1433E-03 SOLID          1 -51.7%  0.6988E-06  0.4372E-07   0.000      0.1538E-05   0.000      0.5120E-07   0.000    
     782  0.1181      0.1433E-03 SOLID          1 -51.8%  0.6996E-06  0.4374E-07   0.000      0.1541E-05   0.000      0.5120E-07   0.000    
     783  0.1182      0.1433E-03 SOLID          1 -51.8%  0.7005E-06  0.4376E-07   0.000      0.1544E-05   0.000      0.5120E-07   0.000    
     784  0.1184      0.1433E-03 SOLID          1 -51.8%  0.7013E-06  0.4377E-07   0.000      0.1547E-05   0.000      0.5120E-07   0.000    
     785  0.1185      0.1432E-03 SOLID          1 -51.9%  0.7021E-06  0.4379E-07   0.000      0.1550E-05   0.000      0.5120E-07   0.000    
     786  0.1187      0.1432E-03 SOLID          1 -51.9%  0.7030E-06  0.4380E-07   0.000      0.1553E-05   0.000      0.5120E-07   0.000    
     787  0.1188      0.1432E-03 SOLID          1 -52.0%  0.7038E-06  0.4382E-07   0.000      0.1556E-05   0.000      0.5120E-07   0.000    
     788  0.1189      0.1432E-03 SOLID          1 -52.0%  0.7046E-06  0.4383E-07   0.000      0.1559E-05   0.000      0.5120E-07   0.000    
     789  0.1191      0.1432E-03 SOLID          1 -52.0%  0.7054E-06  0.4385E-07   0.000      0.1562E-05   0.000      0.5120E-07   0.000    
     790  0.1192      0.1431E-03 SOLID          1 -52.1%  0.7063E-06  0.4387E-07   0.000      0.1565E-05   0.000      0.5120E-07   0.000    
     791  0.1194      0.1431E-03 SOLID          1 -52.1%  0.7071E-06  0.4388E-07   0.000      0.1568E-05   0.000      0.5120E-07   0.000    
     792  0.1195      0.1431E-03 SOLID          1 -52.1%  0.7079E-06  0.4390E-07   0.000      0.1571E-05   0.000      0.5120E-07   0.000    
     793  0.1197      0.1431E-03 SOLID          1 -52.2%  0.7087E-06  0.4391E-07   0.000      0.1574E-05   0.000      0.5120E-07   0.000    
     794  0.1198      0.1431E-03 SOLID          1 -52.2%  0.7096E-06  0.4393E-07   0.000      0.1577E-05   0.000      0.5120E-07   0.000    
     795  0.1199      0.1430E-03 SOLID          1 -52.3%  0.7104E-06  0.4394E-07   0.000      0.1580E-05   0.000      0.5120E-07   0.000    
     796  0.1201      0.1430E-03 SOLID          1 -52.3%  0.7112E-06  0.4396E-07   0.000      0.1583E-05   0.000      0.5120E-07   0.000    
     797  0.1202      0.1430E-03 SOLID          1 -52.3%  0.7120E-06  0.4398E-07   0.000      0.1586E-05   0.000      0.5120E-07   0.000    
     798  0.1204      0.1430E-03 SOLID          1 -52.4%  0.7129E-06  0.4399E-07   0.000      0.1589E-05   0.000      0.5120E-07   0.000    
     799  0.1205      0.1429E-03 SOLID          1 -52.4%  0.7137E-06  0.4401E-07   0.000      0.1592E-05   0.000      0.5120E-07   0.000    
     800  0.1207      0.1429E-03 SOLID          1 -52.4%  0.7145E-06  0.4402E-07   0.000      0.1595E-05   0.000      0.5120E-07   0.000    
     801  0.1208      0.1429E-03 SOLID          1 -52.5%  0.7153E-06  0.4404E-07   0.000      0.1598E-05   0.000      0.5120E-07   0.000    
     802  0.1209      0.1429E-03 SOLID          1 -52.5%  0.7162E-06  0.4405E-07   0.000      0.1601E-05   0.000      0.5120E-07   0.000    
     803  0.1211      0.1429E-03 SOLID          1 -52.5%  0.7170E-06  0.4407E-07   0.000      0.1604E-05   0.000      0.5120E-07   0.000    
     804  0.1212      0.1428E-03 SOLID          1 -52.6%  0.7178E-06  0.4408E-07   0.000      0.1607E-05   0.000      0.5120E-07   0.000    
     805  0.1214      0.1428E-03 SOLID          1 -52.6%  0.7186E-06  0.4410E-07   0.000      0.1610E-05   0.000      0.5120E-07   0.000    
     806  0.1215      0.1428E-03 SOLID          1 -52.7%  0.7194E-06  0.4411E-07   0.000      0.1613E-05   0.000      0.5120E-07   0.000    
     807  0.1217      0.1428E-03 SOLID          1 -52.7%  0.7202E-06  0.4413E-07   0.000      0.1616E-05   0.000      0.5120E-07   0.000    
     808  0.1218      0.1428E-03 SOLID          1 -52.7%  0.7211E-06  0.4414E-07   0.000      0.1619E-05   0.000      0.5120E-07   0.000    
     809  0.1219      0.1427E-03 SOLID          1 -52.8%  0.7219E-06  0.4416E-07   0.000      0.1622E-05   0.000      0.5120E-07   0.000    
     810  0.1221      0.1427E-03 SOLID          1 -52.8%  0.7227E-06  0.4417E-07   0.000      0.1625E-05   0.000      0.5120E-07   0.000    
     811  0.1222      0.1427E-03 SOLID          1 -52.8%  0.7235E-06  0.4419E-07   0.000      0.1628E-05   0.000      0.5120E-07   0.000    
     812  0.1224      0.1427E-03 SOLID          1 -52.9%  0.7243E-06  0.4421E-07   0.000      0.1631E-05   0.000      0.5120E-07   0.000    
     813  0.1225      0.1426E-03 SOLID          1 -52.9%  0.7251E-06  0.4422E-07   0.000      0.1634E-05   0.000      0.5120E-07   0.000    
     814  0.1227      0.1426E-03 SOLID          1 -53.0%  0.7259E-06  0.4424E-07   0.000      0.1637E-05   0.000      0.5120E-07   0.000    
     815  0.1228      0.1426E-03 SOLID          1 -53.0%  0.7267E-06  0.4425E-07   0.000      0.1640E-05   0.000      0.5120E-07   0.000    
     816  0.1229      0.1426E-03 SOLID          1 -53.0%  0.7276E-06  0.4427E-07   0.000      0.1643E-05   0.000      0.5120E-07   0.000    
     817  0.1231      0.1426E-03 SOLID          1 -53.1%  0.7284E-06  0.4428E-07   0.000      0.1646E-05   0.000      0.5120E-07   0.000    
     818  0.1232      0.1425E-03 SOLID          1 -53.1%  0.7292E-06  0.4430E-07   0.000      0.1649E-05   0.000      0.5120E-07   0.000    
     819  0.1234      0.1425E-03 SOLID          1 -53.1%  0.7300E-06  0.4431E-07   0.000      0.1652E-05   0.000      0.5120E-07   0.000    
     820  0.1235      0.1425E-03 SOLID          1 -53.2%  0.7308E-06  0.4433E-07   0.000      0.1655E-05   0.000      0.5120E-07   0.000    
     821  0.1237      0.1425E-03 SOLID          1 -53.2%  0.7316E-06  0.4434E-07   0.000      0.1658E-05   0.000      0.5120E-07   0.000    
     822  0.1238      0.1425E-03 SOLID          1 -53.2%  0.7324E-06  0.4436E-07   0.000      0.1661E-05   0.000      0.5120E-07   0.000    
     823  0.1239      0.1424E-03 SOLID          1 -53.3%  0.7332E-06  0.4437E-07   0.000      0.1664E-05   0.000      0.5120E-07   0.000    
     824  0.1241      0.1424E-03 SOLID          1 -53.3%  0.7340E-06  0.4439E-07   0.000      0.1667E-05   0.000      0.5120E-07   0.000    
   CYCLE    TIME      TIME-STEP  ELEMENT          ERROR  I-ENERGY    K-ENERGY T  K-ENERGY R  EXT-WORK     MAS.ERR     TOTAL MASS  MASS ADDED
     825  0.1242      0.1424E-03 SOLID          1 -53.3%  0.7348E-06  0.4440E-07   0.000      0.1670E-05   0.000      0.5120E-07   0.000    
     826  0.1244      0.1424E-03 SOLID          1 -53.4%  0.7356E-06  0.4442E-07   0.000      0.1673E-05   0.000      0.5120E-07   0.000    
     827  0.1245      0.1423E-03 SOLID          1 -53.4%  0.7364E-06  0.4443E-07   0.000      0.1676E-05   0.000      0.5120E-07   0.000    
     828  0.1247      0.1423E-03 SOLID          1 -53.5%  0.7372E-06  0.4445E-07   0.000      0.1679E-05   0.000      0.5120E-07   0.000    
     829  0.1248      0.1423E-03 SOLID          1 -53.5%  0.7380E-06  0.4446E-07   0.000      0.1682E-05   0.000      0.5120E-07   0.000    
     830  0.1249      0.1423E-03 SOLID          1 -53.5%  0.7388E-06  0.4448E-07   0.000      0.1685E-05   0.000      0.5120E-07   0.000    
     831  0.1251      0.1423E-03 SOLID          1 -53.6%  0.7396E-06  0.4449E-07   0.000      0.1688E-05   0.000      0.5120E-07   0.000    
     832  0.1252      0.1422E-03 SOLID          1 -53.6%  0.7404E-06  0.4450E-07   0.000      0.1691E-05   0.000      0.5120E-07   0.000    
     833  0.1254      0.1422E-03 SOLID          1 -53.6%  0.7412E-06  0.4452E-07   0.000      0.1695E-05   0.000      0.5120E-07   0.000    
     834  0.1255      0.1422E-03 SOLID          1 -53.7%  0.7420E-06  0.4453E-07   0.000      0.1698E-05   0.000      0.5120E-07   0.000    
     835  0.1256      0.1422E-03 SOLID          1 -53.7%  0.7428E-06  0.4455E-07   0.000      0.1701E-05   0.000      0.5120E-07   0.000    
     836  0.1258      0.1422E-03 SOLID          1 -53.7%  0.7436E-06  0.4456E-07   0.000      0.1704E-05   0.000      0.5120E-07   0.000    
     837  0.1259      0.1421E-03 SOLID          1 -53.8%  0.7444E-06  0.4458E-07   0.000      0.1707E-05   0.000      0.5120E-07   0.000    
     838  0.1261      0.1421E-03 SOLID          1 -53.8%  0.7452E-06  0.4459E-07   0.000      0.1710E-05   0.000      0.5120E-07   0.000    
     839  0.1262      0.1421E-03 SOLID          1 -53.8%  0.7460E-06  0.4461E-07   0.000      0.1713E-05   0.000      0.5120E-07   0.000    
     840  0.1264      0.1421E-03 SOLID          1 -53.9%  0.7468E-06  0.4462E-07   0.000      0.1716E-05   0.000      0.5120E-07   0.000    
     841  0.1265      0.1420E-03 SOLID          1 -53.9%  0.7476E-06  0.4464E-07   0.000      0.1719E-05   0.000      0.5120E-07   0.000    
     842  0.1266      0.1420E-03 SOLID          1 -53.9%  0.7484E-06  0.4465E-07   0.000      0.1722E-05   0.000      0.5120E-07   0.000    
     843  0.1268      0.1420E-03 SOLID          1 -54.0%  0.7492E-06  0.4466E-07   0.000      0.1725E-05   0.000      0.5120E-07   0.000    
     844  0.1269      0.1420E-03 SOLID          1 -54.0%  0.7500E-06  0.4468E-07   0.000      0.1728E-05   0.000      0.5120E-07   0.000    
     845  0.1271      0.1420E-03 SOLID          1 -54.0%  0.7508E-06  0.4469E-07   0.000      0.1731E-05   0.000      0.5120E-07   0.000    
     846  0.1272      0.1419E-03 SOLID          1 -54.1%  0.7516E-06  0.4471E-07   0.000      0.1734E-05   0.000      0.5120E-07   0.000    
     847  0.1274      0.1419E-03 SOLID          1 -54.1%  0.7524E-06  0.4472E-07   0.000      0.1737E-05   0.000      0.5120E-07   0.000    
     848  0.1275      0.1419E-03 SOLID          1 -54.1%  0.7532E-06  0.4474E-07   0.000      0.1740E-05   0.000      0.5120E-07   0.000    
     849  0.1276      0.1419E-03 SOLID          1 -54.2%  0.7540E-06  0.4475E-07   0.000      0.1743E-05   0.000      0.5120E-07   0.000    
     850  0.1278      0.1419E-03 SOLID          1 -54.2%  0.7548E-06  0.4476E-07   0.000      0.1746E-05   0.000      0.5120E-07   0.000    
     851  0.1279      0.1418E-03 SOLID          1 -54.3%  0.7555E-06  0.4478E-07   0.000      0.1749E-05   0.000      0.5120E-07   0.000    
     852  0.1281      0.1418E-03 SOLID          1 -54.3%  0.7563E-06  0.4479E-07   0.000      0.1752E-05   0.000      0.5120E-07   0.000    
     853  0.1282      0.1418E-03 SOLID          1 -54.3%  0.7571E-06  0.4481E-07   0.000      0.1755E-05   0.000      0.5120E-07   0.000    
     854  0.1283      0.1418E-03 SOLID          1 -54.4%  0.7579E-06  0.4482E-07   0.000      0.1759E-05   0.000      0.5120E-07   0.000    
     855  0.1285      0.1417E-03 SOLID          1 -54.4%  0.7587E-06  0.4483E-07   0.000      0.1762E-05   0.000      0.5120E-07   0.000    
     856  0.1286      0.1417E-03 SOLID          1 -54.4%  0.7595E-06  0.4485E-07   0.000      0.1765E-05   0.000      0.5120E-07   0.000    
     857  0.1288      0.1417E-03 SOLID          1 -54.5%  0.7603E-06  0.4486E-07   0.000      0.1768E-05   0.000      0.5120E-07   0.000    
     858  0.1289      0.1417E-03 SOLID          1 -54.5%  0.7611E-06  0.4488E-07   0.000      0.1771E-05   0.000      0.5120E-07   0.000    
     859  0.1291      0.1417E-03 SOLID          1 -54.5%  0.7618E-06  0.4489E-07   0.000      0.1774E-05   0.000      0.5120E-07   0.000    
     860  0.1292      0.1416E-03 SOLID          1 -54.6%  0.7626E-06  0.4490E-07   0.000      0.1777E-05   0.000      0.5120E-07   0.000    
     861  0.1293      0.1416E-03 SOLID          1 -54.6%  0.7634E-06  0.4492E-07   0.000      0.1780E-05   0.000      0.5120E-07   0.000    
     862  0.1295      0.1416E-03 SOLID          1 -54.6%  0.7642E-06  0.4493E-07   0.000      0.1783E-05   0.000      0.5120E-07   0.000    
     863  0.1296      0.1416E-03 SOLID          1 -54.7%  0.7650E-06  0.4495E-07   0.000      0.1786E-05   0.000      0.5120E-07   0.000    
     864  0.1298      0.1416E-03 SOLID          1 -54.7%  0.7658E-06  0.4496E-07   0.000      0.1789E-05   0.000      0.5120E-07   0.000    
     865  0.1299      0.1415E-03 SOLID          1 -54.7%  0.7665E-06  0.4497E-07   0.000      0.1792E-05   0.000      0.5120E-07   0.000    
     866  0.1300      0.1415E-03 SOLID          1 -54.8%  0.7673E-06  0.4499E-07   0.000      0.1795E-05   0.000      0.5120E-07   0.000    
     867  0.1302      0.1415E-03 SOLID          1 -54.8%  0.7681E-06  0.4500E-07   0.000      0.1798E-05   0.000      0.5120E-07   0.000    
     868  0.1303      0.1415E-03 SOLID          1 -54.8%  0.7689E-06  0.4501E-07   0.000      0.1801E-05   0.000      0.5120E-07   0.000    
     869  0.1305      0.1414E-03 SOLID          1 -54.9%  0.7697E-06  0.4503E-07   0.000      0.1805E-05   0.000      0.5120E-07   0.000    
     870  0.1306      0.1414E-03 SOLID          1 -54.9%  0.7704E-06  0.4504E-07   0.000      0.1808E-05   0.000      0.5120E-07   0.000    
     871  0.1308      0.1414E-03 SOLID          1 -54.9%  0.7712E-06  0.4505E-07   0.000      0.1811E-05   0.000      0.5120E-07   0.000    
     872  0.1309      0.1414E-03 SOLID          1 -55.0%  0.7720E-06  0.4507E-07   0.000      0.1814E-05   0.000      0.5120E-07   0.000    
     873  0.1310      0.1414E-03 SOLID          1 -55.0%  0.7728E-06  0.4508E-07   0.000      0.1817E-05   0.000      0.5120E-07   0.000    
     874  0.1312      0.1413E-03 SOLID          1 -55.0%  0.7736E-06  0.4509E-07   0.000      0.1820E-05   0.000      0.5120E-07   0.000    
     875  0.1313      0.1413E-03 SOLID          1 -55.1%  0.7743E-06  0.4511E-07   0.000      0.1823E-05   0.000      0.5120E-07   0.000    
     876  0.1315      0.1413E-03 SOLID          1 -55.1%  0.7751E-06  0.4512E-07   0.000      0.1826E-05   0.000      0.5120E-07   0.000    
     877  0.1316      0.1413E-03 SOLID          1 -55.1%  0.7759E-06  0.4513E-07   0.000      0.1829E-05   0.000      0.5120E-07   0.000    
     878  0.1317      0.1413E-03 SOLID          1 -55.1%  0.7767E-06  0.4515E-07   0.000      0.1832E-05   0.000      0.5120E-07   0.000    
     879  0.1319      0.1412E-03 SOLID          1 -55.2%  0.7774E-06  0.4516E-07   0.000      0.1835E-05   0.000      0.5120E-07   0.000    
   CYCLE    TIME      TIME-STEP  ELEMENT          ERROR  I-ENERGY    K-ENERGY T  K-ENERGY R  EXT-WORK     MAS.ERR     TOTAL MASS  MASS ADDED
     880  0.1320      0.1412E-03 SOLID          1 -55.2%  0.7782E-06  0.4517E-07   0.000      0.1838E-05   0.000      0.5120E-07   0.000    
     881  0.1322      0.1412E-03 SOLID          1 -55.2%  0.7790E-06  0.4519E-07   0.000      0.1842E-05   0.000      0.5120E-07   0.000    
     882  0.1323      0.1412E-03 SOLID          1 -55.3%  0.7798E-06  0.4520E-07   0.000      0.1845E-05   0.000      0.5120E-07   0.000    
     883  0.1324      0.1411E-03 SOLID          1 -55.3%  0.7805E-06  0.4521E-07   0.000      0.1848E-05   0.000      0.5120E-07   0.000    
     884  0.1326      0.1411E-03 SOLID          1 -55.3%  0.7813E-06  0.4522E-07   0.000      0.1851E-05   0.000      0.5120E-07   0.000    
     885  0.1327      0.1411E-03 SOLID          1 -55.4%  0.7821E-06  0.4524E-07   0.000      0.1854E-05   0.000      0.5120E-07   0.000    
     886  0.1329      0.1411E-03 SOLID          1 -55.4%  0.7828E-06  0.4525E-07   0.000      0.1857E-05   0.000      0.5120E-07   0.000    
     887  0.1330      0.1411E-03 SOLID          1 -55.4%  0.7836E-06  0.4526E-07   0.000      0.1860E-05   0.000      0.5120E-07   0.000    
     888  0.1332      0.1410E-03 SOLID          1 -55.5%  0.7844E-06  0.4528E-07   0.000      0.1863E-05   0.000      0.5120E-07   0.000    
     889  0.1333      0.1410E-03 SOLID          1 -55.5%  0.7852E-06  0.4529E-07   0.000      0.1866E-05   0.000      0.5120E-07   0.000    
     890  0.1334      0.1410E-03 SOLID          1 -55.5%  0.7859E-06  0.4530E-07   0.000      0.1869E-05   0.000      0.5120E-07   0.000    
     891  0.1336      0.1410E-03 SOLID          1 -55.6%  0.7867E-06  0.4531E-07   0.000      0.1872E-05   0.000      0.5120E-07   0.000    
     892  0.1337      0.1410E-03 SOLID          1 -55.6%  0.7875E-06  0.4533E-07   0.000      0.1876E-05   0.000      0.5120E-07   0.000    
     893  0.1339      0.1409E-03 SOLID          1 -55.6%  0.7882E-06  0.4534E-07   0.000      0.1879E-05   0.000      0.5120E-07   0.000    
     894  0.1340      0.1409E-03 SOLID          1 -55.7%  0.7890E-06  0.4535E-07   0.000      0.1882E-05   0.000      0.5120E-07   0.000    
     895  0.1341      0.1409E-03 SOLID          1 -55.7%  0.7898E-06  0.4536E-07   0.000      0.1885E-05   0.000      0.5120E-07   0.000    
     896  0.1343      0.1409E-03 SOLID          1 -55.7%  0.7905E-06  0.4538E-07   0.000      0.1888E-05   0.000      0.5120E-07   0.000    
     897  0.1344      0.1408E-03 SOLID          1 -55.8%  0.7913E-06  0.4539E-07   0.000      0.1891E-05   0.000      0.5120E-07   0.000    
     898  0.1346      0.1408E-03 SOLID          1 -55.8%  0.7921E-06  0.4540E-07   0.000      0.1894E-05   0.000      0.5120E-07   0.000    
     899  0.1347      0.1408E-03 SOLID          1 -55.8%  0.7928E-06  0.4541E-07   0.000      0.1897E-05   0.000      0.5120E-07   0.000    
     900  0.1348      0.1408E-03 SOLID          1 -55.8%  0.7936E-06  0.4542E-07   0.000      0.1900E-05   0.000      0.5120E-07   0.000    
     901  0.1350      0.1408E-03 SOLID          1 -55.9%  0.7944E-06  0.4544E-07   0.000      0.1903E-05   0.000      0.5120E-07   0.000    
     902  0.1351      0.1407E-03 SOLID          1 -55.9%  0.7951E-06  0.4545E-07   0.000      0.1906E-05   0.000      0.5120E-07   0.000    
     903  0.1353      0.1407E-03 SOLID          1 -55.9%  0.7959E-06  0.4546E-07   0.000      0.1910E-05   0.000      0.5120E-07   0.000    
     904  0.1354      0.1407E-03 SOLID          1 -56.0%  0.7967E-06  0.4547E-07   0.000      0.1913E-05   0.000      0.5120E-07   0.000    
     905  0.1355      0.1407E-03 SOLID          1 -56.0%  0.7974E-06  0.4548E-07   0.000      0.1916E-05   0.000      0.5120E-07   0.000    
     906  0.1357      0.1407E-03 SOLID          1 -56.0%  0.7982E-06  0.4550E-07   0.000      0.1919E-05   0.000      0.5120E-07   0.000    
     907  0.1358      0.1406E-03 SOLID          1 -56.1%  0.7989E-06  0.4551E-07   0.000      0.1922E-05   0.000      0.5120E-07   0.000    
     908  0.1360      0.1406E-03 SOLID          1 -56.1%  0.7997E-06  0.4552E-07   0.000      0.1925E-05   0.000      0.5120E-07   0.000    
     909  0.1361      0.1406E-03 SOLID          1 -56.1%  0.8005E-06  0.4553E-07   0.000      0.1928E-05   0.000      0.5120E-07   0.000    
     910  0.1363      0.1406E-03 SOLID          1 -56.2%  0.8012E-06  0.4554E-07   0.000      0.1931E-05   0.000      0.5120E-07   0.000    
     911  0.1364      0.1405E-03 SOLID          1 -56.2%  0.8020E-06  0.4556E-07   0.000      0.1934E-05   0.000      0.5120E-07   0.000    
     912  0.1365      0.1405E-03 SOLID          1 -56.2%  0.8028E-06  0.4557E-07   0.000      0.1938E-05   0.000      0.5120E-07   0.000    
     913  0.1367      0.1405E-03 SOLID          1 -56.2%  0.8035E-06  0.4558E-07   0.000      0.1941E-05   0.000      0.5120E-07   0.000    
     914  0.1368      0.1405E-03 SOLID          1 -56.3%  0.8043E-06  0.4559E-07   0.000      0.1944E-05   0.000      0.5120E-07   0.000    
     915  0.1370      0.1405E-03 SOLID          1 -56.3%  0.8050E-06  0.4560E-07   0.000      0.1947E-05   0.000      0.5120E-07   0.000    
     916  0.1371      0.1404E-03 SOLID          1 -56.3%  0.8058E-06  0.4561E-07   0.000      0.1950E-05   0.000      0.5120E-07   0.000    
     917  0.1372      0.1404E-03 SOLID          1 -56.4%  0.8066E-06  0.4562E-07   0.000      0.1953E-05   0.000      0.5120E-07   0.000    
     918  0.1374      0.1404E-03 SOLID          1 -56.4%  0.8073E-06  0.4564E-07   0.000      0.1956E-05   0.000      0.5120E-07   0.000    
     919  0.1375      0.1404E-03 SOLID          1 -56.4%  0.8081E-06  0.4565E-07   0.000      0.1959E-05   0.000      0.5120E-07   0.000    
     920  0.1377      0.1404E-03 SOLID          1 -56.5%  0.8088E-06  0.4566E-07   0.000      0.1963E-05   0.000      0.5120E-07   0.000    
     921  0.1378      0.1403E-03 SOLID          1 -56.5%  0.8096E-06  0.4567E-07   0.000      0.1966E-05   0.000      0.5120E-07   0.000    
     922  0.1379      0.1403E-03 SOLID          1 -56.5%  0.8103E-06  0.4568E-07   0.000      0.1969E-05   0.000      0.5120E-07   0.000    
     923  0.1381      0.1403E-03 SOLID          1 -56.5%  0.8111E-06  0.4569E-07   0.000      0.1972E-05   0.000      0.5120E-07   0.000    
     924  0.1382      0.1403E-03 SOLID          1 -56.6%  0.8118E-06  0.4570E-07   0.000      0.1975E-05   0.000      0.5120E-07   0.000    
     925  0.1384      0.1402E-03 SOLID          1 -56.6%  0.8126E-06  0.4571E-07   0.000      0.1978E-05   0.000      0.5120E-07   0.000    
     926  0.1385      0.1402E-03 SOLID          1 -56.6%  0.8134E-06  0.4572E-07   0.000      0.1981E-05   0.000      0.5120E-07   0.000    
     927  0.1386      0.1402E-03 SOLID          1 -56.7%  0.8141E-06  0.4573E-07   0.000      0.1984E-05   0.000      0.5120E-07   0.000    
     928  0.1388      0.1402E-03 SOLID          1 -56.7%  0.8149E-06  0.4575E-07   0.000      0.1987E-05   0.000      0.5120E-07   0.000    
     929  0.1389      0.1402E-03 SOLID          1 -56.7%  0.8156E-06  0.4576E-07   0.000      0.1991E-05   0.000      0.5120E-07   0.000    
     930  0.1391      0.1401E-03 SOLID          1 -56.8%  0.8164E-06  0.4577E-07   0.000      0.1994E-05   0.000      0.5120E-07   0.000    
     931  0.1392      0.1401E-03 SOLID          1 -56.8%  0.8171E-06  0.4578E-07   0.000      0.1997E-05   0.000      0.5120E-07   0.000    
     932  0.1393      0.1401E-03 SOLID          1 -56.8%  0.8179E-06  0.4579E-07   0.000      0.2000E-05   0.000      0.5120E-07   0.000    
     933  0.1395      0.1401E-03 SOLID          1 -56.8%  0.8186E-06  0.4580E-07   0.000      0.2003E-05   0.000      0.5120E-07   0.000    
     934  0.1396      0.1401E-03 SOLID          1 -56.9%  0.8194E-06  0.4581E-07   0.000      0.2006E-05   0.000      0.5120E-07   0.000    
   CYCLE    TIME      TIME-STEP  ELEMENT          ERROR  I-ENERGY    K-ENERGY T  K-ENERGY R  EXT-WORK     MAS.ERR     TOTAL MASS  MASS ADDED
     935  0.1398      0.1400E-03 SOLID          1 -56.9%  0.8201E-06  0.4582E-07   0.000      0.2009E-05   0.000      0.5120E-07   0.000    
     936  0.1399      0.1400E-03 SOLID          1 -56.9%  0.8209E-06  0.4583E-07   0.000      0.2013E-05   0.000      0.5120E-07   0.000    
     937  0.1400      0.1400E-03 SOLID          1 -57.0%  0.8216E-06  0.4584E-07   0.000      0.2016E-05   0.000      0.5120E-07   0.000    
     938  0.1402      0.1400E-03 SOLID          1 -57.0%  0.8224E-06  0.4585E-07   0.000      0.2019E-05   0.000      0.5120E-07   0.000    
     939  0.1403      0.1399E-03 SOLID          1 -57.0%  0.8231E-06  0.4586E-07   0.000      0.2022E-05   0.000      0.5120E-07   0.000    
     940  0.1405      0.1399E-03 SOLID          1 -57.0%  0.8239E-06  0.4587E-07   0.000      0.2025E-05   0.000      0.5120E-07   0.000    
     941  0.1406      0.1399E-03 SOLID          1 -57.1%  0.8246E-06  0.4588E-07   0.000      0.2028E-05   0.000      0.5120E-07   0.000    
     942  0.1407      0.1399E-03 SOLID          1 -57.1%  0.8254E-06  0.4589E-07   0.000      0.2031E-05   0.000      0.5120E-07   0.000    
     943  0.1409      0.1399E-03 SOLID          1 -57.1%  0.8261E-06  0.4590E-07   0.000      0.2034E-05   0.000      0.5120E-07   0.000    
     944  0.1410      0.1398E-03 SOLID          1 -57.2%  0.8269E-06  0.4591E-07   0.000      0.2038E-05   0.000      0.5120E-07   0.000    
     945  0.1412      0.1398E-03 SOLID          1 -57.2%  0.8276E-06  0.4592E-07   0.000      0.2041E-05   0.000      0.5120E-07   0.000    
     946  0.1413      0.1398E-03 SOLID          1 -57.2%  0.8284E-06  0.4593E-07   0.000      0.2044E-05   0.000      0.5120E-07   0.000    
     947  0.1414      0.1398E-03 SOLID          1 -57.3%  0.8291E-06  0.4594E-07   0.000      0.2047E-05   0.000      0.5120E-07   0.000    
     948  0.1416      0.1398E-03 SOLID          1 -57.3%  0.8299E-06  0.4595E-07   0.000      0.2050E-05   0.000      0.5120E-07   0.000    
     949  0.1417      0.1397E-03 SOLID          1 -57.3%  0.8306E-06  0.4596E-07   0.000      0.2053E-05   0.000      0.5120E-07   0.000    
     950  0.1419      0.1397E-03 SOLID          1 -57.3%  0.8314E-06  0.4597E-07   0.000      0.2056E-05   0.000      0.5120E-07   0.000    
     951  0.1420      0.1397E-03 SOLID          1 -57.4%  0.8321E-06  0.4598E-07   0.000      0.2060E-05   0.000      0.5120E-07   0.000    
     952  0.1421      0.1397E-03 SOLID          1 -57.4%  0.8329E-06  0.4599E-07   0.000      0.2063E-05   0.000      0.5120E-07   0.000    
     953  0.1423      0.1397E-03 SOLID          1 -57.4%  0.8336E-06  0.4600E-07   0.000      0.2066E-05   0.000      0.5120E-07   0.000    
     954  0.1424      0.1396E-03 SOLID          1 -57.4%  0.8344E-06  0.4601E-07   0.000      0.2069E-05   0.000      0.5120E-07   0.000    
     955  0.1426      0.1396E-03 SOLID          1 -57.5%  0.8351E-06  0.4602E-07   0.000      0.2072E-05   0.000      0.5120E-07   0.000    
     956  0.1427      0.1396E-03 SOLID          1 -57.5%  0.8359E-06  0.4603E-07   0.000      0.2075E-05   0.000      0.5120E-07   0.000    
     957  0.1428      0.1396E-03 SOLID          1 -57.5%  0.8366E-06  0.4604E-07   0.000      0.2078E-05   0.000      0.5120E-07   0.000    
     958  0.1430      0.1395E-03 SOLID          1 -57.6%  0.8373E-06  0.4605E-07   0.000      0.2082E-05   0.000      0.5120E-07   0.000    
     959  0.1431      0.1395E-03 SOLID          1 -57.6%  0.8381E-06  0.4606E-07   0.000      0.2085E-05   0.000      0.5120E-07   0.000    
     960  0.1433      0.1395E-03 SOLID          1 -57.6%  0.8388E-06  0.4607E-07   0.000      0.2088E-05   0.000      0.5120E-07   0.000    
     961  0.1434      0.1395E-03 SOLID          1 -57.6%  0.8396E-06  0.4608E-07   0.000      0.2091E-05   0.000      0.5120E-07   0.000    
     962  0.1435      0.1395E-03 SOLID          1 -57.7%  0.8403E-06  0.4609E-07   0.000      0.2094E-05   0.000      0.5120E-07   0.000    
     963  0.1437      0.1394E-03 SOLID          1 -57.7%  0.8411E-06  0.4610E-07   0.000      0.2097E-05   0.000      0.5120E-07   0.000    
     964  0.1438      0.1394E-03 SOLID          1 -57.7%  0.8418E-06  0.4611E-07   0.000      0.2101E-05   0.000      0.5120E-07   0.000    
     965  0.1440      0.1394E-03 SOLID          1 -57.8%  0.8425E-06  0.4612E-07   0.000      0.2104E-05   0.000      0.5120E-07   0.000    
     966  0.1441      0.1394E-03 SOLID          1 -57.8%  0.8433E-06  0.4612E-07   0.000      0.2107E-05   0.000      0.5120E-07   0.000    
     967  0.1442      0.1394E-03 SOLID          1 -57.8%  0.8440E-06  0.4613E-07   0.000      0.2110E-05   0.000      0.5120E-07   0.000    
     968  0.1444      0.1393E-03 SOLID          1 -57.8%  0.8448E-06  0.4614E-07   0.000      0.2113E-05   0.000      0.5120E-07   0.000    
     969  0.1445      0.1393E-03 SOLID          1 -57.9%  0.8455E-06  0.4615E-07   0.000      0.2116E-05   0.000      0.5120E-07   0.000    
     970  0.1446      0.1393E-03 SOLID          1 -57.9%  0.8462E-06  0.4616E-07   0.000      0.2119E-05   0.000      0.5120E-07   0.000    
     971  0.1448      0.1393E-03 SOLID          1 -57.9%  0.8470E-06  0.4617E-07   0.000      0.2123E-05   0.000      0.5120E-07   0.000    
     972  0.1449      0.1393E-03 SOLID          1 -57.9%  0.8477E-06  0.4618E-07   0.000      0.2126E-05   0.000      0.5120E-07   0.000    
     973  0.1451      0.1392E-03 SOLID          1 -58.0%  0.8485E-06  0.4619E-07   0.000      0.2129E-05   0.000      0.5120E-07   0.000    
     974  0.1452      0.1392E-03 SOLID          1 -58.0%  0.8492E-06  0.4620E-07   0.000      0.2132E-05   0.000      0.5120E-07   0.000    
     975  0.1453      0.1392E-03 SOLID          1 -58.0%  0.8499E-06  0.4621E-07   0.000      0.2135E-05   0.000      0.5120E-07   0.000    
     976  0.1455      0.1392E-03 SOLID          1 -58.1%  0.8507E-06  0.4622E-07   0.000      0.2138E-05   0.000      0.5120E-07   0.000    
     977  0.1456      0.1392E-03 SOLID          1 -58.1%  0.8514E-06  0.4622E-07   0.000      0.2142E-05   0.000      0.5120E-07   0.000    
     978  0.1458      0.1391E-03 SOLID          1 -58.1%  0.8522E-06  0.4623E-07   0.000      0.2145E-05   0.000      0.5120E-07   0.000    
     979  0.1459      0.1391E-03 SOLID          1 -58.1%  0.8529E-06  0.4624E-07   0.000      0.2148E-05   0.000      0.5120E-07   0.000    
     980  0.1460      0.1391E-03 SOLID          1 -58.2%  0.8536E-06  0.4625E-07   0.000      0.2151E-05   0.000      0.5120E-07   0.000    
     981  0.1462      0.1391E-03 SOLID          1 -58.2%  0.8544E-06  0.4626E-07   0.000      0.2154E-05   0.000      0.5120E-07   0.000    
     982  0.1463      0.1390E-03 SOLID          1 -58.2%  0.8551E-06  0.4627E-07   0.000      0.2157E-05   0.000      0.5120E-07   0.000    
     983  0.1465      0.1390E-03 SOLID          1 -58.2%  0.8558E-06  0.4628E-07   0.000      0.2161E-05   0.000      0.5120E-07   0.000    
     984  0.1466      0.1390E-03 SOLID          1 -58.3%  0.8566E-06  0.4629E-07   0.000      0.2164E-05   0.000      0.5120E-07   0.000    
     985  0.1467      0.1390E-03 SOLID          1 -58.3%  0.8573E-06  0.4630E-07   0.000      0.2167E-05   0.000      0.5120E-07   0.000    
     986  0.1469      0.1390E-03 SOLID          1 -58.3%  0.8581E-06  0.4630E-07   0.000      0.2170E-05   0.000      0.5120E-07   0.000    
     987  0.1470      0.1389E-03 SOLID          1 -58.4%  0.8588E-06  0.4631E-07   0.000      0.2173E-05   0.000      0.5120E-07   0.000    
     988  0.1472      0.1389E-03 SOLID          1 -58.4%  0.8595E-06  0.4632E-07   0.000      0.2176E-05   0.000      0.5120E-07   0.000    
     989  0.1473      0.1389E-03 SOLID          1 -58.4%  0.8603E-06  0.4633E-07   0.000      0.2180E-05   0.000      0.5120E-07   0.000    
   CYCLE    TIME      TIME-STEP  ELEMENT          ERROR  I-ENERGY    K-ENERGY T  K-ENERGY R  EXT-WORK     MAS.ERR     TOTAL MASS  MASS ADDED
     990  0.1474      0.1389E-03 SOLID          1 -58.4%  0.8610E-06  0.4634E-07   0.000      0.2183E-05   0.000      0.5120E-07   0.000    
     991  0.1476      0.1389E-03 SOLID          1 -58.5%  0.8617E-06  0.4635E-07   0.000      0.2186E-05   0.000      0.5120E-07   0.000    
     992  0.1477      0.1388E-03 SOLID          1 -58.5%  0.8625E-06  0.4636E-07   0.000      0.2189E-05   0.000      0.5120E-07   0.000    
     993  0.1478      0.1388E-03 SOLID          1 -58.5%  0.8632E-06  0.4637E-07   0.000      0.2192E-05   0.000      0.5120E-07   0.000    
     994  0.1480      0.1388E-03 SOLID          1 -58.5%  0.8639E-06  0.4637E-07   0.000      0.2195E-05   0.000      0.5120E-07   0.000    
     995  0.1481      0.1388E-03 SOLID          1 -58.6%  0.8647E-06  0.4638E-07   0.000      0.2199E-05   0.000      0.5120E-07   0.000    
     996  0.1483      0.1388E-03 SOLID          1 -58.6%  0.8654E-06  0.4639E-07   0.000      0.2202E-05   0.000      0.5120E-07   0.000    
     997  0.1484      0.1387E-03 SOLID          1 -58.6%  0.8661E-06  0.4640E-07   0.000      0.2205E-05   0.000      0.5120E-07   0.000    
     998  0.1485      0.1387E-03 SOLID          1 -58.6%  0.8669E-06  0.4641E-07   0.000      0.2208E-05   0.000      0.5120E-07   0.000    
     999  0.1487      0.1387E-03 SOLID          1 -58.7%  0.8676E-06  0.4642E-07   0.000      0.2211E-05   0.000      0.5120E-07   0.000    
    1000  0.1488      0.1387E-03 SOLID          1 -58.7%  0.8683E-06  0.4643E-07   0.000      0.2215E-05   0.000      0.5120E-07   0.000    
    1001  0.1490      0.1387E-03 SOLID          1 -58.7%  0.8691E-06  0.4643E-07   0.000      0.2218E-05   0.000      0.5120E-07   0.000    
    1002  0.1491      0.1386E-03 SOLID          1 -58.7%  0.8698E-06  0.4644E-07   0.000      0.2221E-05   0.000      0.5120E-07   0.000    
    1003  0.1492      0.1386E-03 SOLID          1 -58.8%  0.8705E-06  0.4645E-07   0.000      0.2224E-05   0.000      0.5120E-07   0.000    
    1004  0.1494      0.1386E-03 SOLID          1 -58.8%  0.8712E-06  0.4646E-07   0.000      0.2227E-05   0.000      0.5120E-07   0.000    
    1005  0.1495      0.1386E-03 SOLID          1 -58.8%  0.8720E-06  0.4647E-07   0.000      0.2230E-05   0.000      0.5120E-07   0.000    
    1006  0.1496      0.1386E-03 SOLID          1 -58.8%  0.8727E-06  0.4648E-07   0.000      0.2234E-05   0.000      0.5120E-07   0.000    
    1007  0.1498      0.1385E-03 SOLID          1 -58.9%  0.8734E-06  0.4649E-07   0.000      0.2237E-05   0.000      0.5120E-07   0.000    
    1008  0.1499      0.1385E-03 SOLID          1 -58.9%  0.8742E-06  0.4649E-07   0.000      0.2240E-05   0.000      0.5120E-07   0.000    
    1009  0.1501      0.1385E-03 SOLID          1 -58.9%  0.8749E-06  0.4650E-07   0.000      0.2243E-05   0.000      0.5120E-07   0.000    
     ANIMATION FILE: M50BA004 WRITTEN
    1010  0.1502      0.1385E-03 SOLID          1 -58.9%  0.8756E-06  0.4651E-07   0.000      0.2246E-05   0.000      0.5120E-07   0.000    
    1011  0.1503      0.1385E-03 SOLID          1 -59.0%  0.8764E-06  0.4652E-07   0.000      0.2250E-05   0.000      0.5120E-07   0.000    
    1012  0.1505      0.1384E-03 SOLID          1 -59.0%  0.8771E-06  0.4653E-07   0.000      0.2253E-05   0.000      0.5120E-07   0.000    
    1013  0.1506      0.1384E-03 SOLID          1 -59.0%  0.8778E-06  0.4654E-07   0.000      0.2256E-05   0.000      0.5120E-07   0.000    
    1014  0.1508      0.1384E-03 SOLID          1 -59.1%  0.8785E-06  0.4655E-07   0.000      0.2259E-05   0.000      0.5120E-07   0.000    
    1015  0.1509      0.1384E-03 SOLID          1 -59.1%  0.8793E-06  0.4655E-07   0.000      0.2262E-05   0.000      0.5120E-07   0.000    
    1016  0.1510      0.1384E-03 SOLID          1 -59.1%  0.8800E-06  0.4656E-07   0.000      0.2265E-05   0.000      0.5120E-07   0.000    
    1017  0.1512      0.1383E-03 SOLID          1 -59.1%  0.8807E-06  0.4657E-07   0.000      0.2269E-05   0.000      0.5120E-07   0.000    
    1018  0.1513      0.1383E-03 SOLID          1 -59.2%  0.8814E-06  0.4658E-07   0.000      0.2272E-05   0.000      0.5120E-07   0.000    
    1019  0.1514      0.1383E-03 SOLID          1 -59.2%  0.8822E-06  0.4659E-07   0.000      0.2275E-05   0.000      0.5120E-07   0.000    
    1020  0.1516      0.1383E-03 SOLID          1 -59.2%  0.8829E-06  0.4660E-07   0.000      0.2278E-05   0.000      0.5120E-07   0.000    
    1021  0.1517      0.1383E-03 SOLID          1 -59.2%  0.8836E-06  0.4661E-07   0.000      0.2281E-05   0.000      0.5120E-07   0.000    
    1022  0.1519      0.1382E-03 SOLID          1 -59.3%  0.8844E-06  0.4661E-07   0.000      0.2285E-05   0.000      0.5120E-07   0.000    
    1023  0.1520      0.1382E-03 SOLID          1 -59.3%  0.8851E-06  0.4662E-07   0.000      0.2288E-05   0.000      0.5120E-07   0.000    
    1024  0.1521      0.1382E-03 SOLID          1 -59.3%  0.8858E-06  0.4663E-07   0.000      0.2291E-05   0.000      0.5120E-07   0.000    
    1025  0.1523      0.1382E-03 SOLID          1 -59.3%  0.8865E-06  0.4664E-07   0.000      0.2294E-05   0.000      0.5120E-07   0.000    
    1026  0.1524      0.1381E-03 SOLID          1 -59.3%  0.8873E-06  0.4665E-07   0.000      0.2297E-05   0.000      0.5120E-07   0.000    
    1027  0.1526      0.1381E-03 SOLID          1 -59.4%  0.8880E-06  0.4666E-07   0.000      0.2301E-05   0.000      0.5120E-07   0.000    
    1028  0.1527      0.1381E-03 SOLID          1 -59.4%  0.8887E-06  0.4667E-07   0.000      0.2304E-05   0.000      0.5120E-07   0.000    
    1029  0.1528      0.1381E-03 SOLID          1 -59.4%  0.8894E-06  0.4668E-07   0.000      0.2307E-05   0.000      0.5120E-07   0.000    
    1030  0.1530      0.1381E-03 SOLID          1 -59.4%  0.8902E-06  0.4668E-07   0.000      0.2310E-05   0.000      0.5120E-07   0.000    
    1031  0.1531      0.1380E-03 SOLID          1 -59.5%  0.8909E-06  0.4669E-07   0.000      0.2313E-05   0.000      0.5120E-07   0.000    
    1032  0.1532      0.1380E-03 SOLID          1 -59.5%  0.8916E-06  0.4670E-07   0.000      0.2317E-05   0.000      0.5120E-07   0.000    
    1033  0.1534      0.1380E-03 SOLID          1 -59.5%  0.8923E-06  0.4671E-07   0.000      0.2320E-05   0.000      0.5120E-07   0.000    
    1034  0.1535      0.1380E-03 SOLID          1 -59.5%  0.8930E-06  0.4672E-07   0.000      0.2323E-05   0.000      0.5120E-07   0.000    
    1035  0.1537      0.1380E-03 SOLID          1 -59.6%  0.8938E-06  0.4673E-07   0.000      0.2326E-05   0.000      0.5120E-07   0.000    
    1036  0.1538      0.1379E-03 SOLID          1 -59.6%  0.8945E-06  0.4674E-07   0.000      0.2329E-05   0.000      0.5120E-07   0.000    
    1037  0.1539      0.1379E-03 SOLID          1 -59.6%  0.8952E-06  0.4675E-07   0.000      0.2333E-05   0.000      0.5120E-07   0.000    
    1038  0.1541      0.1379E-03 SOLID          1 -59.6%  0.8959E-06  0.4675E-07   0.000      0.2336E-05   0.000      0.5120E-07   0.000    
    1039  0.1542      0.1379E-03 SOLID          1 -59.7%  0.8967E-06  0.4676E-07   0.000      0.2339E-05   0.000      0.5120E-07   0.000    
    1040  0.1543      0.1379E-03 SOLID          1 -59.7%  0.8974E-06  0.4677E-07   0.000      0.2342E-05   0.000      0.5120E-07   0.000    
    1041  0.1545      0.1378E-03 SOLID          1 -59.7%  0.8981E-06  0.4678E-07   0.000      0.2345E-05   0.000      0.5120E-07   0.000    
    1042  0.1546      0.1378E-03 SOLID          1 -59.7%  0.8988E-06  0.4679E-07   0.000      0.2349E-05   0.000      0.5120E-07   0.000    
    1043  0.1548      0.1378E-03 SOLID          1 -59.8%  0.8995E-06  0.4680E-07   0.000      0.2352E-05   0.000      0.5120E-07   0.000    
    1044  0.1549      0.1378E-03 SOLID          1 -59.8%  0.9003E-06  0.4681E-07   0.000      0.2355E-05   0.000      0.5120E-07   0.000    
   CYCLE    TIME      TIME-STEP  ELEMENT          ERROR  I-ENERGY    K-ENERGY T  K-ENERGY R  EXT-WORK     MAS.ERR     TOTAL MASS  MASS ADDED
    1045  0.1550      0.1378E-03 SOLID          1 -59.8%  0.9010E-06  0.4682E-07   0.000      0.2358E-05   0.000      0.5120E-07   0.000    
    1046  0.1552      0.1378E-03 SOLID          1 -59.8%  0.9017E-06  0.4683E-07   0.000      0.2362E-05   0.000      0.5120E-07   0.000    
    1047  0.1553      0.1377E-03 SOLID          1 -59.9%  0.9024E-06  0.4684E-07   0.000      0.2365E-05   0.000      0.5120E-07   0.000    
    1048  0.1555      0.1377E-03 SOLID          1 -59.9%  0.9031E-06  0.4684E-07   0.000      0.2368E-05   0.000      0.5120E-07   0.000    
    1049  0.1556      0.1377E-03 SOLID          1 -59.9%  0.9039E-06  0.4685E-07   0.000      0.2371E-05   0.000      0.5120E-07   0.000    
    1050  0.1557      0.1377E-03 SOLID          1 -59.9%  0.9046E-06  0.4686E-07   0.000      0.2374E-05   0.000      0.5120E-07   0.000    
    1051  0.1559      0.1377E-03 SOLID          1 -60.0%  0.9053E-06  0.4687E-07   0.000      0.2378E-05   0.000      0.5120E-07   0.000    
    1052  0.1560      0.1376E-03 SOLID          1 -60.0%  0.9060E-06  0.4688E-07   0.000      0.2381E-05   0.000      0.5120E-07   0.000    
    1053  0.1561      0.1376E-03 SOLID          1 -60.0%  0.9067E-06  0.4689E-07   0.000      0.2384E-05   0.000      0.5120E-07   0.000    
    1054  0.1563      0.1376E-03 SOLID          1 -60.0%  0.9074E-06  0.4690E-07   0.000      0.2387E-05   0.000      0.5120E-07   0.000    
    1055  0.1564      0.1376E-03 SOLID          1 -60.0%  0.9082E-06  0.4691E-07   0.000      0.2390E-05   0.000      0.5120E-07   0.000    
    1056  0.1566      0.1376E-03 SOLID          1 -60.1%  0.9089E-06  0.4692E-07   0.000      0.2394E-05   0.000      0.5120E-07   0.000    
    1057  0.1567      0.1375E-03 SOLID          1 -60.1%  0.9096E-06  0.4693E-07   0.000      0.2397E-05   0.000      0.5120E-07   0.000    
    1058  0.1568      0.1375E-03 SOLID          1 -60.1%  0.9103E-06  0.4694E-07   0.000      0.2400E-05   0.000      0.5120E-07   0.000    
    1059  0.1570      0.1375E-03 SOLID          1 -60.1%  0.9110E-06  0.4695E-07   0.000      0.2403E-05   0.000      0.5120E-07   0.000    
    1060  0.1571      0.1375E-03 SOLID          1 -60.2%  0.9117E-06  0.4696E-07   0.000      0.2407E-05   0.000      0.5120E-07   0.000    
    1061  0.1572      0.1375E-03 SOLID          1 -60.2%  0.9125E-06  0.4697E-07   0.000      0.2410E-05   0.000      0.5120E-07   0.000    
    1062  0.1574      0.1374E-03 SOLID          1 -60.2%  0.9132E-06  0.4698E-07   0.000      0.2413E-05   0.000      0.5120E-07   0.000    
    1063  0.1575      0.1374E-03 SOLID          1 -60.2%  0.9139E-06  0.4699E-07   0.000      0.2416E-05   0.000      0.5120E-07   0.000    
    1064  0.1577      0.1374E-03 SOLID          1 -60.3%  0.9146E-06  0.4699E-07   0.000      0.2419E-05   0.000      0.5120E-07   0.000    
    1065  0.1578      0.1374E-03 SOLID          1 -60.3%  0.9153E-06  0.4700E-07   0.000      0.2423E-05   0.000      0.5120E-07   0.000    
    1066  0.1579      0.1374E-03 SOLID          1 -60.3%  0.9160E-06  0.4701E-07   0.000      0.2426E-05   0.000      0.5120E-07   0.000    
    1067  0.1581      0.1373E-03 SOLID          1 -60.3%  0.9168E-06  0.4702E-07   0.000      0.2429E-05   0.000      0.5120E-07   0.000    
    1068  0.1582      0.1373E-03 SOLID          1 -60.3%  0.9175E-06  0.4703E-07   0.000      0.2432E-05   0.000      0.5120E-07   0.000    
    1069  0.1583      0.1373E-03 SOLID          1 -60.4%  0.9182E-06  0.4704E-07   0.000      0.2436E-05   0.000      0.5120E-07   0.000    
    1070  0.1585      0.1373E-03 SOLID          1 -60.4%  0.9189E-06  0.4705E-07   0.000      0.2439E-05   0.000      0.5120E-07   0.000    
    1071  0.1586      0.1373E-03 SOLID          1 -60.4%  0.9196E-06  0.4706E-07   0.000      0.2442E-05   0.000      0.5120E-07   0.000    
    1072  0.1588      0.1372E-03 SOLID          1 -60.4%  0.9203E-06  0.4707E-07   0.000      0.2445E-05   0.000      0.5120E-07   0.000    
    1073  0.1589      0.1372E-03 SOLID          1 -60.5%  0.9210E-06  0.4708E-07   0.000      0.2448E-05   0.000      0.5120E-07   0.000    
    1074  0.1590      0.1372E-03 SOLID          1 -60.5%  0.9217E-06  0.4709E-07   0.000      0.2452E-05   0.000      0.5120E-07   0.000    
    1075  0.1592      0.1372E-03 SOLID          1 -60.5%  0.9225E-06  0.4710E-07   0.000      0.2455E-05   0.000      0.5120E-07   0.000    
    1076  0.1593      0.1372E-03 SOLID          1 -60.5%  0.9232E-06  0.4711E-07   0.000      0.2458E-05   0.000      0.5120E-07   0.000    
    1077  0.1594      0.1371E-03 SOLID          1 -60.6%  0.9239E-06  0.4712E-07   0.000      0.2461E-05   0.000      0.5120E-07   0.000    
    1078  0.1596      0.1371E-03 SOLID          1 -60.6%  0.9246E-06  0.4713E-07   0.000      0.2465E-05   0.000      0.5120E-07   0.000    
    1079  0.1597      0.1371E-03 SOLID          1 -60.6%  0.9253E-06  0.4714E-07   0.000      0.2468E-05   0.000      0.5120E-07   0.000    
    1080  0.1598      0.1371E-03 SOLID          1 -60.6%  0.9260E-06  0.4715E-07   0.000      0.2471E-05   0.000      0.5120E-07   0.000    
    1081  0.1600      0.1371E-03 SOLID          1 -60.6%  0.9267E-06  0.4716E-07   0.000      0.2474E-05   0.000      0.5120E-07   0.000    
    1082  0.1601      0.1370E-03 SOLID          1 -60.7%  0.9274E-06  0.4717E-07   0.000      0.2478E-05   0.000      0.5120E-07   0.000    
    1083  0.1603      0.1370E-03 SOLID          1 -60.7%  0.9281E-06  0.4718E-07   0.000      0.2481E-05   0.000      0.5120E-07   0.000    
    1084  0.1604      0.1370E-03 SOLID          1 -60.7%  0.9289E-06  0.4719E-07   0.000      0.2484E-05   0.000      0.5120E-07   0.000    
    1085  0.1605      0.1370E-03 SOLID          1 -60.7%  0.9296E-06  0.4721E-07   0.000      0.2487E-05   0.000      0.5120E-07   0.000    
    1086  0.1607      0.1370E-03 SOLID          1 -60.8%  0.9303E-06  0.4722E-07   0.000      0.2490E-05   0.000      0.5120E-07   0.000    
    1087  0.1608      0.1370E-03 SOLID          1 -60.8%  0.9310E-06  0.4723E-07   0.000      0.2494E-05   0.000      0.5120E-07   0.000    
    1088  0.1609      0.1369E-03 SOLID          1 -60.8%  0.9317E-06  0.4724E-07   0.000      0.2497E-05   0.000      0.5120E-07   0.000    
    1089  0.1611      0.1369E-03 SOLID          1 -60.8%  0.9324E-06  0.4725E-07   0.000      0.2500E-05   0.000      0.5120E-07   0.000    
    1090  0.1612      0.1369E-03 SOLID          1 -60.8%  0.9331E-06  0.4726E-07   0.000      0.2503E-05   0.000      0.5120E-07   0.000    
    1091  0.1614      0.1369E-03 SOLID          1 -60.9%  0.9338E-06  0.4727E-07   0.000      0.2507E-05   0.000      0.5120E-07   0.000    
    1092  0.1615      0.1369E-03 SOLID          1 -60.9%  0.9345E-06  0.4728E-07   0.000      0.2510E-05   0.000      0.5120E-07   0.000    
    1093  0.1616      0.1368E-03 SOLID          1 -60.9%  0.9352E-06  0.4729E-07   0.000      0.2513E-05   0.000      0.5120E-07   0.000    
    1094  0.1618      0.1368E-03 SOLID          1 -60.9%  0.9359E-06  0.4730E-07   0.000      0.2516E-05   0.000      0.5120E-07   0.000    
    1095  0.1619      0.1368E-03 SOLID          1 -60.9%  0.9367E-06  0.4731E-07   0.000      0.2520E-05   0.000      0.5120E-07   0.000    
    1096  0.1620      0.1368E-03 SOLID          1 -61.0%  0.9374E-06  0.4732E-07   0.000      0.2523E-05   0.000      0.5120E-07   0.000    
    1097  0.1622      0.1368E-03 SOLID          1 -61.0%  0.9381E-06  0.4733E-07   0.000      0.2526E-05   0.000      0.5120E-07   0.000    
    1098  0.1623      0.1367E-03 SOLID          1 -61.0%  0.9388E-06  0.4734E-07   0.000      0.2529E-05   0.000      0.5120E-07   0.000    
    1099  0.1624      0.1367E-03 SOLID          1 -61.0%  0.9395E-06  0.4735E-07   0.000      0.2533E-05   0.000      0.5120E-07   0.000    
   CYCLE    TIME      TIME-STEP  ELEMENT          ERROR  I-ENERGY    K-ENERGY T  K-ENERGY R  EXT-WORK     MAS.ERR     TOTAL MASS  MASS ADDED
    1100  0.1626      0.1367E-03 SOLID          1 -61.1%  0.9402E-06  0.4737E-07   0.000      0.2536E-05   0.000      0.5120E-07   0.000    
    1101  0.1627      0.1367E-03 SOLID          1 -61.1%  0.9409E-06  0.4738E-07   0.000      0.2539E-05   0.000      0.5120E-07   0.000    
    1102  0.1629      0.1367E-03 SOLID          1 -61.1%  0.9416E-06  0.4739E-07   0.000      0.2542E-05   0.000      0.5120E-07   0.000    
    1103  0.1630      0.1366E-03 SOLID          1 -61.1%  0.9423E-06  0.4740E-07   0.000      0.2546E-05   0.000      0.5120E-07   0.000    
    1104  0.1631      0.1366E-03 SOLID          1 -61.1%  0.9430E-06  0.4741E-07   0.000      0.2549E-05   0.000      0.5120E-07   0.000    
    1105  0.1633      0.1366E-03 SOLID          1 -61.2%  0.9437E-06  0.4742E-07   0.000      0.2552E-05   0.000      0.5120E-07   0.000    
    1106  0.1634      0.1366E-03 SOLID          1 -61.2%  0.9444E-06  0.4743E-07   0.000      0.2555E-05   0.000      0.5120E-07   0.000    
    1107  0.1635      0.1366E-03 SOLID          1 -61.2%  0.9451E-06  0.4744E-07   0.000      0.2559E-05   0.000      0.5120E-07   0.000    
    1108  0.1637      0.1366E-03 SOLID          1 -61.2%  0.9458E-06  0.4745E-07   0.000      0.2562E-05   0.000      0.5120E-07   0.000    
    1109  0.1638      0.1365E-03 SOLID          1 -61.2%  0.9465E-06  0.4747E-07   0.000      0.2565E-05   0.000      0.5120E-07   0.000    
    1110  0.1640      0.1365E-03 SOLID          1 -61.3%  0.9472E-06  0.4748E-07   0.000      0.2568E-05   0.000      0.5120E-07   0.000    
    1111  0.1641      0.1365E-03 SOLID          1 -61.3%  0.9479E-06  0.4749E-07   0.000      0.2572E-05   0.000      0.5120E-07   0.000    
    1112  0.1642      0.1365E-03 SOLID          1 -61.3%  0.9486E-06  0.4750E-07   0.000      0.2575E-05   0.000      0.5120E-07   0.000    
    1113  0.1644      0.1365E-03 SOLID          1 -61.3%  0.9493E-06  0.4751E-07   0.000      0.2578E-05   0.000      0.5120E-07   0.000    
    1114  0.1645      0.1364E-03 SOLID          1 -61.4%  0.9500E-06  0.4752E-07   0.000      0.2581E-05   0.000      0.5120E-07   0.000    
    1115  0.1646      0.1364E-03 SOLID          1 -61.4%  0.9508E-06  0.4753E-07   0.000      0.2585E-05   0.000      0.5120E-07   0.000    
    1116  0.1648      0.1364E-03 SOLID          1 -61.4%  0.9515E-06  0.4755E-07   0.000      0.2588E-05   0.000      0.5120E-07   0.000    
    1117  0.1649      0.1364E-03 SOLID          1 -61.4%  0.9522E-06  0.4756E-07   0.000      0.2591E-05   0.000      0.5120E-07   0.000    
    1118  0.1650      0.1364E-03 SOLID          1 -61.4%  0.9529E-06  0.4757E-07   0.000      0.2594E-05   0.000      0.5120E-07   0.000    
    1119  0.1652      0.1363E-03 SOLID          1 -61.5%  0.9536E-06  0.4758E-07   0.000      0.2598E-05   0.000      0.5120E-07   0.000    
    1120  0.1653      0.1363E-03 SOLID          1 -61.5%  0.9543E-06  0.4759E-07   0.000      0.2601E-05   0.000      0.5120E-07   0.000    
    1121  0.1655      0.1363E-03 SOLID          1 -61.5%  0.9550E-06  0.4760E-07   0.000      0.2604E-05   0.000      0.5120E-07   0.000    
    1122  0.1656      0.1363E-03 SOLID          1 -61.5%  0.9557E-06  0.4762E-07   0.000      0.2607E-05   0.000      0.5120E-07   0.000    
    1123  0.1657      0.1363E-03 SOLID          1 -61.5%  0.9564E-06  0.4763E-07   0.000      0.2611E-05   0.000      0.5120E-07   0.000    
    1124  0.1659      0.1363E-03 SOLID          1 -61.6%  0.9571E-06  0.4764E-07   0.000      0.2614E-05   0.000      0.5120E-07   0.000    
    1125  0.1660      0.1362E-03 SOLID          1 -61.6%  0.9578E-06  0.4765E-07   0.000      0.2617E-05   0.000      0.5120E-07   0.000    
    1126  0.1661      0.1362E-03 SOLID          1 -61.6%  0.9585E-06  0.4766E-07   0.000      0.2620E-05   0.000      0.5120E-07   0.000    
    1127  0.1663      0.1362E-03 SOLID          1 -61.6%  0.9592E-06  0.4767E-07   0.000      0.2624E-05   0.000      0.5120E-07   0.000    
    1128  0.1664      0.1362E-03 SOLID          1 -61.6%  0.9599E-06  0.4769E-07   0.000      0.2627E-05   0.000      0.5120E-07   0.000    
    1129  0.1665      0.1362E-03 SOLID          1 -61.7%  0.9606E-06  0.4770E-07   0.000      0.2630E-05   0.000      0.5120E-07   0.000    
    1130  0.1667      0.1361E-03 SOLID          1 -61.7%  0.9613E-06  0.4771E-07   0.000      0.2634E-05   0.000      0.5120E-07   0.000    
    1131  0.1668      0.1361E-03 SOLID          1 -61.7%  0.9620E-06  0.4772E-07   0.000      0.2637E-05   0.000      0.5120E-07   0.000    
    1132  0.1670      0.1361E-03 SOLID          1 -61.7%  0.9627E-06  0.4773E-07   0.000      0.2640E-05   0.000      0.5120E-07   0.000    
    1133  0.1671      0.1361E-03 SOLID          1 -61.7%  0.9634E-06  0.4775E-07   0.000      0.2643E-05   0.000      0.5120E-07   0.000    
    1134  0.1672      0.1361E-03 SOLID          1 -61.8%  0.9641E-06  0.4776E-07   0.000      0.2647E-05   0.000      0.5120E-07   0.000    
    1135  0.1674      0.1360E-03 SOLID          1 -61.8%  0.9648E-06  0.4777E-07   0.000      0.2650E-05   0.000      0.5120E-07   0.000    
    1136  0.1675      0.1360E-03 SOLID          1 -61.8%  0.9655E-06  0.4778E-07   0.000      0.2653E-05   0.000      0.5120E-07   0.000    
    1137  0.1676      0.1360E-03 SOLID          1 -61.8%  0.9662E-06  0.4779E-07   0.000      0.2656E-05   0.000      0.5120E-07   0.000    
    1138  0.1678      0.1360E-03 SOLID          1 -61.9%  0.9669E-06  0.4781E-07   0.000      0.2660E-05   0.000      0.5120E-07   0.000    
    1139  0.1679      0.1360E-03 SOLID          1 -61.9%  0.9676E-06  0.4782E-07   0.000      0.2663E-05   0.000      0.5120E-07   0.000    
    1140  0.1680      0.1360E-03 SOLID          1 -61.9%  0.9683E-06  0.4783E-07   0.000      0.2666E-05   0.000      0.5120E-07   0.000    
    1141  0.1682      0.1359E-03 SOLID          1 -61.9%  0.9690E-06  0.4784E-07   0.000      0.2670E-05   0.000      0.5120E-07   0.000    
    1142  0.1683      0.1359E-03 SOLID          1 -61.9%  0.9697E-06  0.4785E-07   0.000      0.2673E-05   0.000      0.5120E-07   0.000    
    1143  0.1684      0.1359E-03 SOLID          1 -62.0%  0.9703E-06  0.4787E-07   0.000      0.2676E-05   0.000      0.5120E-07   0.000    
    1144  0.1686      0.1359E-03 SOLID          1 -62.0%  0.9710E-06  0.4788E-07   0.000      0.2679E-05   0.000      0.5120E-07   0.000    
    1145  0.1687      0.1359E-03 SOLID          1 -62.0%  0.9717E-06  0.4789E-07   0.000      0.2683E-05   0.000      0.5120E-07   0.000    
    1146  0.1689      0.1358E-03 SOLID          1 -62.0%  0.9724E-06  0.4790E-07   0.000      0.2686E-05   0.000      0.5120E-07   0.000    
    1147  0.1690      0.1358E-03 SOLID          1 -62.0%  0.9731E-06  0.4791E-07   0.000      0.2689E-05   0.000      0.5120E-07   0.000    
    1148  0.1691      0.1358E-03 SOLID          1 -62.1%  0.9738E-06  0.4793E-07   0.000      0.2692E-05   0.000      0.5120E-07   0.000    
    1149  0.1693      0.1358E-03 SOLID          1 -62.1%  0.9745E-06  0.4794E-07   0.000      0.2696E-05   0.000      0.5120E-07   0.000    
    1150  0.1694      0.1358E-03 SOLID          1 -62.1%  0.9752E-06  0.4795E-07   0.000      0.2699E-05   0.000      0.5120E-07   0.000    
    1151  0.1695      0.1358E-03 SOLID          1 -62.1%  0.9759E-06  0.4796E-07   0.000      0.2702E-05   0.000      0.5120E-07   0.000    
    1152  0.1697      0.1357E-03 SOLID          1 -62.1%  0.9766E-06  0.4798E-07   0.000      0.2706E-05   0.000      0.5120E-07   0.000    
    1153  0.1698      0.1357E-03 SOLID          1 -62.1%  0.9773E-06  0.4799E-07   0.000      0.2709E-05   0.000      0.5120E-07   0.000    
    1154  0.1699      0.1357E-03 SOLID          1 -62.2%  0.9780E-06  0.4800E-07   0.000      0.2712E-05   0.000      0.5120E-07   0.000    
   CYCLE    TIME      TIME-STEP  ELEMENT          ERROR  I-ENERGY    K-ENERGY T  K-ENERGY R  EXT-WORK     MAS.ERR     TOTAL MASS  MASS ADDED
    1155  0.1701      0.1357E-03 SOLID          1 -62.2%  0.9787E-06  0.4801E-07   0.000      0.2715E-05   0.000      0.5120E-07   0.000    
    1156  0.1702      0.1357E-03 SOLID          1 -62.2%  0.9794E-06  0.4802E-07   0.000      0.2719E-05   0.000      0.5120E-07   0.000    
    1157  0.1703      0.1356E-03 SOLID          1 -62.2%  0.9801E-06  0.4804E-07   0.000      0.2722E-05   0.000      0.5120E-07   0.000    
    1158  0.1705      0.1356E-03 SOLID          1 -62.2%  0.9808E-06  0.4805E-07   0.000      0.2725E-05   0.000      0.5120E-07   0.000    
    1159  0.1706      0.1356E-03 SOLID          1 -62.3%  0.9815E-06  0.4806E-07   0.000      0.2729E-05   0.000      0.5120E-07   0.000    
    1160  0.1708      0.1356E-03 SOLID          1 -62.3%  0.9822E-06  0.4807E-07   0.000      0.2732E-05   0.000      0.5120E-07   0.000    
    1161  0.1709      0.1356E-03 SOLID          1 -62.3%  0.9829E-06  0.4809E-07   0.000      0.2735E-05   0.000      0.5120E-07   0.000    
    1162  0.1710      0.1356E-03 SOLID          1 -62.3%  0.9836E-06  0.4810E-07   0.000      0.2738E-05   0.000      0.5120E-07   0.000    
    1163  0.1712      0.1355E-03 SOLID          1 -62.3%  0.9843E-06  0.4811E-07   0.000      0.2742E-05   0.000      0.5120E-07   0.000    
    1164  0.1713      0.1355E-03 SOLID          1 -62.4%  0.9849E-06  0.4812E-07   0.000      0.2745E-05   0.000      0.5120E-07   0.000    
    1165  0.1714      0.1355E-03 SOLID          1 -62.4%  0.9856E-06  0.4813E-07   0.000      0.2748E-05   0.000      0.5120E-07   0.000    
    1166  0.1716      0.1355E-03 SOLID          1 -62.4%  0.9863E-06  0.4815E-07   0.000      0.2752E-05   0.000      0.5120E-07   0.000    
    1167  0.1717      0.1355E-03 SOLID          1 -62.4%  0.9870E-06  0.4816E-07   0.000      0.2755E-05   0.000      0.5120E-07   0.000    
    1168  0.1718      0.1354E-03 SOLID          1 -62.4%  0.9877E-06  0.4817E-07   0.000      0.2758E-05   0.000      0.5120E-07   0.000    
    1169  0.1720      0.1354E-03 SOLID          1 -62.5%  0.9884E-06  0.4818E-07   0.000      0.2761E-05   0.000      0.5120E-07   0.000    
    1170  0.1721      0.1354E-03 SOLID          1 -62.5%  0.9891E-06  0.4819E-07   0.000      0.2765E-05   0.000      0.5120E-07   0.000    
    1171  0.1722      0.1354E-03 SOLID          1 -62.5%  0.9898E-06  0.4821E-07   0.000      0.2768E-05   0.000      0.5120E-07   0.000    
    1172  0.1724      0.1354E-03 SOLID          1 -62.5%  0.9905E-06  0.4822E-07   0.000      0.2771E-05   0.000      0.5120E-07   0.000    
    1173  0.1725      0.1354E-03 SOLID          1 -62.5%  0.9912E-06  0.4823E-07   0.000      0.2775E-05   0.000      0.5120E-07   0.000    
    1174  0.1727      0.1353E-03 SOLID          1 -62.6%  0.9919E-06  0.4824E-07   0.000      0.2778E-05   0.000      0.5120E-07   0.000    
    1175  0.1728      0.1353E-03 SOLID          1 -62.6%  0.9926E-06  0.4826E-07   0.000      0.2781E-05   0.000      0.5120E-07   0.000    
    1176  0.1729      0.1353E-03 SOLID          1 -62.6%  0.9933E-06  0.4827E-07   0.000      0.2784E-05   0.000      0.5120E-07   0.000    
    1177  0.1731      0.1353E-03 SOLID          1 -62.6%  0.9939E-06  0.4828E-07   0.000      0.2788E-05   0.000      0.5120E-07   0.000    
    1178  0.1732      0.1353E-03 SOLID          1 -62.6%  0.9946E-06  0.4829E-07   0.000      0.2791E-05   0.000      0.5120E-07   0.000    
    1179  0.1733      0.1352E-03 SOLID          1 -62.7%  0.9953E-06  0.4830E-07   0.000      0.2794E-05   0.000      0.5120E-07   0.000    
    1180  0.1735      0.1352E-03 SOLID          1 -62.7%  0.9960E-06  0.4832E-07   0.000      0.2798E-05   0.000      0.5120E-07   0.000    
    1181  0.1736      0.1352E-03 SOLID          1 -62.7%  0.9967E-06  0.4833E-07   0.000      0.2801E-05   0.000      0.5120E-07   0.000    
    1182  0.1737      0.1352E-03 SOLID          1 -62.7%  0.9974E-06  0.4834E-07   0.000      0.2804E-05   0.000      0.5120E-07   0.000    
    1183  0.1739      0.1352E-03 SOLID          1 -62.7%  0.9981E-06  0.4835E-07   0.000      0.2807E-05   0.000      0.5120E-07   0.000    
    1184  0.1740      0.1352E-03 SOLID          1 -62.7%  0.9988E-06  0.4836E-07   0.000      0.2811E-05   0.000      0.5120E-07   0.000    
    1185  0.1741      0.1351E-03 SOLID          1 -62.8%  0.9995E-06  0.4838E-07   0.000      0.2814E-05   0.000      0.5120E-07   0.000    
    1186  0.1743      0.1351E-03 SOLID          1 -62.8%  0.1000E-05  0.4839E-07   0.000      0.2817E-05   0.000      0.5120E-07   0.000    
    1187  0.1744      0.1351E-03 SOLID          1 -62.8%  0.1001E-05  0.4840E-07   0.000      0.2821E-05   0.000      0.5120E-07   0.000    
    1188  0.1745      0.1351E-03 SOLID          1 -62.8%  0.1002E-05  0.4841E-07   0.000      0.2824E-05   0.000      0.5120E-07   0.000    
    1189  0.1747      0.1351E-03 SOLID          1 -62.8%  0.1002E-05  0.4842E-07   0.000      0.2827E-05   0.000      0.5120E-07   0.000    
    1190  0.1748      0.1351E-03 SOLID          1 -62.9%  0.1003E-05  0.4843E-07   0.000      0.2831E-05   0.000      0.5120E-07   0.000    
    1191  0.1750      0.1350E-03 SOLID          1 -62.9%  0.1004E-05  0.4845E-07   0.000      0.2834E-05   0.000      0.5120E-07   0.000    
    1192  0.1751      0.1350E-03 SOLID          1 -62.9%  0.1004E-05  0.4846E-07   0.000      0.2837E-05   0.000      0.5120E-07   0.000    
    1193  0.1752      0.1350E-03 SOLID          1 -62.9%  0.1005E-05  0.4847E-07   0.000      0.2840E-05   0.000      0.5120E-07   0.000    
    1194  0.1754      0.1350E-03 SOLID          1 -62.9%  0.1006E-05  0.4848E-07   0.000      0.2844E-05   0.000      0.5120E-07   0.000    
    1195  0.1755      0.1350E-03 SOLID          1 -62.9%  0.1006E-05  0.4849E-07   0.000      0.2847E-05   0.000      0.5120E-07   0.000    
    1196  0.1756      0.1349E-03 SOLID          1 -63.0%  0.1007E-05  0.4850E-07   0.000      0.2850E-05   0.000      0.5120E-07   0.000    
    1197  0.1758      0.1349E-03 SOLID          1 -63.0%  0.1008E-05  0.4852E-07   0.000      0.2854E-05   0.000      0.5120E-07   0.000    
    1198  0.1759      0.1349E-03 SOLID          1 -63.0%  0.1008E-05  0.4853E-07   0.000      0.2857E-05   0.000      0.5120E-07   0.000    
    1199  0.1760      0.1349E-03 SOLID          1 -63.0%  0.1009E-05  0.4854E-07   0.000      0.2860E-05   0.000      0.5120E-07   0.000    
    1200  0.1762      0.1349E-03 SOLID          1 -63.0%  0.1010E-05  0.4855E-07   0.000      0.2864E-05   0.000      0.5120E-07   0.000    
    1201  0.1763      0.1349E-03 SOLID          1 -63.1%  0.1011E-05  0.4856E-07   0.000      0.2867E-05   0.000      0.5120E-07   0.000    
    1202  0.1764      0.1348E-03 SOLID          1 -63.1%  0.1011E-05  0.4857E-07   0.000      0.2870E-05   0.000      0.5120E-07   0.000    
    1203  0.1766      0.1348E-03 SOLID          1 -63.1%  0.1012E-05  0.4858E-07   0.000      0.2874E-05   0.000      0.5120E-07   0.000    
    1204  0.1767      0.1348E-03 SOLID          1 -63.1%  0.1013E-05  0.4860E-07   0.000      0.2877E-05   0.000      0.5120E-07   0.000    
    1205  0.1768      0.1348E-03 SOLID          1 -63.1%  0.1013E-05  0.4861E-07   0.000      0.2880E-05   0.000      0.5120E-07   0.000    
    1206  0.1770      0.1348E-03 SOLID          1 -63.2%  0.1014E-05  0.4862E-07   0.000      0.2883E-05   0.000      0.5120E-07   0.000    
    1207  0.1771      0.1348E-03 SOLID          1 -63.2%  0.1015E-05  0.4863E-07   0.000      0.2887E-05   0.000      0.5120E-07   0.000    
    1208  0.1772      0.1347E-03 SOLID          1 -63.2%  0.1015E-05  0.4864E-07   0.000      0.2890E-05   0.000      0.5120E-07   0.000    
    1209  0.1774      0.1347E-03 SOLID          1 -63.2%  0.1016E-05  0.4865E-07   0.000      0.2893E-05   0.000      0.5120E-07   0.000    
   CYCLE    TIME      TIME-STEP  ELEMENT          ERROR  I-ENERGY    K-ENERGY T  K-ENERGY R  EXT-WORK     MAS.ERR     TOTAL MASS  MASS ADDED
    1210  0.1775      0.1347E-03 SOLID          1 -63.2%  0.1017E-05  0.4866E-07   0.000      0.2897E-05   0.000      0.5120E-07   0.000    
    1211  0.1776      0.1347E-03 SOLID          1 -63.2%  0.1017E-05  0.4867E-07   0.000      0.2900E-05   0.000      0.5120E-07   0.000    
    1212  0.1778      0.1347E-03 SOLID          1 -63.3%  0.1018E-05  0.4868E-07   0.000      0.2903E-05   0.000      0.5120E-07   0.000    
    1213  0.1779      0.1346E-03 SOLID          1 -63.3%  0.1019E-05  0.4869E-07   0.000      0.2907E-05   0.000      0.5120E-07   0.000    
    1214  0.1781      0.1346E-03 SOLID          1 -63.3%  0.1019E-05  0.4871E-07   0.000      0.2910E-05   0.000      0.5120E-07   0.000    
    1215  0.1782      0.1346E-03 SOLID          1 -63.3%  0.1020E-05  0.4872E-07   0.000      0.2913E-05   0.000      0.5120E-07   0.000    
    1216  0.1783      0.1346E-03 SOLID          1 -63.3%  0.1021E-05  0.4873E-07   0.000      0.2917E-05   0.000      0.5120E-07   0.000    
    1217  0.1785      0.1346E-03 SOLID          1 -63.3%  0.1022E-05  0.4874E-07   0.000      0.2920E-05   0.000      0.5120E-07   0.000    
    1218  0.1786      0.1346E-03 SOLID          1 -63.4%  0.1022E-05  0.4875E-07   0.000      0.2923E-05   0.000      0.5120E-07   0.000    
    1219  0.1787      0.1345E-03 SOLID          1 -63.4%  0.1023E-05  0.4876E-07   0.000      0.2927E-05   0.000      0.5120E-07   0.000    
    1220  0.1789      0.1345E-03 SOLID          1 -63.4%  0.1024E-05  0.4877E-07   0.000      0.2930E-05   0.000      0.5120E-07   0.000    
    1221  0.1790      0.1345E-03 SOLID          1 -63.4%  0.1024E-05  0.4878E-07   0.000      0.2933E-05   0.000      0.5120E-07   0.000    
    1222  0.1791      0.1345E-03 SOLID          1 -63.4%  0.1025E-05  0.4879E-07   0.000      0.2937E-05   0.000      0.5120E-07   0.000    
    1223  0.1793      0.1345E-03 SOLID          1 -63.5%  0.1026E-05  0.4880E-07   0.000      0.2940E-05   0.000      0.5120E-07   0.000    
    1224  0.1794      0.1345E-03 SOLID          1 -63.5%  0.1026E-05  0.4881E-07   0.000      0.2943E-05   0.000      0.5120E-07   0.000    
    1225  0.1795      0.1344E-03 SOLID          1 -63.5%  0.1027E-05  0.4882E-07   0.000      0.2947E-05   0.000      0.5120E-07   0.000    
    1226  0.1797      0.1344E-03 SOLID          1 -63.5%  0.1028E-05  0.4883E-07   0.000      0.2950E-05   0.000      0.5120E-07   0.000    
    1227  0.1798      0.1344E-03 SOLID          1 -63.5%  0.1028E-05  0.4884E-07   0.000      0.2953E-05   0.000      0.5120E-07   0.000    
    1228  0.1799      0.1344E-03 SOLID          1 -63.5%  0.1029E-05  0.4885E-07   0.000      0.2956E-05   0.000      0.5120E-07   0.000    
    1229  0.1801      0.1344E-03 SOLID          1 -63.6%  0.1030E-05  0.4886E-07   0.000      0.2960E-05   0.000      0.5120E-07   0.000    
    1230  0.1802      0.1344E-03 SOLID          1 -63.6%  0.1030E-05  0.4887E-07   0.000      0.2963E-05   0.000      0.5120E-07   0.000    
    1231  0.1803      0.1343E-03 SOLID          1 -63.6%  0.1031E-05  0.4888E-07   0.000      0.2966E-05   0.000      0.5120E-07   0.000    
    1232  0.1805      0.1343E-03 SOLID          1 -63.6%  0.1032E-05  0.4889E-07   0.000      0.2970E-05   0.000      0.5120E-07   0.000    
    1233  0.1806      0.1343E-03 SOLID          1 -63.6%  0.1032E-05  0.4890E-07   0.000      0.2973E-05   0.000      0.5120E-07   0.000    
    1234  0.1807      0.1343E-03 SOLID          1 -63.6%  0.1033E-05  0.4891E-07   0.000      0.2976E-05   0.000      0.5120E-07   0.000    
    1235  0.1809      0.1343E-03 SOLID          1 -63.7%  0.1034E-05  0.4892E-07   0.000      0.2980E-05   0.000      0.5120E-07   0.000    
    1236  0.1810      0.1342E-03 SOLID          1 -63.7%  0.1035E-05  0.4893E-07   0.000      0.2983E-05   0.000      0.5120E-07   0.000    
    1237  0.1811      0.1342E-03 SOLID          1 -63.7%  0.1035E-05  0.4894E-07   0.000      0.2986E-05   0.000      0.5120E-07   0.000    
    1238  0.1813      0.1342E-03 SOLID          1 -63.7%  0.1036E-05  0.4895E-07   0.000      0.2990E-05   0.000      0.5120E-07   0.000    
    1239  0.1814      0.1342E-03 SOLID          1 -63.7%  0.1037E-05  0.4896E-07   0.000      0.2993E-05   0.000      0.5120E-07   0.000    
    1240  0.1815      0.1342E-03 SOLID          1 -63.7%  0.1037E-05  0.4897E-07   0.000      0.2996E-05   0.000      0.5120E-07   0.000    
    1241  0.1817      0.1342E-03 SOLID          1 -63.8%  0.1038E-05  0.4898E-07   0.000      0.3000E-05   0.000      0.5120E-07   0.000    
    1242  0.1818      0.1341E-03 SOLID          1 -63.8%  0.1039E-05  0.4899E-07   0.000      0.3003E-05   0.000      0.5120E-07   0.000    
    1243  0.1819      0.1341E-03 SOLID          1 -63.8%  0.1039E-05  0.4899E-07   0.000      0.3006E-05   0.000      0.5120E-07   0.000    
    1244  0.1821      0.1341E-03 SOLID          1 -63.8%  0.1040E-05  0.4900E-07   0.000      0.3010E-05   0.000      0.5120E-07   0.000    
    1245  0.1822      0.1341E-03 SOLID          1 -63.8%  0.1041E-05  0.4901E-07   0.000      0.3013E-05   0.000      0.5120E-07   0.000    
    1246  0.1824      0.1341E-03 SOLID          1 -63.9%  0.1041E-05  0.4902E-07   0.000      0.3016E-05   0.000      0.5120E-07   0.000    
    1247  0.1825      0.1341E-03 SOLID          1 -63.9%  0.1042E-05  0.4903E-07   0.000      0.3020E-05   0.000      0.5120E-07   0.000    
    1248  0.1826      0.1340E-03 SOLID          1 -63.9%  0.1043E-05  0.4904E-07   0.000      0.3023E-05   0.000      0.5120E-07   0.000    
    1249  0.1828      0.1340E-03 SOLID          1 -63.9%  0.1043E-05  0.4905E-07   0.000      0.3026E-05   0.000      0.5120E-07   0.000    
    1250  0.1829      0.1340E-03 SOLID          1 -63.9%  0.1044E-05  0.4906E-07   0.000      0.3030E-05   0.000      0.5120E-07   0.000    
    1251  0.1830      0.1340E-03 SOLID          1 -63.9%  0.1045E-05  0.4907E-07   0.000      0.3033E-05   0.000      0.5120E-07   0.000    
    1252  0.1832      0.1340E-03 SOLID          1 -64.0%  0.1045E-05  0.4907E-07   0.000      0.3036E-05   0.000      0.5120E-07   0.000    
    1253  0.1833      0.1340E-03 SOLID          1 -64.0%  0.1046E-05  0.4908E-07   0.000      0.3040E-05   0.000      0.5120E-07   0.000    
    1254  0.1834      0.1339E-03 SOLID          1 -64.0%  0.1047E-05  0.4909E-07   0.000      0.3043E-05   0.000      0.5120E-07   0.000    
    1255  0.1836      0.1339E-03 SOLID          1 -64.0%  0.1048E-05  0.4910E-07   0.000      0.3046E-05   0.000      0.5120E-07   0.000    
    1256  0.1837      0.1339E-03 SOLID          1 -64.0%  0.1048E-05  0.4911E-07   0.000      0.3050E-05   0.000      0.5120E-07   0.000    
    1257  0.1838      0.1339E-03 SOLID          1 -64.0%  0.1049E-05  0.4912E-07   0.000      0.3053E-05   0.000      0.5120E-07   0.000    
    1258  0.1840      0.1339E-03 SOLID          1 -64.1%  0.1050E-05  0.4912E-07   0.000      0.3056E-05   0.000      0.5120E-07   0.000    
    1259  0.1841      0.1339E-03 SOLID          1 -64.1%  0.1050E-05  0.4913E-07   0.000      0.3060E-05   0.000      0.5120E-07   0.000    
    1260  0.1842      0.1338E-03 SOLID          1 -64.1%  0.1051E-05  0.4914E-07   0.000      0.3063E-05   0.000      0.5120E-07   0.000    
    1261  0.1844      0.1338E-03 SOLID          1 -64.1%  0.1052E-05  0.4915E-07   0.000      0.3067E-05   0.000      0.5120E-07   0.000    
    1262  0.1845      0.1338E-03 SOLID          1 -64.1%  0.1052E-05  0.4916E-07   0.000      0.3070E-05   0.000      0.5120E-07   0.000    
    1263  0.1846      0.1338E-03 SOLID          1 -64.1%  0.1053E-05  0.4916E-07   0.000      0.3073E-05   0.000      0.5120E-07   0.000    
    1264  0.1848      0.1338E-03 SOLID          1 -64.2%  0.1054E-05  0.4917E-07   0.000      0.3077E-05   0.000      0.5120E-07   0.000    
   CYCLE    TIME      TIME-STEP  ELEMENT          ERROR  I-ENERGY    K-ENERGY T  K-ENERGY R  EXT-WORK     MAS.ERR     TOTAL MASS  MASS ADDED
    1265  0.1849      0.1338E-03 SOLID          1 -64.2%  0.1054E-05  0.4918E-07   0.000      0.3080E-05   0.000      0.5120E-07   0.000    
    1266  0.1850      0.1337E-03 SOLID          1 -64.2%  0.1055E-05  0.4919E-07   0.000      0.3083E-05   0.000      0.5120E-07   0.000    
    1267  0.1852      0.1337E-03 SOLID          1 -64.2%  0.1056E-05  0.4919E-07   0.000      0.3087E-05   0.000      0.5120E-07   0.000    
    1268  0.1853      0.1337E-03 SOLID          1 -64.2%  0.1056E-05  0.4920E-07   0.000      0.3090E-05   0.000      0.5120E-07   0.000    
    1269  0.1854      0.1337E-03 SOLID          1 -64.2%  0.1057E-05  0.4921E-07   0.000      0.3093E-05   0.000      0.5120E-07   0.000    
    1270  0.1856      0.1337E-03 SOLID          1 -64.3%  0.1058E-05  0.4922E-07   0.000      0.3097E-05   0.000      0.5120E-07   0.000    
    1271  0.1857      0.1336E-03 SOLID          1 -64.3%  0.1058E-05  0.4922E-07   0.000      0.3100E-05   0.000      0.5120E-07   0.000    
    1272  0.1858      0.1336E-03 SOLID          1 -64.3%  0.1059E-05  0.4923E-07   0.000      0.3103E-05   0.000      0.5120E-07   0.000    
    1273  0.1860      0.1336E-03 SOLID          1 -64.3%  0.1060E-05  0.4924E-07   0.000      0.3107E-05   0.000      0.5120E-07   0.000    
    1274  0.1861      0.1336E-03 SOLID          1 -64.3%  0.1061E-05  0.4924E-07   0.000      0.3110E-05   0.000      0.5120E-07   0.000    
    1275  0.1862      0.1336E-03 SOLID          1 -64.3%  0.1061E-05  0.4925E-07   0.000      0.3113E-05   0.000      0.5120E-07   0.000    
    1276  0.1864      0.1336E-03 SOLID          1 -64.3%  0.1062E-05  0.4926E-07   0.000      0.3117E-05   0.000      0.5120E-07   0.000    
    1277  0.1865      0.1335E-03 SOLID          1 -64.4%  0.1063E-05  0.4926E-07   0.000      0.3120E-05   0.000      0.5120E-07   0.000    
    1278  0.1866      0.1335E-03 SOLID          1 -64.4%  0.1063E-05  0.4927E-07   0.000      0.3123E-05   0.000      0.5120E-07   0.000    
    1279  0.1868      0.1335E-03 SOLID          1 -64.4%  0.1064E-05  0.4928E-07   0.000      0.3127E-05   0.000      0.5120E-07   0.000    
    1280  0.1869      0.1335E-03 SOLID          1 -64.4%  0.1065E-05  0.4928E-07   0.000      0.3130E-05   0.000      0.5120E-07   0.000    
    1281  0.1870      0.1335E-03 SOLID          1 -64.4%  0.1065E-05  0.4929E-07   0.000      0.3133E-05   0.000      0.5120E-07   0.000    
    1282  0.1872      0.1335E-03 SOLID          1 -64.4%  0.1066E-05  0.4930E-07   0.000      0.3137E-05   0.000      0.5120E-07   0.000    
    1283  0.1873      0.1334E-03 SOLID          1 -64.5%  0.1067E-05  0.4930E-07   0.000      0.3140E-05   0.000      0.5120E-07   0.000    
    1284  0.1874      0.1334E-03 SOLID          1 -64.5%  0.1067E-05  0.4931E-07   0.000      0.3144E-05   0.000      0.5120E-07   0.000    
    1285  0.1876      0.1334E-03 SOLID          1 -64.5%  0.1068E-05  0.4932E-07   0.000      0.3147E-05   0.000      0.5120E-07   0.000    
    1286  0.1877      0.1334E-03 SOLID          1 -64.5%  0.1069E-05  0.4932E-07   0.000      0.3150E-05   0.000      0.5120E-07   0.000    
    1287  0.1878      0.1334E-03 SOLID          1 -64.5%  0.1069E-05  0.4933E-07   0.000      0.3154E-05   0.000      0.5120E-07   0.000    
    1288  0.1880      0.1334E-03 SOLID          1 -64.5%  0.1070E-05  0.4933E-07   0.000      0.3157E-05   0.000      0.5120E-07   0.000    
    1289  0.1881      0.1333E-03 SOLID          1 -64.6%  0.1071E-05  0.4934E-07   0.000      0.3160E-05   0.000      0.5120E-07   0.000    
    1290  0.1882      0.1333E-03 SOLID          1 -64.6%  0.1071E-05  0.4935E-07   0.000      0.3164E-05   0.000      0.5120E-07   0.000    
    1291  0.1884      0.1333E-03 SOLID          1 -64.6%  0.1072E-05  0.4935E-07   0.000      0.3167E-05   0.000      0.5120E-07   0.000    
    1292  0.1885      0.1333E-03 SOLID          1 -64.6%  0.1073E-05  0.4936E-07   0.000      0.3170E-05   0.000      0.5120E-07   0.000    
    1293  0.1886      0.1333E-03 SOLID          1 -64.6%  0.1074E-05  0.4936E-07   0.000      0.3174E-05   0.000      0.5120E-07   0.000    
    1294  0.1888      0.1333E-03 SOLID          1 -64.6%  0.1074E-05  0.4937E-07   0.000      0.3177E-05   0.000      0.5120E-07   0.000    
    1295  0.1889      0.1332E-03 SOLID          1 -64.7%  0.1075E-05  0.4937E-07   0.000      0.3180E-05   0.000      0.5120E-07   0.000    
    1296  0.1890      0.1332E-03 SOLID          1 -64.7%  0.1076E-05  0.4938E-07   0.000      0.3184E-05   0.000      0.5120E-07   0.000    
    1297  0.1892      0.1332E-03 SOLID          1 -64.7%  0.1076E-05  0.4938E-07   0.000      0.3187E-05   0.000      0.5120E-07   0.000    
    1298  0.1893      0.1332E-03 SOLID          1 -64.7%  0.1077E-05  0.4939E-07   0.000      0.3191E-05   0.000      0.5120E-07   0.000    
    1299  0.1894      0.1332E-03 SOLID          1 -64.7%  0.1078E-05  0.4939E-07   0.000      0.3194E-05   0.000      0.5120E-07   0.000    
    1300  0.1896      0.1332E-03 SOLID          1 -64.7%  0.1078E-05  0.4940E-07   0.000      0.3197E-05   0.000      0.5120E-07   0.000    
    1301  0.1897      0.1331E-03 SOLID          1 -64.7%  0.1079E-05  0.4941E-07   0.000      0.3201E-05   0.000      0.5120E-07   0.000    
    1302  0.1898      0.1331E-03 SOLID          1 -64.8%  0.1080E-05  0.4941E-07   0.000      0.3204E-05   0.000      0.5120E-07   0.000    
    1303  0.1900      0.1331E-03 SOLID          1 -64.8%  0.1080E-05  0.4942E-07   0.000      0.3207E-05   0.000      0.5120E-07   0.000    
    1304  0.1901      0.1331E-03 SOLID          1 -64.8%  0.1081E-05  0.4942E-07   0.000      0.3211E-05   0.000      0.5120E-07   0.000    
    1305  0.1902      0.1331E-03 SOLID          1 -64.8%  0.1082E-05  0.4942E-07   0.000      0.3214E-05   0.000      0.5120E-07   0.000    
    1306  0.1904      0.1331E-03 SOLID          1 -64.8%  0.1082E-05  0.4943E-07   0.000      0.3217E-05   0.000      0.5120E-07   0.000    
    1307  0.1905      0.1330E-03 SOLID          1 -64.8%  0.1083E-05  0.4943E-07   0.000      0.3221E-05   0.000      0.5120E-07   0.000    
    1308  0.1906      0.1330E-03 SOLID          1 -64.9%  0.1084E-05  0.4944E-07   0.000      0.3224E-05   0.000      0.5120E-07   0.000    
    1309  0.1908      0.1330E-03 SOLID          1 -64.9%  0.1085E-05  0.4944E-07   0.000      0.3228E-05   0.000      0.5120E-07   0.000    
    1310  0.1909      0.1330E-03 SOLID          1 -64.9%  0.1085E-05  0.4945E-07   0.000      0.3231E-05   0.000      0.5120E-07   0.000    
    1311  0.1910      0.1330E-03 SOLID          1 -64.9%  0.1086E-05  0.4945E-07   0.000      0.3234E-05   0.000      0.5120E-07   0.000    
    1312  0.1912      0.1330E-03 SOLID          1 -64.9%  0.1087E-05  0.4946E-07   0.000      0.3238E-05   0.000      0.5120E-07   0.000    
    1313  0.1913      0.1329E-03 SOLID          1 -64.9%  0.1087E-05  0.4946E-07   0.000      0.3241E-05   0.000      0.5120E-07   0.000    
    1314  0.1914      0.1329E-03 SOLID          1 -64.9%  0.1088E-05  0.4947E-07   0.000      0.3244E-05   0.000      0.5120E-07   0.000    
    1315  0.1916      0.1329E-03 SOLID          1 -65.0%  0.1089E-05  0.4947E-07   0.000      0.3248E-05   0.000      0.5120E-07   0.000    
    1316  0.1917      0.1329E-03 SOLID          1 -65.0%  0.1089E-05  0.4947E-07   0.000      0.3251E-05   0.000      0.5120E-07   0.000    
    1317  0.1918      0.1329E-03 SOLID          1 -65.0%  0.1090E-05  0.4948E-07   0.000      0.3255E-05   0.000      0.5120E-07   0.000    
    1318  0.1920      0.1329E-03 SOLID          1 -65.0%  0.1091E-05  0.4948E-07   0.000      0.3258E-05   0.000      0.5120E-07   0.000    
    1319  0.1921      0.1328E-03 SOLID          1 -65.0%  0.1091E-05  0.4949E-07   0.000      0.3261E-05   0.000      0.5120E-07   0.000    
   CYCLE    TIME      TIME-STEP  ELEMENT          ERROR  I-ENERGY    K-ENERGY T  K-ENERGY R  EXT-WORK     MAS.ERR     TOTAL MASS  MASS ADDED
    1320  0.1922      0.1328E-03 SOLID          1 -65.0%  0.1092E-05  0.4949E-07   0.000      0.3265E-05   0.000      0.5120E-07   0.000    
    1321  0.1924      0.1328E-03 SOLID          1 -65.0%  0.1093E-05  0.4949E-07   0.000      0.3268E-05   0.000      0.5120E-07   0.000    
    1322  0.1925      0.1328E-03 SOLID          1 -65.1%  0.1093E-05  0.4950E-07   0.000      0.3271E-05   0.000      0.5120E-07   0.000    
    1323  0.1926      0.1328E-03 SOLID          1 -65.1%  0.1094E-05  0.4950E-07   0.000      0.3275E-05   0.000      0.5120E-07   0.000    
    1324  0.1928      0.1328E-03 SOLID          1 -65.1%  0.1095E-05  0.4951E-07   0.000      0.3278E-05   0.000      0.5120E-07   0.000    
    1325  0.1929      0.1327E-03 SOLID          1 -65.1%  0.1095E-05  0.4951E-07   0.000      0.3282E-05   0.000      0.5120E-07   0.000    
    1326  0.1930      0.1327E-03 SOLID          1 -65.1%  0.1096E-05  0.4951E-07   0.000      0.3285E-05   0.000      0.5120E-07   0.000    
    1327  0.1932      0.1327E-03 SOLID          1 -65.1%  0.1097E-05  0.4952E-07   0.000      0.3288E-05   0.000      0.5120E-07   0.000    
    1328  0.1933      0.1327E-03 SOLID          1 -65.2%  0.1098E-05  0.4952E-07   0.000      0.3292E-05   0.000      0.5120E-07   0.000    
    1329  0.1934      0.1327E-03 SOLID          1 -65.2%  0.1098E-05  0.4952E-07   0.000      0.3295E-05   0.000      0.5120E-07   0.000    
    1330  0.1936      0.1327E-03 SOLID          1 -65.2%  0.1099E-05  0.4953E-07   0.000      0.3298E-05   0.000      0.5120E-07   0.000    
    1331  0.1937      0.1326E-03 SOLID          1 -65.2%  0.1100E-05  0.4953E-07   0.000      0.3302E-05   0.000      0.5120E-07   0.000    
    1332  0.1938      0.1326E-03 SOLID          1 -65.2%  0.1100E-05  0.4953E-07   0.000      0.3305E-05   0.000      0.5120E-07   0.000    
    1333  0.1940      0.1326E-03 SOLID          1 -65.2%  0.1101E-05  0.4954E-07   0.000      0.3309E-05   0.000      0.5120E-07   0.000    
    1334  0.1941      0.1326E-03 SOLID          1 -65.2%  0.1102E-05  0.4954E-07   0.000      0.3312E-05   0.000      0.5120E-07   0.000    
    1335  0.1942      0.1326E-03 SOLID          1 -65.3%  0.1102E-05  0.4954E-07   0.000      0.3315E-05   0.000      0.5120E-07   0.000    
    1336  0.1944      0.1326E-03 SOLID          1 -65.3%  0.1103E-05  0.4955E-07   0.000      0.3319E-05   0.000      0.5120E-07   0.000    
    1337  0.1945      0.1325E-03 SOLID          1 -65.3%  0.1104E-05  0.4955E-07   0.000      0.3322E-05   0.000      0.5120E-07   0.000    
    1338  0.1946      0.1325E-03 SOLID          1 -65.3%  0.1104E-05  0.4955E-07   0.000      0.3325E-05   0.000      0.5120E-07   0.000    
    1339  0.1947      0.1325E-03 SOLID          1 -65.3%  0.1105E-05  0.4956E-07   0.000      0.3329E-05   0.000      0.5120E-07   0.000    
    1340  0.1949      0.1325E-03 SOLID          1 -65.3%  0.1106E-05  0.4956E-07   0.000      0.3332E-05   0.000      0.5120E-07   0.000    
    1341  0.1950      0.1325E-03 SOLID          1 -65.3%  0.1106E-05  0.4956E-07   0.000      0.3336E-05   0.000      0.5120E-07   0.000    
    1342  0.1951      0.1325E-03 SOLID          1 -65.4%  0.1107E-05  0.4956E-07   0.000      0.3339E-05   0.000      0.5120E-07   0.000    
    1343  0.1953      0.1324E-03 SOLID          1 -65.4%  0.1108E-05  0.4957E-07   0.000      0.3342E-05   0.000      0.5120E-07   0.000    
    1344  0.1954      0.1324E-03 SOLID          1 -65.4%  0.1109E-05  0.4957E-07   0.000      0.3346E-05   0.000      0.5120E-07   0.000    
    1345  0.1955      0.1324E-03 SOLID          1 -65.4%  0.1109E-05  0.4957E-07   0.000      0.3349E-05   0.000      0.5120E-07   0.000    
    1346  0.1957      0.1324E-03 SOLID          1 -65.4%  0.1110E-05  0.4957E-07   0.000      0.3353E-05   0.000      0.5120E-07   0.000    
    1347  0.1958      0.1324E-03 SOLID          1 -65.4%  0.1111E-05  0.4958E-07   0.000      0.3356E-05   0.000      0.5120E-07   0.000    
    1348  0.1959      0.1324E-03 SOLID          1 -65.4%  0.1111E-05  0.4958E-07   0.000      0.3359E-05   0.000      0.5120E-07   0.000    
    1349  0.1961      0.1323E-03 SOLID          1 -65.5%  0.1112E-05  0.4958E-07   0.000      0.3363E-05   0.000      0.5120E-07   0.000    
    1350  0.1962      0.1323E-03 SOLID          1 -65.5%  0.1113E-05  0.4958E-07   0.000      0.3366E-05   0.000      0.5120E-07   0.000    
    1351  0.1963      0.1323E-03 SOLID          1 -65.5%  0.1113E-05  0.4959E-07   0.000      0.3370E-05   0.000      0.5120E-07   0.000    
    1352  0.1965      0.1323E-03 SOLID          1 -65.5%  0.1114E-05  0.4959E-07   0.000      0.3373E-05   0.000      0.5120E-07   0.000    
    1353  0.1966      0.1323E-03 SOLID          1 -65.5%  0.1115E-05  0.4959E-07   0.000      0.3376E-05   0.000      0.5120E-07   0.000    
    1354  0.1967      0.1323E-03 SOLID          1 -65.5%  0.1115E-05  0.4959E-07   0.000      0.3380E-05   0.000      0.5120E-07   0.000    
    1355  0.1969      0.1322E-03 SOLID          1 -65.5%  0.1116E-05  0.4960E-07   0.000      0.3383E-05   0.000      0.5120E-07   0.000    
    1356  0.1970      0.1322E-03 SOLID          1 -65.6%  0.1117E-05  0.4960E-07   0.000      0.3386E-05   0.000      0.5120E-07   0.000    
    1357  0.1971      0.1322E-03 SOLID          1 -65.6%  0.1117E-05  0.4960E-07   0.000      0.3390E-05   0.000      0.5120E-07   0.000    
    1358  0.1973      0.1322E-03 SOLID          1 -65.6%  0.1118E-05  0.4960E-07   0.000      0.3393E-05   0.000      0.5120E-07   0.000    
    1359  0.1974      0.1322E-03 SOLID          1 -65.6%  0.1119E-05  0.4961E-07   0.000      0.3397E-05   0.000      0.5120E-07   0.000    
    1360  0.1975      0.1322E-03 SOLID          1 -65.6%  0.1120E-05  0.4961E-07   0.000      0.3400E-05   0.000      0.5120E-07   0.000    
    1361  0.1977      0.1321E-03 SOLID          1 -65.6%  0.1120E-05  0.4961E-07   0.000      0.3403E-05   0.000      0.5120E-07   0.000    
    1362  0.1978      0.1321E-03 SOLID          1 -65.6%  0.1121E-05  0.4961E-07   0.000      0.3407E-05   0.000      0.5120E-07   0.000    
    1363  0.1979      0.1321E-03 SOLID          1 -65.7%  0.1122E-05  0.4961E-07   0.000      0.3410E-05   0.000      0.5120E-07   0.000    
    1364  0.1981      0.1321E-03 SOLID          1 -65.7%  0.1122E-05  0.4962E-07   0.000      0.3414E-05   0.000      0.5120E-07   0.000    
    1365  0.1982      0.1321E-03 SOLID          1 -65.7%  0.1123E-05  0.4962E-07   0.000      0.3417E-05   0.000      0.5120E-07   0.000    
    1366  0.1983      0.1321E-03 SOLID          1 -65.7%  0.1124E-05  0.4962E-07   0.000      0.3420E-05   0.000      0.5120E-07   0.000    
    1367  0.1985      0.1320E-03 SOLID          1 -65.7%  0.1124E-05  0.4962E-07   0.000      0.3424E-05   0.000      0.5120E-07   0.000    
    1368  0.1986      0.1320E-03 SOLID          1 -65.7%  0.1125E-05  0.4962E-07   0.000      0.3427E-05   0.000      0.5120E-07   0.000    
    1369  0.1987      0.1320E-03 SOLID          1 -65.7%  0.1126E-05  0.4963E-07   0.000      0.3431E-05   0.000      0.5120E-07   0.000    
    1370  0.1988      0.1320E-03 SOLID          1 -65.8%  0.1126E-05  0.4963E-07   0.000      0.3434E-05   0.000      0.5120E-07   0.000    
    1371  0.1990      0.1320E-03 SOLID          1 -65.8%  0.1127E-05  0.4963E-07   0.000      0.3437E-05   0.000      0.5120E-07   0.000    
    1372  0.1991      0.1320E-03 SOLID          1 -65.8%  0.1128E-05  0.4963E-07   0.000      0.3441E-05   0.000      0.5120E-07   0.000    
    1373  0.1992      0.1319E-03 SOLID          1 -65.8%  0.1129E-05  0.4963E-07   0.000      0.3444E-05   0.000      0.5120E-07   0.000    
    1374  0.1994      0.1319E-03 SOLID          1 -65.8%  0.1129E-05  0.4963E-07   0.000      0.3448E-05   0.000      0.5120E-07   0.000    
   CYCLE    TIME      TIME-STEP  ELEMENT          ERROR  I-ENERGY    K-ENERGY T  K-ENERGY R  EXT-WORK     MAS.ERR     TOTAL MASS  MASS ADDED
    1375  0.1995      0.1319E-03 SOLID          1 -65.8%  0.1130E-05  0.4964E-07   0.000      0.3451E-05   0.000      0.5120E-07   0.000    
    1376  0.1996      0.1319E-03 SOLID          1 -65.8%  0.1131E-05  0.4964E-07   0.000      0.3454E-05   0.000      0.5120E-07   0.000    
    1377  0.1998      0.1319E-03 SOLID          1 -65.8%  0.1131E-05  0.4964E-07   0.000      0.3458E-05   0.000      0.5120E-07   0.000    
    1378  0.1999      0.1319E-03 SOLID          1 -65.9%  0.1132E-05  0.4964E-07   0.000      0.3461E-05   0.000      0.5120E-07   0.000    
    1379  0.2000      0.1318E-03 SOLID          1 -65.9%  0.1133E-05  0.4964E-07   0.000      0.3465E-05   0.000      0.5120E-07   0.000    
     ANIMATION FILE: M50BA005 WRITTEN
    1380  0.2002      0.1318E-03 SOLID          1 -65.9%  0.1133E-05  0.4964E-07   0.000      0.3468E-05   0.000      0.5120E-07   0.000    
    1381  0.2003      0.1318E-03 SOLID          1 -65.9%  0.1134E-05  0.4965E-07   0.000      0.3471E-05   0.000      0.5120E-07   0.000    
    1382  0.2004      0.1318E-03 SOLID          1 -65.9%  0.1135E-05  0.4965E-07   0.000      0.3475E-05   0.000      0.5120E-07   0.000    
    1383  0.2006      0.1318E-03 SOLID          1 -65.9%  0.1135E-05  0.4965E-07   0.000      0.3478E-05   0.000      0.5120E-07   0.000    
    1384  0.2007      0.1318E-03 SOLID          1 -65.9%  0.1136E-05  0.4965E-07   0.000      0.3482E-05   0.000      0.5120E-07   0.000    
    1385  0.2008      0.1317E-03 SOLID          1 -66.0%  0.1137E-05  0.4965E-07   0.000      0.3485E-05   0.000      0.5120E-07   0.000    
    1386  0.2010      0.1317E-03 SOLID          1 -66.0%  0.1138E-05  0.4965E-07   0.000      0.3488E-05   0.000      0.5120E-07   0.000    
    1387  0.2011      0.1317E-03 SOLID          1 -66.0%  0.1138E-05  0.4965E-07   0.000      0.3492E-05   0.000      0.5120E-07   0.000    
    1388  0.2012      0.1317E-03 SOLID          1 -66.0%  0.1139E-05  0.4966E-07   0.000      0.3495E-05   0.000      0.5120E-07   0.000    
    1389  0.2014      0.1317E-03 SOLID          1 -66.0%  0.1140E-05  0.4966E-07   0.000      0.3499E-05   0.000      0.5120E-07   0.000    
    1390  0.2015      0.1317E-03 SOLID          1 -66.0%  0.1140E-05  0.4966E-07   0.000      0.3502E-05   0.000      0.5120E-07   0.000    
    1391  0.2016      0.1316E-03 SOLID          1 -66.0%  0.1141E-05  0.4966E-07   0.000      0.3505E-05   0.000      0.5120E-07   0.000    
    1392  0.2017      0.1316E-03 SOLID          1 -66.0%  0.1142E-05  0.4966E-07   0.000      0.3509E-05   0.000      0.5120E-07   0.000    
    1393  0.2019      0.1316E-03 SOLID          1 -66.1%  0.1142E-05  0.4966E-07   0.000      0.3512E-05   0.000      0.5120E-07   0.000    
    1394  0.2020      0.1316E-03 SOLID          1 -66.1%  0.1143E-05  0.4966E-07   0.000      0.3516E-05   0.000      0.5120E-07   0.000    
    1395  0.2021      0.1316E-03 SOLID          1 -66.1%  0.1144E-05  0.4967E-07   0.000      0.3519E-05   0.000      0.5120E-07   0.000    
    1396  0.2023      0.1316E-03 SOLID          1 -66.1%  0.1144E-05  0.4967E-07   0.000      0.3523E-05   0.000      0.5120E-07   0.000    
    1397  0.2024      0.1315E-03 SOLID          1 -66.1%  0.1145E-05  0.4967E-07   0.000      0.3526E-05   0.000      0.5120E-07   0.000    
    1398  0.2025      0.1315E-03 SOLID          1 -66.1%  0.1146E-05  0.4967E-07   0.000      0.3529E-05   0.000      0.5120E-07   0.000    
    1399  0.2027      0.1315E-03 SOLID          1 -66.1%  0.1147E-05  0.4967E-07   0.000      0.3533E-05   0.000      0.5120E-07   0.000    
    1400  0.2028      0.1315E-03 SOLID          1 -66.2%  0.1147E-05  0.4967E-07   0.000      0.3536E-05   0.000      0.5120E-07   0.000    
    1401  0.2029      0.1315E-03 SOLID          1 -66.2%  0.1148E-05  0.4967E-07   0.000      0.3540E-05   0.000      0.5120E-07   0.000    
    1402  0.2031      0.1315E-03 SOLID          1 -66.2%  0.1149E-05  0.4967E-07   0.000      0.3543E-05   0.000      0.5120E-07   0.000    
    1403  0.2032      0.1314E-03 SOLID          1 -66.2%  0.1149E-05  0.4968E-07   0.000      0.3546E-05   0.000      0.5120E-07   0.000    
    1404  0.2033      0.1314E-03 SOLID          1 -66.2%  0.1150E-05  0.4968E-07   0.000      0.3550E-05   0.000      0.5120E-07   0.000    
    1405  0.2035      0.1314E-03 SOLID          1 -66.2%  0.1151E-05  0.4968E-07   0.000      0.3553E-05   0.000      0.5120E-07   0.000    
    1406  0.2036      0.1314E-03 SOLID          1 -66.2%  0.1151E-05  0.4968E-07   0.000      0.3557E-05   0.000      0.5120E-07   0.000    
    1407  0.2037      0.1314E-03 SOLID          1 -66.2%  0.1152E-05  0.4968E-07   0.000      0.3560E-05   0.000      0.5120E-07   0.000    
    1408  0.2039      0.1314E-03 SOLID          1 -66.3%  0.1153E-05  0.4968E-07   0.000      0.3563E-05   0.000      0.5120E-07   0.000    
    1409  0.2040      0.1313E-03 SOLID          1 -66.3%  0.1154E-05  0.4968E-07   0.000      0.3567E-05   0.000      0.5120E-07   0.000    
    1410  0.2041      0.1313E-03 SOLID          1 -66.3%  0.1154E-05  0.4968E-07   0.000      0.3570E-05   0.000      0.5120E-07   0.000    
    1411  0.2042      0.1313E-03 SOLID          1 -66.3%  0.1155E-05  0.4968E-07   0.000      0.3574E-05   0.000      0.5120E-07   0.000    
    1412  0.2044      0.1313E-03 SOLID          1 -66.3%  0.1156E-05  0.4969E-07   0.000      0.3577E-05   0.000      0.5120E-07   0.000    
    1413  0.2045      0.1313E-03 SOLID          1 -66.3%  0.1156E-05  0.4969E-07   0.000      0.3581E-05   0.000      0.5120E-07   0.000    
    1414  0.2046      0.1313E-03 SOLID          1 -66.3%  0.1157E-05  0.4969E-07   0.000      0.3584E-05   0.000      0.5120E-07   0.000    
    1415  0.2048      0.1313E-03 SOLID          1 -66.3%  0.1158E-05  0.4969E-07   0.000      0.3587E-05   0.000      0.5120E-07   0.000    
    1416  0.2049      0.1312E-03 SOLID          1 -66.4%  0.1158E-05  0.4969E-07   0.000      0.3591E-05   0.000      0.5120E-07   0.000    
    1417  0.2050      0.1312E-03 SOLID          1 -66.4%  0.1159E-05  0.4969E-07   0.000      0.3594E-05   0.000      0.5120E-07   0.000    
    1418  0.2052      0.1312E-03 SOLID          1 -66.4%  0.1160E-05  0.4969E-07   0.000      0.3598E-05   0.000      0.5120E-07   0.000    
    1419  0.2053      0.1312E-03 SOLID          1 -66.4%  0.1161E-05  0.4969E-07   0.000      0.3601E-05   0.000      0.5120E-07   0.000    
    1420  0.2054      0.1312E-03 SOLID          1 -66.4%  0.1161E-05  0.4969E-07   0.000      0.3604E-05   0.000      0.5120E-07   0.000    
    1421  0.2056      0.1312E-03 SOLID          1 -66.4%  0.1162E-05  0.4970E-07   0.000      0.3608E-05   0.000      0.5120E-07   0.000    
    1422  0.2057      0.1311E-03 SOLID          1 -66.4%  0.1163E-05  0.4970E-07   0.000      0.3611E-05   0.000      0.5120E-07   0.000    
    1423  0.2058      0.1311E-03 SOLID          1 -66.4%  0.1163E-05  0.4970E-07   0.000      0.3615E-05   0.000      0.5120E-07   0.000    
    1424  0.2060      0.1311E-03 SOLID          1 -66.5%  0.1164E-05  0.4970E-07   0.000      0.3618E-05   0.000      0.5120E-07   0.000    
    1425  0.2061      0.1311E-03 SOLID          1 -66.5%  0.1165E-05  0.4970E-07   0.000      0.3622E-05   0.000      0.5120E-07   0.000    
    1426  0.2062      0.1311E-03 SOLID          1 -66.5%  0.1165E-05  0.4970E-07   0.000      0.3625E-05   0.000      0.5120E-07   0.000    
    1427  0.2063      0.1311E-03 SOLID          1 -66.5%  0.1166E-05  0.4970E-07   0.000      0.3628E-05   0.000      0.5120E-07   0.000    
    1428  0.2065      0.1310E-03 SOLID          1 -66.5%  0.1167E-05  0.4970E-07   0.000      0.3632E-05   0.000      0.5120E-07   0.000    
    1429  0.2066      0.1310E-03 SOLID          1 -66.5%  0.1168E-05  0.4970E-07   0.000      0.3635E-05   0.000      0.5120E-07   0.000    
   CYCLE    TIME      TIME-STEP  ELEMENT          ERROR  I-ENERGY    K-ENERGY T  K-ENERGY R  EXT-WORK     MAS.ERR     TOTAL MASS  MASS ADDED
    1430  0.2067      0.1310E-03 SOLID          1 -66.5%  0.1168E-05  0.4970E-07   0.000      0.3639E-05   0.000      0.5120E-07   0.000    
    1431  0.2069      0.1310E-03 SOLID          1 -66.5%  0.1169E-05  0.4971E-07   0.000      0.3642E-05   0.000      0.5120E-07   0.000    
    1432  0.2070      0.1310E-03 SOLID          1 -66.6%  0.1170E-05  0.4971E-07   0.000      0.3646E-05   0.000      0.5120E-07   0.000    
    1433  0.2071      0.1310E-03 SOLID          1 -66.6%  0.1170E-05  0.4971E-07   0.000      0.3649E-05   0.000      0.5120E-07   0.000    
    1434  0.2073      0.1309E-03 SOLID          1 -66.6%  0.1171E-05  0.4971E-07   0.000      0.3652E-05   0.000      0.5120E-07   0.000    
    1435  0.2074      0.1309E-03 SOLID          1 -66.6%  0.1172E-05  0.4971E-07   0.000      0.3656E-05   0.000      0.5120E-07   0.000    
    1436  0.2075      0.1309E-03 SOLID          1 -66.6%  0.1172E-05  0.4971E-07   0.000      0.3659E-05   0.000      0.5120E-07   0.000    
    1437  0.2077      0.1309E-03 SOLID          1 -66.6%  0.1173E-05  0.4971E-07   0.000      0.3663E-05   0.000      0.5120E-07   0.000    
    1438  0.2078      0.1309E-03 SOLID          1 -66.6%  0.1174E-05  0.4971E-07   0.000      0.3666E-05   0.000      0.5120E-07   0.000    
    1439  0.2079      0.1309E-03 SOLID          1 -66.6%  0.1175E-05  0.4971E-07   0.000      0.3670E-05   0.000      0.5120E-07   0.000    
    1440  0.2080      0.1308E-03 SOLID          1 -66.6%  0.1175E-05  0.4971E-07   0.000      0.3673E-05   0.000      0.5120E-07   0.000    
    1441  0.2082      0.1308E-03 SOLID          1 -66.7%  0.1176E-05  0.4972E-07   0.000      0.3676E-05   0.000      0.5120E-07   0.000    
    1442  0.2083      0.1308E-03 SOLID          1 -66.7%  0.1177E-05  0.4972E-07   0.000      0.3680E-05   0.000      0.5120E-07   0.000    
    1443  0.2084      0.1308E-03 SOLID          1 -66.7%  0.1177E-05  0.4972E-07   0.000      0.3683E-05   0.000      0.5120E-07   0.000    
    1444  0.2086      0.1308E-03 SOLID          1 -66.7%  0.1178E-05  0.4972E-07   0.000      0.3687E-05   0.000      0.5120E-07   0.000    
    1445  0.2087      0.1308E-03 SOLID          1 -66.7%  0.1179E-05  0.4972E-07   0.000      0.3690E-05   0.000      0.5120E-07   0.000    
    1446  0.2088      0.1307E-03 SOLID          1 -66.7%  0.1180E-05  0.4972E-07   0.000      0.3694E-05   0.000      0.5120E-07   0.000    
    1447  0.2090      0.1307E-03 SOLID          1 -66.7%  0.1180E-05  0.4972E-07   0.000      0.3697E-05   0.000      0.5120E-07   0.000    
    1448  0.2091      0.1307E-03 SOLID          1 -66.7%  0.1181E-05  0.4972E-07   0.000      0.3700E-05   0.000      0.5120E-07   0.000    
    1449  0.2092      0.1307E-03 SOLID          1 -66.8%  0.1182E-05  0.4972E-07   0.000      0.3704E-05   0.000      0.5120E-07   0.000    
    1450  0.2094      0.1307E-03 SOLID          1 -66.8%  0.1182E-05  0.4972E-07   0.000      0.3707E-05   0.000      0.5120E-07   0.000    
    1451  0.2095      0.1307E-03 SOLID          1 -66.8%  0.1183E-05  0.4973E-07   0.000      0.3711E-05   0.000      0.5120E-07   0.000    
    1452  0.2096      0.1306E-03 SOLID          1 -66.8%  0.1184E-05  0.4973E-07   0.000      0.3714E-05   0.000      0.5120E-07   0.000    
    1453  0.2097      0.1306E-03 SOLID          1 -66.8%  0.1185E-05  0.4973E-07   0.000      0.3718E-05   0.000      0.5120E-07   0.000    
    1454  0.2099      0.1306E-03 SOLID          1 -66.8%  0.1185E-05  0.4973E-07   0.000      0.3721E-05   0.000      0.5120E-07   0.000    
    1455  0.2100      0.1306E-03 SOLID          1 -66.8%  0.1186E-05  0.4973E-07   0.000      0.3724E-05   0.000      0.5120E-07   0.000    
    1456  0.2101      0.1306E-03 SOLID          1 -66.8%  0.1187E-05  0.4973E-07   0.000      0.3728E-05   0.000      0.5120E-07   0.000    
    1457  0.2103      0.1306E-03 SOLID          1 -66.8%  0.1187E-05  0.4973E-07   0.000      0.3731E-05   0.000      0.5120E-07   0.000    
    1458  0.2104      0.1305E-03 SOLID          1 -66.9%  0.1188E-05  0.4973E-07   0.000      0.3735E-05   0.000      0.5120E-07   0.000    
    1459  0.2105      0.1305E-03 SOLID          1 -66.9%  0.1189E-05  0.4973E-07   0.000      0.3738E-05   0.000      0.5120E-07   0.000    
    1460  0.2107      0.1305E-03 SOLID          1 -66.9%  0.1189E-05  0.4973E-07   0.000      0.3742E-05   0.000      0.5120E-07   0.000    
    1461  0.2108      0.1305E-03 SOLID          1 -66.9%  0.1190E-05  0.4974E-07   0.000      0.3745E-05   0.000      0.5120E-07   0.000    
    1462  0.2109      0.1305E-03 SOLID          1 -66.9%  0.1191E-05  0.4974E-07   0.000      0.3749E-05   0.000      0.5120E-07   0.000    
    1463  0.2111      0.1305E-03 SOLID          1 -66.9%  0.1192E-05  0.4974E-07   0.000      0.3752E-05   0.000      0.5120E-07   0.000    
    1464  0.2112      0.1305E-03 SOLID          1 -66.9%  0.1192E-05  0.4974E-07   0.000      0.3755E-05   0.000      0.5120E-07   0.000    
    1465  0.2113      0.1304E-03 SOLID          1 -66.9%  0.1193E-05  0.4974E-07   0.000      0.3759E-05   0.000      0.5120E-07   0.000    
    1466  0.2114      0.1304E-03 SOLID          1 -66.9%  0.1194E-05  0.4974E-07   0.000      0.3762E-05   0.000      0.5120E-07   0.000    
    1467  0.2116      0.1304E-03 SOLID          1 -67.0%  0.1194E-05  0.4974E-07   0.000      0.3766E-05   0.000      0.5120E-07   0.000    
    1468  0.2117      0.1304E-03 SOLID          1 -67.0%  0.1195E-05  0.4974E-07   0.000      0.3769E-05   0.000      0.5120E-07   0.000    
    1469  0.2118      0.1304E-03 SOLID          1 -67.0%  0.1196E-05  0.4974E-07   0.000      0.3773E-05   0.000      0.5120E-07   0.000    
    1470  0.2120      0.1304E-03 SOLID          1 -67.0%  0.1197E-05  0.4974E-07   0.000      0.3776E-05   0.000      0.5120E-07   0.000    
    1471  0.2121      0.1303E-03 SOLID          1 -67.0%  0.1197E-05  0.4975E-07   0.000      0.3780E-05   0.000      0.5120E-07   0.000    
    1472  0.2122      0.1303E-03 SOLID          1 -67.0%  0.1198E-05  0.4975E-07   0.000      0.3783E-05   0.000      0.5120E-07   0.000    
    1473  0.2124      0.1303E-03 SOLID          1 -67.0%  0.1199E-05  0.4975E-07   0.000      0.3786E-05   0.000      0.5120E-07   0.000    
    1474  0.2125      0.1303E-03 SOLID          1 -67.0%  0.1200E-05  0.4975E-07   0.000      0.3790E-05   0.000      0.5120E-07   0.000    
    1475  0.2126      0.1303E-03 SOLID          1 -67.0%  0.1200E-05  0.4975E-07   0.000      0.3793E-05   0.000      0.5120E-07   0.000    
    1476  0.2127      0.1303E-03 SOLID          1 -67.1%  0.1201E-05  0.4975E-07   0.000      0.3797E-05   0.000      0.5120E-07   0.000    
    1477  0.2129      0.1302E-03 SOLID          1 -67.1%  0.1202E-05  0.4975E-07   0.000      0.3800E-05   0.000      0.5120E-07   0.000    
    1478  0.2130      0.1302E-03 SOLID          1 -67.1%  0.1202E-05  0.4975E-07   0.000      0.3804E-05   0.000      0.5120E-07   0.000    
    1479  0.2131      0.1302E-03 SOLID          1 -67.1%  0.1203E-05  0.4975E-07   0.000      0.3807E-05   0.000      0.5120E-07   0.000    
    1480  0.2133      0.1302E-03 SOLID          1 -67.1%  0.1204E-05  0.4975E-07   0.000      0.3811E-05   0.000      0.5120E-07   0.000    
    1481  0.2134      0.1302E-03 SOLID          1 -67.1%  0.1205E-05  0.4976E-07   0.000      0.3814E-05   0.000      0.5120E-07   0.000    
    1482  0.2135      0.1302E-03 SOLID          1 -67.1%  0.1205E-05  0.4976E-07   0.000      0.3817E-05   0.000      0.5120E-07   0.000    
    1483  0.2137      0.1301E-03 SOLID          1 -67.1%  0.1206E-05  0.4976E-07   0.000      0.3821E-05   0.000      0.5120E-07   0.000    
    1484  0.2138      0.1301E-03 SOLID          1 -67.1%  0.1207E-05  0.4976E-07   0.000      0.3824E-05   0.000      0.5120E-07   0.000    
   CYCLE    TIME      TIME-STEP  ELEMENT          ERROR  I-ENERGY    K-ENERGY T  K-ENERGY R  EXT-WORK     MAS.ERR     TOTAL MASS  MASS ADDED
    1485  0.2139      0.1301E-03 SOLID          1 -67.2%  0.1207E-05  0.4976E-07   0.000      0.3828E-05   0.000      0.5120E-07   0.000    
    1486  0.2140      0.1301E-03 SOLID          1 -67.2%  0.1208E-05  0.4976E-07   0.000      0.3831E-05   0.000      0.5120E-07   0.000    
    1487  0.2142      0.1301E-03 SOLID          1 -67.2%  0.1209E-05  0.4976E-07   0.000      0.3835E-05   0.000      0.5120E-07   0.000    
    1488  0.2143      0.1301E-03 SOLID          1 -67.2%  0.1210E-05  0.4976E-07   0.000      0.3838E-05   0.000      0.5120E-07   0.000    
    1489  0.2144      0.1300E-03 SOLID          1 -67.2%  0.1210E-05  0.4976E-07   0.000      0.3842E-05   0.000      0.5120E-07   0.000    
    1490  0.2146      0.1300E-03 SOLID          1 -67.2%  0.1211E-05  0.4976E-07   0.000      0.3845E-05   0.000      0.5120E-07   0.000    
    1491  0.2147      0.1300E-03 SOLID          1 -67.2%  0.1212E-05  0.4977E-07   0.000      0.3848E-05   0.000      0.5120E-07   0.000    
    1492  0.2148      0.1300E-03 SOLID          1 -67.2%  0.1213E-05  0.4977E-07   0.000      0.3852E-05   0.000      0.5120E-07   0.000    
    1493  0.2150      0.1300E-03 SOLID          1 -67.2%  0.1213E-05  0.4977E-07   0.000      0.3855E-05   0.000      0.5120E-07   0.000    
    1494  0.2151      0.1300E-03 SOLID          1 -67.2%  0.1214E-05  0.4977E-07   0.000      0.3859E-05   0.000      0.5120E-07   0.000    
    1495  0.2152      0.1300E-03 SOLID          1 -67.3%  0.1215E-05  0.4977E-07   0.000      0.3862E-05   0.000      0.5120E-07   0.000    
    1496  0.2153      0.1299E-03 SOLID          1 -67.3%  0.1215E-05  0.4977E-07   0.000      0.3866E-05   0.000      0.5120E-07   0.000    
    1497  0.2155      0.1299E-03 SOLID          1 -67.3%  0.1216E-05  0.4977E-07   0.000      0.3869E-05   0.000      0.5120E-07   0.000    
    1498  0.2156      0.1299E-03 SOLID          1 -67.3%  0.1217E-05  0.4977E-07   0.000      0.3873E-05   0.000      0.5120E-07   0.000    
    1499  0.2157      0.1299E-03 SOLID          1 -67.3%  0.1218E-05  0.4977E-07   0.000      0.3876E-05   0.000      0.5120E-07   0.000    
    1500  0.2159      0.1299E-03 SOLID          1 -67.3%  0.1218E-05  0.4978E-07   0.000      0.3880E-05   0.000      0.5120E-07   0.000    
    1501  0.2160      0.1299E-03 SOLID          1 -67.3%  0.1219E-05  0.4978E-07   0.000      0.3883E-05   0.000      0.5120E-07   0.000    
    1502  0.2161      0.1298E-03 SOLID          1 -67.3%  0.1220E-05  0.4978E-07   0.000      0.3886E-05   0.000      0.5120E-07   0.000    
    1503  0.2163      0.1298E-03 SOLID          1 -67.3%  0.1221E-05  0.4978E-07   0.000      0.3890E-05   0.000      0.5120E-07   0.000    
    1504  0.2164      0.1298E-03 SOLID          1 -67.4%  0.1221E-05  0.4978E-07   0.000      0.3893E-05   0.000      0.5120E-07   0.000    
    1505  0.2165      0.1298E-03 SOLID          1 -67.4%  0.1222E-05  0.4978E-07   0.000      0.3897E-05   0.000      0.5120E-07   0.000    
    1506  0.2166      0.1298E-03 SOLID          1 -67.4%  0.1223E-05  0.4978E-07   0.000      0.3900E-05   0.000      0.5120E-07   0.000    
    1507  0.2168      0.1298E-03 SOLID          1 -67.4%  0.1223E-05  0.4978E-07   0.000      0.3904E-05   0.000      0.5120E-07   0.000    
    1508  0.2169      0.1297E-03 SOLID          1 -67.4%  0.1224E-05  0.4978E-07   0.000      0.3907E-05   0.000      0.5120E-07   0.000    
    1509  0.2170      0.1297E-03 SOLID          1 -67.4%  0.1225E-05  0.4979E-07   0.000      0.3911E-05   0.000      0.5120E-07   0.000    
    1510  0.2172      0.1297E-03 SOLID          1 -67.4%  0.1226E-05  0.4979E-07   0.000      0.3914E-05   0.000      0.5120E-07   0.000    
    1511  0.2173      0.1297E-03 SOLID          1 -67.4%  0.1226E-05  0.4979E-07   0.000      0.3918E-05   0.000      0.5120E-07   0.000    
    1512  0.2174      0.1297E-03 SOLID          1 -67.4%  0.1227E-05  0.4979E-07   0.000      0.3921E-05   0.000      0.5120E-07   0.000    
    1513  0.2176      0.1297E-03 SOLID          1 -67.4%  0.1228E-05  0.4979E-07   0.000      0.3924E-05   0.000      0.5120E-07   0.000    
    1514  0.2177      0.1297E-03 SOLID          1 -67.5%  0.1229E-05  0.4979E-07   0.000      0.3928E-05   0.000      0.5120E-07   0.000    
    1515  0.2178      0.1296E-03 SOLID          1 -67.5%  0.1229E-05  0.4979E-07   0.000      0.3931E-05   0.000      0.5120E-07   0.000    
    1516  0.2179      0.1296E-03 SOLID          1 -67.5%  0.1230E-05  0.4979E-07   0.000      0.3935E-05   0.000      0.5120E-07   0.000    
    1517  0.2181      0.1296E-03 SOLID          1 -67.5%  0.1231E-05  0.4979E-07   0.000      0.3938E-05   0.000      0.5120E-07   0.000    
    1518  0.2182      0.1296E-03 SOLID          1 -67.5%  0.1232E-05  0.4980E-07   0.000      0.3942E-05   0.000      0.5120E-07   0.000    
    1519  0.2183      0.1296E-03 SOLID          1 -67.5%  0.1232E-05  0.4980E-07   0.000      0.3945E-05   0.000      0.5120E-07   0.000    
    1520  0.2185      0.1296E-03 SOLID          1 -67.5%  0.1233E-05  0.4980E-07   0.000      0.3949E-05   0.000      0.5120E-07   0.000    
    1521  0.2186      0.1295E-03 SOLID          1 -67.5%  0.1234E-05  0.4980E-07   0.000      0.3952E-05   0.000      0.5120E-07   0.000    
    1522  0.2187      0.1295E-03 SOLID          1 -67.5%  0.1235E-05  0.4980E-07   0.000      0.3956E-05   0.000      0.5120E-07   0.000    
    1523  0.2189      0.1295E-03 SOLID          1 -67.5%  0.1235E-05  0.4980E-07   0.000      0.3959E-05   0.000      0.5120E-07   0.000    
    1524  0.2190      0.1295E-03 SOLID          1 -67.6%  0.1236E-05  0.4980E-07   0.000      0.3963E-05   0.000      0.5120E-07   0.000    
    1525  0.2191      0.1295E-03 SOLID          1 -67.6%  0.1237E-05  0.4980E-07   0.000      0.3966E-05   0.000      0.5120E-07   0.000    
    1526  0.2192      0.1295E-03 SOLID          1 -67.6%  0.1238E-05  0.4980E-07   0.000      0.3969E-05   0.000      0.5120E-07   0.000    
    1527  0.2194      0.1294E-03 SOLID          1 -67.6%  0.1238E-05  0.4981E-07   0.000      0.3973E-05   0.000      0.5120E-07   0.000    
    1528  0.2195      0.1294E-03 SOLID          1 -67.6%  0.1239E-05  0.4981E-07   0.000      0.3976E-05   0.000      0.5120E-07   0.000    
    1529  0.2196      0.1294E-03 SOLID          1 -67.6%  0.1240E-05  0.4981E-07   0.000      0.3980E-05   0.000      0.5120E-07   0.000    
    1530  0.2198      0.1294E-03 SOLID          1 -67.6%  0.1241E-05  0.4981E-07   0.000      0.3983E-05   0.000      0.5120E-07   0.000    
    1531  0.2199      0.1294E-03 SOLID          1 -67.6%  0.1241E-05  0.4981E-07   0.000      0.3987E-05   0.000      0.5120E-07   0.000    
    1532  0.2200      0.1294E-03 SOLID          1 -67.6%  0.1242E-05  0.4981E-07   0.000      0.3990E-05   0.000      0.5120E-07   0.000    
    1533  0.2201      0.1294E-03 SOLID          1 -67.6%  0.1243E-05  0.4981E-07   0.000      0.3994E-05   0.000      0.5120E-07   0.000    
    1534  0.2203      0.1293E-03 SOLID          1 -67.6%  0.1243E-05  0.4981E-07   0.000      0.3997E-05   0.000      0.5120E-07   0.000    
    1535  0.2204      0.1293E-03 SOLID          1 -67.7%  0.1244E-05  0.4982E-07   0.000      0.4001E-05   0.000      0.5120E-07   0.000    
    1536  0.2205      0.1293E-03 SOLID          1 -67.7%  0.1245E-05  0.4982E-07   0.000      0.4004E-05   0.000      0.5120E-07   0.000    
    1537  0.2207      0.1293E-03 SOLID          1 -67.7%  0.1246E-05  0.4982E-07   0.000      0.4008E-05   0.000      0.5120E-07   0.000    
    1538  0.2208      0.1293E-03 SOLID          1 -67.7%  0.1246E-05  0.4982E-07   0.000      0.4011E-05   0.000      0.5120E-07   0.000    
    1539  0.2209      0.1293E-03 SOLID          1 -67.7%  0.1247E-05  0.4982E-07   0.000      0.4015E-05   0.000      0.5120E-07   0.000    
   CYCLE    TIME      TIME-STEP  ELEMENT          ERROR  I-ENERGY    K-ENERGY T  K-ENERGY R  EXT-WORK     MAS.ERR     TOTAL MASS  MASS ADDED
    1540  0.2211      0.1292E-03 SOLID          1 -67.7%  0.1248E-05  0.4982E-07   0.000      0.4018E-05   0.000      0.5120E-07   0.000    
    1541  0.2212      0.1292E-03 SOLID          1 -67.7%  0.1249E-05  0.4982E-07   0.000      0.4021E-05   0.000      0.5120E-07   0.000    
    1542  0.2213      0.1292E-03 SOLID          1 -67.7%  0.1249E-05  0.4982E-07   0.000      0.4025E-05   0.000      0.5120E-07   0.000    
    1543  0.2214      0.1292E-03 SOLID          1 -67.7%  0.1250E-05  0.4983E-07   0.000      0.4028E-05   0.000      0.5120E-07   0.000    
    1544  0.2216      0.1292E-03 SOLID          1 -67.7%  0.1251E-05  0.4983E-07   0.000      0.4032E-05   0.000      0.5120E-07   0.000    
    1545  0.2217      0.1292E-03 SOLID          1 -67.7%  0.1252E-05  0.4983E-07   0.000      0.4035E-05   0.000      0.5120E-07   0.000    
    1546  0.2218      0.1291E-03 SOLID          1 -67.8%  0.1252E-05  0.4983E-07   0.000      0.4039E-05   0.000      0.5120E-07   0.000    
    1547  0.2220      0.1291E-03 SOLID          1 -67.8%  0.1253E-05  0.4983E-07   0.000      0.4042E-05   0.000      0.5120E-07   0.000    
    1548  0.2221      0.1291E-03 SOLID          1 -67.8%  0.1254E-05  0.4983E-07   0.000      0.4046E-05   0.000      0.5120E-07   0.000    
    1549  0.2222      0.1291E-03 SOLID          1 -67.8%  0.1255E-05  0.4983E-07   0.000      0.4049E-05   0.000      0.5120E-07   0.000    
    1550  0.2223      0.1291E-03 SOLID          1 -67.8%  0.1256E-05  0.4984E-07   0.000      0.4053E-05   0.000      0.5120E-07   0.000    
    1551  0.2225      0.1291E-03 SOLID          1 -67.8%  0.1256E-05  0.4984E-07   0.000      0.4056E-05   0.000      0.5120E-07   0.000    
    1552  0.2226      0.1291E-03 SOLID          1 -67.8%  0.1257E-05  0.4984E-07   0.000      0.4060E-05   0.000      0.5120E-07   0.000    
    1553  0.2227      0.1290E-03 SOLID          1 -67.8%  0.1258E-05  0.4984E-07   0.000      0.4063E-05   0.000      0.5120E-07   0.000    
    1554  0.2229      0.1290E-03 SOLID          1 -67.8%  0.1259E-05  0.4984E-07   0.000      0.4067E-05   0.000      0.5120E-07   0.000    
    1555  0.2230      0.1290E-03 SOLID          1 -67.8%  0.1259E-05  0.4984E-07   0.000      0.4070E-05   0.000      0.5120E-07   0.000    
    1556  0.2231      0.1290E-03 SOLID          1 -67.8%  0.1260E-05  0.4984E-07   0.000      0.4074E-05   0.000      0.5120E-07   0.000    
    1557  0.2232      0.1290E-03 SOLID          1 -67.9%  0.1261E-05  0.4985E-07   0.000      0.4077E-05   0.000      0.5120E-07   0.000    
    1558  0.2234      0.1290E-03 SOLID          1 -67.9%  0.1262E-05  0.4985E-07   0.000      0.4081E-05   0.000      0.5120E-07   0.000    
    1559  0.2235      0.1289E-03 SOLID          1 -67.9%  0.1262E-05  0.4985E-07   0.000      0.4084E-05   0.000      0.5120E-07   0.000    
    1560  0.2236      0.1289E-03 SOLID          1 -67.9%  0.1263E-05  0.4985E-07   0.000      0.4088E-05   0.000      0.5120E-07   0.000    
    1561  0.2238      0.1289E-03 SOLID          1 -67.9%  0.1264E-05  0.4985E-07   0.000      0.4091E-05   0.000      0.5120E-07   0.000    
    1562  0.2239      0.1289E-03 SOLID          1 -67.9%  0.1265E-05  0.4985E-07   0.000      0.4094E-05   0.000      0.5120E-07   0.000    
    1563  0.2240      0.1289E-03 SOLID          1 -67.9%  0.1265E-05  0.4985E-07   0.000      0.4098E-05   0.000      0.5120E-07   0.000    
    1564  0.2241      0.1289E-03 SOLID          1 -67.9%  0.1266E-05  0.4986E-07   0.000      0.4101E-05   0.000      0.5120E-07   0.000    
    1565  0.2243      0.1289E-03 SOLID          1 -67.9%  0.1267E-05  0.4986E-07   0.000      0.4105E-05   0.000      0.5120E-07   0.000    
    1566  0.2244      0.1288E-03 SOLID          1 -67.9%  0.1268E-05  0.4986E-07   0.000      0.4108E-05   0.000      0.5120E-07   0.000    
    1567  0.2245      0.1288E-03 SOLID          1 -67.9%  0.1268E-05  0.4986E-07   0.000      0.4112E-05   0.000      0.5120E-07   0.000    
    1568  0.2247      0.1288E-03 SOLID          1 -67.9%  0.1269E-05  0.4986E-07   0.000      0.4115E-05   0.000      0.5120E-07   0.000    
    1569  0.2248      0.1288E-03 SOLID          1 -68.0%  0.1270E-05  0.4986E-07   0.000      0.4119E-05   0.000      0.5120E-07   0.000    
    1570  0.2249      0.1288E-03 SOLID          1 -68.0%  0.1271E-05  0.4987E-07   0.000      0.4122E-05   0.000      0.5120E-07   0.000    
    1571  0.2251      0.1288E-03 SOLID          1 -68.0%  0.1272E-05  0.4987E-07   0.000      0.4126E-05   0.000      0.5120E-07   0.000    
    1572  0.2252      0.1287E-03 SOLID          1 -68.0%  0.1272E-05  0.4987E-07   0.000      0.4129E-05   0.000      0.5120E-07   0.000    
    1573  0.2253      0.1287E-03 SOLID          1 -68.0%  0.1273E-05  0.4987E-07   0.000      0.4133E-05   0.000      0.5120E-07   0.000    
    1574  0.2254      0.1287E-03 SOLID          1 -68.0%  0.1274E-05  0.4987E-07   0.000      0.4136E-05   0.000      0.5120E-07   0.000    
    1575  0.2256      0.1287E-03 SOLID          1 -68.0%  0.1275E-05  0.4987E-07   0.000      0.4140E-05   0.000      0.5120E-07   0.000    
    1576  0.2257      0.1287E-03 SOLID          1 -68.0%  0.1275E-05  0.4988E-07   0.000      0.4143E-05   0.000      0.5120E-07   0.000    
    1577  0.2258      0.1287E-03 SOLID          1 -68.0%  0.1276E-05  0.4988E-07   0.000      0.4147E-05   0.000      0.5120E-07   0.000    
    1578  0.2260      0.1287E-03 SOLID          1 -68.0%  0.1277E-05  0.4988E-07   0.000      0.4150E-05   0.000      0.5120E-07   0.000    
    1579  0.2261      0.1286E-03 SOLID          1 -68.0%  0.1278E-05  0.4988E-07   0.000      0.4154E-05   0.000      0.5120E-07   0.000    
    1580  0.2262      0.1286E-03 SOLID          1 -68.0%  0.1278E-05  0.4988E-07   0.000      0.4157E-05   0.000      0.5120E-07   0.000    
    1581  0.2263      0.1286E-03 SOLID          1 -68.1%  0.1279E-05  0.4988E-07   0.000      0.4161E-05   0.000      0.5120E-07   0.000    
    1582  0.2265      0.1286E-03 SOLID          1 -68.1%  0.1280E-05  0.4989E-07   0.000      0.4164E-05   0.000      0.5120E-07   0.000    
    1583  0.2266      0.1286E-03 SOLID          1 -68.1%  0.1281E-05  0.4989E-07   0.000      0.4168E-05   0.000      0.5120E-07   0.000    
    1584  0.2267      0.1286E-03 SOLID          1 -68.1%  0.1282E-05  0.4989E-07   0.000      0.4171E-05   0.000      0.5120E-07   0.000    
    1585  0.2269      0.1285E-03 SOLID          1 -68.1%  0.1282E-05  0.4989E-07   0.000      0.4175E-05   0.000      0.5120E-07   0.000    
    1586  0.2270      0.1285E-03 SOLID          1 -68.1%  0.1283E-05  0.4989E-07   0.000      0.4178E-05   0.000      0.5120E-07   0.000    
    1587  0.2271      0.1285E-03 SOLID          1 -68.1%  0.1284E-05  0.4990E-07   0.000      0.4182E-05   0.000      0.5120E-07   0.000    
    1588  0.2272      0.1285E-03 SOLID          1 -68.1%  0.1285E-05  0.4990E-07   0.000      0.4185E-05   0.000      0.5120E-07   0.000    
    1589  0.2274      0.1285E-03 SOLID          1 -68.1%  0.1285E-05  0.4990E-07   0.000      0.4189E-05   0.000      0.5120E-07   0.000    
    1590  0.2275      0.1285E-03 SOLID          1 -68.1%  0.1286E-05  0.4990E-07   0.000      0.4192E-05   0.000      0.5120E-07   0.000    
    1591  0.2276      0.1285E-03 SOLID          1 -68.1%  0.1287E-05  0.4990E-07   0.000      0.4196E-05   0.000      0.5120E-07   0.000    
    1592  0.2278      0.1284E-03 SOLID          1 -68.1%  0.1288E-05  0.4991E-07   0.000      0.4199E-05   0.000      0.5120E-07   0.000    
    1593  0.2279      0.1284E-03 SOLID          1 -68.2%  0.1289E-05  0.4991E-07   0.000      0.4203E-05   0.000      0.5120E-07   0.000    
    1594  0.2280      0.1284E-03 SOLID          1 -68.2%  0.1289E-05  0.4991E-07   0.000      0.4206E-05   0.000      0.5120E-07   0.000    
   CYCLE    TIME      TIME-STEP  ELEMENT          ERROR  I-ENERGY    K-ENERGY T  K-ENERGY R  EXT-WORK     MAS.ERR     TOTAL MASS  MASS ADDED
    1595  0.2281      0.1284E-03 SOLID          1 -68.2%  0.1290E-05  0.4991E-07   0.000      0.4210E-05   0.000      0.5120E-07   0.000    
    1596  0.2283      0.1284E-03 SOLID          1 -68.2%  0.1291E-05  0.4991E-07   0.000      0.4213E-05   0.000      0.5120E-07   0.000    
    1597  0.2284      0.1284E-03 SOLID          1 -68.2%  0.1292E-05  0.4992E-07   0.000      0.4217E-05   0.000      0.5120E-07   0.000    
    1598  0.2285      0.1283E-03 SOLID          1 -68.2%  0.1292E-05  0.4992E-07   0.000      0.4220E-05   0.000      0.5120E-07   0.000    
    1599  0.2287      0.1283E-03 SOLID          1 -68.2%  0.1293E-05  0.4992E-07   0.000      0.4224E-05   0.000      0.5120E-07   0.000    
    1600  0.2288      0.1283E-03 SOLID          1 -68.2%  0.1294E-05  0.4992E-07   0.000      0.4227E-05   0.000      0.5120E-07   0.000    
    1601  0.2289      0.1283E-03 SOLID          1 -68.2%  0.1295E-05  0.4993E-07   0.000      0.4231E-05   0.000      0.5120E-07   0.000    
    1602  0.2290      0.1283E-03 SOLID          1 -68.2%  0.1296E-05  0.4993E-07   0.000      0.4234E-05   0.000      0.5120E-07   0.000    
    1603  0.2292      0.1283E-03 SOLID          1 -68.2%  0.1296E-05  0.4993E-07   0.000      0.4237E-05   0.000      0.5120E-07   0.000    
    1604  0.2293      0.1283E-03 SOLID          1 -68.2%  0.1297E-05  0.4993E-07   0.000      0.4241E-05   0.000      0.5120E-07   0.000    
    1605  0.2294      0.1282E-03 SOLID          1 -68.2%  0.1298E-05  0.4994E-07   0.000      0.4244E-05   0.000      0.5120E-07   0.000    
    1606  0.2295      0.1282E-03 SOLID          1 -68.3%  0.1299E-05  0.4994E-07   0.000      0.4248E-05   0.000      0.5120E-07   0.000    
    1607  0.2297      0.1282E-03 SOLID          1 -68.3%  0.1300E-05  0.4994E-07   0.000      0.4251E-05   0.000      0.5120E-07   0.000    
    1608  0.2298      0.1282E-03 SOLID          1 -68.3%  0.1300E-05  0.4994E-07   0.000      0.4255E-05   0.000      0.5120E-07   0.000    
    1609  0.2299      0.1282E-03 SOLID          1 -68.3%  0.1301E-05  0.4995E-07   0.000      0.4258E-05   0.000      0.5120E-07   0.000    
    1610  0.2301      0.1282E-03 SOLID          1 -68.3%  0.1302E-05  0.4995E-07   0.000      0.4262E-05   0.000      0.5120E-07   0.000    
    1611  0.2302      0.1282E-03 SOLID          1 -68.3%  0.1303E-05  0.4995E-07   0.000      0.4265E-05   0.000      0.5120E-07   0.000    
    1612  0.2303      0.1281E-03 SOLID          1 -68.3%  0.1304E-05  0.4995E-07   0.000      0.4269E-05   0.000      0.5120E-07   0.000    
    1613  0.2304      0.1281E-03 SOLID          1 -68.3%  0.1304E-05  0.4996E-07   0.000      0.4272E-05   0.000      0.5120E-07   0.000    
    1614  0.2306      0.1281E-03 SOLID          1 -68.3%  0.1305E-05  0.4996E-07   0.000      0.4276E-05   0.000      0.5120E-07   0.000    
    1615  0.2307      0.1281E-03 SOLID          1 -68.3%  0.1306E-05  0.4996E-07   0.000      0.4279E-05   0.000      0.5120E-07   0.000    
    1616  0.2308      0.1281E-03 SOLID          1 -68.3%  0.1307E-05  0.4996E-07   0.000      0.4283E-05   0.000      0.5120E-07   0.000    
    1617  0.2310      0.1281E-03 SOLID          1 -68.3%  0.1307E-05  0.4997E-07   0.000      0.4286E-05   0.000      0.5120E-07   0.000    
    1618  0.2311      0.1280E-03 SOLID          1 -68.3%  0.1308E-05  0.4997E-07   0.000      0.4290E-05   0.000      0.5120E-07   0.000    
    1619  0.2312      0.1280E-03 SOLID          1 -68.3%  0.1309E-05  0.4997E-07   0.000      0.4294E-05   0.000      0.5120E-07   0.000    
    1620  0.2313      0.1280E-03 SOLID          1 -68.4%  0.1310E-05  0.4998E-07   0.000      0.4297E-05   0.000      0.5120E-07   0.000    
    1621  0.2315      0.1280E-03 SOLID          1 -68.4%  0.1311E-05  0.4998E-07   0.000      0.4301E-05   0.000      0.5120E-07   0.000    
    1622  0.2316      0.1280E-03 SOLID          1 -68.4%  0.1311E-05  0.4998E-07   0.000      0.4304E-05   0.000      0.5120E-07   0.000    
    1623  0.2317      0.1280E-03 SOLID          1 -68.4%  0.1312E-05  0.4998E-07   0.000      0.4308E-05   0.000      0.5120E-07   0.000    
    1624  0.2319      0.1280E-03 SOLID          1 -68.4%  0.1313E-05  0.4999E-07   0.000      0.4311E-05   0.000      0.5120E-07   0.000    
    1625  0.2320      0.1279E-03 SOLID          1 -68.4%  0.1314E-05  0.4999E-07   0.000      0.4315E-05   0.000      0.5120E-07   0.000    
    1626  0.2321      0.1279E-03 SOLID          1 -68.4%  0.1315E-05  0.4999E-07   0.000      0.4318E-05   0.000      0.5120E-07   0.000    
    1627  0.2322      0.1279E-03 SOLID          1 -68.4%  0.1315E-05  0.5000E-07   0.000      0.4322E-05   0.000      0.5120E-07   0.000    
    1628  0.2324      0.1279E-03 SOLID          1 -68.4%  0.1316E-05  0.5000E-07   0.000      0.4325E-05   0.000      0.5120E-07   0.000    
    1629  0.2325      0.1279E-03 SOLID          1 -68.4%  0.1317E-05  0.5000E-07   0.000      0.4329E-05   0.000      0.5120E-07   0.000    
    1630  0.2326      0.1279E-03 SOLID          1 -68.4%  0.1318E-05  0.5001E-07   0.000      0.4332E-05   0.000      0.5120E-07   0.000    
    1631  0.2327      0.1279E-03 SOLID          1 -68.4%  0.1319E-05  0.5001E-07   0.000      0.4336E-05   0.000      0.5120E-07   0.000    
    1632  0.2329      0.1278E-03 SOLID          1 -68.4%  0.1319E-05  0.5001E-07   0.000      0.4339E-05   0.000      0.5120E-07   0.000    
    1633  0.2330      0.1278E-03 SOLID          1 -68.4%  0.1320E-05  0.5002E-07   0.000      0.4343E-05   0.000      0.5120E-07   0.000    
    1634  0.2331      0.1278E-03 SOLID          1 -68.5%  0.1321E-05  0.5002E-07   0.000      0.4346E-05   0.000      0.5120E-07   0.000    
    1635  0.2333      0.1278E-03 SOLID          1 -68.5%  0.1322E-05  0.5002E-07   0.000      0.4350E-05   0.000      0.5120E-07   0.000    
    1636  0.2334      0.1278E-03 SOLID          1 -68.5%  0.1323E-05  0.5003E-07   0.000      0.4353E-05   0.000      0.5120E-07   0.000    
    1637  0.2335      0.1278E-03 SOLID          1 -68.5%  0.1324E-05  0.5003E-07   0.000      0.4357E-05   0.000      0.5120E-07   0.000    
    1638  0.2336      0.1278E-03 SOLID          1 -68.5%  0.1324E-05  0.5003E-07   0.000      0.4360E-05   0.000      0.5120E-07   0.000    
    1639  0.2338      0.1277E-03 SOLID          1 -68.5%  0.1325E-05  0.5004E-07   0.000      0.4364E-05   0.000      0.5120E-07   0.000    
    1640  0.2339      0.1277E-03 SOLID          1 -68.5%  0.1326E-05  0.5004E-07   0.000      0.4367E-05   0.000      0.5120E-07   0.000    
    1641  0.2340      0.1277E-03 SOLID          1 -68.5%  0.1327E-05  0.5005E-07   0.000      0.4371E-05   0.000      0.5120E-07   0.000    
    1642  0.2342      0.1277E-03 SOLID          1 -68.5%  0.1328E-05  0.5005E-07   0.000      0.4374E-05   0.000      0.5120E-07   0.000    
    1643  0.2343      0.1277E-03 SOLID          1 -68.5%  0.1328E-05  0.5005E-07   0.000      0.4378E-05   0.000      0.5120E-07   0.000    
    1644  0.2344      0.1277E-03 SOLID          1 -68.5%  0.1329E-05  0.5006E-07   0.000      0.4381E-05   0.000      0.5120E-07   0.000    
    1645  0.2345      0.1277E-03 SOLID          1 -68.5%  0.1330E-05  0.5006E-07   0.000      0.4385E-05   0.000      0.5120E-07   0.000    
    1646  0.2347      0.1276E-03 SOLID          1 -68.5%  0.1331E-05  0.5007E-07   0.000      0.4388E-05   0.000      0.5120E-07   0.000    
    1647  0.2348      0.1276E-03 SOLID          1 -68.5%  0.1332E-05  0.5007E-07   0.000      0.4392E-05   0.000      0.5120E-07   0.000    
    1648  0.2349      0.1276E-03 SOLID          1 -68.5%  0.1332E-05  0.5007E-07   0.000      0.4395E-05   0.000      0.5120E-07   0.000    
    1649  0.2350      0.1276E-03 SOLID          1 -68.6%  0.1333E-05  0.5008E-07   0.000      0.4399E-05   0.000      0.5120E-07   0.000    
   CYCLE    TIME      TIME-STEP  ELEMENT          ERROR  I-ENERGY    K-ENERGY T  K-ENERGY R  EXT-WORK     MAS.ERR     TOTAL MASS  MASS ADDED
    1650  0.2352      0.1276E-03 SOLID          1 -68.6%  0.1334E-05  0.5008E-07   0.000      0.4402E-05   0.000      0.5120E-07   0.000    
    1651  0.2353      0.1276E-03 SOLID          1 -68.6%  0.1335E-05  0.5009E-07   0.000      0.4406E-05   0.000      0.5120E-07   0.000    
    1652  0.2354      0.1276E-03 SOLID          1 -68.6%  0.1336E-05  0.5009E-07   0.000      0.4409E-05   0.000      0.5120E-07   0.000    
    1653  0.2356      0.1275E-03 SOLID          1 -68.6%  0.1337E-05  0.5009E-07   0.000      0.4413E-05   0.000      0.5120E-07   0.000    
    1654  0.2357      0.1275E-03 SOLID          1 -68.6%  0.1337E-05  0.5010E-07   0.000      0.4416E-05   0.000      0.5120E-07   0.000    
    1655  0.2358      0.1275E-03 SOLID          1 -68.6%  0.1338E-05  0.5010E-07   0.000      0.4420E-05   0.000      0.5120E-07   0.000    
    1656  0.2359      0.1275E-03 SOLID          1 -68.6%  0.1339E-05  0.5011E-07   0.000      0.4423E-05   0.000      0.5120E-07   0.000    
    1657  0.2361      0.1275E-03 SOLID          1 -68.6%  0.1340E-05  0.5011E-07   0.000      0.4427E-05   0.000      0.5120E-07   0.000    
    1658  0.2362      0.1275E-03 SOLID          1 -68.6%  0.1341E-05  0.5012E-07   0.000      0.4431E-05   0.000      0.5120E-07   0.000    
    1659  0.2363      0.1275E-03 SOLID          1 -68.6%  0.1341E-05  0.5012E-07   0.000      0.4434E-05   0.000      0.5120E-07   0.000    
    1660  0.2365      0.1274E-03 SOLID          1 -68.6%  0.1342E-05  0.5013E-07   0.000      0.4438E-05   0.000      0.5120E-07   0.000    
    1661  0.2366      0.1274E-03 SOLID          1 -68.6%  0.1343E-05  0.5013E-07   0.000      0.4441E-05   0.000      0.5120E-07   0.000    
    1662  0.2367      0.1274E-03 SOLID          1 -68.6%  0.1344E-05  0.5013E-07   0.000      0.4445E-05   0.000      0.5120E-07   0.000    
    1663  0.2368      0.1274E-03 SOLID          1 -68.6%  0.1345E-05  0.5014E-07   0.000      0.4448E-05   0.000      0.5120E-07   0.000    
    1664  0.2370      0.1274E-03 SOLID          1 -68.6%  0.1346E-05  0.5014E-07   0.000      0.4452E-05   0.000      0.5120E-07   0.000    
    1665  0.2371      0.1274E-03 SOLID          1 -68.7%  0.1346E-05  0.5015E-07   0.000      0.4455E-05   0.000      0.5120E-07   0.000    
    1666  0.2372      0.1274E-03 SOLID          1 -68.7%  0.1347E-05  0.5015E-07   0.000      0.4459E-05   0.000      0.5120E-07   0.000    
    1667  0.2373      0.1273E-03 SOLID          1 -68.7%  0.1348E-05  0.5016E-07   0.000      0.4462E-05   0.000      0.5120E-07   0.000    
    1668  0.2375      0.1273E-03 SOLID          1 -68.7%  0.1349E-05  0.5016E-07   0.000      0.4466E-05   0.000      0.5120E-07   0.000    
    1669  0.2376      0.1273E-03 SOLID          1 -68.7%  0.1350E-05  0.5017E-07   0.000      0.4469E-05   0.000      0.5120E-07   0.000    
    1670  0.2377      0.1273E-03 SOLID          1 -68.7%  0.1351E-05  0.5017E-07   0.000      0.4473E-05   0.000      0.5120E-07   0.000    
    1671  0.2379      0.1273E-03 SOLID          1 -68.7%  0.1351E-05  0.5018E-07   0.000      0.4476E-05   0.000      0.5120E-07   0.000    
    1672  0.2380      0.1273E-03 SOLID          1 -68.7%  0.1352E-05  0.5018E-07   0.000      0.4480E-05   0.000      0.5120E-07   0.000    
    1673  0.2381      0.1273E-03 SOLID          1 -68.7%  0.1353E-05  0.5019E-07   0.000      0.4483E-05   0.000      0.5120E-07   0.000    
    1674  0.2382      0.1272E-03 SOLID          1 -68.7%  0.1354E-05  0.5019E-07   0.000      0.4487E-05   0.000      0.5120E-07   0.000    
    1675  0.2384      0.1272E-03 SOLID          1 -68.7%  0.1355E-05  0.5020E-07   0.000      0.4490E-05   0.000      0.5120E-07   0.000    
    1676  0.2385      0.1272E-03 SOLID          1 -68.7%  0.1355E-05  0.5020E-07   0.000      0.4494E-05   0.000      0.5120E-07   0.000    
    1677  0.2386      0.1272E-03 SOLID          1 -68.7%  0.1356E-05  0.5021E-07   0.000      0.4497E-05   0.000      0.5120E-07   0.000    
    1678  0.2387      0.1272E-03 SOLID          1 -68.7%  0.1357E-05  0.5022E-07   0.000      0.4501E-05   0.000      0.5120E-07   0.000    
    1679  0.2389      0.1272E-03 SOLID          1 -68.7%  0.1358E-05  0.5022E-07   0.000      0.4505E-05   0.000      0.5120E-07   0.000    
    1680  0.2390      0.1272E-03 SOLID          1 -68.7%  0.1359E-05  0.5023E-07   0.000      0.4508E-05   0.000      0.5120E-07   0.000    
    1681  0.2391      0.1271E-03 SOLID          1 -68.7%  0.1360E-05  0.5023E-07   0.000      0.4512E-05   0.000      0.5120E-07   0.000    
    1682  0.2393      0.1271E-03 SOLID          1 -68.8%  0.1360E-05  0.5024E-07   0.000      0.4515E-05   0.000      0.5120E-07   0.000    
    1683  0.2394      0.1271E-03 SOLID          1 -68.8%  0.1361E-05  0.5024E-07   0.000      0.4519E-05   0.000      0.5120E-07   0.000    
    1684  0.2395      0.1271E-03 SOLID          1 -68.8%  0.1362E-05  0.5025E-07   0.000      0.4522E-05   0.000      0.5120E-07   0.000    
    1685  0.2396      0.1271E-03 SOLID          1 -68.8%  0.1363E-05  0.5025E-07   0.000      0.4526E-05   0.000      0.5120E-07   0.000    
    1686  0.2398      0.1271E-03 SOLID          1 -68.8%  0.1364E-05  0.5026E-07   0.000      0.4529E-05   0.000      0.5120E-07   0.000    
    1687  0.2399      0.1271E-03 SOLID          1 -68.8%  0.1365E-05  0.5027E-07   0.000      0.4533E-05   0.000      0.5120E-07   0.000    
    1688  0.2400      0.1270E-03 SOLID          1 -68.8%  0.1366E-05  0.5027E-07   0.000      0.4536E-05   0.000      0.5120E-07   0.000    
    1689  0.2401      0.1270E-03 SOLID          1 -68.8%  0.1366E-05  0.5028E-07   0.000      0.4540E-05   0.000      0.5120E-07   0.000    
    1690  0.2403      0.1270E-03 SOLID          1 -68.8%  0.1367E-05  0.5028E-07   0.000      0.4543E-05   0.000      0.5120E-07   0.000    
    1691  0.2404      0.1270E-03 SOLID          1 -68.8%  0.1368E-05  0.5029E-07   0.000      0.4547E-05   0.000      0.5120E-07   0.000    
    1692  0.2405      0.1270E-03 SOLID          1 -68.8%  0.1369E-05  0.5030E-07   0.000      0.4551E-05   0.000      0.5120E-07   0.000    
    1693  0.2406      0.1270E-03 SOLID          1 -68.8%  0.1370E-05  0.5030E-07   0.000      0.4554E-05   0.000      0.5120E-07   0.000    
    1694  0.2408      0.1270E-03 SOLID          1 -68.8%  0.1371E-05  0.5031E-07   0.000      0.4558E-05   0.000      0.5120E-07   0.000    
    1695  0.2409      0.1269E-03 SOLID          1 -68.8%  0.1371E-05  0.5031E-07   0.000      0.4561E-05   0.000      0.5120E-07   0.000    
    1696  0.2410      0.1269E-03 SOLID          1 -68.8%  0.1372E-05  0.5032E-07   0.000      0.4565E-05   0.000      0.5120E-07   0.000    
    1697  0.2412      0.1269E-03 SOLID          1 -68.8%  0.1373E-05  0.5033E-07   0.000      0.4568E-05   0.000      0.5120E-07   0.000    
    1698  0.2413      0.1269E-03 SOLID          1 -68.8%  0.1374E-05  0.5033E-07   0.000      0.4572E-05   0.000      0.5120E-07   0.000    
    1699  0.2414      0.1269E-03 SOLID          1 -68.9%  0.1375E-05  0.5034E-07   0.000      0.4575E-05   0.000      0.5120E-07   0.000    
    1700  0.2415      0.1269E-03 SOLID          1 -68.9%  0.1376E-05  0.5034E-07   0.000      0.4579E-05   0.000      0.5120E-07   0.000    
    1701  0.2417      0.1269E-03 SOLID          1 -68.9%  0.1376E-05  0.5035E-07   0.000      0.4582E-05   0.000      0.5120E-07   0.000    
    1702  0.2418      0.1268E-03 SOLID          1 -68.9%  0.1377E-05  0.5036E-07   0.000      0.4586E-05   0.000      0.5120E-07   0.000    
    1703  0.2419      0.1268E-03 SOLID          1 -68.9%  0.1378E-05  0.5036E-07   0.000      0.4589E-05   0.000      0.5120E-07   0.000    
    1704  0.2420      0.1268E-03 SOLID          1 -68.9%  0.1379E-05  0.5037E-07   0.000      0.4593E-05   0.000      0.5120E-07   0.000    
   CYCLE    TIME      TIME-STEP  ELEMENT          ERROR  I-ENERGY    K-ENERGY T  K-ENERGY R  EXT-WORK     MAS.ERR     TOTAL MASS  MASS ADDED
    1705  0.2422      0.1268E-03 SOLID          1 -68.9%  0.1380E-05  0.5038E-07   0.000      0.4597E-05   0.000      0.5120E-07   0.000    
    1706  0.2423      0.1268E-03 SOLID          1 -68.9%  0.1381E-05  0.5038E-07   0.000      0.4600E-05   0.000      0.5120E-07   0.000    
    1707  0.2424      0.1268E-03 SOLID          1 -68.9%  0.1382E-05  0.5039E-07   0.000      0.4604E-05   0.000      0.5120E-07   0.000    
    1708  0.2426      0.1268E-03 SOLID          1 -68.9%  0.1382E-05  0.5040E-07   0.000      0.4607E-05   0.000      0.5120E-07   0.000    
    1709  0.2427      0.1267E-03 SOLID          1 -68.9%  0.1383E-05  0.5040E-07   0.000      0.4611E-05   0.000      0.5120E-07   0.000    
    1710  0.2428      0.1267E-03 SOLID          1 -68.9%  0.1384E-05  0.5041E-07   0.000      0.4614E-05   0.000      0.5120E-07   0.000    
    1711  0.2429      0.1267E-03 SOLID          1 -68.9%  0.1385E-05  0.5042E-07   0.000      0.4618E-05   0.000      0.5120E-07   0.000    
    1712  0.2431      0.1267E-03 SOLID          1 -68.9%  0.1386E-05  0.5042E-07   0.000      0.4621E-05   0.000      0.5120E-07   0.000    
    1713  0.2432      0.1267E-03 SOLID          1 -68.9%  0.1387E-05  0.5043E-07   0.000      0.4625E-05   0.000      0.5120E-07   0.000    
    1714  0.2433      0.1267E-03 SOLID          1 -68.9%  0.1388E-05  0.5044E-07   0.000      0.4628E-05   0.000      0.5120E-07   0.000    
    1715  0.2434      0.1267E-03 SOLID          1 -68.9%  0.1388E-05  0.5044E-07   0.000      0.4632E-05   0.000      0.5120E-07   0.000    
    1716  0.2436      0.1267E-03 SOLID          1 -68.9%  0.1389E-05  0.5045E-07   0.000      0.4636E-05   0.000      0.5120E-07   0.000    
    1717  0.2437      0.1266E-03 SOLID          1 -68.9%  0.1390E-05  0.5046E-07   0.000      0.4639E-05   0.000      0.5120E-07   0.000    
    1718  0.2438      0.1266E-03 SOLID          1 -69.0%  0.1391E-05  0.5047E-07   0.000      0.4643E-05   0.000      0.5120E-07   0.000    
    1719  0.2439      0.1266E-03 SOLID          1 -69.0%  0.1392E-05  0.5047E-07   0.000      0.4646E-05   0.000      0.5120E-07   0.000    
    1720  0.2441      0.1266E-03 SOLID          1 -69.0%  0.1393E-05  0.5048E-07   0.000      0.4650E-05   0.000      0.5120E-07   0.000    
    1721  0.2442      0.1266E-03 SOLID          1 -69.0%  0.1394E-05  0.5049E-07   0.000      0.4653E-05   0.000      0.5120E-07   0.000    
    1722  0.2443      0.1266E-03 SOLID          1 -69.0%  0.1394E-05  0.5049E-07   0.000      0.4657E-05   0.000      0.5120E-07   0.000    
    1723  0.2445      0.1266E-03 SOLID          1 -69.0%  0.1395E-05  0.5050E-07   0.000      0.4660E-05   0.000      0.5120E-07   0.000    
    1724  0.2446      0.1265E-03 SOLID          1 -69.0%  0.1396E-05  0.5051E-07   0.000      0.4664E-05   0.000      0.5120E-07   0.000    
    1725  0.2447      0.1265E-03 SOLID          1 -69.0%  0.1397E-05  0.5052E-07   0.000      0.4668E-05   0.000      0.5120E-07   0.000    
    1726  0.2448      0.1265E-03 SOLID          1 -69.0%  0.1398E-05  0.5052E-07   0.000      0.4671E-05   0.000      0.5120E-07   0.000    
    1727  0.2450      0.1265E-03 SOLID          1 -69.0%  0.1399E-05  0.5053E-07   0.000      0.4675E-05   0.000      0.5120E-07   0.000    
    1728  0.2451      0.1265E-03 SOLID          1 -69.0%  0.1400E-05  0.5054E-07   0.000      0.4678E-05   0.000      0.5120E-07   0.000    
    1729  0.2452      0.1265E-03 SOLID          1 -69.0%  0.1400E-05  0.5054E-07   0.000      0.4682E-05   0.000      0.5120E-07   0.000    
    1730  0.2453      0.1265E-03 SOLID          1 -69.0%  0.1401E-05  0.5055E-07   0.000      0.4685E-05   0.000      0.5120E-07   0.000    
    1731  0.2455      0.1264E-03 SOLID          1 -69.0%  0.1402E-05  0.5056E-07   0.000      0.4689E-05   0.000      0.5120E-07   0.000    
    1732  0.2456      0.1264E-03 SOLID          1 -69.0%  0.1403E-05  0.5057E-07   0.000      0.4692E-05   0.000      0.5120E-07   0.000    
    1733  0.2457      0.1264E-03 SOLID          1 -69.0%  0.1404E-05  0.5057E-07   0.000      0.4696E-05   0.000      0.5120E-07   0.000    
    1734  0.2458      0.1264E-03 SOLID          1 -69.0%  0.1405E-05  0.5058E-07   0.000      0.4700E-05   0.000      0.5120E-07   0.000    
    1735  0.2460      0.1264E-03 SOLID          1 -69.0%  0.1406E-05  0.5059E-07   0.000      0.4703E-05   0.000      0.5120E-07   0.000    
    1736  0.2461      0.1264E-03 SOLID          1 -69.0%  0.1406E-05  0.5060E-07   0.000      0.4707E-05   0.000      0.5120E-07   0.000    
    1737  0.2462      0.1264E-03 SOLID          1 -69.0%  0.1407E-05  0.5060E-07   0.000      0.4710E-05   0.000      0.5120E-07   0.000    
    1738  0.2463      0.1264E-03 SOLID          1 -69.1%  0.1408E-05  0.5061E-07   0.000      0.4714E-05   0.000      0.5120E-07   0.000    
    1739  0.2465      0.1263E-03 SOLID          1 -69.1%  0.1409E-05  0.5062E-07   0.000      0.4717E-05   0.000      0.5120E-07   0.000    
    1740  0.2466      0.1263E-03 SOLID          1 -69.1%  0.1410E-05  0.5063E-07   0.000      0.4721E-05   0.000      0.5120E-07   0.000    
    1741  0.2467      0.1263E-03 SOLID          1 -69.1%  0.1411E-05  0.5063E-07   0.000      0.4724E-05   0.000      0.5120E-07   0.000    
    1742  0.2469      0.1263E-03 SOLID          1 -69.1%  0.1412E-05  0.5064E-07   0.000      0.4728E-05   0.000      0.5120E-07   0.000    
    1743  0.2470      0.1263E-03 SOLID          1 -69.1%  0.1413E-05  0.5065E-07   0.000      0.4732E-05   0.000      0.5120E-07   0.000    
    1744  0.2471      0.1263E-03 SOLID          1 -69.1%  0.1413E-05  0.5066E-07   0.000      0.4735E-05   0.000      0.5120E-07   0.000    
    1745  0.2472      0.1263E-03 SOLID          1 -69.1%  0.1414E-05  0.5067E-07   0.000      0.4739E-05   0.000      0.5120E-07   0.000    
    1746  0.2474      0.1262E-03 SOLID          1 -69.1%  0.1415E-05  0.5067E-07   0.000      0.4742E-05   0.000      0.5120E-07   0.000    
    1747  0.2475      0.1262E-03 SOLID          1 -69.1%  0.1416E-05  0.5068E-07   0.000      0.4746E-05   0.000      0.5120E-07   0.000    
    1748  0.2476      0.1262E-03 SOLID          1 -69.1%  0.1417E-05  0.5069E-07   0.000      0.4749E-05   0.000      0.5120E-07   0.000    
    1749  0.2477      0.1262E-03 SOLID          1 -69.1%  0.1418E-05  0.5070E-07   0.000      0.4753E-05   0.000      0.5120E-07   0.000    
    1750  0.2479      0.1262E-03 SOLID          1 -69.1%  0.1419E-05  0.5070E-07   0.000      0.4757E-05   0.000      0.5120E-07   0.000    
    1751  0.2480      0.1262E-03 SOLID          1 -69.1%  0.1420E-05  0.5071E-07   0.000      0.4760E-05   0.000      0.5120E-07   0.000    
    1752  0.2481      0.1262E-03 SOLID          1 -69.1%  0.1420E-05  0.5072E-07   0.000      0.4764E-05   0.000      0.5120E-07   0.000    
    1753  0.2482      0.1262E-03 SOLID          1 -69.1%  0.1421E-05  0.5073E-07   0.000      0.4767E-05   0.000      0.5120E-07   0.000    
    1754  0.2484      0.1261E-03 SOLID          1 -69.1%  0.1422E-05  0.5074E-07   0.000      0.4771E-05   0.000      0.5120E-07   0.000    
    1755  0.2485      0.1261E-03 SOLID          1 -69.1%  0.1423E-05  0.5074E-07   0.000      0.4774E-05   0.000      0.5120E-07   0.000    
    1756  0.2486      0.1261E-03 SOLID          1 -69.1%  0.1424E-05  0.5075E-07   0.000      0.4778E-05   0.000      0.5120E-07   0.000    
    1757  0.2487      0.1261E-03 SOLID          1 -69.1%  0.1425E-05  0.5076E-07   0.000      0.4781E-05   0.000      0.5120E-07   0.000    
    1758  0.2489      0.1261E-03 SOLID          1 -69.1%  0.1426E-05  0.5077E-07   0.000      0.4785E-05   0.000      0.5120E-07   0.000    
    1759  0.2490      0.1261E-03 SOLID          1 -69.1%  0.1427E-05  0.5077E-07   0.000      0.4789E-05   0.000      0.5120E-07   0.000    
   CYCLE    TIME      TIME-STEP  ELEMENT          ERROR  I-ENERGY    K-ENERGY T  K-ENERGY R  EXT-WORK     MAS.ERR     TOTAL MASS  MASS ADDED
    1760  0.2491      0.1261E-03 SOLID          1 -69.2%  0.1427E-05  0.5078E-07   0.000      0.4792E-05   0.000      0.5120E-07   0.000    
    1761  0.2493      0.1260E-03 SOLID          1 -69.2%  0.1428E-05  0.5079E-07   0.000      0.4796E-05   0.000      0.5120E-07   0.000    
    1762  0.2494      0.1260E-03 SOLID          1 -69.2%  0.1429E-05  0.5080E-07   0.000      0.4799E-05   0.000      0.5120E-07   0.000    
    1763  0.2495      0.1260E-03 SOLID          1 -69.2%  0.1430E-05  0.5081E-07   0.000      0.4803E-05   0.000      0.5120E-07   0.000    
    1764  0.2496      0.1260E-03 SOLID          1 -69.2%  0.1431E-05  0.5081E-07   0.000      0.4806E-05   0.000      0.5120E-07   0.000    
    1765  0.2498      0.1260E-03 SOLID          1 -69.2%  0.1432E-05  0.5082E-07   0.000      0.4810E-05   0.000      0.5120E-07   0.000    
    1766  0.2499      0.1260E-03 SOLID          1 -69.2%  0.1433E-05  0.5083E-07   0.000      0.4814E-05   0.000      0.5120E-07   0.000    
    1767  0.2500      0.1260E-03 SOLID          1 -69.2%  0.1434E-05  0.5084E-07   0.000      0.4817E-05   0.000      0.5120E-07   0.000    
     ANIMATION FILE: M50BA006 WRITTEN
    1768  0.2501      0.1260E-03 SOLID          1 -69.2%  0.1435E-05  0.5084E-07   0.000      0.4821E-05   0.000      0.5120E-07   0.000    
    1769  0.2503      0.1259E-03 SOLID          1 -69.2%  0.1435E-05  0.5085E-07   0.000      0.4824E-05   0.000      0.5120E-07   0.000    
    1770  0.2504      0.1259E-03 SOLID          1 -69.2%  0.1436E-05  0.5086E-07   0.000      0.4828E-05   0.000      0.5120E-07   0.000    
    1771  0.2505      0.1259E-03 SOLID          1 -69.2%  0.1437E-05  0.5087E-07   0.000      0.4832E-05   0.000      0.5120E-07   0.000    
    1772  0.2506      0.1259E-03 SOLID          1 -69.2%  0.1438E-05  0.5088E-07   0.000      0.4835E-05   0.000      0.5120E-07   0.000    
    1773  0.2508      0.1259E-03 SOLID          1 -69.2%  0.1439E-05  0.5088E-07   0.000      0.4839E-05   0.000      0.5120E-07   0.000    
    1774  0.2509      0.1259E-03 SOLID          1 -69.2%  0.1440E-05  0.5089E-07   0.000      0.4842E-05   0.000      0.5120E-07   0.000    
    1775  0.2510      0.1259E-03 SOLID          1 -69.2%  0.1441E-05  0.5090E-07   0.000      0.4846E-05   0.000      0.5120E-07   0.000    
    1776  0.2511      0.1259E-03 SOLID          1 -69.2%  0.1442E-05  0.5091E-07   0.000      0.4849E-05   0.000      0.5120E-07   0.000    
    1777  0.2513      0.1258E-03 SOLID          1 -69.2%  0.1443E-05  0.5091E-07   0.000      0.4853E-05   0.000      0.5120E-07   0.000    
    1778  0.2514      0.1258E-03 SOLID          1 -69.2%  0.1443E-05  0.5092E-07   0.000      0.4857E-05   0.000      0.5120E-07   0.000    
    1779  0.2515      0.1258E-03 SOLID          1 -69.2%  0.1444E-05  0.5093E-07   0.000      0.4860E-05   0.000      0.5120E-07   0.000    
    1780  0.2516      0.1258E-03 SOLID          1 -69.2%  0.1445E-05  0.5094E-07   0.000      0.4864E-05   0.000      0.5120E-07   0.000    
    1781  0.2518      0.1258E-03 SOLID          1 -69.2%  0.1446E-05  0.5095E-07   0.000      0.4867E-05   0.000      0.5120E-07   0.000    
    1782  0.2519      0.1258E-03 SOLID          1 -69.2%  0.1447E-05  0.5095E-07   0.000      0.4871E-05   0.000      0.5120E-07   0.000    
    1783  0.2520      0.1258E-03 SOLID          1 -69.3%  0.1448E-05  0.5096E-07   0.000      0.4874E-05   0.000      0.5120E-07   0.000    
    1784  0.2521      0.1257E-03 SOLID          1 -69.3%  0.1449E-05  0.5097E-07   0.000      0.4878E-05   0.000      0.5120E-07   0.000    
    1785  0.2523      0.1257E-03 SOLID          1 -69.3%  0.1450E-05  0.5098E-07   0.000      0.4882E-05   0.000      0.5120E-07   0.000    
    1786  0.2524      0.1257E-03 SOLID          1 -69.3%  0.1451E-05  0.5098E-07   0.000      0.4885E-05   0.000      0.5120E-07   0.000    
    1787  0.2525      0.1257E-03 SOLID          1 -69.3%  0.1452E-05  0.5099E-07   0.000      0.4889E-05   0.000      0.5120E-07   0.000    
    1788  0.2527      0.1257E-03 SOLID          1 -69.3%  0.1452E-05  0.5100E-07   0.000      0.4892E-05   0.000      0.5120E-07   0.000    
    1789  0.2528      0.1257E-03 SOLID          1 -69.3%  0.1453E-05  0.5101E-07   0.000      0.4896E-05   0.000      0.5120E-07   0.000    
    1790  0.2529      0.1257E-03 SOLID          1 -69.3%  0.1454E-05  0.5101E-07   0.000      0.4900E-05   0.000      0.5120E-07   0.000    
    1791  0.2530      0.1257E-03 SOLID          1 -69.3%  0.1455E-05  0.5102E-07   0.000      0.4903E-05   0.000      0.5120E-07   0.000    
    1792  0.2532      0.1256E-03 SOLID          1 -69.3%  0.1456E-05  0.5103E-07   0.000      0.4907E-05   0.000      0.5120E-07   0.000    
    1793  0.2533      0.1256E-03 SOLID          1 -69.3%  0.1457E-05  0.5104E-07   0.000      0.4910E-05   0.000      0.5120E-07   0.000    
    1794  0.2534      0.1256E-03 SOLID          1 -69.3%  0.1458E-05  0.5104E-07   0.000      0.4914E-05   0.000      0.5120E-07   0.000    
    1795  0.2535      0.1256E-03 SOLID          1 -69.3%  0.1459E-05  0.5105E-07   0.000      0.4918E-05   0.000      0.5120E-07   0.000    
    1796  0.2537      0.1256E-03 SOLID          1 -69.3%  0.1460E-05  0.5106E-07   0.000      0.4921E-05   0.000      0.5120E-07   0.000    
    1797  0.2538      0.1256E-03 SOLID          1 -69.3%  0.1461E-05  0.5106E-07   0.000      0.4925E-05   0.000      0.5120E-07   0.000    
    1798  0.2539      0.1256E-03 SOLID          1 -69.3%  0.1461E-05  0.5107E-07   0.000      0.4928E-05   0.000      0.5120E-07   0.000    
    1799  0.2540      0.1256E-03 SOLID          1 -69.3%  0.1462E-05  0.5108E-07   0.000      0.4932E-05   0.000      0.5120E-07   0.000    
    1800  0.2542      0.1255E-03 SOLID          1 -69.3%  0.1463E-05  0.5109E-07   0.000      0.4935E-05   0.000      0.5120E-07   0.000    
    1801  0.2543      0.1255E-03 SOLID          1 -69.3%  0.1464E-05  0.5109E-07   0.000      0.4939E-05   0.000      0.5120E-07   0.000    
    1802  0.2544      0.1255E-03 SOLID          1 -69.3%  0.1465E-05  0.5110E-07   0.000      0.4943E-05   0.000      0.5120E-07   0.000    
    1803  0.2545      0.1255E-03 SOLID          1 -69.3%  0.1466E-05  0.5111E-07   0.000      0.4946E-05   0.000      0.5120E-07   0.000    
    1804  0.2547      0.1255E-03 SOLID          1 -69.3%  0.1467E-05  0.5111E-07   0.000      0.4950E-05   0.000      0.5120E-07   0.000    
    1805  0.2548      0.1255E-03 SOLID          1 -69.3%  0.1468E-05  0.5112E-07   0.000      0.4953E-05   0.000      0.5120E-07   0.000    
    1806  0.2549      0.1255E-03 SOLID          1 -69.3%  0.1469E-05  0.5113E-07   0.000      0.4957E-05   0.000      0.5120E-07   0.000    
    1807  0.2550      0.1255E-03 SOLID          1 -69.3%  0.1470E-05  0.5113E-07   0.000      0.4961E-05   0.000      0.5120E-07   0.000    
    1808  0.2552      0.1254E-03 SOLID          1 -69.3%  0.1471E-05  0.5114E-07   0.000      0.4964E-05   0.000      0.5120E-07   0.000    
    1809  0.2553      0.1254E-03 SOLID          1 -69.4%  0.1471E-05  0.5115E-07   0.000      0.4968E-05   0.000      0.5120E-07   0.000    
    1810  0.2554      0.1254E-03 SOLID          1 -69.4%  0.1472E-05  0.5116E-07   0.000      0.4971E-05   0.000      0.5120E-07   0.000    
    1811  0.2555      0.1254E-03 SOLID          1 -69.4%  0.1473E-05  0.5116E-07   0.000      0.4975E-05   0.000      0.5120E-07   0.000    
    1812  0.2557      0.1254E-03 SOLID          1 -69.4%  0.1474E-05  0.5117E-07   0.000      0.4979E-05   0.000      0.5120E-07   0.000    
    1813  0.2558      0.1254E-03 SOLID          1 -69.4%  0.1475E-05  0.5118E-07   0.000      0.4982E-05   0.000      0.5120E-07   0.000    
    1814  0.2559      0.1254E-03 SOLID          1 -69.4%  0.1476E-05  0.5118E-07   0.000      0.4986E-05   0.000      0.5120E-07   0.000    
   CYCLE    TIME      TIME-STEP  ELEMENT          ERROR  I-ENERGY    K-ENERGY T  K-ENERGY R  EXT-WORK     MAS.ERR     TOTAL MASS  MASS ADDED
    1815  0.2560      0.1254E-03 SOLID          1 -69.4%  0.1477E-05  0.5119E-07   0.000      0.4989E-05   0.000      0.5120E-07   0.000    
    1816  0.2562      0.1253E-03 SOLID          1 -69.4%  0.1478E-05  0.5119E-07   0.000      0.4993E-05   0.000      0.5120E-07   0.000    
    1817  0.2563      0.1253E-03 SOLID          1 -69.4%  0.1479E-05  0.5120E-07   0.000      0.4997E-05   0.000      0.5120E-07   0.000    
    1818  0.2564      0.1253E-03 SOLID          1 -69.4%  0.1480E-05  0.5121E-07   0.000      0.5000E-05   0.000      0.5120E-07   0.000    
    1819  0.2565      0.1253E-03 SOLID          1 -69.4%  0.1481E-05  0.5121E-07   0.000      0.5004E-05   0.000      0.5120E-07   0.000    
    1820  0.2567      0.1253E-03 SOLID          1 -69.4%  0.1482E-05  0.5122E-07   0.000      0.5007E-05   0.000      0.5120E-07   0.000    
    1821  0.2568      0.1253E-03 SOLID          1 -69.4%  0.1482E-05  0.5123E-07   0.000      0.5011E-05   0.000      0.5120E-07   0.000    
    1822  0.2569      0.1253E-03 SOLID          1 -69.4%  0.1483E-05  0.5123E-07   0.000      0.5015E-05   0.000      0.5120E-07   0.000    
    1823  0.2570      0.1253E-03 SOLID          1 -69.4%  0.1484E-05  0.5124E-07   0.000      0.5018E-05   0.000      0.5120E-07   0.000    
    1824  0.2572      0.1252E-03 SOLID          1 -69.4%  0.1485E-05  0.5124E-07   0.000      0.5022E-05   0.000      0.5120E-07   0.000    
    1825  0.2573      0.1252E-03 SOLID          1 -69.4%  0.1486E-05  0.5125E-07   0.000      0.5025E-05   0.000      0.5120E-07   0.000    
    1826  0.2574      0.1252E-03 SOLID          1 -69.4%  0.1487E-05  0.5126E-07   0.000      0.5029E-05   0.000      0.5120E-07   0.000    
    1827  0.2575      0.1252E-03 SOLID          1 -69.4%  0.1488E-05  0.5126E-07   0.000      0.5033E-05   0.000      0.5120E-07   0.000    
    1828  0.2577      0.1252E-03 SOLID          1 -69.4%  0.1489E-05  0.5127E-07   0.000      0.5036E-05   0.000      0.5120E-07   0.000    
    1829  0.2578      0.1252E-03 SOLID          1 -69.4%  0.1490E-05  0.5127E-07   0.000      0.5040E-05   0.000      0.5120E-07   0.000    
    1830  0.2579      0.1252E-03 SOLID          1 -69.4%  0.1491E-05  0.5128E-07   0.000      0.5044E-05   0.000      0.5120E-07   0.000    
    1831  0.2580      0.1252E-03 SOLID          1 -69.4%  0.1492E-05  0.5129E-07   0.000      0.5047E-05   0.000      0.5120E-07   0.000    
    1832  0.2582      0.1251E-03 SOLID          1 -69.4%  0.1493E-05  0.5129E-07   0.000      0.5051E-05   0.000      0.5120E-07   0.000    
    1833  0.2583      0.1251E-03 SOLID          1 -69.4%  0.1494E-05  0.5130E-07   0.000      0.5054E-05   0.000      0.5120E-07   0.000    
    1834  0.2584      0.1251E-03 SOLID          1 -69.4%  0.1495E-05  0.5130E-07   0.000      0.5058E-05   0.000      0.5120E-07   0.000    
    1835  0.2585      0.1251E-03 SOLID          1 -69.4%  0.1495E-05  0.5131E-07   0.000      0.5062E-05   0.000      0.5120E-07   0.000    
    1836  0.2587      0.1251E-03 SOLID          1 -69.4%  0.1496E-05  0.5131E-07   0.000      0.5065E-05   0.000      0.5120E-07   0.000    
    1837  0.2588      0.1251E-03 SOLID          1 -69.4%  0.1497E-05  0.5132E-07   0.000      0.5069E-05   0.000      0.5120E-07   0.000    
    1838  0.2589      0.1251E-03 SOLID          1 -69.5%  0.1498E-05  0.5132E-07   0.000      0.5072E-05   0.000      0.5120E-07   0.000    
    1839  0.2590      0.1251E-03 SOLID          1 -69.5%  0.1499E-05  0.5133E-07   0.000      0.5076E-05   0.000      0.5120E-07   0.000    
    1840  0.2592      0.1250E-03 SOLID          1 -69.5%  0.1500E-05  0.5133E-07   0.000      0.5080E-05   0.000      0.5120E-07   0.000    
    1841  0.2593      0.1250E-03 SOLID          1 -69.5%  0.1501E-05  0.5134E-07   0.000      0.5083E-05   0.000      0.5120E-07   0.000    
    1842  0.2594      0.1250E-03 SOLID          1 -69.5%  0.1502E-05  0.5134E-07   0.000      0.5087E-05   0.000      0.5120E-07   0.000    
    1843  0.2595      0.1250E-03 SOLID          1 -69.5%  0.1503E-05  0.5135E-07   0.000      0.5090E-05   0.000      0.5120E-07   0.000    
    1844  0.2597      0.1250E-03 SOLID          1 -69.5%  0.1504E-05  0.5135E-07   0.000      0.5094E-05   0.000      0.5120E-07   0.000    
    1845  0.2598      0.1250E-03 SOLID          1 -69.5%  0.1505E-05  0.5136E-07   0.000      0.5098E-05   0.000      0.5120E-07   0.000    
    1846  0.2599      0.1250E-03 SOLID          1 -69.5%  0.1506E-05  0.5136E-07   0.000      0.5101E-05   0.000      0.5120E-07   0.000    
    1847  0.2600      0.1250E-03 SOLID          1 -69.5%  0.1507E-05  0.5137E-07   0.000      0.5105E-05   0.000      0.5120E-07   0.000    
    1848  0.2602      0.1249E-03 SOLID          1 -69.5%  0.1508E-05  0.5137E-07   0.000      0.5109E-05   0.000      0.5120E-07   0.000    
    1849  0.2603      0.1249E-03 SOLID          1 -69.5%  0.1509E-05  0.5138E-07   0.000      0.5112E-05   0.000      0.5120E-07   0.000    
    1850  0.2604      0.1249E-03 SOLID          1 -69.5%  0.1509E-05  0.5138E-07   0.000      0.5116E-05   0.000      0.5120E-07   0.000    
    1851  0.2605      0.1249E-03 SOLID          1 -69.5%  0.1510E-05  0.5138E-07   0.000      0.5119E-05   0.000      0.5120E-07   0.000    
    1852  0.2607      0.1249E-03 SOLID          1 -69.5%  0.1511E-05  0.5139E-07   0.000      0.5123E-05   0.000      0.5120E-07   0.000    
    1853  0.2608      0.1249E-03 SOLID          1 -69.5%  0.1512E-05  0.5139E-07   0.000      0.5127E-05   0.000      0.5120E-07   0.000    
    1854  0.2609      0.1249E-03 SOLID          1 -69.5%  0.1513E-05  0.5140E-07   0.000      0.5130E-05   0.000      0.5120E-07   0.000    
    1855  0.2610      0.1249E-03 SOLID          1 -69.5%  0.1514E-05  0.5140E-07   0.000      0.5134E-05   0.000      0.5120E-07   0.000    
    1856  0.2612      0.1248E-03 SOLID          1 -69.5%  0.1515E-05  0.5140E-07   0.000      0.5138E-05   0.000      0.5120E-07   0.000    
    1857  0.2613      0.1248E-03 SOLID          1 -69.5%  0.1516E-05  0.5141E-07   0.000      0.5141E-05   0.000      0.5120E-07   0.000    
    1858  0.2614      0.1248E-03 SOLID          1 -69.5%  0.1517E-05  0.5141E-07   0.000      0.5145E-05   0.000      0.5120E-07   0.000    
    1859  0.2615      0.1248E-03 SOLID          1 -69.5%  0.1518E-05  0.5142E-07   0.000      0.5148E-05   0.000      0.5120E-07   0.000    
    1860  0.2617      0.1248E-03 SOLID          1 -69.5%  0.1519E-05  0.5142E-07   0.000      0.5152E-05   0.000      0.5120E-07   0.000    
    1861  0.2618      0.1248E-03 SOLID          1 -69.5%  0.1520E-05  0.5142E-07   0.000      0.5156E-05   0.000      0.5120E-07   0.000    
    1862  0.2619      0.1248E-03 SOLID          1 -69.5%  0.1521E-05  0.5143E-07   0.000      0.5159E-05   0.000      0.5120E-07   0.000    
    1863  0.2620      0.1248E-03 SOLID          1 -69.5%  0.1522E-05  0.5143E-07   0.000      0.5163E-05   0.000      0.5120E-07   0.000    
    1864  0.2622      0.1247E-03 SOLID          1 -69.5%  0.1523E-05  0.5143E-07   0.000      0.5167E-05   0.000      0.5120E-07   0.000    
    1865  0.2623      0.1247E-03 SOLID          1 -69.5%  0.1524E-05  0.5144E-07   0.000      0.5170E-05   0.000      0.5120E-07   0.000    
    1866  0.2624      0.1247E-03 SOLID          1 -69.5%  0.1525E-05  0.5144E-07   0.000      0.5174E-05   0.000      0.5120E-07   0.000    
    1867  0.2625      0.1247E-03 SOLID          1 -69.5%  0.1526E-05  0.5144E-07   0.000      0.5177E-05   0.000      0.5120E-07   0.000    
    1868  0.2627      0.1247E-03 SOLID          1 -69.5%  0.1527E-05  0.5145E-07   0.000      0.5181E-05   0.000      0.5120E-07   0.000    
    1869  0.2628      0.1247E-03 SOLID          1 -69.5%  0.1527E-05  0.5145E-07   0.000      0.5185E-05   0.000      0.5120E-07   0.000    
   CYCLE    TIME      TIME-STEP  ELEMENT          ERROR  I-ENERGY    K-ENERGY T  K-ENERGY R  EXT-WORK     MAS.ERR     TOTAL MASS  MASS ADDED
    1870  0.2629      0.1247E-03 SOLID          1 -69.5%  0.1528E-05  0.5145E-07   0.000      0.5188E-05   0.000      0.5120E-07   0.000    
    1871  0.2630      0.1247E-03 SOLID          1 -69.6%  0.1529E-05  0.5145E-07   0.000      0.5192E-05   0.000      0.5120E-07   0.000    
    1872  0.2632      0.1246E-03 SOLID          1 -69.6%  0.1530E-05  0.5146E-07   0.000      0.5196E-05   0.000      0.5120E-07   0.000    
    1873  0.2633      0.1246E-03 SOLID          1 -69.6%  0.1531E-05  0.5146E-07   0.000      0.5199E-05   0.000      0.5120E-07   0.000    
    1874  0.2634      0.1246E-03 SOLID          1 -69.6%  0.1532E-05  0.5146E-07   0.000      0.5203E-05   0.000      0.5120E-07   0.000    
    1875  0.2635      0.1246E-03 SOLID          1 -69.6%  0.1533E-05  0.5146E-07   0.000      0.5207E-05   0.000      0.5120E-07   0.000    
    1876  0.2637      0.1246E-03 SOLID          1 -69.6%  0.1534E-05  0.5147E-07   0.000      0.5210E-05   0.000      0.5120E-07   0.000    
    1877  0.2638      0.1246E-03 SOLID          1 -69.6%  0.1535E-05  0.5147E-07   0.000      0.5214E-05   0.000      0.5120E-07   0.000    
    1878  0.2639      0.1246E-03 SOLID          1 -69.6%  0.1536E-05  0.5147E-07   0.000      0.5217E-05   0.000      0.5120E-07   0.000    
    1879  0.2640      0.1246E-03 SOLID          1 -69.6%  0.1537E-05  0.5147E-07   0.000      0.5221E-05   0.000      0.5120E-07   0.000    
    1880  0.2642      0.1245E-03 SOLID          1 -69.6%  0.1538E-05  0.5147E-07   0.000      0.5225E-05   0.000      0.5120E-07   0.000    
    1881  0.2643      0.1245E-03 SOLID          1 -69.6%  0.1539E-05  0.5148E-07   0.000      0.5228E-05   0.000      0.5120E-07   0.000    
    1882  0.2644      0.1245E-03 SOLID          1 -69.6%  0.1540E-05  0.5148E-07   0.000      0.5232E-05   0.000      0.5120E-07   0.000    
    1883  0.2645      0.1245E-03 SOLID          1 -69.6%  0.1541E-05  0.5148E-07   0.000      0.5236E-05   0.000      0.5120E-07   0.000    
    1884  0.2647      0.1245E-03 SOLID          1 -69.6%  0.1542E-05  0.5148E-07   0.000      0.5239E-05   0.000      0.5120E-07   0.000    
    1885  0.2648      0.1245E-03 SOLID          1 -69.6%  0.1543E-05  0.5148E-07   0.000      0.5243E-05   0.000      0.5120E-07   0.000    
    1886  0.2649      0.1245E-03 SOLID          1 -69.6%  0.1544E-05  0.5148E-07   0.000      0.5247E-05   0.000      0.5120E-07   0.000    
    1887  0.2650      0.1245E-03 SOLID          1 -69.6%  0.1545E-05  0.5149E-07   0.000      0.5250E-05   0.000      0.5120E-07   0.000    
    1888  0.2652      0.1245E-03 SOLID          1 -69.6%  0.1546E-05  0.5149E-07   0.000      0.5254E-05   0.000      0.5120E-07   0.000    
    1889  0.2653      0.1244E-03 SOLID          1 -69.6%  0.1547E-05  0.5149E-07   0.000      0.5257E-05   0.000      0.5120E-07   0.000    
    1890  0.2654      0.1244E-03 SOLID          1 -69.6%  0.1548E-05  0.5149E-07   0.000      0.5261E-05   0.000      0.5120E-07   0.000    
    1891  0.2655      0.1244E-03 SOLID          1 -69.6%  0.1549E-05  0.5149E-07   0.000      0.5265E-05   0.000      0.5120E-07   0.000    
    1892  0.2657      0.1244E-03 SOLID          1 -69.6%  0.1550E-05  0.5149E-07   0.000      0.5268E-05   0.000      0.5120E-07   0.000    
    1893  0.2658      0.1244E-03 SOLID          1 -69.6%  0.1551E-05  0.5149E-07   0.000      0.5272E-05   0.000      0.5120E-07   0.000    
    1894  0.2659      0.1244E-03 SOLID          1 -69.6%  0.1552E-05  0.5149E-07   0.000      0.5276E-05   0.000      0.5120E-07   0.000    
    1895  0.2660      0.1244E-03 SOLID          1 -69.6%  0.1553E-05  0.5149E-07   0.000      0.5279E-05   0.000      0.5120E-07   0.000    
    1896  0.2662      0.1244E-03 SOLID          1 -69.6%  0.1554E-05  0.5149E-07   0.000      0.5283E-05   0.000      0.5120E-07   0.000    
    1897  0.2663      0.1243E-03 SOLID          1 -69.6%  0.1554E-05  0.5150E-07   0.000      0.5287E-05   0.000      0.5120E-07   0.000    
    1898  0.2664      0.1243E-03 SOLID          1 -69.6%  0.1555E-05  0.5150E-07   0.000      0.5290E-05   0.000      0.5120E-07   0.000    
    1899  0.2665      0.1243E-03 SOLID          1 -69.6%  0.1556E-05  0.5150E-07   0.000      0.5294E-05   0.000      0.5120E-07   0.000    
    1900  0.2667      0.1243E-03 SOLID          1 -69.6%  0.1557E-05  0.5150E-07   0.000      0.5298E-05   0.000      0.5120E-07   0.000    
    1901  0.2668      0.1243E-03 SOLID          1 -69.6%  0.1558E-05  0.5150E-07   0.000      0.5301E-05   0.000      0.5120E-07   0.000    
    1902  0.2669      0.1243E-03 SOLID          1 -69.6%  0.1559E-05  0.5150E-07   0.000      0.5305E-05   0.000      0.5120E-07   0.000    
    1903  0.2670      0.1243E-03 SOLID          1 -69.6%  0.1560E-05  0.5150E-07   0.000      0.5308E-05   0.000      0.5120E-07   0.000    
    1904  0.2671      0.1243E-03 SOLID          1 -69.6%  0.1561E-05  0.5150E-07   0.000      0.5312E-05   0.000      0.5120E-07   0.000    
    1905  0.2673      0.1242E-03 SOLID          1 -69.6%  0.1562E-05  0.5150E-07   0.000      0.5316E-05   0.000      0.5120E-07   0.000    
    1906  0.2674      0.1242E-03 SOLID          1 -69.6%  0.1563E-05  0.5150E-07   0.000      0.5319E-05   0.000      0.5120E-07   0.000    
    1907  0.2675      0.1242E-03 SOLID          1 -69.6%  0.1564E-05  0.5150E-07   0.000      0.5323E-05   0.000      0.5120E-07   0.000    
    1908  0.2676      0.1242E-03 SOLID          1 -69.6%  0.1565E-05  0.5150E-07   0.000      0.5327E-05   0.000      0.5120E-07   0.000    
    1909  0.2678      0.1242E-03 SOLID          1 -69.7%  0.1566E-05  0.5150E-07   0.000      0.5330E-05   0.000      0.5120E-07   0.000    
    1910  0.2679      0.1242E-03 SOLID          1 -69.7%  0.1567E-05  0.5150E-07   0.000      0.5334E-05   0.000      0.5120E-07   0.000    
    1911  0.2680      0.1242E-03 SOLID          1 -69.7%  0.1568E-05  0.5149E-07   0.000      0.5338E-05   0.000      0.5120E-07   0.000    
    1912  0.2681      0.1242E-03 SOLID          1 -69.7%  0.1569E-05  0.5149E-07   0.000      0.5341E-05   0.000      0.5120E-07   0.000    
    1913  0.2683      0.1242E-03 SOLID          1 -69.7%  0.1570E-05  0.5149E-07   0.000      0.5345E-05   0.000      0.5120E-07   0.000    
    1914  0.2684      0.1241E-03 SOLID          1 -69.7%  0.1571E-05  0.5149E-07   0.000      0.5349E-05   0.000      0.5120E-07   0.000    
    1915  0.2685      0.1241E-03 SOLID          1 -69.7%  0.1572E-05  0.5149E-07   0.000      0.5352E-05   0.000      0.5120E-07   0.000    
    1916  0.2686      0.1241E-03 SOLID          1 -69.7%  0.1573E-05  0.5149E-07   0.000      0.5356E-05   0.000      0.5120E-07   0.000    
    1917  0.2688      0.1241E-03 SOLID          1 -69.7%  0.1574E-05  0.5149E-07   0.000      0.5360E-05   0.000      0.5120E-07   0.000    
    1918  0.2689      0.1241E-03 SOLID          1 -69.7%  0.1575E-05  0.5149E-07   0.000      0.5363E-05   0.000      0.5120E-07   0.000    
    1919  0.2690      0.1241E-03 SOLID          1 -69.7%  0.1576E-05  0.5149E-07   0.000      0.5367E-05   0.000      0.5120E-07   0.000    
    1920  0.2691      0.1241E-03 SOLID          1 -69.7%  0.1577E-05  0.5149E-07   0.000      0.5371E-05   0.000      0.5120E-07   0.000    
    1921  0.2693      0.1241E-03 SOLID          1 -69.7%  0.1578E-05  0.5148E-07   0.000      0.5374E-05   0.000      0.5120E-07   0.000    
    1922  0.2694      0.1240E-03 SOLID          1 -69.7%  0.1579E-05  0.5148E-07   0.000      0.5378E-05   0.000      0.5120E-07   0.000    
    1923  0.2695      0.1240E-03 SOLID          1 -69.7%  0.1580E-05  0.5148E-07   0.000      0.5382E-05   0.000      0.5120E-07   0.000    
    1924  0.2696      0.1240E-03 SOLID          1 -69.7%  0.1581E-05  0.5148E-07   0.000      0.5385E-05   0.000      0.5120E-07   0.000    
   CYCLE    TIME      TIME-STEP  ELEMENT          ERROR  I-ENERGY    K-ENERGY T  K-ENERGY R  EXT-WORK     MAS.ERR     TOTAL MASS  MASS ADDED
    1925  0.2698      0.1240E-03 SOLID          1 -69.7%  0.1582E-05  0.5148E-07   0.000      0.5389E-05   0.000      0.5120E-07   0.000    
    1926  0.2699      0.1240E-03 SOLID          1 -69.7%  0.1583E-05  0.5148E-07   0.000      0.5393E-05   0.000      0.5120E-07   0.000    
    1927  0.2700      0.1240E-03 SOLID          1 -69.7%  0.1584E-05  0.5147E-07   0.000      0.5396E-05   0.000      0.5120E-07   0.000    
    1928  0.2701      0.1240E-03 SOLID          1 -69.7%  0.1585E-05  0.5147E-07   0.000      0.5400E-05   0.000      0.5120E-07   0.000    
    1929  0.2703      0.1240E-03 SOLID          1 -69.7%  0.1586E-05  0.5147E-07   0.000      0.5404E-05   0.000      0.5120E-07   0.000    
    1930  0.2704      0.1239E-03 SOLID          1 -69.7%  0.1587E-05  0.5147E-07   0.000      0.5407E-05   0.000      0.5120E-07   0.000    
    1931  0.2705      0.1239E-03 SOLID          1 -69.7%  0.1588E-05  0.5147E-07   0.000      0.5411E-05   0.000      0.5120E-07   0.000    
    1932  0.2706      0.1239E-03 SOLID          1 -69.7%  0.1589E-05  0.5146E-07   0.000      0.5415E-05   0.000      0.5120E-07   0.000    
    1933  0.2707      0.1239E-03 SOLID          1 -69.7%  0.1590E-05  0.5146E-07   0.000      0.5418E-05   0.000      0.5120E-07   0.000    
    1934  0.2709      0.1239E-03 SOLID          1 -69.7%  0.1591E-05  0.5146E-07   0.000      0.5422E-05   0.000      0.5120E-07   0.000    
    1935  0.2710      0.1239E-03 SOLID          1 -69.7%  0.1592E-05  0.5146E-07   0.000      0.5426E-05   0.000      0.5120E-07   0.000    
    1936  0.2711      0.1239E-03 SOLID          1 -69.7%  0.1593E-05  0.5146E-07   0.000      0.5429E-05   0.000      0.5120E-07   0.000    
    1937  0.2712      0.1239E-03 SOLID          1 -69.7%  0.1594E-05  0.5145E-07   0.000      0.5433E-05   0.000      0.5120E-07   0.000    
    1938  0.2714      0.1239E-03 SOLID          1 -69.7%  0.1595E-05  0.5145E-07   0.000      0.5437E-05   0.000      0.5120E-07   0.000    
    1939  0.2715      0.1238E-03 SOLID          1 -69.7%  0.1596E-05  0.5145E-07   0.000      0.5440E-05   0.000      0.5120E-07   0.000    
    1940  0.2716      0.1238E-03 SOLID          1 -69.7%  0.1597E-05  0.5144E-07   0.000      0.5444E-05   0.000      0.5120E-07   0.000    
    1941  0.2717      0.1238E-03 SOLID          1 -69.7%  0.1598E-05  0.5144E-07   0.000      0.5448E-05   0.000      0.5120E-07   0.000    
    1942  0.2719      0.1238E-03 SOLID          1 -69.7%  0.1599E-05  0.5144E-07   0.000      0.5451E-05   0.000      0.5120E-07   0.000    
    1943  0.2720      0.1238E-03 SOLID          1 -69.7%  0.1600E-05  0.5144E-07   0.000      0.5455E-05   0.000      0.5120E-07   0.000    
    1944  0.2721      0.1238E-03 SOLID          1 -69.7%  0.1601E-05  0.5143E-07   0.000      0.5459E-05   0.000      0.5120E-07   0.000    
    1945  0.2722      0.1238E-03 SOLID          1 -69.7%  0.1602E-05  0.5143E-07   0.000      0.5462E-05   0.000      0.5120E-07   0.000    
    1946  0.2724      0.1238E-03 SOLID          1 -69.7%  0.1603E-05  0.5143E-07   0.000      0.5466E-05   0.000      0.5120E-07   0.000    
    1947  0.2725      0.1237E-03 SOLID          1 -69.7%  0.1604E-05  0.5142E-07   0.000      0.5470E-05   0.000      0.5120E-07   0.000    
    1948  0.2726      0.1237E-03 SOLID          1 -69.7%  0.1605E-05  0.5142E-07   0.000      0.5473E-05   0.000      0.5120E-07   0.000    
    1949  0.2727      0.1237E-03 SOLID          1 -69.7%  0.1606E-05  0.5142E-07   0.000      0.5477E-05   0.000      0.5120E-07   0.000    
    1950  0.2729      0.1237E-03 SOLID          1 -69.7%  0.1607E-05  0.5141E-07   0.000      0.5481E-05   0.000      0.5120E-07   0.000    
    1951  0.2730      0.1237E-03 SOLID          1 -69.7%  0.1608E-05  0.5141E-07   0.000      0.5484E-05   0.000      0.5120E-07   0.000    
    1952  0.2731      0.1237E-03 SOLID          1 -69.7%  0.1609E-05  0.5141E-07   0.000      0.5488E-05   0.000      0.5120E-07   0.000    
    1953  0.2732      0.1237E-03 SOLID          1 -69.7%  0.1610E-05  0.5140E-07   0.000      0.5492E-05   0.000      0.5120E-07   0.000    
    1954  0.2733      0.1237E-03 SOLID          1 -69.7%  0.1611E-05  0.5140E-07   0.000      0.5495E-05   0.000      0.5120E-07   0.000    
    1955  0.2735      0.1237E-03 SOLID          1 -69.7%  0.1612E-05  0.5140E-07   0.000      0.5499E-05   0.000      0.5120E-07   0.000    
    1956  0.2736      0.1236E-03 SOLID          1 -69.7%  0.1613E-05  0.5139E-07   0.000      0.5503E-05   0.000      0.5120E-07   0.000    
    1957  0.2737      0.1236E-03 SOLID          1 -69.8%  0.1614E-05  0.5139E-07   0.000      0.5506E-05   0.000      0.5120E-07   0.000    
    1958  0.2738      0.1236E-03 SOLID          1 -69.8%  0.1615E-05  0.5138E-07   0.000      0.5510E-05   0.000      0.5120E-07   0.000    
    1959  0.2740      0.1236E-03 SOLID          1 -69.8%  0.1616E-05  0.5138E-07   0.000      0.5514E-05   0.000      0.5120E-07   0.000    
    1960  0.2741      0.1236E-03 SOLID          1 -69.8%  0.1617E-05  0.5138E-07   0.000      0.5517E-05   0.000      0.5120E-07   0.000    
    1961  0.2742      0.1236E-03 SOLID          1 -69.8%  0.1618E-05  0.5137E-07   0.000      0.5521E-05   0.000      0.5120E-07   0.000    
    1962  0.2743      0.1236E-03 SOLID          1 -69.8%  0.1619E-05  0.5137E-07   0.000      0.5525E-05   0.000      0.5120E-07   0.000    
    1963  0.2745      0.1236E-03 SOLID          1 -69.8%  0.1620E-05  0.5136E-07   0.000      0.5529E-05   0.000      0.5120E-07   0.000    
    1964  0.2746      0.1235E-03 SOLID          1 -69.8%  0.1621E-05  0.5136E-07   0.000      0.5532E-05   0.000      0.5120E-07   0.000    
    1965  0.2747      0.1235E-03 SOLID          1 -69.8%  0.1622E-05  0.5136E-07   0.000      0.5536E-05   0.000      0.5120E-07   0.000    
    1966  0.2748      0.1235E-03 SOLID          1 -69.8%  0.1624E-05  0.5135E-07   0.000      0.5540E-05   0.000      0.5120E-07   0.000    
    1967  0.2750      0.1235E-03 SOLID          1 -69.8%  0.1625E-05  0.5135E-07   0.000      0.5543E-05   0.000      0.5120E-07   0.000    
    1968  0.2751      0.1235E-03 SOLID          1 -69.8%  0.1626E-05  0.5134E-07   0.000      0.5547E-05   0.000      0.5120E-07   0.000    
    1969  0.2752      0.1235E-03 SOLID          1 -69.8%  0.1627E-05  0.5134E-07   0.000      0.5551E-05   0.000      0.5120E-07   0.000    
    1970  0.2753      0.1235E-03 SOLID          1 -69.8%  0.1628E-05  0.5133E-07   0.000      0.5554E-05   0.000      0.5120E-07   0.000    
    1971  0.2754      0.1235E-03 SOLID          1 -69.8%  0.1629E-05  0.5133E-07   0.000      0.5558E-05   0.000      0.5120E-07   0.000    
    1972  0.2756      0.1235E-03 SOLID          1 -69.8%  0.1630E-05  0.5132E-07   0.000      0.5562E-05   0.000      0.5120E-07   0.000    
    1973  0.2757      0.1234E-03 SOLID          1 -69.8%  0.1631E-05  0.5132E-07   0.000      0.5565E-05   0.000      0.5120E-07   0.000    
    1974  0.2758      0.1234E-03 SOLID          1 -69.8%  0.1632E-05  0.5131E-07   0.000      0.5569E-05   0.000      0.5120E-07   0.000    
    1975  0.2759      0.1234E-03 SOLID          1 -69.8%  0.1633E-05  0.5131E-07   0.000      0.5573E-05   0.000      0.5120E-07   0.000    
    1976  0.2761      0.1234E-03 SOLID          1 -69.8%  0.1634E-05  0.5131E-07   0.000      0.5576E-05   0.000      0.5120E-07   0.000    
    1977  0.2762      0.1234E-03 SOLID          1 -69.8%  0.1635E-05  0.5130E-07   0.000      0.5580E-05   0.000      0.5120E-07   0.000    
    1978  0.2763      0.1234E-03 SOLID          1 -69.8%  0.1636E-05  0.5130E-07   0.000      0.5584E-05   0.000      0.5120E-07   0.000    
    1979  0.2764      0.1234E-03 SOLID          1 -69.8%  0.1637E-05  0.5129E-07   0.000      0.5588E-05   0.000      0.5120E-07   0.000    
   CYCLE    TIME      TIME-STEP  ELEMENT          ERROR  I-ENERGY    K-ENERGY T  K-ENERGY R  EXT-WORK     MAS.ERR     TOTAL MASS  MASS ADDED
    1980  0.2766      0.1234E-03 SOLID          1 -69.8%  0.1638E-05  0.5129E-07   0.000      0.5591E-05   0.000      0.5120E-07   0.000    
    1981  0.2767      0.1233E-03 SOLID          1 -69.8%  0.1639E-05  0.5128E-07   0.000      0.5595E-05   0.000      0.5120E-07   0.000    
    1982  0.2768      0.1233E-03 SOLID          1 -69.8%  0.1640E-05  0.5128E-07   0.000      0.5599E-05   0.000      0.5120E-07   0.000    
    1983  0.2769      0.1233E-03 SOLID          1 -69.8%  0.1641E-05  0.5127E-07   0.000      0.5602E-05   0.000      0.5120E-07   0.000    
    1984  0.2771      0.1233E-03 SOLID          1 -69.8%  0.1642E-05  0.5127E-07   0.000      0.5606E-05   0.000      0.5120E-07   0.000    
    1985  0.2772      0.1233E-03 SOLID          1 -69.8%  0.1643E-05  0.5126E-07   0.000      0.5610E-05   0.000      0.5120E-07   0.000    
    1986  0.2773      0.1233E-03 SOLID          1 -69.8%  0.1644E-05  0.5125E-07   0.000      0.5613E-05   0.000      0.5120E-07   0.000    
    1987  0.2774      0.1233E-03 SOLID          1 -69.8%  0.1645E-05  0.5125E-07   0.000      0.5617E-05   0.000      0.5120E-07   0.000    
    1988  0.2775      0.1233E-03 SOLID          1 -69.8%  0.1646E-05  0.5124E-07   0.000      0.5621E-05   0.000      0.5120E-07   0.000    
    1989  0.2777      0.1233E-03 SOLID          1 -69.8%  0.1647E-05  0.5124E-07   0.000      0.5624E-05   0.000      0.5120E-07   0.000    
    1990  0.2778      0.1232E-03 SOLID          1 -69.8%  0.1648E-05  0.5123E-07   0.000      0.5628E-05   0.000      0.5120E-07   0.000    
    1991  0.2779      0.1232E-03 SOLID          1 -69.8%  0.1649E-05  0.5123E-07   0.000      0.5632E-05   0.000      0.5120E-07   0.000    
    1992  0.2780      0.1232E-03 SOLID          1 -69.8%  0.1651E-05  0.5122E-07   0.000      0.5636E-05   0.000      0.5120E-07   0.000    
    1993  0.2782      0.1232E-03 SOLID          1 -69.8%  0.1652E-05  0.5122E-07   0.000      0.5639E-05   0.000      0.5120E-07   0.000    
    1994  0.2783      0.1232E-03 SOLID          1 -69.8%  0.1653E-05  0.5121E-07   0.000      0.5643E-05   0.000      0.5120E-07   0.000    
    1995  0.2784      0.1232E-03 SOLID          1 -69.8%  0.1654E-05  0.5121E-07   0.000      0.5647E-05   0.000      0.5120E-07   0.000    
    1996  0.2785      0.1232E-03 SOLID          1 -69.8%  0.1655E-05  0.5120E-07   0.000      0.5650E-05   0.000      0.5120E-07   0.000    
    1997  0.2787      0.1232E-03 SOLID          1 -69.8%  0.1656E-05  0.5120E-07   0.000      0.5654E-05   0.000      0.5120E-07   0.000    
    1998  0.2788      0.1232E-03 SOLID          1 -69.8%  0.1657E-05  0.5119E-07   0.000      0.5658E-05   0.000      0.5120E-07   0.000    
    1999  0.2789      0.1231E-03 SOLID          1 -69.8%  0.1658E-05  0.5118E-07   0.000      0.5662E-05   0.000      0.5120E-07   0.000    
    2000  0.2790      0.1231E-03 SOLID          1 -69.8%  0.1659E-05  0.5118E-07   0.000      0.5665E-05   0.000      0.5120E-07   0.000    
    2001  0.2791      0.1231E-03 SOLID          1 -69.8%  0.1660E-05  0.5117E-07   0.000      0.5669E-05   0.000      0.5120E-07   0.000    
    2002  0.2793      0.1231E-03 SOLID          1 -69.8%  0.1661E-05  0.5117E-07   0.000      0.5673E-05   0.000      0.5120E-07   0.000    
    2003  0.2794      0.1231E-03 SOLID          1 -69.8%  0.1662E-05  0.5116E-07   0.000      0.5676E-05   0.000      0.5120E-07   0.000    
    2004  0.2795      0.1231E-03 SOLID          1 -69.8%  0.1663E-05  0.5116E-07   0.000      0.5680E-05   0.000      0.5120E-07   0.000    
    2005  0.2796      0.1231E-03 SOLID          1 -69.8%  0.1664E-05  0.5115E-07   0.000      0.5684E-05   0.000      0.5120E-07   0.000    
    2006  0.2798      0.1231E-03 SOLID          1 -69.8%  0.1665E-05  0.5114E-07   0.000      0.5687E-05   0.000      0.5120E-07   0.000    
    2007  0.2799      0.1230E-03 SOLID          1 -69.8%  0.1666E-05  0.5114E-07   0.000      0.5691E-05   0.000      0.5120E-07   0.000    
    2008  0.2800      0.1230E-03 SOLID          1 -69.8%  0.1667E-05  0.5113E-07   0.000      0.5695E-05   0.000      0.5120E-07   0.000    
    2009  0.2801      0.1230E-03 SOLID          1 -69.8%  0.1668E-05  0.5113E-07   0.000      0.5699E-05   0.000      0.5120E-07   0.000    
    2010  0.2803      0.1230E-03 SOLID          1 -69.8%  0.1670E-05  0.5112E-07   0.000      0.5702E-05   0.000      0.5120E-07   0.000    
    2011  0.2804      0.1230E-03 SOLID          1 -69.8%  0.1671E-05  0.5111E-07   0.000      0.5706E-05   0.000      0.5120E-07   0.000    
    2012  0.2805      0.1230E-03 SOLID          1 -69.8%  0.1672E-05  0.5111E-07   0.000      0.5710E-05   0.000      0.5120E-07   0.000    
    2013  0.2806      0.1230E-03 SOLID          1 -69.8%  0.1673E-05  0.5110E-07   0.000      0.5713E-05   0.000      0.5120E-07   0.000    
    2014  0.2807      0.1230E-03 SOLID          1 -69.8%  0.1674E-05  0.5110E-07   0.000      0.5717E-05   0.000      0.5120E-07   0.000    
    2015  0.2809      0.1230E-03 SOLID          1 -69.8%  0.1675E-05  0.5109E-07   0.000      0.5721E-05   0.000      0.5120E-07   0.000    
    2016  0.2810      0.1229E-03 SOLID          1 -69.8%  0.1676E-05  0.5108E-07   0.000      0.5725E-05   0.000      0.5120E-07   0.000    
    2017  0.2811      0.1229E-03 SOLID          1 -69.8%  0.1677E-05  0.5108E-07   0.000      0.5728E-05   0.000      0.5120E-07   0.000    
    2018  0.2812      0.1229E-03 SOLID          1 -69.8%  0.1678E-05  0.5107E-07   0.000      0.5732E-05   0.000      0.5120E-07   0.000    
    2019  0.2814      0.1229E-03 SOLID          1 -69.8%  0.1679E-05  0.5107E-07   0.000      0.5736E-05   0.000      0.5120E-07   0.000    
    2020  0.2815      0.1229E-03 SOLID          1 -69.8%  0.1680E-05  0.5106E-07   0.000      0.5739E-05   0.000      0.5120E-07   0.000    
    2021  0.2816      0.1229E-03 SOLID          1 -69.8%  0.1681E-05  0.5105E-07   0.000      0.5743E-05   0.000      0.5120E-07   0.000    
    2022  0.2817      0.1229E-03 SOLID          1 -69.8%  0.1682E-05  0.5105E-07   0.000      0.5747E-05   0.000      0.5120E-07   0.000    
    2023  0.2819      0.1229E-03 SOLID          1 -69.8%  0.1683E-05  0.5104E-07   0.000      0.5751E-05   0.000      0.5120E-07   0.000    
    2024  0.2820      0.1229E-03 SOLID          1 -69.8%  0.1685E-05  0.5104E-07   0.000      0.5754E-05   0.000      0.5120E-07   0.000    
    2025  0.2821      0.1228E-03 SOLID          1 -69.8%  0.1686E-05  0.5103E-07   0.000      0.5758E-05   0.000      0.5120E-07   0.000    
    2026  0.2822      0.1228E-03 SOLID          1 -69.8%  0.1687E-05  0.5102E-07   0.000      0.5762E-05   0.000      0.5120E-07   0.000    
    2027  0.2823      0.1228E-03 SOLID          1 -69.8%  0.1688E-05  0.5102E-07   0.000      0.5765E-05   0.000      0.5120E-07   0.000    
    2028  0.2825      0.1228E-03 SOLID          1 -69.8%  0.1689E-05  0.5101E-07   0.000      0.5769E-05   0.000      0.5120E-07   0.000    
    2029  0.2826      0.1228E-03 SOLID          1 -69.8%  0.1690E-05  0.5101E-07   0.000      0.5773E-05   0.000      0.5120E-07   0.000    
    2030  0.2827      0.1228E-03 SOLID          1 -69.8%  0.1691E-05  0.5100E-07   0.000      0.5777E-05   0.000      0.5120E-07   0.000    
    2031  0.2828      0.1228E-03 SOLID          1 -69.8%  0.1692E-05  0.5099E-07   0.000      0.5780E-05   0.000      0.5120E-07   0.000    
    2032  0.2830      0.1228E-03 SOLID          1 -69.8%  0.1693E-05  0.5099E-07   0.000      0.5784E-05   0.000      0.5120E-07   0.000    
    2033  0.2831      0.1227E-03 SOLID          1 -69.8%  0.1694E-05  0.5098E-07   0.000      0.5788E-05   0.000      0.5120E-07   0.000    
    2034  0.2832      0.1227E-03 SOLID          1 -69.8%  0.1695E-05  0.5097E-07   0.000      0.5792E-05   0.000      0.5120E-07   0.000    
   CYCLE    TIME      TIME-STEP  ELEMENT          ERROR  I-ENERGY    K-ENERGY T  K-ENERGY R  EXT-WORK     MAS.ERR     TOTAL MASS  MASS ADDED
    2035  0.2833      0.1227E-03 SOLID          1 -69.8%  0.1696E-05  0.5097E-07   0.000      0.5795E-05   0.000      0.5120E-07   0.000    
    2036  0.2834      0.1227E-03 SOLID          1 -69.8%  0.1698E-05  0.5096E-07   0.000      0.5799E-05   0.000      0.5120E-07   0.000    
    2037  0.2836      0.1227E-03 SOLID          1 -69.8%  0.1699E-05  0.5096E-07   0.000      0.5803E-05   0.000      0.5120E-07   0.000    
    2038  0.2837      0.1227E-03 SOLID          1 -69.8%  0.1700E-05  0.5095E-07   0.000      0.5806E-05   0.000      0.5120E-07   0.000    
    2039  0.2838      0.1227E-03 SOLID          1 -69.8%  0.1701E-05  0.5094E-07   0.000      0.5810E-05   0.000      0.5120E-07   0.000    
    2040  0.2839      0.1227E-03 SOLID          1 -69.9%  0.1702E-05  0.5094E-07   0.000      0.5814E-05   0.000      0.5120E-07   0.000    
    2041  0.2841      0.1227E-03 SOLID          1 -69.9%  0.1703E-05  0.5093E-07   0.000      0.5818E-05   0.000      0.5120E-07   0.000    
    2042  0.2842      0.1226E-03 SOLID          1 -69.9%  0.1704E-05  0.5092E-07   0.000      0.5821E-05   0.000      0.5120E-07   0.000    
    2043  0.2843      0.1226E-03 SOLID          1 -69.9%  0.1705E-05  0.5092E-07   0.000      0.5825E-05   0.000      0.5120E-07   0.000    
    2044  0.2844      0.1226E-03 SOLID          1 -69.9%  0.1706E-05  0.5091E-07   0.000      0.5829E-05   0.000      0.5120E-07   0.000    
    2045  0.2846      0.1226E-03 SOLID          1 -69.9%  0.1707E-05  0.5091E-07   0.000      0.5833E-05   0.000      0.5120E-07   0.000    
    2046  0.2847      0.1226E-03 SOLID          1 -69.9%  0.1708E-05  0.5090E-07   0.000      0.5836E-05   0.000      0.5120E-07   0.000    
    2047  0.2848      0.1226E-03 SOLID          1 -69.9%  0.1710E-05  0.5089E-07   0.000      0.5840E-05   0.000      0.5120E-07   0.000    
    2048  0.2849      0.1226E-03 SOLID          1 -69.9%  0.1711E-05  0.5089E-07   0.000      0.5844E-05   0.000      0.5120E-07   0.000    
    2049  0.2850      0.1226E-03 SOLID          1 -69.9%  0.1712E-05  0.5088E-07   0.000      0.5847E-05   0.000      0.5120E-07   0.000    
    2050  0.2852      0.1226E-03 SOLID          1 -69.9%  0.1713E-05  0.5087E-07   0.000      0.5851E-05   0.000      0.5120E-07   0.000    
    2051  0.2853      0.1225E-03 SOLID          1 -69.9%  0.1714E-05  0.5087E-07   0.000      0.5855E-05   0.000      0.5120E-07   0.000    
    2052  0.2854      0.1225E-03 SOLID          1 -69.9%  0.1715E-05  0.5086E-07   0.000      0.5859E-05   0.000      0.5120E-07   0.000    
    2053  0.2855      0.1225E-03 SOLID          1 -69.9%  0.1716E-05  0.5086E-07   0.000      0.5862E-05   0.000      0.5120E-07   0.000    
    2054  0.2857      0.1225E-03 SOLID          1 -69.9%  0.1717E-05  0.5085E-07   0.000      0.5866E-05   0.000      0.5120E-07   0.000    
    2055  0.2858      0.1225E-03 SOLID          1 -69.9%  0.1718E-05  0.5084E-07   0.000      0.5870E-05   0.000      0.5120E-07   0.000    
    2056  0.2859      0.1225E-03 SOLID          1 -69.9%  0.1720E-05  0.5084E-07   0.000      0.5874E-05   0.000      0.5120E-07   0.000    
    2057  0.2860      0.1225E-03 SOLID          1 -69.9%  0.1721E-05  0.5083E-07   0.000      0.5877E-05   0.000      0.5120E-07   0.000    
    2058  0.2861      0.1225E-03 SOLID          1 -69.9%  0.1722E-05  0.5083E-07   0.000      0.5881E-05   0.000      0.5120E-07   0.000    
    2059  0.2863      0.1224E-03 SOLID          1 -69.9%  0.1723E-05  0.5082E-07   0.000      0.5885E-05   0.000      0.5120E-07   0.000    
    2060  0.2864      0.1224E-03 SOLID          1 -69.9%  0.1724E-05  0.5081E-07   0.000      0.5889E-05   0.000      0.5120E-07   0.000    
    2061  0.2865      0.1224E-03 SOLID          1 -69.9%  0.1725E-05  0.5081E-07   0.000      0.5892E-05   0.000      0.5120E-07   0.000    
    2062  0.2866      0.1224E-03 SOLID          1 -69.9%  0.1726E-05  0.5080E-07   0.000      0.5896E-05   0.000      0.5120E-07   0.000    
    2063  0.2868      0.1224E-03 SOLID          1 -69.9%  0.1727E-05  0.5079E-07   0.000      0.5900E-05   0.000      0.5120E-07   0.000    
    2064  0.2869      0.1224E-03 SOLID          1 -69.9%  0.1728E-05  0.5079E-07   0.000      0.5903E-05   0.000      0.5120E-07   0.000    
    2065  0.2870      0.1224E-03 SOLID          1 -69.9%  0.1730E-05  0.5078E-07   0.000      0.5907E-05   0.000      0.5120E-07   0.000    
    2066  0.2871      0.1224E-03 SOLID          1 -69.9%  0.1731E-05  0.5078E-07   0.000      0.5911E-05   0.000      0.5120E-07   0.000    
    2067  0.2872      0.1224E-03 SOLID          1 -69.9%  0.1732E-05  0.5077E-07   0.000      0.5915E-05   0.000      0.5120E-07   0.000    
    2068  0.2874      0.1223E-03 SOLID          1 -69.9%  0.1733E-05  0.5076E-07   0.000      0.5918E-05   0.000      0.5120E-07   0.000    
    2069  0.2875      0.1223E-03 SOLID          1 -69.9%  0.1734E-05  0.5076E-07   0.000      0.5922E-05   0.000      0.5120E-07   0.000    
    2070  0.2876      0.1223E-03 SOLID          1 -69.9%  0.1735E-05  0.5075E-07   0.000      0.5926E-05   0.000      0.5120E-07   0.000    
    2071  0.2877      0.1223E-03 SOLID          1 -69.9%  0.1736E-05  0.5075E-07   0.000      0.5930E-05   0.000      0.5120E-07   0.000    
    2072  0.2879      0.1223E-03 SOLID          1 -69.9%  0.1737E-05  0.5074E-07   0.000      0.5933E-05   0.000      0.5120E-07   0.000    
    2073  0.2880      0.1223E-03 SOLID          1 -69.9%  0.1739E-05  0.5073E-07   0.000      0.5937E-05   0.000      0.5120E-07   0.000    
    2074  0.2881      0.1223E-03 SOLID          1 -69.9%  0.1740E-05  0.5073E-07   0.000      0.5941E-05   0.000      0.5120E-07   0.000    
    2075  0.2882      0.1223E-03 SOLID          1 -69.9%  0.1741E-05  0.5072E-07   0.000      0.5945E-05   0.000      0.5120E-07   0.000    
    2076  0.2883      0.1223E-03 SOLID          1 -69.9%  0.1742E-05  0.5072E-07   0.000      0.5948E-05   0.000      0.5120E-07   0.000    
    2077  0.2885      0.1222E-03 SOLID          1 -69.9%  0.1743E-05  0.5071E-07   0.000      0.5952E-05   0.000      0.5120E-07   0.000    
    2078  0.2886      0.1222E-03 SOLID          1 -69.9%  0.1744E-05  0.5070E-07   0.000      0.5956E-05   0.000      0.5120E-07   0.000    
    2079  0.2887      0.1222E-03 SOLID          1 -69.9%  0.1745E-05  0.5070E-07   0.000      0.5960E-05   0.000      0.5120E-07   0.000    
    2080  0.2888      0.1222E-03 SOLID          1 -69.9%  0.1746E-05  0.5069E-07   0.000      0.5963E-05   0.000      0.5120E-07   0.000    
    2081  0.2890      0.1222E-03 SOLID          1 -69.9%  0.1748E-05  0.5069E-07   0.000      0.5967E-05   0.000      0.5120E-07   0.000    
    2082  0.2891      0.1222E-03 SOLID          1 -69.9%  0.1749E-05  0.5068E-07   0.000      0.5971E-05   0.000      0.5120E-07   0.000    
    2083  0.2892      0.1222E-03 SOLID          1 -69.9%  0.1750E-05  0.5067E-07   0.000      0.5975E-05   0.000      0.5120E-07   0.000    
    2084  0.2893      0.1222E-03 SOLID          1 -69.9%  0.1751E-05  0.5067E-07   0.000      0.5978E-05   0.000      0.5120E-07   0.000    
    2085  0.2894      0.1222E-03 SOLID          1 -69.9%  0.1752E-05  0.5066E-07   0.000      0.5982E-05   0.000      0.5120E-07   0.000    
    2086  0.2896      0.1221E-03 SOLID          1 -69.9%  0.1753E-05  0.5066E-07   0.000      0.5986E-05   0.000      0.5120E-07   0.000    
    2087  0.2897      0.1221E-03 SOLID          1 -69.9%  0.1754E-05  0.5065E-07   0.000      0.5990E-05   0.000      0.5120E-07   0.000    
    2088  0.2898      0.1221E-03 SOLID          1 -69.9%  0.1755E-05  0.5064E-07   0.000      0.5993E-05   0.000      0.5120E-07   0.000    
    2089  0.2899      0.1221E-03 SOLID          1 -69.9%  0.1757E-05  0.5064E-07   0.000      0.5997E-05   0.000      0.5120E-07   0.000    
   CYCLE    TIME      TIME-STEP  ELEMENT          ERROR  I-ENERGY    K-ENERGY T  K-ENERGY R  EXT-WORK     MAS.ERR     TOTAL MASS  MASS ADDED
    2090  0.2901      0.1221E-03 SOLID          1 -69.9%  0.1758E-05  0.5063E-07   0.000      0.6001E-05   0.000      0.5120E-07   0.000    
    2091  0.2902      0.1221E-03 SOLID          1 -69.9%  0.1759E-05  0.5063E-07   0.000      0.6005E-05   0.000      0.5120E-07   0.000    
    2092  0.2903      0.1221E-03 SOLID          1 -69.9%  0.1760E-05  0.5062E-07   0.000      0.6008E-05   0.000      0.5120E-07   0.000    
    2093  0.2904      0.1221E-03 SOLID          1 -69.9%  0.1761E-05  0.5061E-07   0.000      0.6012E-05   0.000      0.5120E-07   0.000    
    2094  0.2905      0.1221E-03 SOLID          1 -69.9%  0.1762E-05  0.5061E-07   0.000      0.6016E-05   0.000      0.5120E-07   0.000    
    2095  0.2907      0.1220E-03 SOLID          1 -69.9%  0.1763E-05  0.5060E-07   0.000      0.6020E-05   0.000      0.5120E-07   0.000    
    2096  0.2908      0.1220E-03 SOLID          1 -69.9%  0.1765E-05  0.5060E-07   0.000      0.6024E-05   0.000      0.5120E-07   0.000    
    2097  0.2909      0.1220E-03 SOLID          1 -69.9%  0.1766E-05  0.5059E-07   0.000      0.6027E-05   0.000      0.5120E-07   0.000    
    2098  0.2910      0.1220E-03 SOLID          1 -69.9%  0.1767E-05  0.5059E-07   0.000      0.6031E-05   0.000      0.5120E-07   0.000    
    2099  0.2912      0.1220E-03 SOLID          1 -69.9%  0.1768E-05  0.5058E-07   0.000      0.6035E-05   0.000      0.5120E-07   0.000    
    2100  0.2913      0.1220E-03 SOLID          1 -69.9%  0.1769E-05  0.5058E-07   0.000      0.6039E-05   0.000      0.5120E-07   0.000    
    2101  0.2914      0.1220E-03 SOLID          1 -69.9%  0.1770E-05  0.5057E-07   0.000      0.6042E-05   0.000      0.5120E-07   0.000    
    2102  0.2915      0.1220E-03 SOLID          1 -69.9%  0.1772E-05  0.5056E-07   0.000      0.6046E-05   0.000      0.5120E-07   0.000    
    2103  0.2916      0.1220E-03 SOLID          1 -69.9%  0.1773E-05  0.5056E-07   0.000      0.6050E-05   0.000      0.5120E-07   0.000    
    2104  0.2918      0.1219E-03 SOLID          1 -69.9%  0.1774E-05  0.5055E-07   0.000      0.6054E-05   0.000      0.5120E-07   0.000    
    2105  0.2919      0.1219E-03 SOLID          1 -69.9%  0.1775E-05  0.5055E-07   0.000      0.6057E-05   0.000      0.5120E-07   0.000    
    2106  0.2920      0.1219E-03 SOLID          1 -69.9%  0.1776E-05  0.5054E-07   0.000      0.6061E-05   0.000      0.5120E-07   0.000    
    2107  0.2921      0.1219E-03 SOLID          1 -69.9%  0.1777E-05  0.5054E-07   0.000      0.6065E-05   0.000      0.5120E-07   0.000    
    2108  0.2923      0.1219E-03 SOLID          1 -69.9%  0.1779E-05  0.5053E-07   0.000      0.6069E-05   0.000      0.5120E-07   0.000    
    2109  0.2924      0.1219E-03 SOLID          1 -69.9%  0.1780E-05  0.5053E-07   0.000      0.6072E-05   0.000      0.5120E-07   0.000    
    2110  0.2925      0.1219E-03 SOLID          1 -69.9%  0.1781E-05  0.5052E-07   0.000      0.6076E-05   0.000      0.5120E-07   0.000    
    2111  0.2926      0.1219E-03 SOLID          1 -69.9%  0.1782E-05  0.5051E-07   0.000      0.6080E-05   0.000      0.5120E-07   0.000    
    2112  0.2927      0.1218E-03 SOLID          1 -69.9%  0.1783E-05  0.5051E-07   0.000      0.6084E-05   0.000      0.5120E-07   0.000    
    2113  0.2929      0.1218E-03 SOLID          1 -69.9%  0.1784E-05  0.5050E-07   0.000      0.6088E-05   0.000      0.5120E-07   0.000    
    2114  0.2930      0.1218E-03 SOLID          1 -69.9%  0.1785E-05  0.5050E-07   0.000      0.6091E-05   0.000      0.5120E-07   0.000    
    2115  0.2931      0.1218E-03 SOLID          1 -69.9%  0.1787E-05  0.5049E-07   0.000      0.6095E-05   0.000      0.5120E-07   0.000    
    2116  0.2932      0.1218E-03 SOLID          1 -69.9%  0.1788E-05  0.5049E-07   0.000      0.6099E-05   0.000      0.5120E-07   0.000    
    2117  0.2934      0.1218E-03 SOLID          1 -69.9%  0.1789E-05  0.5048E-07   0.000      0.6103E-05   0.000      0.5120E-07   0.000    
    2118  0.2935      0.1218E-03 SOLID          1 -69.9%  0.1790E-05  0.5048E-07   0.000      0.6106E-05   0.000      0.5120E-07   0.000    
    2119  0.2936      0.1218E-03 SOLID          1 -69.9%  0.1791E-05  0.5047E-07   0.000      0.6110E-05   0.000      0.5120E-07   0.000    
    2120  0.2937      0.1218E-03 SOLID          1 -69.9%  0.1793E-05  0.5047E-07   0.000      0.6114E-05   0.000      0.5120E-07   0.000    
    2121  0.2938      0.1217E-03 SOLID          1 -69.9%  0.1794E-05  0.5046E-07   0.000      0.6118E-05   0.000      0.5120E-07   0.000    
    2122  0.2940      0.1217E-03 SOLID          1 -69.9%  0.1795E-05  0.5046E-07   0.000      0.6121E-05   0.000      0.5120E-07   0.000    
    2123  0.2941      0.1217E-03 SOLID          1 -69.9%  0.1796E-05  0.5045E-07   0.000      0.6125E-05   0.000      0.5120E-07   0.000    
    2124  0.2942      0.1217E-03 SOLID          1 -69.9%  0.1797E-05  0.5045E-07   0.000      0.6129E-05   0.000      0.5120E-07   0.000    
    2125  0.2943      0.1217E-03 SOLID          1 -69.9%  0.1798E-05  0.5044E-07   0.000      0.6133E-05   0.000      0.5120E-07   0.000    
    2126  0.2944      0.1217E-03 SOLID          1 -69.9%  0.1800E-05  0.5044E-07   0.000      0.6137E-05   0.000      0.5120E-07   0.000    
    2127  0.2946      0.1217E-03 SOLID          1 -69.9%  0.1801E-05  0.5043E-07   0.000      0.6140E-05   0.000      0.5120E-07   0.000    
    2128  0.2947      0.1217E-03 SOLID          1 -69.9%  0.1802E-05  0.5043E-07   0.000      0.6144E-05   0.000      0.5120E-07   0.000    
    2129  0.2948      0.1217E-03 SOLID          1 -69.9%  0.1803E-05  0.5042E-07   0.000      0.6148E-05   0.000      0.5120E-07   0.000    
    2130  0.2949      0.1216E-03 SOLID          1 -69.8%  0.1804E-05  0.5042E-07   0.000      0.6152E-05   0.000      0.5120E-07   0.000    
    2131  0.2951      0.1216E-03 SOLID          1 -69.8%  0.1806E-05  0.5041E-07   0.000      0.6155E-05   0.000      0.5120E-07   0.000    
    2132  0.2952      0.1216E-03 SOLID          1 -69.8%  0.1807E-05  0.5041E-07   0.000      0.6159E-05   0.000      0.5120E-07   0.000    
    2133  0.2953      0.1216E-03 SOLID          1 -69.8%  0.1808E-05  0.5040E-07   0.000      0.6163E-05   0.000      0.5120E-07   0.000    
    2134  0.2954      0.1216E-03 SOLID          1 -69.8%  0.1809E-05  0.5040E-07   0.000      0.6167E-05   0.000      0.5120E-07   0.000    
    2135  0.2955      0.1216E-03 SOLID          1 -69.8%  0.1810E-05  0.5039E-07   0.000      0.6171E-05   0.000      0.5120E-07   0.000    
    2136  0.2957      0.1216E-03 SOLID          1 -69.8%  0.1811E-05  0.5039E-07   0.000      0.6174E-05   0.000      0.5120E-07   0.000    
    2137  0.2958      0.1216E-03 SOLID          1 -69.8%  0.1813E-05  0.5038E-07   0.000      0.6178E-05   0.000      0.5120E-07   0.000    
    2138  0.2959      0.1216E-03 SOLID          1 -69.8%  0.1814E-05  0.5038E-07   0.000      0.6182E-05   0.000      0.5120E-07   0.000    
    2139  0.2960      0.1215E-03 SOLID          1 -69.8%  0.1815E-05  0.5037E-07   0.000      0.6186E-05   0.000      0.5120E-07   0.000    
    2140  0.2961      0.1215E-03 SOLID          1 -69.8%  0.1816E-05  0.5037E-07   0.000      0.6190E-05   0.000      0.5120E-07   0.000    
    2141  0.2963      0.1215E-03 SOLID          1 -69.8%  0.1817E-05  0.5036E-07   0.000      0.6193E-05   0.000      0.5120E-07   0.000    
    2142  0.2964      0.1215E-03 SOLID          1 -69.8%  0.1819E-05  0.5036E-07   0.000      0.6197E-05   0.000      0.5120E-07   0.000    
    2143  0.2965      0.1215E-03 SOLID          1 -69.8%  0.1820E-05  0.5035E-07   0.000      0.6201E-05   0.000      0.5120E-07   0.000    
    2144  0.2966      0.1215E-03 SOLID          1 -69.8%  0.1821E-05  0.5035E-07   0.000      0.6205E-05   0.000      0.5120E-07   0.000    
   CYCLE    TIME      TIME-STEP  ELEMENT          ERROR  I-ENERGY    K-ENERGY T  K-ENERGY R  EXT-WORK     MAS.ERR     TOTAL MASS  MASS ADDED
    2145  0.2968      0.1215E-03 SOLID          1 -69.8%  0.1822E-05  0.5034E-07   0.000      0.6208E-05   0.000      0.5120E-07   0.000    
    2146  0.2969      0.1215E-03 SOLID          1 -69.8%  0.1823E-05  0.5034E-07   0.000      0.6212E-05   0.000      0.5120E-07   0.000    
    2147  0.2970      0.1215E-03 SOLID          1 -69.8%  0.1825E-05  0.5034E-07   0.000      0.6216E-05   0.000      0.5120E-07   0.000    
    2148  0.2971      0.1214E-03 SOLID          1 -69.8%  0.1826E-05  0.5033E-07   0.000      0.6220E-05   0.000      0.5120E-07   0.000    
    2149  0.2972      0.1214E-03 SOLID          1 -69.8%  0.1827E-05  0.5033E-07   0.000      0.6224E-05   0.000      0.5120E-07   0.000    
    2150  0.2974      0.1214E-03 SOLID          1 -69.8%  0.1828E-05  0.5032E-07   0.000      0.6227E-05   0.000      0.5120E-07   0.000    
    2151  0.2975      0.1214E-03 SOLID          1 -69.8%  0.1829E-05  0.5032E-07   0.000      0.6231E-05   0.000      0.5120E-07   0.000    
    2152  0.2976      0.1214E-03 SOLID          1 -69.8%  0.1831E-05  0.5031E-07   0.000      0.6235E-05   0.000      0.5120E-07   0.000    
    2153  0.2977      0.1214E-03 SOLID          1 -69.8%  0.1832E-05  0.5031E-07   0.000      0.6239E-05   0.000      0.5120E-07   0.000    
    2154  0.2979      0.1214E-03 SOLID          1 -69.8%  0.1833E-05  0.5030E-07   0.000      0.6243E-05   0.000      0.5120E-07   0.000    
    2155  0.2980      0.1214E-03 SOLID          1 -69.8%  0.1834E-05  0.5030E-07   0.000      0.6246E-05   0.000      0.5120E-07   0.000    
    2156  0.2981      0.1214E-03 SOLID          1 -69.8%  0.1836E-05  0.5030E-07   0.000      0.6250E-05   0.000      0.5120E-07   0.000    
    2157  0.2982      0.1214E-03 SOLID          1 -69.8%  0.1837E-05  0.5029E-07   0.000      0.6254E-05   0.000      0.5120E-07   0.000    
    2158  0.2983      0.1213E-03 SOLID          1 -69.8%  0.1838E-05  0.5029E-07   0.000      0.6258E-05   0.000      0.5120E-07   0.000    
    2159  0.2985      0.1213E-03 SOLID          1 -69.8%  0.1839E-05  0.5028E-07   0.000      0.6262E-05   0.000      0.5120E-07   0.000    
    2160  0.2986      0.1213E-03 SOLID          1 -69.8%  0.1840E-05  0.5028E-07   0.000      0.6265E-05   0.000      0.5120E-07   0.000    
    2161  0.2987      0.1213E-03 SOLID          1 -69.8%  0.1842E-05  0.5027E-07   0.000      0.6269E-05   0.000      0.5120E-07   0.000    
    2162  0.2988      0.1213E-03 SOLID          1 -69.8%  0.1843E-05  0.5027E-07   0.000      0.6273E-05   0.000      0.5120E-07   0.000    
    2163  0.2989      0.1213E-03 SOLID          1 -69.8%  0.1844E-05  0.5027E-07   0.000      0.6277E-05   0.000      0.5120E-07   0.000    
    2164  0.2991      0.1213E-03 SOLID          1 -69.8%  0.1845E-05  0.5026E-07   0.000      0.6281E-05   0.000      0.5120E-07   0.000    
    2165  0.2992      0.1213E-03 SOLID          1 -69.8%  0.1847E-05  0.5026E-07   0.000      0.6284E-05   0.000      0.5120E-07   0.000    
    2166  0.2993      0.1213E-03 SOLID          1 -69.8%  0.1848E-05  0.5025E-07   0.000      0.6288E-05   0.000      0.5120E-07   0.000    
    2167  0.2994      0.1212E-03 SOLID          1 -69.8%  0.1849E-05  0.5025E-07   0.000      0.6292E-05   0.000      0.5120E-07   0.000    
    2168  0.2995      0.1212E-03 SOLID          1 -69.8%  0.1850E-05  0.5025E-07   0.000      0.6296E-05   0.000      0.5120E-07   0.000    
    2169  0.2997      0.1212E-03 SOLID          1 -69.8%  0.1851E-05  0.5024E-07   0.000      0.6300E-05   0.000      0.5120E-07   0.000    
    2170  0.2998      0.1212E-03 SOLID          1 -69.8%  0.1853E-05  0.5024E-07   0.000      0.6303E-05   0.000      0.5120E-07   0.000    
    2171  0.2999      0.1212E-03 SOLID          1 -69.8%  0.1854E-05  0.5023E-07   0.000      0.6307E-05   0.000      0.5120E-07   0.000    
    2172  0.3000      0.1212E-03 SOLID          1 -69.8%  0.1855E-05  0.5023E-07   0.000      0.6311E-05   0.000      0.5120E-07   0.000    
     ANIMATION FILE: M50BA007 WRITTEN
    2173  0.3002      0.1212E-03 SOLID          1 -69.8%  0.1856E-05  0.5023E-07   0.000      0.6315E-05   0.000      0.5120E-07   0.000    
    2174  0.3003      0.1212E-03 SOLID          1 -69.8%  0.1858E-05  0.5022E-07   0.000      0.6319E-05   0.000      0.5120E-07   0.000    
    2175  0.3004      0.1212E-03 SOLID          1 -69.8%  0.1859E-05  0.5022E-07   0.000      0.6322E-05   0.000      0.5120E-07   0.000    
    2176  0.3005      0.1211E-03 SOLID          1 -69.8%  0.1860E-05  0.5022E-07   0.000      0.6326E-05   0.000      0.5120E-07   0.000    
    2177  0.3006      0.1211E-03 SOLID          1 -69.8%  0.1861E-05  0.5021E-07   0.000      0.6330E-05   0.000      0.5120E-07   0.000    
    2178  0.3008      0.1211E-03 SOLID          1 -69.8%  0.1863E-05  0.5021E-07   0.000      0.6334E-05   0.000      0.5120E-07   0.000    
    2179  0.3009      0.1211E-03 SOLID          1 -69.8%  0.1864E-05  0.5020E-07   0.000      0.6338E-05   0.000      0.5120E-07   0.000    
    2180  0.3010      0.1211E-03 SOLID          1 -69.8%  0.1865E-05  0.5020E-07   0.000      0.6341E-05   0.000      0.5120E-07   0.000    
    2181  0.3011      0.1211E-03 SOLID          1 -69.8%  0.1866E-05  0.5020E-07   0.000      0.6345E-05   0.000      0.5120E-07   0.000    
    2182  0.3012      0.1211E-03 SOLID          1 -69.8%  0.1868E-05  0.5019E-07   0.000      0.6349E-05   0.000      0.5120E-07   0.000    
    2183  0.3014      0.1211E-03 SOLID          1 -69.8%  0.1869E-05  0.5019E-07   0.000      0.6353E-05   0.000      0.5120E-07   0.000    
    2184  0.3015      0.1211E-03 SOLID          1 -69.8%  0.1870E-05  0.5019E-07   0.000      0.6357E-05   0.000      0.5120E-07   0.000    
    2185  0.3016      0.1210E-03 SOLID          1 -69.8%  0.1871E-05  0.5018E-07   0.000      0.6361E-05   0.000      0.5120E-07   0.000    
    2186  0.3017      0.1210E-03 SOLID          1 -69.8%  0.1873E-05  0.5018E-07   0.000      0.6364E-05   0.000      0.5120E-07   0.000    
    2187  0.3019      0.1210E-03 SOLID          1 -69.8%  0.1874E-05  0.5018E-07   0.000      0.6368E-05   0.000      0.5120E-07   0.000    
    2188  0.3020      0.1210E-03 SOLID          1 -69.8%  0.1875E-05  0.5017E-07   0.000      0.6372E-05   0.000      0.5120E-07   0.000    
    2189  0.3021      0.1210E-03 SOLID          1 -69.8%  0.1876E-05  0.5017E-07   0.000      0.6376E-05   0.000      0.5120E-07   0.000    
    2190  0.3022      0.1210E-03 SOLID          1 -69.8%  0.1878E-05  0.5017E-07   0.000      0.6380E-05   0.000      0.5120E-07   0.000    
    2191  0.3023      0.1210E-03 SOLID          1 -69.8%  0.1879E-05  0.5016E-07   0.000      0.6383E-05   0.000      0.5120E-07   0.000    
    2192  0.3025      0.1210E-03 SOLID          1 -69.8%  0.1880E-05  0.5016E-07   0.000      0.6387E-05   0.000      0.5120E-07   0.000    
    2193  0.3026      0.1210E-03 SOLID          1 -69.8%  0.1881E-05  0.5016E-07   0.000      0.6391E-05   0.000      0.5120E-07   0.000    
    2194  0.3027      0.1209E-03 SOLID          1 -69.8%  0.1883E-05  0.5015E-07   0.000      0.6395E-05   0.000      0.5120E-07   0.000    
    2195  0.3028      0.1209E-03 SOLID          1 -69.8%  0.1884E-05  0.5015E-07   0.000      0.6399E-05   0.000      0.5120E-07   0.000    
    2196  0.3029      0.1209E-03 SOLID          1 -69.8%  0.1885E-05  0.5015E-07   0.000      0.6402E-05   0.000      0.5120E-07   0.000    
    2197  0.3031      0.1209E-03 SOLID          1 -69.8%  0.1886E-05  0.5014E-07   0.000      0.6406E-05   0.000      0.5120E-07   0.000    
    2198  0.3032      0.1209E-03 SOLID          1 -69.8%  0.1888E-05  0.5014E-07   0.000      0.6410E-05   0.000      0.5120E-07   0.000    
    2199  0.3033      0.1209E-03 SOLID          1 -69.8%  0.1889E-05  0.5014E-07   0.000      0.6414E-05   0.000      0.5120E-07   0.000    
   CYCLE    TIME      TIME-STEP  ELEMENT          ERROR  I-ENERGY    K-ENERGY T  K-ENERGY R  EXT-WORK     MAS.ERR     TOTAL MASS  MASS ADDED
    2200  0.3034      0.1209E-03 SOLID          1 -69.8%  0.1890E-05  0.5014E-07   0.000      0.6418E-05   0.000      0.5120E-07   0.000    
    2201  0.3035      0.1209E-03 SOLID          1 -69.8%  0.1891E-05  0.5013E-07   0.000      0.6422E-05   0.000      0.5120E-07   0.000    
    2202  0.3037      0.1209E-03 SOLID          1 -69.8%  0.1893E-05  0.5013E-07   0.000      0.6425E-05   0.000      0.5120E-07   0.000    
    2203  0.3038      0.1209E-03 SOLID          1 -69.8%  0.1894E-05  0.5013E-07   0.000      0.6429E-05   0.000      0.5120E-07   0.000    
    2204  0.3039      0.1208E-03 SOLID          1 -69.8%  0.1895E-05  0.5012E-07   0.000      0.6433E-05   0.000      0.5120E-07   0.000    
    2205  0.3040      0.1208E-03 SOLID          1 -69.8%  0.1897E-05  0.5012E-07   0.000      0.6437E-05   0.000      0.5120E-07   0.000    
    2206  0.3041      0.1208E-03 SOLID          1 -69.8%  0.1898E-05  0.5012E-07   0.000      0.6441E-05   0.000      0.5120E-07   0.000    
    2207  0.3043      0.1208E-03 SOLID          1 -69.8%  0.1899E-05  0.5012E-07   0.000      0.6445E-05   0.000      0.5120E-07   0.000    
    2208  0.3044      0.1208E-03 SOLID          1 -69.8%  0.1900E-05  0.5011E-07   0.000      0.6448E-05   0.000      0.5120E-07   0.000    
    2209  0.3045      0.1208E-03 SOLID          1 -69.7%  0.1902E-05  0.5011E-07   0.000      0.6452E-05   0.000      0.5120E-07   0.000    
    2210  0.3046      0.1208E-03 SOLID          1 -69.7%  0.1903E-05  0.5011E-07   0.000      0.6456E-05   0.000      0.5120E-07   0.000    
    2211  0.3048      0.1208E-03 SOLID          1 -69.7%  0.1904E-05  0.5011E-07   0.000      0.6460E-05   0.000      0.5120E-07   0.000    
    2212  0.3049      0.1208E-03 SOLID          1 -69.7%  0.1906E-05  0.5010E-07   0.000      0.6464E-05   0.000      0.5120E-07   0.000    
    2213  0.3050      0.1207E-03 SOLID          1 -69.7%  0.1907E-05  0.5010E-07   0.000      0.6468E-05   0.000      0.5120E-07   0.000    
    2214  0.3051      0.1207E-03 SOLID          1 -69.7%  0.1908E-05  0.5010E-07   0.000      0.6471E-05   0.000      0.5120E-07   0.000    
    2215  0.3052      0.1207E-03 SOLID          1 -69.7%  0.1909E-05  0.5010E-07   0.000      0.6475E-05   0.000      0.5120E-07   0.000    
    2216  0.3054      0.1207E-03 SOLID          1 -69.7%  0.1911E-05  0.5009E-07   0.000      0.6479E-05   0.000      0.5120E-07   0.000    
    2217  0.3055      0.1207E-03 SOLID          1 -69.7%  0.1912E-05  0.5009E-07   0.000      0.6483E-05   0.000      0.5120E-07   0.000    
    2218  0.3056      0.1207E-03 SOLID          1 -69.7%  0.1913E-05  0.5009E-07   0.000      0.6487E-05   0.000      0.5120E-07   0.000    
    2219  0.3057      0.1207E-03 SOLID          1 -69.7%  0.1915E-05  0.5009E-07   0.000      0.6491E-05   0.000      0.5120E-07   0.000    
    2220  0.3058      0.1207E-03 SOLID          1 -69.7%  0.1916E-05  0.5009E-07   0.000      0.6494E-05   0.000      0.5120E-07   0.000    
    2221  0.3060      0.1207E-03 SOLID          1 -69.7%  0.1917E-05  0.5008E-07   0.000      0.6498E-05   0.000      0.5120E-07   0.000    
    2222  0.3061      0.1206E-03 SOLID          1 -69.7%  0.1918E-05  0.5008E-07   0.000      0.6502E-05   0.000      0.5120E-07   0.000    
    2223  0.3062      0.1206E-03 SOLID          1 -69.7%  0.1920E-05  0.5008E-07   0.000      0.6506E-05   0.000      0.5120E-07   0.000    
    2224  0.3063      0.1206E-03 SOLID          1 -69.7%  0.1921E-05  0.5008E-07   0.000      0.6510E-05   0.000      0.5120E-07   0.000    
    2225  0.3064      0.1206E-03 SOLID          1 -69.7%  0.1922E-05  0.5007E-07   0.000      0.6514E-05   0.000      0.5120E-07   0.000    
    2226  0.3066      0.1206E-03 SOLID          1 -69.7%  0.1924E-05  0.5007E-07   0.000      0.6517E-05   0.000      0.5120E-07   0.000    
    2227  0.3067      0.1206E-03 SOLID          1 -69.7%  0.1925E-05  0.5007E-07   0.000      0.6521E-05   0.000      0.5120E-07   0.000    
    2228  0.3068      0.1206E-03 SOLID          1 -69.7%  0.1926E-05  0.5007E-07   0.000      0.6525E-05   0.000      0.5120E-07   0.000    
    2229  0.3069      0.1206E-03 SOLID          1 -69.7%  0.1928E-05  0.5007E-07   0.000      0.6529E-05   0.000      0.5120E-07   0.000    
    2230  0.3070      0.1206E-03 SOLID          1 -69.7%  0.1929E-05  0.5007E-07   0.000      0.6533E-05   0.000      0.5120E-07   0.000    
    2231  0.3072      0.1206E-03 SOLID          1 -69.7%  0.1930E-05  0.5006E-07   0.000      0.6537E-05   0.000      0.5120E-07   0.000    
    2232  0.3073      0.1205E-03 SOLID          1 -69.7%  0.1931E-05  0.5006E-07   0.000      0.6540E-05   0.000      0.5120E-07   0.000    
    2233  0.3074      0.1205E-03 SOLID          1 -69.7%  0.1933E-05  0.5006E-07   0.000      0.6544E-05   0.000      0.5120E-07   0.000    
    2234  0.3075      0.1205E-03 SOLID          1 -69.7%  0.1934E-05  0.5006E-07   0.000      0.6548E-05   0.000      0.5120E-07   0.000    
    2235  0.3076      0.1205E-03 SOLID          1 -69.7%  0.1935E-05  0.5006E-07   0.000      0.6552E-05   0.000      0.5120E-07   0.000    
    2236  0.3078      0.1205E-03 SOLID          1 -69.7%  0.1937E-05  0.5006E-07   0.000      0.6556E-05   0.000      0.5120E-07   0.000    
    2237  0.3079      0.1205E-03 SOLID          1 -69.7%  0.1938E-05  0.5005E-07   0.000      0.6560E-05   0.000      0.5120E-07   0.000    
    2238  0.3080      0.1205E-03 SOLID          1 -69.7%  0.1939E-05  0.5005E-07   0.000      0.6564E-05   0.000      0.5120E-07   0.000    
    2239  0.3081      0.1205E-03 SOLID          1 -69.7%  0.1941E-05  0.5005E-07   0.000      0.6567E-05   0.000      0.5120E-07   0.000    
    2240  0.3082      0.1205E-03 SOLID          1 -69.7%  0.1942E-05  0.5005E-07   0.000      0.6571E-05   0.000      0.5120E-07   0.000    
    2241  0.3084      0.1205E-03 SOLID          1 -69.7%  0.1943E-05  0.5005E-07   0.000      0.6575E-05   0.000      0.5120E-07   0.000    
    2242  0.3085      0.1204E-03 SOLID          1 -69.7%  0.1945E-05  0.5005E-07   0.000      0.6579E-05   0.000      0.5120E-07   0.000    
    2243  0.3086      0.1204E-03 SOLID          1 -69.7%  0.1946E-05  0.5005E-07   0.000      0.6583E-05   0.000      0.5120E-07   0.000    
    2244  0.3087      0.1204E-03 SOLID          1 -69.7%  0.1947E-05  0.5004E-07   0.000      0.6587E-05   0.000      0.5120E-07   0.000    
    2245  0.3089      0.1204E-03 SOLID          1 -69.7%  0.1949E-05  0.5004E-07   0.000      0.6590E-05   0.000      0.5120E-07   0.000    
    2246  0.3090      0.1204E-03 SOLID          1 -69.7%  0.1950E-05  0.5004E-07   0.000      0.6594E-05   0.000      0.5120E-07   0.000    
    2247  0.3091      0.1204E-03 SOLID          1 -69.7%  0.1951E-05  0.5004E-07   0.000      0.6598E-05   0.000      0.5120E-07   0.000    
    2248  0.3092      0.1204E-03 SOLID          1 -69.7%  0.1953E-05  0.5004E-07   0.000      0.6602E-05   0.000      0.5120E-07   0.000    
    2249  0.3093      0.1204E-03 SOLID          1 -69.7%  0.1954E-05  0.5004E-07   0.000      0.6606E-05   0.000      0.5120E-07   0.000    
    2250  0.3095      0.1204E-03 SOLID          1 -69.7%  0.1955E-05  0.5004E-07   0.000      0.6610E-05   0.000      0.5120E-07   0.000    
    2251  0.3096      0.1203E-03 SOLID          1 -69.7%  0.1957E-05  0.5004E-07   0.000      0.6614E-05   0.000      0.5120E-07   0.000    
    2252  0.3097      0.1203E-03 SOLID          1 -69.7%  0.1958E-05  0.5004E-07   0.000      0.6617E-05   0.000      0.5120E-07   0.000    
    2253  0.3098      0.1203E-03 SOLID          1 -69.7%  0.1959E-05  0.5004E-07   0.000      0.6621E-05   0.000      0.5120E-07   0.000    
    2254  0.3099      0.1203E-03 SOLID          1 -69.7%  0.1961E-05  0.5004E-07   0.000      0.6625E-05   0.000      0.5120E-07   0.000    
   CYCLE    TIME      TIME-STEP  ELEMENT          ERROR  I-ENERGY    K-ENERGY T  K-ENERGY R  EXT-WORK     MAS.ERR     TOTAL MASS  MASS ADDED
    2255  0.3101      0.1203E-03 SOLID          1 -69.7%  0.1962E-05  0.5003E-07   0.000      0.6629E-05   0.000      0.5120E-07   0.000    
    2256  0.3102      0.1203E-03 SOLID          1 -69.6%  0.1963E-05  0.5003E-07   0.000      0.6633E-05   0.000      0.5120E-07   0.000    
    2257  0.3103      0.1203E-03 SOLID          1 -69.6%  0.1965E-05  0.5003E-07   0.000      0.6637E-05   0.000      0.5120E-07   0.000    
    2258  0.3104      0.1203E-03 SOLID          1 -69.6%  0.1966E-05  0.5003E-07   0.000      0.6641E-05   0.000      0.5120E-07   0.000    
    2259  0.3105      0.1203E-03 SOLID          1 -69.6%  0.1967E-05  0.5003E-07   0.000      0.6644E-05   0.000      0.5120E-07   0.000    
    2260  0.3107      0.1203E-03 SOLID          1 -69.6%  0.1969E-05  0.5003E-07   0.000      0.6648E-05   0.000      0.5120E-07   0.000    
    2261  0.3108      0.1202E-03 SOLID          1 -69.6%  0.1970E-05  0.5003E-07   0.000      0.6652E-05   0.000      0.5120E-07   0.000    
    2262  0.3109      0.1202E-03 SOLID          1 -69.6%  0.1971E-05  0.5003E-07   0.000      0.6656E-05   0.000      0.5120E-07   0.000    
    2263  0.3110      0.1202E-03 SOLID          1 -69.6%  0.1973E-05  0.5003E-07   0.000      0.6660E-05   0.000      0.5120E-07   0.000    
    2264  0.3111      0.1202E-03 SOLID          1 -69.6%  0.1974E-05  0.5003E-07   0.000      0.6664E-05   0.000      0.5120E-07   0.000    
    2265  0.3113      0.1202E-03 SOLID          1 -69.6%  0.1975E-05  0.5003E-07   0.000      0.6668E-05   0.000      0.5120E-07   0.000    
    2266  0.3114      0.1202E-03 SOLID          1 -69.6%  0.1977E-05  0.5003E-07   0.000      0.6671E-05   0.000      0.5120E-07   0.000    
    2267  0.3115      0.1202E-03 SOLID          1 -69.6%  0.1978E-05  0.5003E-07   0.000      0.6675E-05   0.000      0.5120E-07   0.000    
    2268  0.3116      0.1202E-03 SOLID          1 -69.6%  0.1979E-05  0.5003E-07   0.000      0.6679E-05   0.000      0.5120E-07   0.000    
    2269  0.3117      0.1202E-03 SOLID          1 -69.6%  0.1981E-05  0.5003E-07   0.000      0.6683E-05   0.000      0.5120E-07   0.000    
    2270  0.3119      0.1202E-03 SOLID          1 -69.6%  0.1982E-05  0.5003E-07   0.000      0.6687E-05   0.000      0.5120E-07   0.000    
    2271  0.3120      0.1201E-03 SOLID          1 -69.6%  0.1983E-05  0.5003E-07   0.000      0.6691E-05   0.000      0.5120E-07   0.000    
    2272  0.3121      0.1201E-03 SOLID          1 -69.6%  0.1985E-05  0.5003E-07   0.000      0.6695E-05   0.000      0.5120E-07   0.000    
    2273  0.3122      0.1201E-03 SOLID          1 -69.6%  0.1986E-05  0.5003E-07   0.000      0.6699E-05   0.000      0.5120E-07   0.000    
    2274  0.3123      0.1201E-03 SOLID          1 -69.6%  0.1987E-05  0.5003E-07   0.000      0.6702E-05   0.000      0.5120E-07   0.000    
    2275  0.3125      0.1201E-03 SOLID          1 -69.6%  0.1989E-05  0.5003E-07   0.000      0.6706E-05   0.000      0.5120E-07   0.000    
    2276  0.3126      0.1201E-03 SOLID          1 -69.6%  0.1990E-05  0.5003E-07   0.000      0.6710E-05   0.000      0.5120E-07   0.000    
    2277  0.3127      0.1201E-03 SOLID          1 -69.6%  0.1992E-05  0.5003E-07   0.000      0.6714E-05   0.000      0.5120E-07   0.000    
    2278  0.3128      0.1201E-03 SOLID          1 -69.6%  0.1993E-05  0.5003E-07   0.000      0.6718E-05   0.000      0.5120E-07   0.000    
    2279  0.3129      0.1201E-03 SOLID          1 -69.6%  0.1994E-05  0.5003E-07   0.000      0.6722E-05   0.000      0.5120E-07   0.000    
    2280  0.3131      0.1201E-03 SOLID          1 -69.6%  0.1996E-05  0.5003E-07   0.000      0.6726E-05   0.000      0.5120E-07   0.000    
    2281  0.3132      0.1200E-03 SOLID          1 -69.6%  0.1997E-05  0.5003E-07   0.000      0.6730E-05   0.000      0.5120E-07   0.000    
    2282  0.3133      0.1200E-03 SOLID          1 -69.6%  0.1998E-05  0.5003E-07   0.000      0.6733E-05   0.000      0.5120E-07   0.000    
    2283  0.3134      0.1200E-03 SOLID          1 -69.6%  0.2000E-05  0.5003E-07   0.000      0.6737E-05   0.000      0.5120E-07   0.000    
    2284  0.3135      0.1200E-03 SOLID          1 -69.6%  0.2001E-05  0.5004E-07   0.000      0.6741E-05   0.000      0.5120E-07   0.000    
    2285  0.3137      0.1200E-03 SOLID          1 -69.6%  0.2003E-05  0.5004E-07   0.000      0.6745E-05   0.000      0.5120E-07   0.000    
    2286  0.3138      0.1200E-03 SOLID          1 -69.6%  0.2004E-05  0.5004E-07   0.000      0.6749E-05   0.000      0.5120E-07   0.000    
    2287  0.3139      0.1200E-03 SOLID          1 -69.6%  0.2005E-05  0.5004E-07   0.000      0.6753E-05   0.000      0.5120E-07   0.000    
    2288  0.3140      0.1200E-03 SOLID          1 -69.6%  0.2007E-05  0.5004E-07   0.000      0.6757E-05   0.000      0.5120E-07   0.000    
    2289  0.3141      0.1200E-03 SOLID          1 -69.6%  0.2008E-05  0.5004E-07   0.000      0.6761E-05   0.000      0.5120E-07   0.000    
    2290  0.3143      0.1199E-03 SOLID          1 -69.6%  0.2009E-05  0.5004E-07   0.000      0.6764E-05   0.000      0.5120E-07   0.000    
    2291  0.3144      0.1199E-03 SOLID          1 -69.6%  0.2011E-05  0.5004E-07   0.000      0.6768E-05   0.000      0.5120E-07   0.000    
    2292  0.3145      0.1199E-03 SOLID          1 -69.5%  0.2012E-05  0.5004E-07   0.000      0.6772E-05   0.000      0.5120E-07   0.000    
    2293  0.3146      0.1199E-03 SOLID          1 -69.5%  0.2014E-05  0.5004E-07   0.000      0.6776E-05   0.000      0.5120E-07   0.000    
    2294  0.3147      0.1199E-03 SOLID          1 -69.5%  0.2015E-05  0.5004E-07   0.000      0.6780E-05   0.000      0.5120E-07   0.000    
    2295  0.3149      0.1199E-03 SOLID          1 -69.5%  0.2016E-05  0.5005E-07   0.000      0.6784E-05   0.000      0.5120E-07   0.000    
    2296  0.3150      0.1199E-03 SOLID          1 -69.5%  0.2018E-05  0.5005E-07   0.000      0.6788E-05   0.000      0.5120E-07   0.000    
    2297  0.3151      0.1199E-03 SOLID          1 -69.5%  0.2019E-05  0.5005E-07   0.000      0.6792E-05   0.000      0.5120E-07   0.000    
    2298  0.3152      0.1199E-03 SOLID          1 -69.5%  0.2020E-05  0.5005E-07   0.000      0.6796E-05   0.000      0.5120E-07   0.000    
    2299  0.3153      0.1199E-03 SOLID          1 -69.5%  0.2022E-05  0.5005E-07   0.000      0.6799E-05   0.000      0.5120E-07   0.000    
    2300  0.3155      0.1198E-03 SOLID          1 -69.5%  0.2023E-05  0.5005E-07   0.000      0.6803E-05   0.000      0.5120E-07   0.000    
    2301  0.3156      0.1198E-03 SOLID          1 -69.5%  0.2025E-05  0.5005E-07   0.000      0.6807E-05   0.000      0.5120E-07   0.000    
    2302  0.3157      0.1198E-03 SOLID          1 -69.5%  0.2026E-05  0.5006E-07   0.000      0.6811E-05   0.000      0.5120E-07   0.000    
    2303  0.3158      0.1198E-03 SOLID          1 -69.5%  0.2027E-05  0.5006E-07   0.000      0.6815E-05   0.000      0.5120E-07   0.000    
    2304  0.3159      0.1198E-03 SOLID          1 -69.5%  0.2029E-05  0.5006E-07   0.000      0.6819E-05   0.000      0.5120E-07   0.000    
    2305  0.3161      0.1198E-03 SOLID          1 -69.5%  0.2030E-05  0.5006E-07   0.000      0.6823E-05   0.000      0.5120E-07   0.000    
    2306  0.3162      0.1198E-03 SOLID          1 -69.5%  0.2032E-05  0.5006E-07   0.000      0.6827E-05   0.000      0.5120E-07   0.000    
    2307  0.3163      0.1198E-03 SOLID          1 -69.5%  0.2033E-05  0.5006E-07   0.000      0.6831E-05   0.000      0.5120E-07   0.000    
    2308  0.3164      0.1198E-03 SOLID          1 -69.5%  0.2034E-05  0.5007E-07   0.000      0.6834E-05   0.000      0.5120E-07   0.000    
    2309  0.3165      0.1198E-03 SOLID          1 -69.5%  0.2036E-05  0.5007E-07   0.000      0.6838E-05   0.000      0.5120E-07   0.000    
   CYCLE    TIME      TIME-STEP  ELEMENT          ERROR  I-ENERGY    K-ENERGY T  K-ENERGY R  EXT-WORK     MAS.ERR     TOTAL MASS  MASS ADDED
    2310  0.3167      0.1198E-03 SOLID          1 -69.5%  0.2037E-05  0.5007E-07   0.000      0.6842E-05   0.000      0.5120E-07   0.000    
    2311  0.3168      0.1197E-03 SOLID          1 -69.5%  0.2039E-05  0.5007E-07   0.000      0.6846E-05   0.000      0.5120E-07   0.000    
    2312  0.3169      0.1197E-03 SOLID          1 -69.5%  0.2040E-05  0.5007E-07   0.000      0.6850E-05   0.000      0.5120E-07   0.000    
    2313  0.3170      0.1197E-03 SOLID          1 -69.5%  0.2041E-05  0.5008E-07   0.000      0.6854E-05   0.000      0.5120E-07   0.000    
    2314  0.3171      0.1197E-03 SOLID          1 -69.5%  0.2043E-05  0.5008E-07   0.000      0.6858E-05   0.000      0.5120E-07   0.000    
    2315  0.3173      0.1197E-03 SOLID          1 -69.5%  0.2044E-05  0.5008E-07   0.000      0.6862E-05   0.000      0.5120E-07   0.000    
    2316  0.3174      0.1197E-03 SOLID          1 -69.5%  0.2046E-05  0.5008E-07   0.000      0.6866E-05   0.000      0.5120E-07   0.000    
    2317  0.3175      0.1197E-03 SOLID          1 -69.5%  0.2047E-05  0.5008E-07   0.000      0.6870E-05   0.000      0.5120E-07   0.000    
    2318  0.3176      0.1197E-03 SOLID          1 -69.5%  0.2049E-05  0.5009E-07   0.000      0.6873E-05   0.000      0.5120E-07   0.000    
    2319  0.3177      0.1197E-03 SOLID          1 -69.5%  0.2050E-05  0.5009E-07   0.000      0.6877E-05   0.000      0.5120E-07   0.000    
    2320  0.3179      0.1197E-03 SOLID          1 -69.5%  0.2051E-05  0.5009E-07   0.000      0.6881E-05   0.000      0.5120E-07   0.000    
    2321  0.3180      0.1196E-03 SOLID          1 -69.5%  0.2053E-05  0.5009E-07   0.000      0.6885E-05   0.000      0.5120E-07   0.000    
    2322  0.3181      0.1196E-03 SOLID          1 -69.5%  0.2054E-05  0.5010E-07   0.000      0.6889E-05   0.000      0.5120E-07   0.000    
    2323  0.3182      0.1196E-03 SOLID          1 -69.5%  0.2056E-05  0.5010E-07   0.000      0.6893E-05   0.000      0.5120E-07   0.000    
    2324  0.3183      0.1196E-03 SOLID          1 -69.4%  0.2057E-05  0.5010E-07   0.000      0.6897E-05   0.000      0.5120E-07   0.000    
    2325  0.3185      0.1196E-03 SOLID          1 -69.4%  0.2058E-05  0.5010E-07   0.000      0.6901E-05   0.000      0.5120E-07   0.000    
    2326  0.3186      0.1196E-03 SOLID          1 -69.4%  0.2060E-05  0.5011E-07   0.000      0.6905E-05   0.000      0.5120E-07   0.000    
    2327  0.3187      0.1196E-03 SOLID          1 -69.4%  0.2061E-05  0.5011E-07   0.000      0.6909E-05   0.000      0.5120E-07   0.000    
    2328  0.3188      0.1196E-03 SOLID          1 -69.4%  0.2063E-05  0.5011E-07   0.000      0.6912E-05   0.000      0.5120E-07   0.000    
    2329  0.3189      0.1196E-03 SOLID          1 -69.4%  0.2064E-05  0.5011E-07   0.000      0.6916E-05   0.000      0.5120E-07   0.000    
    2330  0.3191      0.1196E-03 SOLID          1 -69.4%  0.2066E-05  0.5012E-07   0.000      0.6920E-05   0.000      0.5120E-07   0.000    
    2331  0.3192      0.1195E-03 SOLID          1 -69.4%  0.2067E-05  0.5012E-07   0.000      0.6924E-05   0.000      0.5120E-07   0.000    
    2332  0.3193      0.1195E-03 SOLID          1 -69.4%  0.2068E-05  0.5012E-07   0.000      0.6928E-05   0.000      0.5120E-07   0.000    
    2333  0.3194      0.1195E-03 SOLID          1 -69.4%  0.2070E-05  0.5013E-07   0.000      0.6932E-05   0.000      0.5120E-07   0.000    
    2334  0.3195      0.1195E-03 SOLID          1 -69.4%  0.2071E-05  0.5013E-07   0.000      0.6936E-05   0.000      0.5120E-07   0.000    
    2335  0.3196      0.1195E-03 SOLID          1 -69.4%  0.2073E-05  0.5013E-07   0.000      0.6940E-05   0.000      0.5120E-07   0.000    
    2336  0.3198      0.1195E-03 SOLID          1 -69.4%  0.2074E-05  0.5013E-07   0.000      0.6944E-05   0.000      0.5120E-07   0.000    
    2337  0.3199      0.1195E-03 SOLID          1 -69.4%  0.2076E-05  0.5014E-07   0.000      0.6948E-05   0.000      0.5120E-07   0.000    
    2338  0.3200      0.1195E-03 SOLID          1 -69.4%  0.2077E-05  0.5014E-07   0.000      0.6952E-05   0.000      0.5120E-07   0.000    
    2339  0.3201      0.1195E-03 SOLID          1 -69.4%  0.2079E-05  0.5014E-07   0.000      0.6956E-05   0.000      0.5120E-07   0.000    
    2340  0.3202      0.1195E-03 SOLID          1 -69.4%  0.2080E-05  0.5015E-07   0.000      0.6959E-05   0.000      0.5120E-07   0.000    
    2341  0.3204      0.1194E-03 SOLID          1 -69.4%  0.2081E-05  0.5015E-07   0.000      0.6963E-05   0.000      0.5120E-07   0.000    
    2342  0.3205      0.1194E-03 SOLID          1 -69.4%  0.2083E-05  0.5015E-07   0.000      0.6967E-05   0.000      0.5120E-07   0.000    
    2343  0.3206      0.1194E-03 SOLID          1 -69.4%  0.2084E-05  0.5016E-07   0.000      0.6971E-05   0.000      0.5120E-07   0.000    
    2344  0.3207      0.1194E-03 SOLID          1 -69.4%  0.2086E-05  0.5016E-07   0.000      0.6975E-05   0.000      0.5120E-07   0.000    
    2345  0.3208      0.1194E-03 SOLID          1 -69.4%  0.2087E-05  0.5016E-07   0.000      0.6979E-05   0.000      0.5120E-07   0.000    
    2346  0.3210      0.1194E-03 SOLID          1 -69.4%  0.2089E-05  0.5017E-07   0.000      0.6983E-05   0.000      0.5120E-07   0.000    
    2347  0.3211      0.1194E-03 SOLID          1 -69.4%  0.2090E-05  0.5017E-07   0.000      0.6987E-05   0.000      0.5120E-07   0.000    
    2348  0.3212      0.1194E-03 SOLID          1 -69.4%  0.2092E-05  0.5017E-07   0.000      0.6991E-05   0.000      0.5120E-07   0.000    
    2349  0.3213      0.1194E-03 SOLID          1 -69.4%  0.2093E-05  0.5018E-07   0.000      0.6995E-05   0.000      0.5120E-07   0.000    
    2350  0.3214      0.1194E-03 SOLID          1 -69.4%  0.2094E-05  0.5018E-07   0.000      0.6999E-05   0.000      0.5120E-07   0.000    
    2351  0.3216      0.1194E-03 SOLID          1 -69.4%  0.2096E-05  0.5018E-07   0.000      0.7003E-05   0.000      0.5120E-07   0.000    
    2352  0.3217      0.1193E-03 SOLID          1 -69.3%  0.2097E-05  0.5019E-07   0.000      0.7007E-05   0.000      0.5120E-07   0.000    
    2353  0.3218      0.1193E-03 SOLID          1 -69.3%  0.2099E-05  0.5019E-07   0.000      0.7010E-05   0.000      0.5120E-07   0.000    
    2354  0.3219      0.1193E-03 SOLID          1 -69.3%  0.2100E-05  0.5020E-07   0.000      0.7014E-05   0.000      0.5120E-07   0.000    
    2355  0.3220      0.1193E-03 SOLID          1 -69.3%  0.2102E-05  0.5020E-07   0.000      0.7018E-05   0.000      0.5120E-07   0.000    
    2356  0.3222      0.1193E-03 SOLID          1 -69.3%  0.2103E-05  0.5020E-07   0.000      0.7022E-05   0.000      0.5120E-07   0.000    
    2357  0.3223      0.1193E-03 SOLID          1 -69.3%  0.2105E-05  0.5021E-07   0.000      0.7026E-05   0.000      0.5120E-07   0.000    
    2358  0.3224      0.1193E-03 SOLID          1 -69.3%  0.2106E-05  0.5021E-07   0.000      0.7030E-05   0.000      0.5120E-07   0.000    
    2359  0.3225      0.1193E-03 SOLID          1 -69.3%  0.2108E-05  0.5021E-07   0.000      0.7034E-05   0.000      0.5120E-07   0.000    
    2360  0.3226      0.1193E-03 SOLID          1 -69.3%  0.2109E-05  0.5022E-07   0.000      0.7038E-05   0.000      0.5120E-07   0.000    
    2361  0.3228      0.1193E-03 SOLID          1 -69.3%  0.2110E-05  0.5022E-07   0.000      0.7042E-05   0.000      0.5120E-07   0.000    
    2362  0.3229      0.1192E-03 SOLID          1 -69.3%  0.2112E-05  0.5023E-07   0.000      0.7046E-05   0.000      0.5120E-07   0.000    
    2363  0.3230      0.1192E-03 SOLID          1 -69.3%  0.2113E-05  0.5023E-07   0.000      0.7050E-05   0.000      0.5120E-07   0.000    
    2364  0.3231      0.1192E-03 SOLID          1 -69.3%  0.2115E-05  0.5023E-07   0.000      0.7054E-05   0.000      0.5120E-07   0.000    
   CYCLE    TIME      TIME-STEP  ELEMENT          ERROR  I-ENERGY    K-ENERGY T  K-ENERGY R  EXT-WORK     MAS.ERR     TOTAL MASS  MASS ADDED
    2365  0.3232      0.1192E-03 SOLID          1 -69.3%  0.2116E-05  0.5024E-07   0.000      0.7058E-05   0.000      0.5120E-07   0.000    
    2366  0.3233      0.1192E-03 SOLID          1 -69.3%  0.2118E-05  0.5024E-07   0.000      0.7062E-05   0.000      0.5120E-07   0.000    
    2367  0.3235      0.1192E-03 SOLID          1 -69.3%  0.2119E-05  0.5025E-07   0.000      0.7065E-05   0.000      0.5120E-07   0.000    
    2368  0.3236      0.1192E-03 SOLID          1 -69.3%  0.2121E-05  0.5025E-07   0.000      0.7069E-05   0.000      0.5120E-07   0.000    
    2369  0.3237      0.1192E-03 SOLID          1 -69.3%  0.2122E-05  0.5025E-07   0.000      0.7073E-05   0.000      0.5120E-07   0.000    
    2370  0.3238      0.1192E-03 SOLID          1 -69.3%  0.2124E-05  0.5026E-07   0.000      0.7077E-05   0.000      0.5120E-07   0.000    
    2371  0.3239      0.1192E-03 SOLID          1 -69.3%  0.2125E-05  0.5026E-07   0.000      0.7081E-05   0.000      0.5120E-07   0.000    
    2372  0.3241      0.1192E-03 SOLID          1 -69.3%  0.2127E-05  0.5027E-07   0.000      0.7085E-05   0.000      0.5120E-07   0.000    
    2373  0.3242      0.1191E-03 SOLID          1 -69.3%  0.2128E-05  0.5027E-07   0.000      0.7089E-05   0.000      0.5120E-07   0.000    
    2374  0.3243      0.1191E-03 SOLID          1 -69.3%  0.2130E-05  0.5027E-07   0.000      0.7093E-05   0.000      0.5120E-07   0.000    
    2375  0.3244      0.1191E-03 SOLID          1 -69.3%  0.2131E-05  0.5028E-07   0.000      0.7097E-05   0.000      0.5120E-07   0.000    
    2376  0.3245      0.1191E-03 SOLID          1 -69.3%  0.2133E-05  0.5028E-07   0.000      0.7101E-05   0.000      0.5120E-07   0.000    
    2377  0.3247      0.1191E-03 SOLID          1 -69.3%  0.2134E-05  0.5029E-07   0.000      0.7105E-05   0.000      0.5120E-07   0.000    
    2378  0.3248      0.1191E-03 SOLID          1 -69.3%  0.2136E-05  0.5029E-07   0.000      0.7109E-05   0.000      0.5120E-07   0.000    
    2379  0.3249      0.1191E-03 SOLID          1 -69.2%  0.2137E-05  0.5030E-07   0.000      0.7113E-05   0.000      0.5120E-07   0.000    
    2380  0.3250      0.1191E-03 SOLID          1 -69.2%  0.2139E-05  0.5030E-07   0.000      0.7117E-05   0.000      0.5120E-07   0.000    
    2381  0.3251      0.1191E-03 SOLID          1 -69.2%  0.2140E-05  0.5030E-07   0.000      0.7121E-05   0.000      0.5120E-07   0.000    
    2382  0.3253      0.1191E-03 SOLID          1 -69.2%  0.2142E-05  0.5031E-07   0.000      0.7125E-05   0.000      0.5120E-07   0.000    
    2383  0.3254      0.1191E-03 SOLID          1 -69.2%  0.2143E-05  0.5031E-07   0.000      0.7129E-05   0.000      0.5120E-07   0.000    
    2384  0.3255      0.1190E-03 SOLID          1 -69.2%  0.2145E-05  0.5032E-07   0.000      0.7133E-05   0.000      0.5120E-07   0.000    
    2385  0.3256      0.1190E-03 SOLID          1 -69.2%  0.2146E-05  0.5032E-07   0.000      0.7136E-05   0.000      0.5120E-07   0.000    
    2386  0.3257      0.1190E-03 SOLID          1 -69.2%  0.2148E-05  0.5033E-07   0.000      0.7140E-05   0.000      0.5120E-07   0.000    
    2387  0.3258      0.1190E-03 SOLID          1 -69.2%  0.2149E-05  0.5033E-07   0.000      0.7144E-05   0.000      0.5120E-07   0.000    
    2388  0.3260      0.1190E-03 SOLID          1 -69.2%  0.2151E-05  0.5033E-07   0.000      0.7148E-05   0.000      0.5120E-07   0.000    
    2389  0.3261      0.1190E-03 SOLID          1 -69.2%  0.2152E-05  0.5034E-07   0.000      0.7152E-05   0.000      0.5120E-07   0.000    
    2390  0.3262      0.1190E-03 SOLID          1 -69.2%  0.2154E-05  0.5034E-07   0.000      0.7156E-05   0.000      0.5120E-07   0.000    
    2391  0.3263      0.1190E-03 SOLID          1 -69.2%  0.2155E-05  0.5035E-07   0.000      0.7160E-05   0.000      0.5120E-07   0.000    
    2392  0.3264      0.1190E-03 SOLID          1 -69.2%  0.2157E-05  0.5035E-07   0.000      0.7164E-05   0.000      0.5120E-07   0.000    
    2393  0.3266      0.1190E-03 SOLID          1 -69.2%  0.2158E-05  0.5036E-07   0.000      0.7168E-05   0.000      0.5120E-07   0.000    
    2394  0.3267      0.1190E-03 SOLID          1 -69.2%  0.2160E-05  0.5036E-07   0.000      0.7172E-05   0.000      0.5120E-07   0.000    
    2395  0.3268      0.1189E-03 SOLID          1 -69.2%  0.2161E-05  0.5036E-07   0.000      0.7176E-05   0.000      0.5120E-07   0.000    
    2396  0.3269      0.1189E-03 SOLID          1 -69.2%  0.2163E-05  0.5037E-07   0.000      0.7180E-05   0.000      0.5120E-07   0.000    
    2397  0.3270      0.1189E-03 SOLID          1 -69.2%  0.2164E-05  0.5037E-07   0.000      0.7184E-05   0.000      0.5120E-07   0.000    
    2398  0.3272      0.1189E-03 SOLID          1 -69.2%  0.2166E-05  0.5038E-07   0.000      0.7188E-05   0.000      0.5120E-07   0.000    
    2399  0.3273      0.1189E-03 SOLID          1 -69.2%  0.2167E-05  0.5038E-07   0.000      0.7192E-05   0.000      0.5120E-07   0.000    
    2400  0.3274      0.1189E-03 SOLID          1 -69.2%  0.2169E-05  0.5039E-07   0.000      0.7196E-05   0.000      0.5120E-07   0.000    
    2401  0.3275      0.1189E-03 SOLID          1 -69.2%  0.2170E-05  0.5039E-07   0.000      0.7200E-05   0.000      0.5120E-07   0.000    
    2402  0.3276      0.1189E-03 SOLID          1 -69.2%  0.2172E-05  0.5039E-07   0.000      0.7204E-05   0.000      0.5120E-07   0.000    
    2403  0.3278      0.1189E-03 SOLID          1 -69.2%  0.2173E-05  0.5040E-07   0.000      0.7208E-05   0.000      0.5120E-07   0.000    
    2404  0.3279      0.1189E-03 SOLID          1 -69.1%  0.2175E-05  0.5040E-07   0.000      0.7212E-05   0.000      0.5120E-07   0.000    
    2405  0.3280      0.1189E-03 SOLID          1 -69.1%  0.2176E-05  0.5041E-07   0.000      0.7216E-05   0.000      0.5120E-07   0.000    
    2406  0.3281      0.1188E-03 SOLID          1 -69.1%  0.2178E-05  0.5041E-07   0.000      0.7220E-05   0.000      0.5120E-07   0.000    
    2407  0.3282      0.1188E-03 SOLID          1 -69.1%  0.2179E-05  0.5042E-07   0.000      0.7224E-05   0.000      0.5120E-07   0.000    
    2408  0.3283      0.1188E-03 SOLID          1 -69.1%  0.2181E-05  0.5042E-07   0.000      0.7228E-05   0.000      0.5120E-07   0.000    
    2409  0.3285      0.1188E-03 SOLID          1 -69.1%  0.2182E-05  0.5042E-07   0.000      0.7232E-05   0.000      0.5120E-07   0.000    
    2410  0.3286      0.1188E-03 SOLID          1 -69.1%  0.2184E-05  0.5043E-07   0.000      0.7235E-05   0.000      0.5120E-07   0.000    
    2411  0.3287      0.1188E-03 SOLID          1 -69.1%  0.2185E-05  0.5043E-07   0.000      0.7239E-05   0.000      0.5120E-07   0.000    
    2412  0.3288      0.1188E-03 SOLID          1 -69.1%  0.2187E-05  0.5044E-07   0.000      0.7243E-05   0.000      0.5120E-07   0.000    
    2413  0.3289      0.1188E-03 SOLID          1 -69.1%  0.2188E-05  0.5044E-07   0.000      0.7247E-05   0.000      0.5120E-07   0.000    
    2414  0.3291      0.1188E-03 SOLID          1 -69.1%  0.2190E-05  0.5045E-07   0.000      0.7251E-05   0.000      0.5120E-07   0.000    
    2415  0.3292      0.1188E-03 SOLID          1 -69.1%  0.2191E-05  0.5045E-07   0.000      0.7255E-05   0.000      0.5120E-07   0.000    
    2416  0.3293      0.1188E-03 SOLID          1 -69.1%  0.2193E-05  0.5045E-07   0.000      0.7259E-05   0.000      0.5120E-07   0.000    
    2417  0.3294      0.1187E-03 SOLID          1 -69.1%  0.2195E-05  0.5046E-07   0.000      0.7263E-05   0.000      0.5120E-07   0.000    
    2418  0.3295      0.1187E-03 SOLID          1 -69.1%  0.2196E-05  0.5046E-07   0.000      0.7267E-05   0.000      0.5120E-07   0.000    
    2419  0.3297      0.1187E-03 SOLID          1 -69.1%  0.2198E-05  0.5047E-07   0.000      0.7271E-05   0.000      0.5120E-07   0.000    
   CYCLE    TIME      TIME-STEP  ELEMENT          ERROR  I-ENERGY    K-ENERGY T  K-ENERGY R  EXT-WORK     MAS.ERR     TOTAL MASS  MASS ADDED
    2420  0.3298      0.1187E-03 SOLID          1 -69.1%  0.2199E-05  0.5047E-07   0.000      0.7275E-05   0.000      0.5120E-07   0.000    
    2421  0.3299      0.1187E-03 SOLID          1 -69.1%  0.2201E-05  0.5048E-07   0.000      0.7279E-05   0.000      0.5120E-07   0.000    
    2422  0.3300      0.1187E-03 SOLID          1 -69.1%  0.2202E-05  0.5048E-07   0.000      0.7283E-05   0.000      0.5120E-07   0.000    
    2423  0.3301      0.1187E-03 SOLID          1 -69.1%  0.2204E-05  0.5048E-07   0.000      0.7287E-05   0.000      0.5120E-07   0.000    
    2424  0.3302      0.1187E-03 SOLID          1 -69.1%  0.2205E-05  0.5049E-07   0.000      0.7291E-05   0.000      0.5120E-07   0.000    
    2425  0.3304      0.1187E-03 SOLID          1 -69.1%  0.2207E-05  0.5049E-07   0.000      0.7295E-05   0.000      0.5120E-07   0.000    
    2426  0.3305      0.1187E-03 SOLID          1 -69.1%  0.2208E-05  0.5050E-07   0.000      0.7299E-05   0.000      0.5120E-07   0.000    
    2427  0.3306      0.1187E-03 SOLID          1 -69.0%  0.2210E-05  0.5050E-07   0.000      0.7303E-05   0.000      0.5120E-07   0.000    
    2428  0.3307      0.1186E-03 SOLID          1 -69.0%  0.2212E-05  0.5050E-07   0.000      0.7307E-05   0.000      0.5120E-07   0.000    
    2429  0.3308      0.1186E-03 SOLID          1 -69.0%  0.2213E-05  0.5051E-07   0.000      0.7311E-05   0.000      0.5120E-07   0.000    
    2430  0.3310      0.1186E-03 SOLID          1 -69.0%  0.2215E-05  0.5051E-07   0.000      0.7315E-05   0.000      0.5120E-07   0.000    
    2431  0.3311      0.1186E-03 SOLID          1 -69.0%  0.2216E-05  0.5052E-07   0.000      0.7319E-05   0.000      0.5120E-07   0.000    
    2432  0.3312      0.1186E-03 SOLID          1 -69.0%  0.2218E-05  0.5052E-07   0.000      0.7323E-05   0.000      0.5120E-07   0.000    
    2433  0.3313      0.1186E-03 SOLID          1 -69.0%  0.2219E-05  0.5052E-07   0.000      0.7327E-05   0.000      0.5120E-07   0.000    
    2434  0.3314      0.1186E-03 SOLID          1 -69.0%  0.2221E-05  0.5053E-07   0.000      0.7331E-05   0.000      0.5120E-07   0.000    
    2435  0.3316      0.1186E-03 SOLID          1 -69.0%  0.2222E-05  0.5053E-07   0.000      0.7335E-05   0.000      0.5120E-07   0.000    
    2436  0.3317      0.1186E-03 SOLID          1 -69.0%  0.2224E-05  0.5053E-07   0.000      0.7339E-05   0.000      0.5120E-07   0.000    
    2437  0.3318      0.1186E-03 SOLID          1 -69.0%  0.2225E-05  0.5054E-07   0.000      0.7343E-05   0.000      0.5120E-07   0.000    
    2438  0.3319      0.1186E-03 SOLID          1 -69.0%  0.2227E-05  0.5054E-07   0.000      0.7347E-05   0.000      0.5120E-07   0.000    
    2439  0.3320      0.1185E-03 SOLID          1 -69.0%  0.2229E-05  0.5055E-07   0.000      0.7351E-05   0.000      0.5120E-07   0.000    
    2440  0.3321      0.1185E-03 SOLID          1 -69.0%  0.2230E-05  0.5055E-07   0.000      0.7355E-05   0.000      0.5120E-07   0.000    
    2441  0.3323      0.1185E-03 SOLID          1 -69.0%  0.2232E-05  0.5055E-07   0.000      0.7359E-05   0.000      0.5120E-07   0.000    
    2442  0.3324      0.1185E-03 SOLID          1 -69.0%  0.2233E-05  0.5056E-07   0.000      0.7363E-05   0.000      0.5120E-07   0.000    
    2443  0.3325      0.1185E-03 SOLID          1 -69.0%  0.2235E-05  0.5056E-07   0.000      0.7367E-05   0.000      0.5120E-07   0.000    
    2444  0.3326      0.1185E-03 SOLID          1 -69.0%  0.2236E-05  0.5056E-07   0.000      0.7371E-05   0.000      0.5120E-07   0.000    
    2445  0.3327      0.1185E-03 SOLID          1 -69.0%  0.2238E-05  0.5057E-07   0.000      0.7375E-05   0.000      0.5120E-07   0.000    
    2446  0.3329      0.1185E-03 SOLID          1 -69.0%  0.2240E-05  0.5057E-07   0.000      0.7379E-05   0.000      0.5120E-07   0.000    
    2447  0.3330      0.1185E-03 SOLID          1 -69.0%  0.2241E-05  0.5057E-07   0.000      0.7383E-05   0.000      0.5120E-07   0.000    
    2448  0.3331      0.1185E-03 SOLID          1 -69.0%  0.2243E-05  0.5058E-07   0.000      0.7387E-05   0.000      0.5120E-07   0.000    
    2449  0.3332      0.1185E-03 SOLID          1 -69.0%  0.2244E-05  0.5058E-07   0.000      0.7391E-05   0.000      0.5120E-07   0.000    
    2450  0.3333      0.1185E-03 SOLID          1 -68.9%  0.2246E-05  0.5058E-07   0.000      0.7395E-05   0.000      0.5120E-07   0.000    
    2451  0.3334      0.1184E-03 SOLID          1 -68.9%  0.2247E-05  0.5059E-07   0.000      0.7399E-05   0.000      0.5120E-07   0.000    
    2452  0.3336      0.1184E-03 SOLID          1 -68.9%  0.2249E-05  0.5059E-07   0.000      0.7403E-05   0.000      0.5120E-07   0.000    
    2453  0.3337      0.1184E-03 SOLID          1 -68.9%  0.2251E-05  0.5059E-07   0.000      0.7407E-05   0.000      0.5120E-07   0.000    
    2454  0.3338      0.1184E-03 SOLID          1 -68.9%  0.2252E-05  0.5059E-07   0.000      0.7411E-05   0.000      0.5120E-07   0.000    
    2455  0.3339      0.1184E-03 SOLID          1 -68.9%  0.2254E-05  0.5060E-07   0.000      0.7415E-05   0.000      0.5120E-07   0.000    
    2456  0.3340      0.1184E-03 SOLID          1 -68.9%  0.2255E-05  0.5060E-07   0.000      0.7419E-05   0.000      0.5120E-07   0.000    
    2457  0.3342      0.1184E-03 SOLID          1 -68.9%  0.2257E-05  0.5060E-07   0.000      0.7423E-05   0.000      0.5120E-07   0.000    
    2458  0.3343      0.1184E-03 SOLID          1 -68.9%  0.2259E-05  0.5061E-07   0.000      0.7427E-05   0.000      0.5120E-07   0.000    
    2459  0.3344      0.1184E-03 SOLID          1 -68.9%  0.2260E-05  0.5061E-07   0.000      0.7431E-05   0.000      0.5120E-07   0.000    
    2460  0.3345      0.1184E-03 SOLID          1 -68.9%  0.2262E-05  0.5061E-07   0.000      0.7435E-05   0.000      0.5120E-07   0.000    
    2461  0.3346      0.1184E-03 SOLID          1 -68.9%  0.2263E-05  0.5061E-07   0.000      0.7439E-05   0.000      0.5120E-07   0.000    
    2462  0.3348      0.1183E-03 SOLID          1 -68.9%  0.2265E-05  0.5062E-07   0.000      0.7443E-05   0.000      0.5120E-07   0.000    
    2463  0.3349      0.1183E-03 SOLID          1 -68.9%  0.2266E-05  0.5062E-07   0.000      0.7447E-05   0.000      0.5120E-07   0.000    
    2464  0.3350      0.1183E-03 SOLID          1 -68.9%  0.2268E-05  0.5062E-07   0.000      0.7451E-05   0.000      0.5120E-07   0.000    
    2465  0.3351      0.1183E-03 SOLID          1 -68.9%  0.2270E-05  0.5062E-07   0.000      0.7455E-05   0.000      0.5120E-07   0.000    
    2466  0.3352      0.1183E-03 SOLID          1 -68.9%  0.2271E-05  0.5063E-07   0.000      0.7459E-05   0.000      0.5120E-07   0.000    
    2467  0.3353      0.1183E-03 SOLID          1 -68.9%  0.2273E-05  0.5063E-07   0.000      0.7463E-05   0.000      0.5120E-07   0.000    
    2468  0.3355      0.1183E-03 SOLID          1 -68.9%  0.2274E-05  0.5063E-07   0.000      0.7467E-05   0.000      0.5120E-07   0.000    
    2469  0.3356      0.1183E-03 SOLID          1 -68.9%  0.2276E-05  0.5063E-07   0.000      0.7471E-05   0.000      0.5120E-07   0.000    
    2470  0.3357      0.1183E-03 SOLID          1 -68.9%  0.2278E-05  0.5064E-07   0.000      0.7475E-05   0.000      0.5120E-07   0.000    
    2471  0.3358      0.1183E-03 SOLID          1 -68.8%  0.2279E-05  0.5064E-07   0.000      0.7479E-05   0.000      0.5120E-07   0.000    
    2472  0.3359      0.1183E-03 SOLID          1 -68.8%  0.2281E-05  0.5064E-07   0.000      0.7483E-05   0.000      0.5120E-07   0.000    
    2473  0.3361      0.1183E-03 SOLID          1 -68.8%  0.2282E-05  0.5064E-07   0.000      0.7487E-05   0.000      0.5120E-07   0.000    
    2474  0.3362      0.1182E-03 SOLID          1 -68.8%  0.2284E-05  0.5064E-07   0.000      0.7491E-05   0.000      0.5120E-07   0.000    
   CYCLE    TIME      TIME-STEP  ELEMENT          ERROR  I-ENERGY    K-ENERGY T  K-ENERGY R  EXT-WORK     MAS.ERR     TOTAL MASS  MASS ADDED
    2475  0.3363      0.1182E-03 SOLID          1 -68.8%  0.2286E-05  0.5065E-07   0.000      0.7495E-05   0.000      0.5120E-07   0.000    
    2476  0.3364      0.1182E-03 SOLID          1 -68.8%  0.2287E-05  0.5065E-07   0.000      0.7499E-05   0.000      0.5120E-07   0.000    
    2477  0.3365      0.1182E-03 SOLID          1 -68.8%  0.2289E-05  0.5065E-07   0.000      0.7503E-05   0.000      0.5120E-07   0.000    
    2478  0.3366      0.1182E-03 SOLID          1 -68.8%  0.2290E-05  0.5065E-07   0.000      0.7507E-05   0.000      0.5120E-07   0.000    
    2479  0.3368      0.1182E-03 SOLID          1 -68.8%  0.2292E-05  0.5065E-07   0.000      0.7511E-05   0.000      0.5120E-07   0.000    
    2480  0.3369      0.1182E-03 SOLID          1 -68.8%  0.2294E-05  0.5065E-07   0.000      0.7515E-05   0.000      0.5120E-07   0.000    
    2481  0.3370      0.1182E-03 SOLID          1 -68.8%  0.2295E-05  0.5066E-07   0.000      0.7519E-05   0.000      0.5120E-07   0.000    
    2482  0.3371      0.1182E-03 SOLID          1 -68.8%  0.2297E-05  0.5066E-07   0.000      0.7523E-05   0.000      0.5120E-07   0.000    
    2483  0.3372      0.1182E-03 SOLID          1 -68.8%  0.2299E-05  0.5066E-07   0.000      0.7527E-05   0.000      0.5120E-07   0.000    
    2484  0.3374      0.1182E-03 SOLID          1 -68.8%  0.2300E-05  0.5066E-07   0.000      0.7531E-05   0.000      0.5120E-07   0.000    
    2485  0.3375      0.1181E-03 SOLID          1 -68.8%  0.2302E-05  0.5066E-07   0.000      0.7535E-05   0.000      0.5120E-07   0.000    
    2486  0.3376      0.1181E-03 SOLID          1 -68.8%  0.2303E-05  0.5066E-07   0.000      0.7539E-05   0.000      0.5120E-07   0.000    
    2487  0.3377      0.1181E-03 SOLID          1 -68.8%  0.2305E-05  0.5066E-07   0.000      0.7543E-05   0.000      0.5120E-07   0.000    
    2488  0.3378      0.1181E-03 SOLID          1 -68.8%  0.2307E-05  0.5066E-07   0.000      0.7547E-05   0.000      0.5120E-07   0.000    
    2489  0.3379      0.1181E-03 SOLID          1 -68.8%  0.2308E-05  0.5067E-07   0.000      0.7552E-05   0.000      0.5120E-07   0.000    
    2490  0.3381      0.1181E-03 SOLID          1 -68.8%  0.2310E-05  0.5067E-07   0.000      0.7556E-05   0.000      0.5120E-07   0.000    
    2491  0.3382      0.1181E-03 SOLID          1 -68.8%  0.2311E-05  0.5067E-07   0.000      0.7560E-05   0.000      0.5120E-07   0.000    
    2492  0.3383      0.1181E-03 SOLID          1 -68.7%  0.2313E-05  0.5067E-07   0.000      0.7564E-05   0.000      0.5120E-07   0.000    
    2493  0.3384      0.1181E-03 SOLID          1 -68.7%  0.2315E-05  0.5067E-07   0.000      0.7568E-05   0.000      0.5120E-07   0.000    
    2494  0.3385      0.1181E-03 SOLID          1 -68.7%  0.2316E-05  0.5067E-07   0.000      0.7572E-05   0.000      0.5120E-07   0.000    
    2495  0.3387      0.1181E-03 SOLID          1 -68.7%  0.2318E-05  0.5067E-07   0.000      0.7576E-05   0.000      0.5120E-07   0.000    
    2496  0.3388      0.1181E-03 SOLID          1 -68.7%  0.2320E-05  0.5067E-07   0.000      0.7580E-05   0.000      0.5120E-07   0.000    
    2497  0.3389      0.1180E-03 SOLID          1 -68.7%  0.2321E-05  0.5067E-07   0.000      0.7584E-05   0.000      0.5120E-07   0.000    
    2498  0.3390      0.1180E-03 SOLID          1 -68.7%  0.2323E-05  0.5067E-07   0.000      0.7588E-05   0.000      0.5120E-07   0.000    
    2499  0.3391      0.1180E-03 SOLID          1 -68.7%  0.2325E-05  0.5067E-07   0.000      0.7592E-05   0.000      0.5120E-07   0.000    
    2500  0.3392      0.1180E-03 SOLID          1 -68.7%  0.2326E-05  0.5067E-07   0.000      0.7596E-05   0.000      0.5120E-07   0.000    
    2501  0.3394      0.1180E-03 SOLID          1 -68.7%  0.2328E-05  0.5067E-07   0.000      0.7600E-05   0.000      0.5120E-07   0.000    
    2502  0.3395      0.1180E-03 SOLID          1 -68.7%  0.2329E-05  0.5067E-07   0.000      0.7604E-05   0.000      0.5120E-07   0.000    
    2503  0.3396      0.1180E-03 SOLID          1 -68.7%  0.2331E-05  0.5067E-07   0.000      0.7608E-05   0.000      0.5120E-07   0.000    
    2504  0.3397      0.1180E-03 SOLID          1 -68.7%  0.2333E-05  0.5067E-07   0.000      0.7612E-05   0.000      0.5120E-07   0.000    
    2505  0.3398      0.1180E-03 SOLID          1 -68.7%  0.2334E-05  0.5067E-07   0.000      0.7616E-05   0.000      0.5120E-07   0.000    
    2506  0.3400      0.1180E-03 SOLID          1 -68.7%  0.2336E-05  0.5067E-07   0.000      0.7620E-05   0.000      0.5120E-07   0.000    
    2507  0.3401      0.1180E-03 SOLID          1 -68.7%  0.2338E-05  0.5067E-07   0.000      0.7624E-05   0.000      0.5120E-07   0.000    
    2508  0.3402      0.1180E-03 SOLID          1 -68.7%  0.2339E-05  0.5067E-07   0.000      0.7628E-05   0.000      0.5120E-07   0.000    
    2509  0.3403      0.1179E-03 SOLID          1 -68.7%  0.2341E-05  0.5067E-07   0.000      0.7632E-05   0.000      0.5120E-07   0.000    
    2510  0.3404      0.1179E-03 SOLID          1 -68.7%  0.2343E-05  0.5067E-07   0.000      0.7636E-05   0.000      0.5120E-07   0.000    
    2511  0.3405      0.1179E-03 SOLID          1 -68.7%  0.2344E-05  0.5067E-07   0.000      0.7640E-05   0.000      0.5120E-07   0.000    
    2512  0.3407      0.1179E-03 SOLID          1 -68.6%  0.2346E-05  0.5067E-07   0.000      0.7644E-05   0.000      0.5120E-07   0.000    
    2513  0.3408      0.1179E-03 SOLID          1 -68.6%  0.2348E-05  0.5067E-07   0.000      0.7649E-05   0.000      0.5120E-07   0.000    
    2514  0.3409      0.1179E-03 SOLID          1 -68.6%  0.2349E-05  0.5066E-07   0.000      0.7653E-05   0.000      0.5120E-07   0.000    
    2515  0.3410      0.1179E-03 SOLID          1 -68.6%  0.2351E-05  0.5066E-07   0.000      0.7657E-05   0.000      0.5120E-07   0.000    
    2516  0.3411      0.1179E-03 SOLID          1 -68.6%  0.2353E-05  0.5066E-07   0.000      0.7661E-05   0.000      0.5120E-07   0.000    
    2517  0.3412      0.1179E-03 SOLID          1 -68.6%  0.2354E-05  0.5066E-07   0.000      0.7665E-05   0.000      0.5120E-07   0.000    
    2518  0.3414      0.1179E-03 SOLID          1 -68.6%  0.2356E-05  0.5066E-07   0.000      0.7669E-05   0.000      0.5120E-07   0.000    
    2519  0.3415      0.1179E-03 SOLID          1 -68.6%  0.2357E-05  0.5066E-07   0.000      0.7673E-05   0.000      0.5120E-07   0.000    
    2520  0.3416      0.1179E-03 SOLID          1 -68.6%  0.2359E-05  0.5066E-07   0.000      0.7677E-05   0.000      0.5120E-07   0.000    
    2521  0.3417      0.1178E-03 SOLID          1 -68.6%  0.2361E-05  0.5066E-07   0.000      0.7681E-05   0.000      0.5120E-07   0.000    
    2522  0.3418      0.1178E-03 SOLID          1 -68.6%  0.2362E-05  0.5065E-07   0.000      0.7685E-05   0.000      0.5120E-07   0.000    
    2523  0.3420      0.1178E-03 SOLID          1 -68.6%  0.2364E-05  0.5065E-07   0.000      0.7689E-05   0.000      0.5120E-07   0.000    
    2524  0.3421      0.1178E-03 SOLID          1 -68.6%  0.2366E-05  0.5065E-07   0.000      0.7693E-05   0.000      0.5120E-07   0.000    
    2525  0.3422      0.1178E-03 SOLID          1 -68.6%  0.2367E-05  0.5065E-07   0.000      0.7697E-05   0.000      0.5120E-07   0.000    
    2526  0.3423      0.1178E-03 SOLID          1 -68.6%  0.2369E-05  0.5065E-07   0.000      0.7701E-05   0.000      0.5120E-07   0.000    
    2527  0.3424      0.1178E-03 SOLID          1 -68.6%  0.2371E-05  0.5064E-07   0.000      0.7705E-05   0.000      0.5120E-07   0.000    
    2528  0.3425      0.1178E-03 SOLID          1 -68.6%  0.2373E-05  0.5064E-07   0.000      0.7709E-05   0.000      0.5120E-07   0.000    
    2529  0.3427      0.1178E-03 SOLID          1 -68.6%  0.2374E-05  0.5064E-07   0.000      0.7713E-05   0.000      0.5120E-07   0.000    
   CYCLE    TIME      TIME-STEP  ELEMENT          ERROR  I-ENERGY    K-ENERGY T  K-ENERGY R  EXT-WORK     MAS.ERR     TOTAL MASS  MASS ADDED
    2530  0.3428      0.1178E-03 SOLID          1 -68.6%  0.2376E-05  0.5064E-07   0.000      0.7718E-05   0.000      0.5120E-07   0.000    
    2531  0.3429      0.1178E-03 SOLID          1 -68.6%  0.2378E-05  0.5064E-07   0.000      0.7722E-05   0.000      0.5120E-07   0.000    
    2532  0.3430      0.1178E-03 SOLID          1 -68.5%  0.2379E-05  0.5063E-07   0.000      0.7726E-05   0.000      0.5120E-07   0.000    
    2533  0.3431      0.1177E-03 SOLID          1 -68.5%  0.2381E-05  0.5063E-07   0.000      0.7730E-05   0.000      0.5120E-07   0.000    
    2534  0.3432      0.1177E-03 SOLID          1 -68.5%  0.2383E-05  0.5063E-07   0.000      0.7734E-05   0.000      0.5120E-07   0.000    
    2535  0.3434      0.1177E-03 SOLID          1 -68.5%  0.2384E-05  0.5063E-07   0.000      0.7738E-05   0.000      0.5120E-07   0.000    
    2536  0.3435      0.1177E-03 SOLID          1 -68.5%  0.2386E-05  0.5062E-07   0.000      0.7742E-05   0.000      0.5120E-07   0.000    
    2537  0.3436      0.1177E-03 SOLID          1 -68.5%  0.2388E-05  0.5062E-07   0.000      0.7746E-05   0.000      0.5120E-07   0.000    
    2538  0.3437      0.1177E-03 SOLID          1 -68.5%  0.2389E-05  0.5062E-07   0.000      0.7750E-05   0.000      0.5120E-07   0.000    
    2539  0.3438      0.1177E-03 SOLID          1 -68.5%  0.2391E-05  0.5061E-07   0.000      0.7754E-05   0.000      0.5120E-07   0.000    
    2540  0.3440      0.1177E-03 SOLID          1 -68.5%  0.2393E-05  0.5061E-07   0.000      0.7758E-05   0.000      0.5120E-07   0.000    
    2541  0.3441      0.1177E-03 SOLID          1 -68.5%  0.2394E-05  0.5061E-07   0.000      0.7762E-05   0.000      0.5120E-07   0.000    
    2542  0.3442      0.1177E-03 SOLID          1 -68.5%  0.2396E-05  0.5061E-07   0.000      0.7766E-05   0.000      0.5120E-07   0.000    
    2543  0.3443      0.1177E-03 SOLID          1 -68.5%  0.2398E-05  0.5060E-07   0.000      0.7770E-05   0.000      0.5120E-07   0.000    
    2544  0.3444      0.1177E-03 SOLID          1 -68.5%  0.2399E-05  0.5060E-07   0.000      0.7775E-05   0.000      0.5120E-07   0.000    
    2545  0.3445      0.1176E-03 SOLID          1 -68.5%  0.2401E-05  0.5060E-07   0.000      0.7779E-05   0.000      0.5120E-07   0.000    
    2546  0.3447      0.1176E-03 SOLID          1 -68.5%  0.2403E-05  0.5059E-07   0.000      0.7783E-05   0.000      0.5120E-07   0.000    
    2547  0.3448      0.1176E-03 SOLID          1 -68.5%  0.2405E-05  0.5059E-07   0.000      0.7787E-05   0.000      0.5120E-07   0.000    
    2548  0.3449      0.1176E-03 SOLID          1 -68.5%  0.2406E-05  0.5058E-07   0.000      0.7791E-05   0.000      0.5120E-07   0.000    
    2549  0.3450      0.1176E-03 SOLID          1 -68.5%  0.2408E-05  0.5058E-07   0.000      0.7795E-05   0.000      0.5120E-07   0.000    
    2550  0.3451      0.1176E-03 SOLID          1 -68.5%  0.2410E-05  0.5058E-07   0.000      0.7799E-05   0.000      0.5120E-07   0.000    
    2551  0.3453      0.1176E-03 SOLID          1 -68.4%  0.2411E-05  0.5057E-07   0.000      0.7803E-05   0.000      0.5120E-07   0.000    
    2552  0.3454      0.1176E-03 SOLID          1 -68.4%  0.2413E-05  0.5057E-07   0.000      0.7807E-05   0.000      0.5120E-07   0.000    
    2553  0.3455      0.1176E-03 SOLID          1 -68.4%  0.2415E-05  0.5057E-07   0.000      0.7811E-05   0.000      0.5120E-07   0.000    
    2554  0.3456      0.1176E-03 SOLID          1 -68.4%  0.2416E-05  0.5056E-07   0.000      0.7815E-05   0.000      0.5120E-07   0.000    
    2555  0.3457      0.1176E-03 SOLID          1 -68.4%  0.2418E-05  0.5056E-07   0.000      0.7819E-05   0.000      0.5120E-07   0.000    
    2556  0.3458      0.1176E-03 SOLID          1 -68.4%  0.2420E-05  0.5055E-07   0.000      0.7824E-05   0.000      0.5120E-07   0.000    
    2557  0.3460      0.1175E-03 SOLID          1 -68.4%  0.2422E-05  0.5055E-07   0.000      0.7828E-05   0.000      0.5120E-07   0.000    
    2558  0.3461      0.1175E-03 SOLID          1 -68.4%  0.2423E-05  0.5054E-07   0.000      0.7832E-05   0.000      0.5120E-07   0.000    
    2559  0.3462      0.1175E-03 SOLID          1 -68.4%  0.2425E-05  0.5054E-07   0.000      0.7836E-05   0.000      0.5120E-07   0.000    
    2560  0.3463      0.1175E-03 SOLID          1 -68.4%  0.2427E-05  0.5053E-07   0.000      0.7840E-05   0.000      0.5120E-07   0.000    
    2561  0.3464      0.1175E-03 SOLID          1 -68.4%  0.2428E-05  0.5053E-07   0.000      0.7844E-05   0.000      0.5120E-07   0.000    
    2562  0.3465      0.1175E-03 SOLID          1 -68.4%  0.2430E-05  0.5053E-07   0.000      0.7848E-05   0.000      0.5120E-07   0.000    
    2563  0.3467      0.1175E-03 SOLID          1 -68.4%  0.2432E-05  0.5052E-07   0.000      0.7852E-05   0.000      0.5120E-07   0.000    
    2564  0.3468      0.1175E-03 SOLID          1 -68.4%  0.2434E-05  0.5052E-07   0.000      0.7856E-05   0.000      0.5120E-07   0.000    
    2565  0.3469      0.1175E-03 SOLID          1 -68.4%  0.2435E-05  0.5051E-07   0.000      0.7860E-05   0.000      0.5120E-07   0.000    
    2566  0.3470      0.1175E-03 SOLID          1 -68.4%  0.2437E-05  0.5051E-07   0.000      0.7864E-05   0.000      0.5120E-07   0.000    
    2567  0.3471      0.1175E-03 SOLID          1 -68.4%  0.2439E-05  0.5050E-07   0.000      0.7869E-05   0.000      0.5120E-07   0.000    
    2568  0.3472      0.1175E-03 SOLID          1 -68.4%  0.2440E-05  0.5050E-07   0.000      0.7873E-05   0.000      0.5120E-07   0.000    
    2569  0.3474      0.1174E-03 SOLID          1 -68.4%  0.2442E-05  0.5049E-07   0.000      0.7877E-05   0.000      0.5120E-07   0.000    
    2570  0.3475      0.1174E-03 SOLID          1 -68.3%  0.2444E-05  0.5048E-07   0.000      0.7881E-05   0.000      0.5120E-07   0.000    
    2571  0.3476      0.1174E-03 SOLID          1 -68.3%  0.2446E-05  0.5048E-07   0.000      0.7885E-05   0.000      0.5120E-07   0.000    
    2572  0.3477      0.1174E-03 SOLID          1 -68.3%  0.2447E-05  0.5047E-07   0.000      0.7889E-05   0.000      0.5120E-07   0.000    
    2573  0.3478      0.1174E-03 SOLID          1 -68.3%  0.2449E-05  0.5047E-07   0.000      0.7893E-05   0.000      0.5120E-07   0.000    
    2574  0.3480      0.1174E-03 SOLID          1 -68.3%  0.2451E-05  0.5046E-07   0.000      0.7897E-05   0.000      0.5120E-07   0.000    
    2575  0.3481      0.1174E-03 SOLID          1 -68.3%  0.2453E-05  0.5046E-07   0.000      0.7901E-05   0.000      0.5120E-07   0.000    
    2576  0.3482      0.1174E-03 SOLID          1 -68.3%  0.2454E-05  0.5045E-07   0.000      0.7905E-05   0.000      0.5120E-07   0.000    
    2577  0.3483      0.1174E-03 SOLID          1 -68.3%  0.2456E-05  0.5045E-07   0.000      0.7910E-05   0.000      0.5120E-07   0.000    
    2578  0.3484      0.1174E-03 SOLID          1 -68.3%  0.2458E-05  0.5044E-07   0.000      0.7914E-05   0.000      0.5120E-07   0.000    
    2579  0.3485      0.1174E-03 SOLID          1 -68.3%  0.2459E-05  0.5043E-07   0.000      0.7918E-05   0.000      0.5120E-07   0.000    
    2580  0.3487      0.1174E-03 SOLID          1 -68.3%  0.2461E-05  0.5043E-07   0.000      0.7922E-05   0.000      0.5120E-07   0.000    
    2581  0.3488      0.1173E-03 SOLID          1 -68.3%  0.2463E-05  0.5042E-07   0.000      0.7926E-05   0.000      0.5120E-07   0.000    
    2582  0.3489      0.1173E-03 SOLID          1 -68.3%  0.2465E-05  0.5042E-07   0.000      0.7930E-05   0.000      0.5120E-07   0.000    
    2583  0.3490      0.1173E-03 SOLID          1 -68.3%  0.2466E-05  0.5041E-07   0.000      0.7934E-05   0.000      0.5120E-07   0.000    
    2584  0.3491      0.1173E-03 SOLID          1 -68.3%  0.2468E-05  0.5040E-07   0.000      0.7938E-05   0.000      0.5120E-07   0.000    
   CYCLE    TIME      TIME-STEP  ELEMENT          ERROR  I-ENERGY    K-ENERGY T  K-ENERGY R  EXT-WORK     MAS.ERR     TOTAL MASS  MASS ADDED
    2585  0.3492      0.1173E-03 SOLID          1 -68.3%  0.2470E-05  0.5040E-07   0.000      0.7942E-05   0.000      0.5120E-07   0.000    
    2586  0.3494      0.1173E-03 SOLID          1 -68.3%  0.2472E-05  0.5039E-07   0.000      0.7946E-05   0.000      0.5120E-07   0.000    
    2587  0.3495      0.1173E-03 SOLID          1 -68.3%  0.2473E-05  0.5038E-07   0.000      0.7951E-05   0.000      0.5120E-07   0.000    
    2588  0.3496      0.1173E-03 SOLID          1 -68.3%  0.2475E-05  0.5038E-07   0.000      0.7955E-05   0.000      0.5120E-07   0.000    
    2589  0.3497      0.1173E-03 SOLID          1 -68.2%  0.2477E-05  0.5037E-07   0.000      0.7959E-05   0.000      0.5120E-07   0.000    
    2590  0.3498      0.1173E-03 SOLID          1 -68.2%  0.2479E-05  0.5036E-07   0.000      0.7963E-05   0.000      0.5120E-07   0.000    
    2591  0.3499      0.1173E-03 SOLID          1 -68.2%  0.2480E-05  0.5036E-07   0.000      0.7967E-05   0.000      0.5120E-07   0.000    
    2592  0.3501      0.1173E-03 SOLID          1 -68.2%  0.2482E-05  0.5035E-07   0.000      0.7971E-05   0.000      0.5120E-07   0.000    
     ANIMATION FILE: M50BA008 WRITTEN
    2593  0.3502      0.1172E-03 SOLID          1 -68.2%  0.2484E-05  0.5034E-07   0.000      0.7975E-05   0.000      0.5120E-07   0.000    
    2594  0.3503      0.1172E-03 SOLID          1 -68.2%  0.2486E-05  0.5034E-07   0.000      0.7979E-05   0.000      0.5120E-07   0.000    
    2595  0.3504      0.1172E-03 SOLID          1 -68.2%  0.2487E-05  0.5033E-07   0.000      0.7984E-05   0.000      0.5120E-07   0.000    
    2596  0.3505      0.1172E-03 SOLID          1 -68.2%  0.2489E-05  0.5032E-07   0.000      0.7988E-05   0.000      0.5120E-07   0.000    
    2597  0.3507      0.1172E-03 SOLID          1 -68.2%  0.2491E-05  0.5031E-07   0.000      0.7992E-05   0.000      0.5120E-07   0.000    
    2598  0.3508      0.1172E-03 SOLID          1 -68.2%  0.2493E-05  0.5031E-07   0.000      0.7996E-05   0.000      0.5120E-07   0.000    
    2599  0.3509      0.1172E-03 SOLID          1 -68.2%  0.2495E-05  0.5030E-07   0.000      0.8000E-05   0.000      0.5120E-07   0.000    
    2600  0.3510      0.1172E-03 SOLID          1 -68.2%  0.2496E-05  0.5029E-07   0.000      0.8004E-05   0.000      0.5120E-07   0.000    
    2601  0.3511      0.1172E-03 SOLID          1 -68.2%  0.2498E-05  0.5029E-07   0.000      0.8008E-05   0.000      0.5120E-07   0.000    
    2602  0.3512      0.1172E-03 SOLID          1 -68.2%  0.2500E-05  0.5028E-07   0.000      0.8012E-05   0.000      0.5120E-07   0.000    
    2603  0.3514      0.1172E-03 SOLID          1 -68.2%  0.2502E-05  0.5027E-07   0.000      0.8016E-05   0.000      0.5120E-07   0.000    
    2604  0.3515      0.1172E-03 SOLID          1 -68.2%  0.2503E-05  0.5026E-07   0.000      0.8021E-05   0.000      0.5120E-07   0.000    
    2605  0.3516      0.1172E-03 SOLID          1 -68.2%  0.2505E-05  0.5026E-07   0.000      0.8025E-05   0.000      0.5120E-07   0.000    
    2606  0.3517      0.1171E-03 SOLID          1 -68.2%  0.2507E-05  0.5025E-07   0.000      0.8029E-05   0.000      0.5120E-07   0.000    
    2607  0.3518      0.1171E-03 SOLID          1 -68.1%  0.2509E-05  0.5024E-07   0.000      0.8033E-05   0.000      0.5120E-07   0.000    
    2608  0.3519      0.1171E-03 SOLID          1 -68.1%  0.2510E-05  0.5023E-07   0.000      0.8037E-05   0.000      0.5120E-07   0.000    
    2609  0.3521      0.1171E-03 SOLID          1 -68.1%  0.2512E-05  0.5022E-07   0.000      0.8041E-05   0.000      0.5120E-07   0.000    
    2610  0.3522      0.1171E-03 SOLID          1 -68.1%  0.2514E-05  0.5022E-07   0.000      0.8045E-05   0.000      0.5120E-07   0.000    
    2611  0.3523      0.1171E-03 SOLID          1 -68.1%  0.2516E-05  0.5021E-07   0.000      0.8050E-05   0.000      0.5120E-07   0.000    
    2612  0.3524      0.1171E-03 SOLID          1 -68.1%  0.2518E-05  0.5020E-07   0.000      0.8054E-05   0.000      0.5120E-07   0.000    
    2613  0.3525      0.1171E-03 SOLID          1 -68.1%  0.2519E-05  0.5019E-07   0.000      0.8058E-05   0.000      0.5120E-07   0.000    
    2614  0.3526      0.1171E-03 SOLID          1 -68.1%  0.2521E-05  0.5018E-07   0.000      0.8062E-05   0.000      0.5120E-07   0.000    
    2615  0.3528      0.1171E-03 SOLID          1 -68.1%  0.2523E-05  0.5018E-07   0.000      0.8066E-05   0.000      0.5120E-07   0.000    
    2616  0.3529      0.1171E-03 SOLID          1 -68.1%  0.2525E-05  0.5017E-07   0.000      0.8070E-05   0.000      0.5120E-07   0.000    
    2617  0.3530      0.1171E-03 SOLID          1 -68.1%  0.2527E-05  0.5016E-07   0.000      0.8074E-05   0.000      0.5120E-07   0.000    
    2618  0.3531      0.1170E-03 SOLID          1 -68.1%  0.2528E-05  0.5015E-07   0.000      0.8078E-05   0.000      0.5120E-07   0.000    
    2619  0.3532      0.1170E-03 SOLID          1 -68.1%  0.2530E-05  0.5014E-07   0.000      0.8083E-05   0.000      0.5120E-07   0.000    
    2620  0.3533      0.1170E-03 SOLID          1 -68.1%  0.2532E-05  0.5014E-07   0.000      0.8087E-05   0.000      0.5120E-07   0.000    
    2621  0.3535      0.1170E-03 SOLID          1 -68.1%  0.2534E-05  0.5013E-07   0.000      0.8091E-05   0.000      0.5120E-07   0.000    
    2622  0.3536      0.1170E-03 SOLID          1 -68.1%  0.2535E-05  0.5012E-07   0.000      0.8095E-05   0.000      0.5120E-07   0.000    
    2623  0.3537      0.1170E-03 SOLID          1 -68.1%  0.2537E-05  0.5011E-07   0.000      0.8099E-05   0.000      0.5120E-07   0.000    
    2624  0.3538      0.1170E-03 SOLID          1 -68.0%  0.2539E-05  0.5010E-07   0.000      0.8103E-05   0.000      0.5120E-07   0.000    
    2625  0.3539      0.1170E-03 SOLID          1 -68.0%  0.2541E-05  0.5009E-07   0.000      0.8107E-05   0.000      0.5120E-07   0.000    
    2626  0.3540      0.1170E-03 SOLID          1 -68.0%  0.2543E-05  0.5008E-07   0.000      0.8112E-05   0.000      0.5120E-07   0.000    
    2627  0.3542      0.1170E-03 SOLID          1 -68.0%  0.2544E-05  0.5008E-07   0.000      0.8116E-05   0.000      0.5120E-07   0.000    
    2628  0.3543      0.1170E-03 SOLID          1 -68.0%  0.2546E-05  0.5007E-07   0.000      0.8120E-05   0.000      0.5120E-07   0.000    
    2629  0.3544      0.1170E-03 SOLID          1 -68.0%  0.2548E-05  0.5006E-07   0.000      0.8124E-05   0.000      0.5120E-07   0.000    
    2630  0.3545      0.1169E-03 SOLID          1 -68.0%  0.2550E-05  0.5005E-07   0.000      0.8128E-05   0.000      0.5120E-07   0.000    
    2631  0.3546      0.1169E-03 SOLID          1 -68.0%  0.2552E-05  0.5004E-07   0.000      0.8132E-05   0.000      0.5120E-07   0.000    
    2632  0.3547      0.1169E-03 SOLID          1 -68.0%  0.2554E-05  0.5003E-07   0.000      0.8137E-05   0.000      0.5120E-07   0.000    
    2633  0.3549      0.1169E-03 SOLID          1 -68.0%  0.2555E-05  0.5002E-07   0.000      0.8141E-05   0.000      0.5120E-07   0.000    
    2634  0.3550      0.1169E-03 SOLID          1 -68.0%  0.2557E-05  0.5001E-07   0.000      0.8145E-05   0.000      0.5120E-07   0.000    
    2635  0.3551      0.1169E-03 SOLID          1 -68.0%  0.2559E-05  0.5001E-07   0.000      0.8149E-05   0.000      0.5120E-07   0.000    
    2636  0.3552      0.1169E-03 SOLID          1 -68.0%  0.2561E-05  0.5000E-07   0.000      0.8153E-05   0.000      0.5120E-07   0.000    
    2637  0.3553      0.1169E-03 SOLID          1 -68.0%  0.2563E-05  0.4999E-07   0.000      0.8157E-05   0.000      0.5120E-07   0.000    
    2638  0.3555      0.1169E-03 SOLID          1 -68.0%  0.2564E-05  0.4998E-07   0.000      0.8161E-05   0.000      0.5120E-07   0.000    
    2639  0.3556      0.1169E-03 SOLID          1 -68.0%  0.2566E-05  0.4997E-07   0.000      0.8166E-05   0.000      0.5120E-07   0.000    
   CYCLE    TIME      TIME-STEP  ELEMENT          ERROR  I-ENERGY    K-ENERGY T  K-ENERGY R  EXT-WORK     MAS.ERR     TOTAL MASS  MASS ADDED
    2640  0.3557      0.1169E-03 SOLID          1 -68.0%  0.2568E-05  0.4996E-07   0.000      0.8170E-05   0.000      0.5120E-07   0.000    
    2641  0.3558      0.1169E-03 SOLID          1 -67.9%  0.2570E-05  0.4995E-07   0.000      0.8174E-05   0.000      0.5120E-07   0.000    
    2642  0.3559      0.1169E-03 SOLID          1 -67.9%  0.2572E-05  0.4994E-07   0.000      0.8178E-05   0.000      0.5120E-07   0.000    
    2643  0.3560      0.1168E-03 SOLID          1 -67.9%  0.2574E-05  0.4993E-07   0.000      0.8182E-05   0.000      0.5120E-07   0.000    
    2644  0.3562      0.1168E-03 SOLID          1 -67.9%  0.2575E-05  0.4992E-07   0.000      0.8186E-05   0.000      0.5120E-07   0.000    
    2645  0.3563      0.1168E-03 SOLID          1 -67.9%  0.2577E-05  0.4991E-07   0.000      0.8191E-05   0.000      0.5120E-07   0.000    
    2646  0.3564      0.1168E-03 SOLID          1 -67.9%  0.2579E-05  0.4990E-07   0.000      0.8195E-05   0.000      0.5120E-07   0.000    
    2647  0.3565      0.1168E-03 SOLID          1 -67.9%  0.2581E-05  0.4990E-07   0.000      0.8199E-05   0.000      0.5120E-07   0.000    
    2648  0.3566      0.1168E-03 SOLID          1 -67.9%  0.2583E-05  0.4989E-07   0.000      0.8203E-05   0.000      0.5120E-07   0.000    
    2649  0.3567      0.1168E-03 SOLID          1 -67.9%  0.2584E-05  0.4988E-07   0.000      0.8207E-05   0.000      0.5120E-07   0.000    
    2650  0.3569      0.1168E-03 SOLID          1 -67.9%  0.2586E-05  0.4987E-07   0.000      0.8211E-05   0.000      0.5120E-07   0.000    
    2651  0.3570      0.1168E-03 SOLID          1 -67.9%  0.2588E-05  0.4986E-07   0.000      0.8216E-05   0.000      0.5120E-07   0.000    
    2652  0.3571      0.1168E-03 SOLID          1 -67.9%  0.2590E-05  0.4985E-07   0.000      0.8220E-05   0.000      0.5120E-07   0.000    
    2653  0.3572      0.1168E-03 SOLID          1 -67.9%  0.2592E-05  0.4984E-07   0.000      0.8224E-05   0.000      0.5120E-07   0.000    
    2654  0.3573      0.1168E-03 SOLID          1 -67.9%  0.2594E-05  0.4983E-07   0.000      0.8228E-05   0.000      0.5120E-07   0.000    
    2655  0.3574      0.1167E-03 SOLID          1 -67.9%  0.2596E-05  0.4982E-07   0.000      0.8232E-05   0.000      0.5120E-07   0.000    
    2656  0.3576      0.1167E-03 SOLID          1 -67.9%  0.2597E-05  0.4981E-07   0.000      0.8236E-05   0.000      0.5120E-07   0.000    
    2657  0.3577      0.1167E-03 SOLID          1 -67.9%  0.2599E-05  0.4980E-07   0.000      0.8241E-05   0.000      0.5120E-07   0.000    
    2658  0.3578      0.1167E-03 SOLID          1 -67.8%  0.2601E-05  0.4979E-07   0.000      0.8245E-05   0.000      0.5120E-07   0.000    
    2659  0.3579      0.1167E-03 SOLID          1 -67.8%  0.2603E-05  0.4978E-07   0.000      0.8249E-05   0.000      0.5120E-07   0.000    
    2660  0.3580      0.1167E-03 SOLID          1 -67.8%  0.2605E-05  0.4977E-07   0.000      0.8253E-05   0.000      0.5120E-07   0.000    
    2661  0.3581      0.1167E-03 SOLID          1 -67.8%  0.2607E-05  0.4976E-07   0.000      0.8257E-05   0.000      0.5120E-07   0.000    
    2662  0.3583      0.1167E-03 SOLID          1 -67.8%  0.2608E-05  0.4975E-07   0.000      0.8261E-05   0.000      0.5120E-07   0.000    
    2663  0.3584      0.1167E-03 SOLID          1 -67.8%  0.2610E-05  0.4974E-07   0.000      0.8266E-05   0.000      0.5120E-07   0.000    
    2664  0.3585      0.1167E-03 SOLID          1 -67.8%  0.2612E-05  0.4973E-07   0.000      0.8270E-05   0.000      0.5120E-07   0.000    
    2665  0.3586      0.1167E-03 SOLID          1 -67.8%  0.2614E-05  0.4972E-07   0.000      0.8274E-05   0.000      0.5120E-07   0.000    
    2666  0.3587      0.1167E-03 SOLID          1 -67.8%  0.2616E-05  0.4971E-07   0.000      0.8278E-05   0.000      0.5120E-07   0.000    
    2667  0.3588      0.1167E-03 SOLID          1 -67.8%  0.2618E-05  0.4970E-07   0.000      0.8282E-05   0.000      0.5120E-07   0.000    
    2668  0.3590      0.1166E-03 SOLID          1 -67.8%  0.2620E-05  0.4969E-07   0.000      0.8286E-05   0.000      0.5120E-07   0.000    
    2669  0.3591      0.1166E-03 SOLID          1 -67.8%  0.2621E-05  0.4969E-07   0.000      0.8291E-05   0.000      0.5120E-07   0.000    
    2670  0.3592      0.1166E-03 SOLID          1 -67.8%  0.2623E-05  0.4968E-07   0.000      0.8295E-05   0.000      0.5120E-07   0.000    
    2671  0.3593      0.1166E-03 SOLID          1 -67.8%  0.2625E-05  0.4967E-07   0.000      0.8299E-05   0.000      0.5120E-07   0.000    
    2672  0.3594      0.1166E-03 SOLID          1 -67.8%  0.2627E-05  0.4966E-07   0.000      0.8303E-05   0.000      0.5120E-07   0.000    
    2673  0.3595      0.1166E-03 SOLID          1 -67.8%  0.2629E-05  0.4965E-07   0.000      0.8307E-05   0.000      0.5120E-07   0.000    
    2674  0.3597      0.1166E-03 SOLID          1 -67.8%  0.2631E-05  0.4964E-07   0.000      0.8312E-05   0.000      0.5120E-07   0.000    
    2675  0.3598      0.1166E-03 SOLID          1 -67.7%  0.2633E-05  0.4963E-07   0.000      0.8316E-05   0.000      0.5120E-07   0.000    
    2676  0.3599      0.1166E-03 SOLID          1 -67.7%  0.2635E-05  0.4962E-07   0.000      0.8320E-05   0.000      0.5120E-07   0.000    
    2677  0.3600      0.1166E-03 SOLID          1 -67.7%  0.2636E-05  0.4961E-07   0.000      0.8324E-05   0.000      0.5120E-07   0.000    
    2678  0.3601      0.1166E-03 SOLID          1 -67.7%  0.2638E-05  0.4960E-07   0.000      0.8328E-05   0.000      0.5120E-07   0.000    
    2679  0.3602      0.1166E-03 SOLID          1 -67.7%  0.2640E-05  0.4959E-07   0.000      0.8333E-05   0.000      0.5120E-07   0.000    
    2680  0.3604      0.1166E-03 SOLID          1 -67.7%  0.2642E-05  0.4958E-07   0.000      0.8337E-05   0.000      0.5120E-07   0.000    
    2681  0.3605      0.1165E-03 SOLID          1 -67.7%  0.2644E-05  0.4957E-07   0.000      0.8341E-05   0.000      0.5120E-07   0.000    
    2682  0.3606      0.1165E-03 SOLID          1 -67.7%  0.2646E-05  0.4956E-07   0.000      0.8345E-05   0.000      0.5120E-07   0.000    
    2683  0.3607      0.1165E-03 SOLID          1 -67.7%  0.2648E-05  0.4955E-07   0.000      0.8349E-05   0.000      0.5120E-07   0.000    
    2684  0.3608      0.1165E-03 SOLID          1 -67.7%  0.2650E-05  0.4954E-07   0.000      0.8353E-05   0.000      0.5120E-07   0.000    
    2685  0.3609      0.1165E-03 SOLID          1 -67.7%  0.2651E-05  0.4953E-07   0.000      0.8358E-05   0.000      0.5120E-07   0.000    
    2686  0.3611      0.1165E-03 SOLID          1 -67.7%  0.2653E-05  0.4952E-07   0.000      0.8362E-05   0.000      0.5120E-07   0.000    
    2687  0.3612      0.1165E-03 SOLID          1 -67.7%  0.2655E-05  0.4951E-07   0.000      0.8366E-05   0.000      0.5120E-07   0.000    
    2688  0.3613      0.1165E-03 SOLID          1 -67.7%  0.2657E-05  0.4950E-07   0.000      0.8370E-05   0.000      0.5120E-07   0.000    
    2689  0.3614      0.1165E-03 SOLID          1 -67.7%  0.2659E-05  0.4949E-07   0.000      0.8374E-05   0.000      0.5120E-07   0.000    
    2690  0.3615      0.1165E-03 SOLID          1 -67.7%  0.2661E-05  0.4948E-07   0.000      0.8379E-05   0.000      0.5120E-07   0.000    
    2691  0.3616      0.1165E-03 SOLID          1 -67.6%  0.2663E-05  0.4947E-07   0.000      0.8383E-05   0.000      0.5120E-07   0.000    
    2692  0.3618      0.1165E-03 SOLID          1 -67.6%  0.2665E-05  0.4946E-07   0.000      0.8387E-05   0.000      0.5120E-07   0.000    
    2693  0.3619      0.1164E-03 SOLID          1 -67.6%  0.2667E-05  0.4945E-07   0.000      0.8391E-05   0.000      0.5120E-07   0.000    
    2694  0.3620      0.1164E-03 SOLID          1 -67.6%  0.2668E-05  0.4944E-07   0.000      0.8395E-05   0.000      0.5120E-07   0.000    
   CYCLE    TIME      TIME-STEP  ELEMENT          ERROR  I-ENERGY    K-ENERGY T  K-ENERGY R  EXT-WORK     MAS.ERR     TOTAL MASS  MASS ADDED
    2695  0.3621      0.1164E-03 SOLID          1 -67.6%  0.2670E-05  0.4943E-07   0.000      0.8400E-05   0.000      0.5120E-07   0.000    
    2696  0.3622      0.1164E-03 SOLID          1 -67.6%  0.2672E-05  0.4942E-07   0.000      0.8404E-05   0.000      0.5120E-07   0.000    
    2697  0.3623      0.1164E-03 SOLID          1 -67.6%  0.2674E-05  0.4941E-07   0.000      0.8408E-05   0.000      0.5120E-07   0.000    
    2698  0.3624      0.1164E-03 SOLID          1 -67.6%  0.2676E-05  0.4940E-07   0.000      0.8412E-05   0.000      0.5120E-07   0.000    
    2699  0.3626      0.1164E-03 SOLID          1 -67.6%  0.2678E-05  0.4939E-07   0.000      0.8416E-05   0.000      0.5120E-07   0.000    
    2700  0.3627      0.1164E-03 SOLID          1 -67.6%  0.2680E-05  0.4938E-07   0.000      0.8421E-05   0.000      0.5120E-07   0.000    
    2701  0.3628      0.1164E-03 SOLID          1 -67.6%  0.2682E-05  0.4937E-07   0.000      0.8425E-05   0.000      0.5120E-07   0.000    
    2702  0.3629      0.1164E-03 SOLID          1 -67.6%  0.2684E-05  0.4936E-07   0.000      0.8429E-05   0.000      0.5120E-07   0.000    
    2703  0.3630      0.1164E-03 SOLID          1 -67.6%  0.2686E-05  0.4935E-07   0.000      0.8433E-05   0.000      0.5120E-07   0.000    
    2704  0.3631      0.1164E-03 SOLID          1 -67.6%  0.2687E-05  0.4934E-07   0.000      0.8438E-05   0.000      0.5120E-07   0.000    
    2705  0.3633      0.1164E-03 SOLID          1 -67.6%  0.2689E-05  0.4933E-07   0.000      0.8442E-05   0.000      0.5120E-07   0.000    
    2706  0.3634      0.1163E-03 SOLID          1 -67.6%  0.2691E-05  0.4932E-07   0.000      0.8446E-05   0.000      0.5120E-07   0.000    
    2707  0.3635      0.1163E-03 SOLID          1 -67.5%  0.2693E-05  0.4931E-07   0.000      0.8450E-05   0.000      0.5120E-07   0.000    
    2708  0.3636      0.1163E-03 SOLID          1 -67.5%  0.2695E-05  0.4930E-07   0.000      0.8454E-05   0.000      0.5120E-07   0.000    
    2709  0.3637      0.1163E-03 SOLID          1 -67.5%  0.2697E-05  0.4929E-07   0.000      0.8459E-05   0.000      0.5120E-07   0.000    
    2710  0.3638      0.1163E-03 SOLID          1 -67.5%  0.2699E-05  0.4928E-07   0.000      0.8463E-05   0.000      0.5120E-07   0.000    
    2711  0.3640      0.1163E-03 SOLID          1 -67.5%  0.2701E-05  0.4927E-07   0.000      0.8467E-05   0.000      0.5120E-07   0.000    
    2712  0.3641      0.1163E-03 SOLID          1 -67.5%  0.2703E-05  0.4926E-07   0.000      0.8471E-05   0.000      0.5120E-07   0.000    
    2713  0.3642      0.1163E-03 SOLID          1 -67.5%  0.2705E-05  0.4925E-07   0.000      0.8475E-05   0.000      0.5120E-07   0.000    
    2714  0.3643      0.1163E-03 SOLID          1 -67.5%  0.2707E-05  0.4924E-07   0.000      0.8480E-05   0.000      0.5120E-07   0.000    
    2715  0.3644      0.1163E-03 SOLID          1 -67.5%  0.2709E-05  0.4923E-07   0.000      0.8484E-05   0.000      0.5120E-07   0.000    
    2716  0.3645      0.1163E-03 SOLID          1 -67.5%  0.2711E-05  0.4922E-07   0.000      0.8488E-05   0.000      0.5120E-07   0.000    
    2717  0.3647      0.1163E-03 SOLID          1 -67.5%  0.2712E-05  0.4921E-07   0.000      0.8492E-05   0.000      0.5120E-07   0.000    
    2718  0.3648      0.1163E-03 SOLID          1 -67.5%  0.2714E-05  0.4921E-07   0.000      0.8497E-05   0.000      0.5120E-07   0.000    
    2719  0.3649      0.1162E-03 SOLID          1 -67.5%  0.2716E-05  0.4920E-07   0.000      0.8501E-05   0.000      0.5120E-07   0.000    
    2720  0.3650      0.1162E-03 SOLID          1 -67.5%  0.2718E-05  0.4919E-07   0.000      0.8505E-05   0.000      0.5120E-07   0.000    
    2721  0.3651      0.1162E-03 SOLID          1 -67.5%  0.2720E-05  0.4918E-07   0.000      0.8509E-05   0.000      0.5120E-07   0.000    
    2722  0.3652      0.1162E-03 SOLID          1 -67.4%  0.2722E-05  0.4917E-07   0.000      0.8513E-05   0.000      0.5120E-07   0.000    
    2723  0.3654      0.1162E-03 SOLID          1 -67.4%  0.2724E-05  0.4916E-07   0.000      0.8518E-05   0.000      0.5120E-07   0.000    
    2724  0.3655      0.1162E-03 SOLID          1 -67.4%  0.2726E-05  0.4915E-07   0.000      0.8522E-05   0.000      0.5120E-07   0.000    
    2725  0.3656      0.1162E-03 SOLID          1 -67.4%  0.2728E-05  0.4914E-07   0.000      0.8526E-05   0.000      0.5120E-07   0.000    
    2726  0.3657      0.1162E-03 SOLID          1 -67.4%  0.2730E-05  0.4913E-07   0.000      0.8530E-05   0.000      0.5120E-07   0.000    
    2727  0.3658      0.1162E-03 SOLID          1 -67.4%  0.2732E-05  0.4912E-07   0.000      0.8535E-05   0.000      0.5120E-07   0.000    
    2728  0.3659      0.1162E-03 SOLID          1 -67.4%  0.2734E-05  0.4911E-07   0.000      0.8539E-05   0.000      0.5120E-07   0.000    
    2729  0.3661      0.1162E-03 SOLID          1 -67.4%  0.2736E-05  0.4910E-07   0.000      0.8543E-05   0.000      0.5120E-07   0.000    
    2730  0.3662      0.1162E-03 SOLID          1 -67.4%  0.2738E-05  0.4909E-07   0.000      0.8547E-05   0.000      0.5120E-07   0.000    
    2731  0.3663      0.1161E-03 SOLID          1 -67.4%  0.2740E-05  0.4908E-07   0.000      0.8552E-05   0.000      0.5120E-07   0.000    
    2732  0.3664      0.1161E-03 SOLID          1 -67.4%  0.2742E-05  0.4907E-07   0.000      0.8556E-05   0.000      0.5120E-07   0.000    
    2733  0.3665      0.1161E-03 SOLID          1 -67.4%  0.2744E-05  0.4906E-07   0.000      0.8560E-05   0.000      0.5120E-07   0.000    
    2734  0.3666      0.1161E-03 SOLID          1 -67.4%  0.2746E-05  0.4905E-07   0.000      0.8564E-05   0.000      0.5120E-07   0.000    
    2735  0.3668      0.1161E-03 SOLID          1 -67.4%  0.2748E-05  0.4904E-07   0.000      0.8569E-05   0.000      0.5120E-07   0.000    
    2736  0.3669      0.1161E-03 SOLID          1 -67.4%  0.2749E-05  0.4903E-07   0.000      0.8573E-05   0.000      0.5120E-07   0.000    
    2737  0.3670      0.1161E-03 SOLID          1 -67.3%  0.2751E-05  0.4902E-07   0.000      0.8577E-05   0.000      0.5120E-07   0.000    
    2738  0.3671      0.1161E-03 SOLID          1 -67.3%  0.2753E-05  0.4902E-07   0.000      0.8581E-05   0.000      0.5120E-07   0.000    
    2739  0.3672      0.1161E-03 SOLID          1 -67.3%  0.2755E-05  0.4901E-07   0.000      0.8585E-05   0.000      0.5120E-07   0.000    
    2740  0.3673      0.1161E-03 SOLID          1 -67.3%  0.2757E-05  0.4900E-07   0.000      0.8590E-05   0.000      0.5120E-07   0.000    
    2741  0.3674      0.1161E-03 SOLID          1 -67.3%  0.2759E-05  0.4899E-07   0.000      0.8594E-05   0.000      0.5120E-07   0.000    
    2742  0.3676      0.1161E-03 SOLID          1 -67.3%  0.2761E-05  0.4898E-07   0.000      0.8598E-05   0.000      0.5120E-07   0.000    
    2743  0.3677      0.1161E-03 SOLID          1 -67.3%  0.2763E-05  0.4897E-07   0.000      0.8602E-05   0.000      0.5120E-07   0.000    
    2744  0.3678      0.1160E-03 SOLID          1 -67.3%  0.2765E-05  0.4896E-07   0.000      0.8607E-05   0.000      0.5120E-07   0.000    
    2745  0.3679      0.1160E-03 SOLID          1 -67.3%  0.2767E-05  0.4895E-07   0.000      0.8611E-05   0.000      0.5120E-07   0.000    
    2746  0.3680      0.1160E-03 SOLID          1 -67.3%  0.2769E-05  0.4894E-07   0.000      0.8615E-05   0.000      0.5120E-07   0.000    
    2747  0.3681      0.1160E-03 SOLID          1 -67.3%  0.2771E-05  0.4893E-07   0.000      0.8619E-05   0.000      0.5120E-07   0.000    
    2748  0.3683      0.1160E-03 SOLID          1 -67.3%  0.2773E-05  0.4892E-07   0.000      0.8624E-05   0.000      0.5120E-07   0.000    
    2749  0.3684      0.1160E-03 SOLID          1 -67.3%  0.2775E-05  0.4891E-07   0.000      0.8628E-05   0.000      0.5120E-07   0.000    
   CYCLE    TIME      TIME-STEP  ELEMENT          ERROR  I-ENERGY    K-ENERGY T  K-ENERGY R  EXT-WORK     MAS.ERR     TOTAL MASS  MASS ADDED
    2750  0.3685      0.1160E-03 SOLID          1 -67.3%  0.2777E-05  0.4891E-07   0.000      0.8632E-05   0.000      0.5120E-07   0.000    
    2751  0.3686      0.1160E-03 SOLID          1 -67.3%  0.2779E-05  0.4890E-07   0.000      0.8636E-05   0.000      0.5120E-07   0.000    
    2752  0.3687      0.1160E-03 SOLID          1 -67.2%  0.2781E-05  0.4889E-07   0.000      0.8641E-05   0.000      0.5120E-07   0.000    
    2753  0.3688      0.1160E-03 SOLID          1 -67.2%  0.2783E-05  0.4888E-07   0.000      0.8645E-05   0.000      0.5120E-07   0.000    
    2754  0.3690      0.1160E-03 SOLID          1 -67.2%  0.2785E-05  0.4887E-07   0.000      0.8649E-05   0.000      0.5120E-07   0.000    
    2755  0.3691      0.1160E-03 SOLID          1 -67.2%  0.2787E-05  0.4886E-07   0.000      0.8653E-05   0.000      0.5120E-07   0.000    
    2756  0.3692      0.1160E-03 SOLID          1 -67.2%  0.2789E-05  0.4885E-07   0.000      0.8658E-05   0.000      0.5120E-07   0.000    
    2757  0.3693      0.1159E-03 SOLID          1 -67.2%  0.2791E-05  0.4884E-07   0.000      0.8662E-05   0.000      0.5120E-07   0.000    
    2758  0.3694      0.1159E-03 SOLID          1 -67.2%  0.2793E-05  0.4883E-07   0.000      0.8666E-05   0.000      0.5120E-07   0.000    
    2759  0.3695      0.1159E-03 SOLID          1 -67.2%  0.2795E-05  0.4883E-07   0.000      0.8671E-05   0.000      0.5120E-07   0.000    
    2760  0.3697      0.1159E-03 SOLID          1 -67.2%  0.2797E-05  0.4882E-07   0.000      0.8675E-05   0.000      0.5120E-07   0.000    
    2761  0.3698      0.1159E-03 SOLID          1 -67.2%  0.2799E-05  0.4881E-07   0.000      0.8679E-05   0.000      0.5120E-07   0.000    
    2762  0.3699      0.1159E-03 SOLID          1 -67.2%  0.2801E-05  0.4880E-07   0.000      0.8683E-05   0.000      0.5120E-07   0.000    
    2763  0.3700      0.1159E-03 SOLID          1 -67.2%  0.2803E-05  0.4879E-07   0.000      0.8688E-05   0.000      0.5120E-07   0.000    
    2764  0.3701      0.1159E-03 SOLID          1 -67.2%  0.2805E-05  0.4878E-07   0.000      0.8692E-05   0.000      0.5120E-07   0.000    
    2765  0.3702      0.1159E-03 SOLID          1 -67.2%  0.2807E-05  0.4877E-07   0.000      0.8696E-05   0.000      0.5120E-07   0.000    
    2766  0.3703      0.1159E-03 SOLID          1 -67.2%  0.2809E-05  0.4876E-07   0.000      0.8700E-05   0.000      0.5120E-07   0.000    
    2767  0.3705      0.1159E-03 SOLID          1 -67.1%  0.2811E-05  0.4876E-07   0.000      0.8705E-05   0.000      0.5120E-07   0.000    
    2768  0.3706      0.1159E-03 SOLID          1 -67.1%  0.2813E-05  0.4875E-07   0.000      0.8709E-05   0.000      0.5120E-07   0.000    
    2769  0.3707      0.1159E-03 SOLID          1 -67.1%  0.2815E-05  0.4874E-07   0.000      0.8713E-05   0.000      0.5120E-07   0.000    
    2770  0.3708      0.1158E-03 SOLID          1 -67.1%  0.2817E-05  0.4873E-07   0.000      0.8717E-05   0.000      0.5120E-07   0.000    
    2771  0.3709      0.1158E-03 SOLID          1 -67.1%  0.2819E-05  0.4872E-07   0.000      0.8722E-05   0.000      0.5120E-07   0.000    
    2772  0.3710      0.1158E-03 SOLID          1 -67.1%  0.2821E-05  0.4871E-07   0.000      0.8726E-05   0.000      0.5120E-07   0.000    
    2773  0.3712      0.1158E-03 SOLID          1 -67.1%  0.2823E-05  0.4870E-07   0.000      0.8730E-05   0.000      0.5120E-07   0.000    
    2774  0.3713      0.1158E-03 SOLID          1 -67.1%  0.2825E-05  0.4870E-07   0.000      0.8735E-05   0.000      0.5120E-07   0.000    
    2775  0.3714      0.1158E-03 SOLID          1 -67.1%  0.2827E-05  0.4869E-07   0.000      0.8739E-05   0.000      0.5120E-07   0.000    
    2776  0.3715      0.1158E-03 SOLID          1 -67.1%  0.2829E-05  0.4868E-07   0.000      0.8743E-05   0.000      0.5120E-07   0.000    
    2777  0.3716      0.1158E-03 SOLID          1 -67.1%  0.2831E-05  0.4867E-07   0.000      0.8747E-05   0.000      0.5120E-07   0.000    
    2778  0.3717      0.1158E-03 SOLID          1 -67.1%  0.2833E-05  0.4866E-07   0.000      0.8752E-05   0.000      0.5120E-07   0.000    
    2779  0.3719      0.1158E-03 SOLID          1 -67.1%  0.2835E-05  0.4865E-07   0.000      0.8756E-05   0.000      0.5120E-07   0.000    
    2780  0.3720      0.1158E-03 SOLID          1 -67.1%  0.2837E-05  0.4865E-07   0.000      0.8760E-05   0.000      0.5120E-07   0.000    
    2781  0.3721      0.1158E-03 SOLID          1 -67.0%  0.2839E-05  0.4864E-07   0.000      0.8764E-05   0.000      0.5120E-07   0.000    
    2782  0.3722      0.1158E-03 SOLID          1 -67.0%  0.2841E-05  0.4863E-07   0.000      0.8769E-05   0.000      0.5120E-07   0.000    
    2783  0.3723      0.1157E-03 SOLID          1 -67.0%  0.2843E-05  0.4862E-07   0.000      0.8773E-05   0.000      0.5120E-07   0.000    
    2784  0.3724      0.1157E-03 SOLID          1 -67.0%  0.2845E-05  0.4861E-07   0.000      0.8777E-05   0.000      0.5120E-07   0.000    
    2785  0.3725      0.1157E-03 SOLID          1 -67.0%  0.2847E-05  0.4861E-07   0.000      0.8782E-05   0.000      0.5120E-07   0.000    
    2786  0.3727      0.1157E-03 SOLID          1 -67.0%  0.2850E-05  0.4860E-07   0.000      0.8786E-05   0.000      0.5120E-07   0.000    
    2787  0.3728      0.1157E-03 SOLID          1 -67.0%  0.2852E-05  0.4859E-07   0.000      0.8790E-05   0.000      0.5120E-07   0.000    
    2788  0.3729      0.1157E-03 SOLID          1 -67.0%  0.2854E-05  0.4858E-07   0.000      0.8794E-05   0.000      0.5120E-07   0.000    
    2789  0.3730      0.1157E-03 SOLID          1 -67.0%  0.2856E-05  0.4857E-07   0.000      0.8799E-05   0.000      0.5120E-07   0.000    
    2790  0.3731      0.1157E-03 SOLID          1 -67.0%  0.2858E-05  0.4857E-07   0.000      0.8803E-05   0.000      0.5120E-07   0.000    
    2791  0.3732      0.1157E-03 SOLID          1 -67.0%  0.2860E-05  0.4856E-07   0.000      0.8807E-05   0.000      0.5120E-07   0.000    
    2792  0.3734      0.1157E-03 SOLID          1 -67.0%  0.2862E-05  0.4855E-07   0.000      0.8812E-05   0.000      0.5120E-07   0.000    
    2793  0.3735      0.1157E-03 SOLID          1 -67.0%  0.2864E-05  0.4854E-07   0.000      0.8816E-05   0.000      0.5120E-07   0.000    
    2794  0.3736      0.1157E-03 SOLID          1 -67.0%  0.2866E-05  0.4853E-07   0.000      0.8820E-05   0.000      0.5120E-07   0.000    
    2795  0.3737      0.1157E-03 SOLID          1 -66.9%  0.2868E-05  0.4853E-07   0.000      0.8824E-05   0.000      0.5120E-07   0.000    
    2796  0.3738      0.1156E-03 SOLID          1 -66.9%  0.2870E-05  0.4852E-07   0.000      0.8829E-05   0.000      0.5120E-07   0.000    
    2797  0.3739      0.1156E-03 SOLID          1 -66.9%  0.2872E-05  0.4851E-07   0.000      0.8833E-05   0.000      0.5120E-07   0.000    
    2798  0.3741      0.1156E-03 SOLID          1 -66.9%  0.2874E-05  0.4850E-07   0.000      0.8837E-05   0.000      0.5120E-07   0.000    
    2799  0.3742      0.1156E-03 SOLID          1 -66.9%  0.2876E-05  0.4850E-07   0.000      0.8842E-05   0.000      0.5120E-07   0.000    
    2800  0.3743      0.1156E-03 SOLID          1 -66.9%  0.2878E-05  0.4849E-07   0.000      0.8846E-05   0.000      0.5120E-07   0.000    
    2801  0.3744      0.1156E-03 SOLID          1 -66.9%  0.2880E-05  0.4848E-07   0.000      0.8850E-05   0.000      0.5120E-07   0.000    
    2802  0.3745      0.1156E-03 SOLID          1 -66.9%  0.2882E-05  0.4847E-07   0.000      0.8855E-05   0.000      0.5120E-07   0.000    
    2803  0.3746      0.1156E-03 SOLID          1 -66.9%  0.2884E-05  0.4847E-07   0.000      0.8859E-05   0.000      0.5120E-07   0.000    
    2804  0.3747      0.1156E-03 SOLID          1 -66.9%  0.2887E-05  0.4846E-07   0.000      0.8863E-05   0.000      0.5120E-07   0.000    
   CYCLE    TIME      TIME-STEP  ELEMENT          ERROR  I-ENERGY    K-ENERGY T  K-ENERGY R  EXT-WORK     MAS.ERR     TOTAL MASS  MASS ADDED
    2805  0.3749      0.1156E-03 SOLID          1 -66.9%  0.2889E-05  0.4845E-07   0.000      0.8867E-05   0.000      0.5120E-07   0.000    
    2806  0.3750      0.1156E-03 SOLID          1 -66.9%  0.2891E-05  0.4844E-07   0.000      0.8872E-05   0.000      0.5120E-07   0.000    
    2807  0.3751      0.1156E-03 SOLID          1 -66.9%  0.2893E-05  0.4844E-07   0.000      0.8876E-05   0.000      0.5120E-07   0.000    
    2808  0.3752      0.1156E-03 SOLID          1 -66.9%  0.2895E-05  0.4843E-07   0.000      0.8880E-05   0.000      0.5120E-07   0.000    
    2809  0.3753      0.1156E-03 SOLID          1 -66.8%  0.2897E-05  0.4842E-07   0.000      0.8885E-05   0.000      0.5120E-07   0.000    
    2810  0.3754      0.1155E-03 SOLID          1 -66.8%  0.2899E-05  0.4841E-07   0.000      0.8889E-05   0.000      0.5120E-07   0.000    
    2811  0.3756      0.1155E-03 SOLID          1 -66.8%  0.2901E-05  0.4841E-07   0.000      0.8893E-05   0.000      0.5120E-07   0.000    
    2812  0.3757      0.1155E-03 SOLID          1 -66.8%  0.2903E-05  0.4840E-07   0.000      0.8898E-05   0.000      0.5120E-07   0.000    
    2813  0.3758      0.1155E-03 SOLID          1 -66.8%  0.2905E-05  0.4839E-07   0.000      0.8902E-05   0.000      0.5120E-07   0.000    
    2814  0.3759      0.1155E-03 SOLID          1 -66.8%  0.2907E-05  0.4838E-07   0.000      0.8906E-05   0.000      0.5120E-07   0.000    
    2815  0.3760      0.1155E-03 SOLID          1 -66.8%  0.2909E-05  0.4838E-07   0.000      0.8911E-05   0.000      0.5120E-07   0.000    
    2816  0.3761      0.1155E-03 SOLID          1 -66.8%  0.2911E-05  0.4837E-07   0.000      0.8915E-05   0.000      0.5120E-07   0.000    
    2817  0.3762      0.1155E-03 SOLID          1 -66.8%  0.2914E-05  0.4836E-07   0.000      0.8919E-05   0.000      0.5120E-07   0.000    
    2818  0.3764      0.1155E-03 SOLID          1 -66.8%  0.2916E-05  0.4836E-07   0.000      0.8923E-05   0.000      0.5120E-07   0.000    
    2819  0.3765      0.1155E-03 SOLID          1 -66.8%  0.2918E-05  0.4835E-07   0.000      0.8928E-05   0.000      0.5120E-07   0.000    
    2820  0.3766      0.1155E-03 SOLID          1 -66.8%  0.2920E-05  0.4834E-07   0.000      0.8932E-05   0.000      0.5120E-07   0.000    
    2821  0.3767      0.1155E-03 SOLID          1 -66.8%  0.2922E-05  0.4834E-07   0.000      0.8936E-05   0.000      0.5120E-07   0.000    
    2822  0.3768      0.1155E-03 SOLID          1 -66.8%  0.2924E-05  0.4833E-07   0.000      0.8941E-05   0.000      0.5120E-07   0.000    
    2823  0.3769      0.1154E-03 SOLID          1 -66.7%  0.2926E-05  0.4832E-07   0.000      0.8945E-05   0.000      0.5120E-07   0.000    
    2824  0.3771      0.1154E-03 SOLID          1 -66.7%  0.2928E-05  0.4831E-07   0.000      0.8949E-05   0.000      0.5120E-07   0.000    
    2825  0.3772      0.1154E-03 SOLID          1 -66.7%  0.2930E-05  0.4831E-07   0.000      0.8954E-05   0.000      0.5120E-07   0.000    
    2826  0.3773      0.1154E-03 SOLID          1 -66.7%  0.2932E-05  0.4830E-07   0.000      0.8958E-05   0.000      0.5120E-07   0.000    
    2827  0.3774      0.1154E-03 SOLID          1 -66.7%  0.2935E-05  0.4829E-07   0.000      0.8962E-05   0.000      0.5120E-07   0.000    
    2828  0.3775      0.1154E-03 SOLID          1 -66.7%  0.2937E-05  0.4829E-07   0.000      0.8967E-05   0.000      0.5120E-07   0.000    
    2829  0.3776      0.1154E-03 SOLID          1 -66.7%  0.2939E-05  0.4828E-07   0.000      0.8971E-05   0.000      0.5120E-07   0.000    
    2830  0.3777      0.1154E-03 SOLID          1 -66.7%  0.2941E-05  0.4827E-07   0.000      0.8975E-05   0.000      0.5120E-07   0.000    
    2831  0.3779      0.1154E-03 SOLID          1 -66.7%  0.2943E-05  0.4827E-07   0.000      0.8980E-05   0.000      0.5120E-07   0.000    
    2832  0.3780      0.1154E-03 SOLID          1 -66.7%  0.2945E-05  0.4826E-07   0.000      0.8984E-05   0.000      0.5120E-07   0.000    
    2833  0.3781      0.1154E-03 SOLID          1 -66.7%  0.2947E-05  0.4826E-07   0.000      0.8988E-05   0.000      0.5120E-07   0.000    
    2834  0.3782      0.1154E-03 SOLID          1 -66.7%  0.2949E-05  0.4825E-07   0.000      0.8993E-05   0.000      0.5120E-07   0.000    
    2835  0.3783      0.1154E-03 SOLID          1 -66.7%  0.2952E-05  0.4824E-07   0.000      0.8997E-05   0.000      0.5120E-07   0.000    
    2836  0.3784      0.1153E-03 SOLID          1 -66.7%  0.2954E-05  0.4824E-07   0.000      0.9001E-05   0.000      0.5120E-07   0.000    
    2837  0.3786      0.1153E-03 SOLID          1 -66.6%  0.2956E-05  0.4823E-07   0.000      0.9006E-05   0.000      0.5120E-07   0.000    
    2838  0.3787      0.1153E-03 SOLID          1 -66.6%  0.2958E-05  0.4822E-07   0.000      0.9010E-05   0.000      0.5120E-07   0.000    
    2839  0.3788      0.1153E-03 SOLID          1 -66.6%  0.2960E-05  0.4822E-07   0.000      0.9014E-05   0.000      0.5120E-07   0.000    
    2840  0.3789      0.1153E-03 SOLID          1 -66.6%  0.2962E-05  0.4821E-07   0.000      0.9019E-05   0.000      0.5120E-07   0.000    
    2841  0.3790      0.1153E-03 SOLID          1 -66.6%  0.2964E-05  0.4820E-07   0.000      0.9023E-05   0.000      0.5120E-07   0.000    
    2842  0.3791      0.1153E-03 SOLID          1 -66.6%  0.2966E-05  0.4820E-07   0.000      0.9027E-05   0.000      0.5120E-07   0.000    
    2843  0.3792      0.1153E-03 SOLID          1 -66.6%  0.2969E-05  0.4819E-07   0.000      0.9032E-05   0.000      0.5120E-07   0.000    
    2844  0.3794      0.1153E-03 SOLID          1 -66.6%  0.2971E-05  0.4819E-07   0.000      0.9036E-05   0.000      0.5120E-07   0.000    
    2845  0.3795      0.1153E-03 SOLID          1 -66.6%  0.2973E-05  0.4818E-07   0.000      0.9040E-05   0.000      0.5120E-07   0.000    
    2846  0.3796      0.1153E-03 SOLID          1 -66.6%  0.2975E-05  0.4817E-07   0.000      0.9045E-05   0.000      0.5120E-07   0.000    
    2847  0.3797      0.1153E-03 SOLID          1 -66.6%  0.2977E-05  0.4817E-07   0.000      0.9049E-05   0.000      0.5120E-07   0.000    
    2848  0.3798      0.1153E-03 SOLID          1 -66.6%  0.2979E-05  0.4816E-07   0.000      0.9053E-05   0.000      0.5120E-07   0.000    
    2849  0.3799      0.1153E-03 SOLID          1 -66.6%  0.2981E-05  0.4816E-07   0.000      0.9058E-05   0.000      0.5120E-07   0.000    
    2850  0.3801      0.1152E-03 SOLID          1 -66.5%  0.2984E-05  0.4815E-07   0.000      0.9062E-05   0.000      0.5120E-07   0.000    
    2851  0.3802      0.1152E-03 SOLID          1 -66.5%  0.2986E-05  0.4814E-07   0.000      0.9066E-05   0.000      0.5120E-07   0.000    
    2852  0.3803      0.1152E-03 SOLID          1 -66.5%  0.2988E-05  0.4814E-07   0.000      0.9071E-05   0.000      0.5120E-07   0.000    
    2853  0.3804      0.1152E-03 SOLID          1 -66.5%  0.2990E-05  0.4813E-07   0.000      0.9075E-05   0.000      0.5120E-07   0.000    
    2854  0.3805      0.1152E-03 SOLID          1 -66.5%  0.2992E-05  0.4813E-07   0.000      0.9079E-05   0.000      0.5120E-07   0.000    
    2855  0.3806      0.1152E-03 SOLID          1 -66.5%  0.2994E-05  0.4812E-07   0.000      0.9084E-05   0.000      0.5120E-07   0.000    
    2856  0.3807      0.1152E-03 SOLID          1 -66.5%  0.2996E-05  0.4812E-07   0.000      0.9088E-05   0.000      0.5120E-07   0.000    
    2857  0.3809      0.1152E-03 SOLID          1 -66.5%  0.2999E-05  0.4811E-07   0.000      0.9092E-05   0.000      0.5120E-07   0.000    
    2858  0.3810      0.1152E-03 SOLID          1 -66.5%  0.3001E-05  0.4811E-07   0.000      0.9097E-05   0.000      0.5120E-07   0.000    
    2859  0.3811      0.1152E-03 SOLID          1 -66.5%  0.3003E-05  0.4810E-07   0.000      0.9101E-05   0.000      0.5120E-07   0.000    
   CYCLE    TIME      TIME-STEP  ELEMENT          ERROR  I-ENERGY    K-ENERGY T  K-ENERGY R  EXT-WORK     MAS.ERR     TOTAL MASS  MASS ADDED
    2860  0.3812      0.1152E-03 SOLID          1 -66.5%  0.3005E-05  0.4809E-07   0.000      0.9105E-05   0.000      0.5120E-07   0.000    
    2861  0.3813      0.1152E-03 SOLID          1 -66.5%  0.3007E-05  0.4809E-07   0.000      0.9110E-05   0.000      0.5120E-07   0.000    
    2862  0.3814      0.1152E-03 SOLID          1 -66.5%  0.3009E-05  0.4808E-07   0.000      0.9114E-05   0.000      0.5120E-07   0.000    
    2863  0.3816      0.1151E-03 SOLID          1 -66.4%  0.3012E-05  0.4808E-07   0.000      0.9118E-05   0.000      0.5120E-07   0.000    
    2864  0.3817      0.1151E-03 SOLID          1 -66.4%  0.3014E-05  0.4807E-07   0.000      0.9123E-05   0.000      0.5120E-07   0.000    
    2865  0.3818      0.1151E-03 SOLID          1 -66.4%  0.3016E-05  0.4807E-07   0.000      0.9127E-05   0.000      0.5120E-07   0.000    
    2866  0.3819      0.1151E-03 SOLID          1 -66.4%  0.3018E-05  0.4806E-07   0.000      0.9132E-05   0.000      0.5120E-07   0.000    
    2867  0.3820      0.1151E-03 SOLID          1 -66.4%  0.3020E-05  0.4806E-07   0.000      0.9136E-05   0.000      0.5120E-07   0.000    
    2868  0.3821      0.1151E-03 SOLID          1 -66.4%  0.3022E-05  0.4805E-07   0.000      0.9140E-05   0.000      0.5120E-07   0.000    
    2869  0.3822      0.1151E-03 SOLID          1 -66.4%  0.3025E-05  0.4805E-07   0.000      0.9145E-05   0.000      0.5120E-07   0.000    
    2870  0.3824      0.1151E-03 SOLID          1 -66.4%  0.3027E-05  0.4804E-07   0.000      0.9149E-05   0.000      0.5120E-07   0.000    
    2871  0.3825      0.1151E-03 SOLID          1 -66.4%  0.3029E-05  0.4804E-07   0.000      0.9153E-05   0.000      0.5120E-07   0.000    
    2872  0.3826      0.1151E-03 SOLID          1 -66.4%  0.3031E-05  0.4803E-07   0.000      0.9158E-05   0.000      0.5120E-07   0.000    
    2873  0.3827      0.1151E-03 SOLID          1 -66.4%  0.3033E-05  0.4803E-07   0.000      0.9162E-05   0.000      0.5120E-07   0.000    
    2874  0.3828      0.1151E-03 SOLID          1 -66.4%  0.3036E-05  0.4802E-07   0.000      0.9166E-05   0.000      0.5120E-07   0.000    
    2875  0.3829      0.1151E-03 SOLID          1 -66.4%  0.3038E-05  0.4802E-07   0.000      0.9171E-05   0.000      0.5120E-07   0.000    
    2876  0.3830      0.1151E-03 SOLID          1 -66.3%  0.3040E-05  0.4801E-07   0.000      0.9175E-05   0.000      0.5120E-07   0.000    
    2877  0.3832      0.1150E-03 SOLID          1 -66.3%  0.3042E-05  0.4801E-07   0.000      0.9180E-05   0.000      0.5120E-07   0.000    
    2878  0.3833      0.1150E-03 SOLID          1 -66.3%  0.3044E-05  0.4800E-07   0.000      0.9184E-05   0.000      0.5120E-07   0.000    
    2879  0.3834      0.1150E-03 SOLID          1 -66.3%  0.3047E-05  0.4800E-07   0.000      0.9188E-05   0.000      0.5120E-07   0.000    
    2880  0.3835      0.1150E-03 SOLID          1 -66.3%  0.3049E-05  0.4799E-07   0.000      0.9193E-05   0.000      0.5120E-07   0.000    
    2881  0.3836      0.1150E-03 SOLID          1 -66.3%  0.3051E-05  0.4799E-07   0.000      0.9197E-05   0.000      0.5120E-07   0.000    
    2882  0.3837      0.1150E-03 SOLID          1 -66.3%  0.3053E-05  0.4798E-07   0.000      0.9201E-05   0.000      0.5120E-07   0.000    
    2883  0.3839      0.1150E-03 SOLID          1 -66.3%  0.3055E-05  0.4798E-07   0.000      0.9206E-05   0.000      0.5120E-07   0.000    
    2884  0.3840      0.1150E-03 SOLID          1 -66.3%  0.3058E-05  0.4798E-07   0.000      0.9210E-05   0.000      0.5120E-07   0.000    
    2885  0.3841      0.1150E-03 SOLID          1 -66.3%  0.3060E-05  0.4797E-07   0.000      0.9215E-05   0.000      0.5120E-07   0.000    
    2886  0.3842      0.1150E-03 SOLID          1 -66.3%  0.3062E-05  0.4797E-07   0.000      0.9219E-05   0.000      0.5120E-07   0.000    
    2887  0.3843      0.1150E-03 SOLID          1 -66.3%  0.3064E-05  0.4796E-07   0.000      0.9223E-05   0.000      0.5120E-07   0.000    
    2888  0.3844      0.1150E-03 SOLID          1 -66.2%  0.3066E-05  0.4796E-07   0.000      0.9228E-05   0.000      0.5120E-07   0.000    
    2889  0.3845      0.1150E-03 SOLID          1 -66.2%  0.3069E-05  0.4795E-07   0.000      0.9232E-05   0.000      0.5120E-07   0.000    
    2890  0.3847      0.1150E-03 SOLID          1 -66.2%  0.3071E-05  0.4795E-07   0.000      0.9236E-05   0.000      0.5120E-07   0.000    
    2891  0.3848      0.1149E-03 SOLID          1 -66.2%  0.3073E-05  0.4795E-07   0.000      0.9241E-05   0.000      0.5120E-07   0.000    
    2892  0.3849      0.1149E-03 SOLID          1 -66.2%  0.3075E-05  0.4794E-07   0.000      0.9245E-05   0.000      0.5120E-07   0.000    
    2893  0.3850      0.1149E-03 SOLID          1 -66.2%  0.3077E-05  0.4794E-07   0.000      0.9250E-05   0.000      0.5120E-07   0.000    
    2894  0.3851      0.1149E-03 SOLID          1 -66.2%  0.3080E-05  0.4793E-07   0.000      0.9254E-05   0.000      0.5120E-07   0.000    
    2895  0.3852      0.1149E-03 SOLID          1 -66.2%  0.3082E-05  0.4793E-07   0.000      0.9258E-05   0.000      0.5120E-07   0.000    
    2896  0.3853      0.1149E-03 SOLID          1 -66.2%  0.3084E-05  0.4793E-07   0.000      0.9263E-05   0.000      0.5120E-07   0.000    
    2897  0.3855      0.1149E-03 SOLID          1 -66.2%  0.3086E-05  0.4792E-07   0.000      0.9267E-05   0.000      0.5120E-07   0.000    
    2898  0.3856      0.1149E-03 SOLID          1 -66.2%  0.3089E-05  0.4792E-07   0.000      0.9271E-05   0.000      0.5120E-07   0.000    
    2899  0.3857      0.1149E-03 SOLID          1 -66.2%  0.3091E-05  0.4791E-07   0.000      0.9276E-05   0.000      0.5120E-07   0.000    
    2900  0.3858      0.1149E-03 SOLID          1 -66.2%  0.3093E-05  0.4791E-07   0.000      0.9280E-05   0.000      0.5120E-07   0.000    
    2901  0.3859      0.1149E-03 SOLID          1 -66.1%  0.3095E-05  0.4791E-07   0.000      0.9285E-05   0.000      0.5120E-07   0.000    
    2902  0.3860      0.1149E-03 SOLID          1 -66.1%  0.3098E-05  0.4790E-07   0.000      0.9289E-05   0.000      0.5120E-07   0.000    
    2903  0.3862      0.1149E-03 SOLID          1 -66.1%  0.3100E-05  0.4790E-07   0.000      0.9293E-05   0.000      0.5120E-07   0.000    
    2904  0.3863      0.1149E-03 SOLID          1 -66.1%  0.3102E-05  0.4790E-07   0.000      0.9298E-05   0.000      0.5120E-07   0.000    
    2905  0.3864      0.1148E-03 SOLID          1 -66.1%  0.3104E-05  0.4789E-07   0.000      0.9302E-05   0.000      0.5120E-07   0.000    
    2906  0.3865      0.1148E-03 SOLID          1 -66.1%  0.3106E-05  0.4789E-07   0.000      0.9307E-05   0.000      0.5120E-07   0.000    
    2907  0.3866      0.1148E-03 SOLID          1 -66.1%  0.3109E-05  0.4788E-07   0.000      0.9311E-05   0.000      0.5120E-07   0.000    
    2908  0.3867      0.1148E-03 SOLID          1 -66.1%  0.3111E-05  0.4788E-07   0.000      0.9315E-05   0.000      0.5120E-07   0.000    
    2909  0.3868      0.1148E-03 SOLID          1 -66.1%  0.3113E-05  0.4788E-07   0.000      0.9320E-05   0.000      0.5120E-07   0.000    
    2910  0.3870      0.1148E-03 SOLID          1 -66.1%  0.3115E-05  0.4787E-07   0.000      0.9324E-05   0.000      0.5120E-07   0.000    
    2911  0.3871      0.1148E-03 SOLID          1 -66.1%  0.3118E-05  0.4787E-07   0.000      0.9329E-05   0.000      0.5120E-07   0.000    
    2912  0.3872      0.1148E-03 SOLID          1 -66.1%  0.3120E-05  0.4787E-07   0.000      0.9333E-05   0.000      0.5120E-07   0.000    
    2913  0.3873      0.1148E-03 SOLID          1 -66.0%  0.3122E-05  0.4786E-07   0.000      0.9337E-05   0.000      0.5120E-07   0.000    
    2914  0.3874      0.1148E-03 SOLID          1 -66.0%  0.3124E-05  0.4786E-07   0.000      0.9342E-05   0.000      0.5120E-07   0.000    
   CYCLE    TIME      TIME-STEP  ELEMENT          ERROR  I-ENERGY    K-ENERGY T  K-ENERGY R  EXT-WORK     MAS.ERR     TOTAL MASS  MASS ADDED
    2915  0.3875      0.1148E-03 SOLID          1 -66.0%  0.3127E-05  0.4786E-07   0.000      0.9346E-05   0.000      0.5120E-07   0.000    
    2916  0.3876      0.1148E-03 SOLID          1 -66.0%  0.3129E-05  0.4786E-07   0.000      0.9351E-05   0.000      0.5120E-07   0.000    
    2917  0.3878      0.1148E-03 SOLID          1 -66.0%  0.3131E-05  0.4785E-07   0.000      0.9355E-05   0.000      0.5120E-07   0.000    
    2918  0.3879      0.1148E-03 SOLID          1 -66.0%  0.3134E-05  0.4785E-07   0.000      0.9359E-05   0.000      0.5120E-07   0.000    
    2919  0.3880      0.1147E-03 SOLID          1 -66.0%  0.3136E-05  0.4785E-07   0.000      0.9364E-05   0.000      0.5120E-07   0.000    
    2920  0.3881      0.1147E-03 SOLID          1 -66.0%  0.3138E-05  0.4784E-07   0.000      0.9368E-05   0.000      0.5120E-07   0.000    
    2921  0.3882      0.1147E-03 SOLID          1 -66.0%  0.3140E-05  0.4784E-07   0.000      0.9373E-05   0.000      0.5120E-07   0.000    
    2922  0.3883      0.1147E-03 SOLID          1 -66.0%  0.3143E-05  0.4784E-07   0.000      0.9377E-05   0.000      0.5120E-07   0.000    
    2923  0.3884      0.1147E-03 SOLID          1 -66.0%  0.3145E-05  0.4784E-07   0.000      0.9382E-05   0.000      0.5120E-07   0.000    
    2924  0.3886      0.1147E-03 SOLID          1 -66.0%  0.3147E-05  0.4783E-07   0.000      0.9386E-05   0.000      0.5120E-07   0.000    
    2925  0.3887      0.1147E-03 SOLID          1 -66.0%  0.3149E-05  0.4783E-07   0.000      0.9390E-05   0.000      0.5120E-07   0.000    
    2926  0.3888      0.1147E-03 SOLID          1 -65.9%  0.3152E-05  0.4783E-07   0.000      0.9395E-05   0.000      0.5120E-07   0.000    
    2927  0.3889      0.1147E-03 SOLID          1 -65.9%  0.3154E-05  0.4782E-07   0.000      0.9399E-05   0.000      0.5120E-07   0.000    
    2928  0.3890      0.1147E-03 SOLID          1 -65.9%  0.3156E-05  0.4782E-07   0.000      0.9404E-05   0.000      0.5120E-07   0.000    
    2929  0.3891      0.1147E-03 SOLID          1 -65.9%  0.3159E-05  0.4782E-07   0.000      0.9408E-05   0.000      0.5120E-07   0.000    
    2930  0.3893      0.1147E-03 SOLID          1 -65.9%  0.3161E-05  0.4782E-07   0.000      0.9412E-05   0.000      0.5120E-07   0.000    
    2931  0.3894      0.1147E-03 SOLID          1 -65.9%  0.3163E-05  0.4781E-07   0.000      0.9417E-05   0.000      0.5120E-07   0.000    
    2932  0.3895      0.1147E-03 SOLID          1 -65.9%  0.3165E-05  0.4781E-07   0.000      0.9421E-05   0.000      0.5120E-07   0.000    
    2933  0.3896      0.1146E-03 SOLID          1 -65.9%  0.3168E-05  0.4781E-07   0.000      0.9426E-05   0.000      0.5120E-07   0.000    
    2934  0.3897      0.1146E-03 SOLID          1 -65.9%  0.3170E-05  0.4781E-07   0.000      0.9430E-05   0.000      0.5120E-07   0.000    
    2935  0.3898      0.1146E-03 SOLID          1 -65.9%  0.3172E-05  0.4781E-07   0.000      0.9435E-05   0.000      0.5120E-07   0.000    
    2936  0.3899      0.1146E-03 SOLID          1 -65.9%  0.3175E-05  0.4780E-07   0.000      0.9439E-05   0.000      0.5120E-07   0.000    
    2937  0.3901      0.1146E-03 SOLID          1 -65.9%  0.3177E-05  0.4780E-07   0.000      0.9443E-05   0.000      0.5120E-07   0.000    
    2938  0.3902      0.1146E-03 SOLID          1 -65.8%  0.3179E-05  0.4780E-07   0.000      0.9448E-05   0.000      0.5120E-07   0.000    
    2939  0.3903      0.1146E-03 SOLID          1 -65.8%  0.3181E-05  0.4780E-07   0.000      0.9452E-05   0.000      0.5120E-07   0.000    
    2940  0.3904      0.1146E-03 SOLID          1 -65.8%  0.3184E-05  0.4780E-07   0.000      0.9457E-05   0.000      0.5120E-07   0.000    
    2941  0.3905      0.1146E-03 SOLID          1 -65.8%  0.3186E-05  0.4779E-07   0.000      0.9461E-05   0.000      0.5120E-07   0.000    
    2942  0.3906      0.1146E-03 SOLID          1 -65.8%  0.3188E-05  0.4779E-07   0.000      0.9466E-05   0.000      0.5120E-07   0.000    
    2943  0.3907      0.1146E-03 SOLID          1 -65.8%  0.3191E-05  0.4779E-07   0.000      0.9470E-05   0.000      0.5120E-07   0.000    
    2944  0.3909      0.1146E-03 SOLID          1 -65.8%  0.3193E-05  0.4779E-07   0.000      0.9474E-05   0.000      0.5120E-07   0.000    
    2945  0.3910      0.1146E-03 SOLID          1 -65.8%  0.3195E-05  0.4779E-07   0.000      0.9479E-05   0.000      0.5120E-07   0.000    
    2946  0.3911      0.1146E-03 SOLID          1 -65.8%  0.3198E-05  0.4778E-07   0.000      0.9483E-05   0.000      0.5120E-07   0.000    
    2947  0.3912      0.1146E-03 SOLID          1 -65.8%  0.3200E-05  0.4778E-07   0.000      0.9488E-05   0.000      0.5120E-07   0.000    
    2948  0.3913      0.1145E-03 SOLID          1 -65.8%  0.3202E-05  0.4778E-07   0.000      0.9492E-05   0.000      0.5120E-07   0.000    
    2949  0.3914      0.1145E-03 SOLID          1 -65.8%  0.3205E-05  0.4778E-07   0.000      0.9497E-05   0.000      0.5120E-07   0.000    
    2950  0.3915      0.1145E-03 SOLID          1 -65.7%  0.3207E-05  0.4778E-07   0.000      0.9501E-05   0.000      0.5120E-07   0.000    
    2951  0.3917      0.1145E-03 SOLID          1 -65.7%  0.3209E-05  0.4778E-07   0.000      0.9505E-05   0.000      0.5120E-07   0.000    
    2952  0.3918      0.1145E-03 SOLID          1 -65.7%  0.3211E-05  0.4777E-07   0.000      0.9510E-05   0.000      0.5120E-07   0.000    
    2953  0.3919      0.1145E-03 SOLID          1 -65.7%  0.3214E-05  0.4777E-07   0.000      0.9514E-05   0.000      0.5120E-07   0.000    
    2954  0.3920      0.1145E-03 SOLID          1 -65.7%  0.3216E-05  0.4777E-07   0.000      0.9519E-05   0.000      0.5120E-07   0.000    
    2955  0.3921      0.1145E-03 SOLID          1 -65.7%  0.3218E-05  0.4777E-07   0.000      0.9523E-05   0.000      0.5120E-07   0.000    
    2956  0.3922      0.1145E-03 SOLID          1 -65.7%  0.3221E-05  0.4777E-07   0.000      0.9528E-05   0.000      0.5120E-07   0.000    
    2957  0.3923      0.1145E-03 SOLID          1 -65.7%  0.3223E-05  0.4777E-07   0.000      0.9532E-05   0.000      0.5120E-07   0.000    
    2958  0.3925      0.1145E-03 SOLID          1 -65.7%  0.3225E-05  0.4777E-07   0.000      0.9537E-05   0.000      0.5120E-07   0.000    
    2959  0.3926      0.1145E-03 SOLID          1 -65.7%  0.3228E-05  0.4777E-07   0.000      0.9541E-05   0.000      0.5120E-07   0.000    
    2960  0.3927      0.1145E-03 SOLID          1 -65.7%  0.3230E-05  0.4776E-07   0.000      0.9545E-05   0.000      0.5120E-07   0.000    
    2961  0.3928      0.1145E-03 SOLID          1 -65.7%  0.3232E-05  0.4776E-07   0.000      0.9550E-05   0.000      0.5120E-07   0.000    
    2962  0.3929      0.1144E-03 SOLID          1 -65.6%  0.3235E-05  0.4776E-07   0.000      0.9554E-05   0.000      0.5120E-07   0.000    
    2963  0.3930      0.1144E-03 SOLID          1 -65.6%  0.3237E-05  0.4776E-07   0.000      0.9559E-05   0.000      0.5120E-07   0.000    
    2964  0.3931      0.1144E-03 SOLID          1 -65.6%  0.3239E-05  0.4776E-07   0.000      0.9563E-05   0.000      0.5120E-07   0.000    
    2965  0.3933      0.1144E-03 SOLID          1 -65.6%  0.3242E-05  0.4776E-07   0.000      0.9568E-05   0.000      0.5120E-07   0.000    
    2966  0.3934      0.1144E-03 SOLID          1 -65.6%  0.3244E-05  0.4776E-07   0.000      0.9572E-05   0.000      0.5120E-07   0.000    
    2967  0.3935      0.1144E-03 SOLID          1 -65.6%  0.3247E-05  0.4776E-07   0.000      0.9577E-05   0.000      0.5120E-07   0.000    
    2968  0.3936      0.1144E-03 SOLID          1 -65.6%  0.3249E-05  0.4776E-07   0.000      0.9581E-05   0.000      0.5120E-07   0.000    
    2969  0.3937      0.1144E-03 SOLID          1 -65.6%  0.3251E-05  0.4776E-07   0.000      0.9586E-05   0.000      0.5120E-07   0.000    
   CYCLE    TIME      TIME-STEP  ELEMENT          ERROR  I-ENERGY    K-ENERGY T  K-ENERGY R  EXT-WORK     MAS.ERR     TOTAL MASS  MASS ADDED
    2970  0.3938      0.1144E-03 SOLID          1 -65.6%  0.3254E-05  0.4776E-07   0.000      0.9590E-05   0.000      0.5120E-07   0.000    
    2971  0.3939      0.1144E-03 SOLID          1 -65.6%  0.3256E-05  0.4775E-07   0.000      0.9594E-05   0.000      0.5120E-07   0.000    
    2972  0.3941      0.1144E-03 SOLID          1 -65.6%  0.3258E-05  0.4775E-07   0.000      0.9599E-05   0.000      0.5120E-07   0.000    
    2973  0.3942      0.1144E-03 SOLID          1 -65.5%  0.3261E-05  0.4775E-07   0.000      0.9603E-05   0.000      0.5120E-07   0.000    
    2974  0.3943      0.1144E-03 SOLID          1 -65.5%  0.3263E-05  0.4775E-07   0.000      0.9608E-05   0.000      0.5120E-07   0.000    
    2975  0.3944      0.1144E-03 SOLID          1 -65.5%  0.3265E-05  0.4775E-07   0.000      0.9612E-05   0.000      0.5120E-07   0.000    
    2976  0.3945      0.1144E-03 SOLID          1 -65.5%  0.3268E-05  0.4775E-07   0.000      0.9617E-05   0.000      0.5120E-07   0.000    
    2977  0.3946      0.1143E-03 SOLID          1 -65.5%  0.3270E-05  0.4775E-07   0.000      0.9621E-05   0.000      0.5120E-07   0.000    
    2978  0.3947      0.1143E-03 SOLID          1 -65.5%  0.3272E-05  0.4775E-07   0.000      0.9626E-05   0.000      0.5120E-07   0.000    
    2979  0.3949      0.1143E-03 SOLID          1 -65.5%  0.3275E-05  0.4775E-07   0.000      0.9630E-05   0.000      0.5120E-07   0.000    
    2980  0.3950      0.1143E-03 SOLID          1 -65.5%  0.3277E-05  0.4775E-07   0.000      0.9635E-05   0.000      0.5120E-07   0.000    
    2981  0.3951      0.1143E-03 SOLID          1 -65.5%  0.3280E-05  0.4775E-07   0.000      0.9639E-05   0.000      0.5120E-07   0.000    
    2982  0.3952      0.1143E-03 SOLID          1 -65.5%  0.3282E-05  0.4775E-07   0.000      0.9644E-05   0.000      0.5120E-07   0.000    
    2983  0.3953      0.1143E-03 SOLID          1 -65.5%  0.3284E-05  0.4775E-07   0.000      0.9648E-05   0.000      0.5120E-07   0.000    
    2984  0.3954      0.1143E-03 SOLID          1 -65.5%  0.3287E-05  0.4775E-07   0.000      0.9653E-05   0.000      0.5120E-07   0.000    
    2985  0.3955      0.1143E-03 SOLID          1 -65.4%  0.3289E-05  0.4775E-07   0.000      0.9657E-05   0.000      0.5120E-07   0.000    
    2986  0.3957      0.1143E-03 SOLID          1 -65.4%  0.3291E-05  0.4775E-07   0.000      0.9661E-05   0.000      0.5120E-07   0.000    
    2987  0.3958      0.1143E-03 SOLID          1 -65.4%  0.3294E-05  0.4775E-07   0.000      0.9666E-05   0.000      0.5120E-07   0.000    
    2988  0.3959      0.1143E-03 SOLID          1 -65.4%  0.3296E-05  0.4775E-07   0.000      0.9670E-05   0.000      0.5120E-07   0.000    
    2989  0.3960      0.1143E-03 SOLID          1 -65.4%  0.3299E-05  0.4775E-07   0.000      0.9675E-05   0.000      0.5120E-07   0.000    
    2990  0.3961      0.1143E-03 SOLID          1 -65.4%  0.3301E-05  0.4775E-07   0.000      0.9679E-05   0.000      0.5120E-07   0.000    
    2991  0.3962      0.1143E-03 SOLID          1 -65.4%  0.3303E-05  0.4775E-07   0.000      0.9684E-05   0.000      0.5120E-07   0.000    
    2992  0.3963      0.1142E-03 SOLID          1 -65.4%  0.3306E-05  0.4775E-07   0.000      0.9688E-05   0.000      0.5120E-07   0.000    
    2993  0.3965      0.1142E-03 SOLID          1 -65.4%  0.3308E-05  0.4775E-07   0.000      0.9693E-05   0.000      0.5120E-07   0.000    
    2994  0.3966      0.1142E-03 SOLID          1 -65.4%  0.3310E-05  0.4775E-07   0.000      0.9697E-05   0.000      0.5120E-07   0.000    
    2995  0.3967      0.1142E-03 SOLID          1 -65.4%  0.3313E-05  0.4775E-07   0.000      0.9702E-05   0.000      0.5120E-07   0.000    
    2996  0.3968      0.1142E-03 SOLID          1 -65.4%  0.3315E-05  0.4775E-07   0.000      0.9706E-05   0.000      0.5120E-07   0.000    
    2997  0.3969      0.1142E-03 SOLID          1 -65.3%  0.3318E-05  0.4775E-07   0.000      0.9711E-05   0.000      0.5120E-07   0.000    
    2998  0.3970      0.1142E-03 SOLID          1 -65.3%  0.3320E-05  0.4775E-07   0.000      0.9715E-05   0.000      0.5120E-07   0.000    
    2999  0.3971      0.1142E-03 SOLID          1 -65.3%  0.3322E-05  0.4775E-07   0.000      0.9720E-05   0.000      0.5120E-07   0.000    
    3000  0.3973      0.1142E-03 SOLID          1 -65.3%  0.3325E-05  0.4775E-07   0.000      0.9724E-05   0.000      0.5120E-07   0.000    
    3001  0.3974      0.1142E-03 SOLID          1 -65.3%  0.3327E-05  0.4775E-07   0.000      0.9729E-05   0.000      0.5120E-07   0.000    
    3002  0.3975      0.1142E-03 SOLID          1 -65.3%  0.3330E-05  0.4775E-07   0.000      0.9733E-05   0.000      0.5120E-07   0.000    
    3003  0.3976      0.1142E-03 SOLID          1 -65.3%  0.3332E-05  0.4775E-07   0.000      0.9738E-05   0.000      0.5120E-07   0.000    
    3004  0.3977      0.1142E-03 SOLID          1 -65.3%  0.3334E-05  0.4775E-07   0.000      0.9742E-05   0.000      0.5120E-07   0.000    
    3005  0.3978      0.1142E-03 SOLID          1 -65.3%  0.3337E-05  0.4775E-07   0.000      0.9747E-05   0.000      0.5120E-07   0.000    
    3006  0.3979      0.1142E-03 SOLID          1 -65.3%  0.3339E-05  0.4775E-07   0.000      0.9751E-05   0.000      0.5120E-07   0.000    
    3007  0.3981      0.1141E-03 SOLID          1 -65.3%  0.3342E-05  0.4775E-07   0.000      0.9756E-05   0.000      0.5120E-07   0.000    
    3008  0.3982      0.1141E-03 SOLID          1 -65.2%  0.3344E-05  0.4775E-07   0.000      0.9760E-05   0.000      0.5120E-07   0.000    
    3009  0.3983      0.1141E-03 SOLID          1 -65.2%  0.3347E-05  0.4776E-07   0.000      0.9765E-05   0.000      0.5120E-07   0.000    
    3010  0.3984      0.1141E-03 SOLID          1 -65.2%  0.3349E-05  0.4776E-07   0.000      0.9769E-05   0.000      0.5120E-07   0.000    
    3011  0.3985      0.1141E-03 SOLID          1 -65.2%  0.3351E-05  0.4776E-07   0.000      0.9774E-05   0.000      0.5120E-07   0.000    
    3012  0.3986      0.1141E-03 SOLID          1 -65.2%  0.3354E-05  0.4776E-07   0.000      0.9778E-05   0.000      0.5120E-07   0.000    
    3013  0.3987      0.1141E-03 SOLID          1 -65.2%  0.3356E-05  0.4776E-07   0.000      0.9783E-05   0.000      0.5120E-07   0.000    
    3014  0.3989      0.1141E-03 SOLID          1 -65.2%  0.3359E-05  0.4776E-07   0.000      0.9787E-05   0.000      0.5120E-07   0.000    
    3015  0.3990      0.1141E-03 SOLID          1 -65.2%  0.3361E-05  0.4776E-07   0.000      0.9792E-05   0.000      0.5120E-07   0.000    
    3016  0.3991      0.1141E-03 SOLID          1 -65.2%  0.3364E-05  0.4776E-07   0.000      0.9796E-05   0.000      0.5120E-07   0.000    
    3017  0.3992      0.1141E-03 SOLID          1 -65.2%  0.3366E-05  0.4776E-07   0.000      0.9801E-05   0.000      0.5120E-07   0.000    
    3018  0.3993      0.1141E-03 SOLID          1 -65.2%  0.3368E-05  0.4776E-07   0.000      0.9805E-05   0.000      0.5120E-07   0.000    
    3019  0.3994      0.1141E-03 SOLID          1 -65.2%  0.3371E-05  0.4776E-07   0.000      0.9810E-05   0.000      0.5120E-07   0.000    
    3020  0.3995      0.1141E-03 SOLID          1 -65.1%  0.3373E-05  0.4776E-07   0.000      0.9814E-05   0.000      0.5120E-07   0.000    
    3021  0.3997      0.1141E-03 SOLID          1 -65.1%  0.3376E-05  0.4776E-07   0.000      0.9819E-05   0.000      0.5120E-07   0.000    
    3022  0.3998      0.1141E-03 SOLID          1 -65.1%  0.3378E-05  0.4777E-07   0.000      0.9823E-05   0.000      0.5120E-07   0.000    
    3023  0.3999      0.1140E-03 SOLID          1 -65.1%  0.3381E-05  0.4777E-07   0.000      0.9828E-05   0.000      0.5120E-07   0.000    
    3024  0.4000      0.1140E-03 SOLID          1 -65.1%  0.3383E-05  0.4777E-07   0.000      0.9832E-05   0.000      0.5120E-07   0.000    
     ANIMATION FILE: M50BA009 WRITTEN
   CYCLE    TIME      TIME-STEP  ELEMENT          ERROR  I-ENERGY    K-ENERGY T  K-ENERGY R  EXT-WORK     MAS.ERR     TOTAL MASS  MASS ADDED
    3025  0.4001      0.1140E-03 SOLID          1 -65.1%  0.3385E-05  0.4777E-07   0.000      0.9837E-05   0.000      0.5120E-07   0.000    
    3026  0.4002      0.1140E-03 SOLID          1 -65.1%  0.3388E-05  0.4777E-07   0.000      0.9841E-05   0.000      0.5120E-07   0.000    
    3027  0.4003      0.1140E-03 SOLID          1 -65.1%  0.3390E-05  0.4777E-07   0.000      0.9846E-05   0.000      0.5120E-07   0.000    
    3028  0.4005      0.1140E-03 SOLID          1 -65.1%  0.3393E-05  0.4777E-07   0.000      0.9850E-05   0.000      0.5120E-07   0.000    
    3029  0.4006      0.1140E-03 SOLID          1 -65.1%  0.3395E-05  0.4777E-07   0.000      0.9855E-05   0.000      0.5120E-07   0.000    
    3030  0.4007      0.1140E-03 SOLID          1 -65.1%  0.3398E-05  0.4777E-07   0.000      0.9859E-05   0.000      0.5120E-07   0.000    
    3031  0.4008      0.1140E-03 SOLID          1 -65.0%  0.3400E-05  0.4777E-07   0.000      0.9864E-05   0.000      0.5120E-07   0.000    
    3032  0.4009      0.1140E-03 SOLID          1 -65.0%  0.3403E-05  0.4777E-07   0.000      0.9868E-05   0.000      0.5120E-07   0.000    
    3033  0.4010      0.1140E-03 SOLID          1 -65.0%  0.3405E-05  0.4778E-07   0.000      0.9873E-05   0.000      0.5120E-07   0.000    
    3034  0.4011      0.1140E-03 SOLID          1 -65.0%  0.3408E-05  0.4778E-07   0.000      0.9877E-05   0.000      0.5120E-07   0.000    
    3035  0.4013      0.1140E-03 SOLID          1 -65.0%  0.3410E-05  0.4778E-07   0.000      0.9882E-05   0.000      0.5120E-07   0.000    
    3036  0.4014      0.1140E-03 SOLID          1 -65.0%  0.3412E-05  0.4778E-07   0.000      0.9886E-05   0.000      0.5120E-07   0.000    
    3037  0.4015      0.1140E-03 SOLID          1 -65.0%  0.3415E-05  0.4778E-07   0.000      0.9891E-05   0.000      0.5120E-07   0.000    
    3038  0.4016      0.1139E-03 SOLID          1 -65.0%  0.3417E-05  0.4778E-07   0.000      0.9896E-05   0.000      0.5120E-07   0.000    
    3039  0.4017      0.1139E-03 SOLID          1 -65.0%  0.3420E-05  0.4778E-07   0.000      0.9900E-05   0.000      0.5120E-07   0.000    
    3040  0.4018      0.1139E-03 SOLID          1 -65.0%  0.3422E-05  0.4778E-07   0.000      0.9905E-05   0.000      0.5120E-07   0.000    
    3041  0.4019      0.1139E-03 SOLID          1 -65.0%  0.3425E-05  0.4778E-07   0.000      0.9909E-05   0.000      0.5120E-07   0.000    
    3042  0.4021      0.1139E-03 SOLID          1 -64.9%  0.3427E-05  0.4779E-07   0.000      0.9914E-05   0.000      0.5120E-07   0.000    
    3043  0.4022      0.1139E-03 SOLID          1 -64.9%  0.3430E-05  0.4779E-07   0.000      0.9918E-05   0.000      0.5120E-07   0.000    
    3044  0.4023      0.1139E-03 SOLID          1 -64.9%  0.3432E-05  0.4779E-07   0.000      0.9923E-05   0.000      0.5120E-07   0.000    
    3045  0.4024      0.1139E-03 SOLID          1 -64.9%  0.3435E-05  0.4779E-07   0.000      0.9927E-05   0.000      0.5120E-07   0.000    
    3046  0.4025      0.1139E-03 SOLID          1 -64.9%  0.3437E-05  0.4779E-07   0.000      0.9932E-05   0.000      0.5120E-07   0.000    
    3047  0.4026      0.1139E-03 SOLID          1 -64.9%  0.3440E-05  0.4779E-07   0.000      0.9936E-05   0.000      0.5120E-07   0.000    
    3048  0.4027      0.1139E-03 SOLID          1 -64.9%  0.3442E-05  0.4779E-07   0.000      0.9941E-05   0.000      0.5120E-07   0.000    
    3049  0.4028      0.1139E-03 SOLID          1 -64.9%  0.3445E-05  0.4779E-07   0.000      0.9945E-05   0.000      0.5120E-07   0.000    
    3050  0.4030      0.1139E-03 SOLID          1 -64.9%  0.3447E-05  0.4780E-07   0.000      0.9950E-05   0.000      0.5120E-07   0.000    
    3051  0.4031      0.1139E-03 SOLID          1 -64.9%  0.3450E-05  0.4780E-07   0.000      0.9955E-05   0.000      0.5120E-07   0.000    
    3052  0.4032      0.1139E-03 SOLID          1 -64.9%  0.3452E-05  0.4780E-07   0.000      0.9959E-05   0.000      0.5120E-07   0.000    
    3053  0.4033      0.1139E-03 SOLID          1 -64.8%  0.3455E-05  0.4780E-07   0.000      0.9964E-05   0.000      0.5120E-07   0.000    
    3054  0.4034      0.1138E-03 SOLID          1 -64.8%  0.3457E-05  0.4780E-07   0.000      0.9968E-05   0.000      0.5120E-07   0.000    
    3055  0.4035      0.1138E-03 SOLID          1 -64.8%  0.3460E-05  0.4780E-07   0.000      0.9973E-05   0.000      0.5120E-07   0.000    
    3056  0.4036      0.1138E-03 SOLID          1 -64.8%  0.3462E-05  0.4780E-07   0.000      0.9977E-05   0.000      0.5120E-07   0.000    
    3057  0.4038      0.1138E-03 SOLID          1 -64.8%  0.3465E-05  0.4780E-07   0.000      0.9982E-05   0.000      0.5120E-07   0.000    
    3058  0.4039      0.1138E-03 SOLID          1 -64.8%  0.3467E-05  0.4781E-07   0.000      0.9986E-05   0.000      0.5120E-07   0.000    
    3059  0.4040      0.1138E-03 SOLID          1 -64.8%  0.3470E-05  0.4781E-07   0.000      0.9991E-05   0.000      0.5120E-07   0.000    
    3060  0.4041      0.1138E-03 SOLID          1 -64.8%  0.3472E-05  0.4781E-07   0.000      0.9995E-05   0.000      0.5120E-07   0.000    
    3061  0.4042      0.1138E-03 SOLID          1 -64.8%  0.3475E-05  0.4781E-07   0.000      0.1000E-04   0.000      0.5120E-07   0.000    
    3062  0.4043      0.1138E-03 SOLID          1 -64.8%  0.3477E-05  0.4781E-07   0.000      0.1000E-04   0.000      0.5120E-07   0.000    
    3063  0.4044      0.1138E-03 SOLID          1 -64.8%  0.3480E-05  0.4781E-07   0.000      0.1001E-04   0.000      0.5120E-07   0.000    
    3064  0.4046      0.1138E-03 SOLID          1 -64.7%  0.3482E-05  0.4781E-07   0.000      0.1001E-04   0.000      0.5120E-07   0.000    
    3065  0.4047      0.1138E-03 SOLID          1 -64.7%  0.3485E-05  0.4781E-07   0.000      0.1002E-04   0.000      0.5120E-07   0.000    
    3066  0.4048      0.1138E-03 SOLID          1 -64.7%  0.3487E-05  0.4781E-07   0.000      0.1002E-04   0.000      0.5120E-07   0.000    
    3067  0.4049      0.1138E-03 SOLID          1 -64.7%  0.3490E-05  0.4782E-07   0.000      0.1003E-04   0.000      0.5120E-07   0.000    
    3068  0.4050      0.1138E-03 SOLID          1 -64.7%  0.3492E-05  0.4782E-07   0.000      0.1003E-04   0.000      0.5120E-07   0.000    
    3069  0.4051      0.1138E-03 SOLID          1 -64.7%  0.3495E-05  0.4782E-07   0.000      0.1004E-04   0.000      0.5120E-07   0.000    
    3070  0.4052      0.1137E-03 SOLID          1 -64.7%  0.3497E-05  0.4782E-07   0.000      0.1004E-04   0.000      0.5120E-07   0.000    
    3071  0.4054      0.1137E-03 SOLID          1 -64.7%  0.3500E-05  0.4782E-07   0.000      0.1005E-04   0.000      0.5120E-07   0.000    
    3072  0.4055      0.1137E-03 SOLID          1 -64.7%  0.3502E-05  0.4782E-07   0.000      0.1005E-04   0.000      0.5120E-07   0.000    
    3073  0.4056      0.1137E-03 SOLID          1 -64.7%  0.3505E-05  0.4782E-07   0.000      0.1005E-04   0.000      0.5120E-07   0.000    
    3074  0.4057      0.1137E-03 SOLID          1 -64.7%  0.3507E-05  0.4782E-07   0.000      0.1006E-04   0.000      0.5120E-07   0.000    
    3075  0.4058      0.1137E-03 SOLID          1 -64.7%  0.3510E-05  0.4782E-07   0.000      0.1006E-04   0.000      0.5120E-07   0.000    
    3076  0.4059      0.1137E-03 SOLID          1 -64.6%  0.3512E-05  0.4782E-07   0.000      0.1007E-04   0.000      0.5120E-07   0.000    
    3077  0.4060      0.1137E-03 SOLID          1 -64.6%  0.3515E-05  0.4783E-07   0.000      0.1007E-04   0.000      0.5120E-07   0.000    
    3078  0.4061      0.1137E-03 SOLID          1 -64.6%  0.3517E-05  0.4783E-07   0.000      0.1008E-04   0.000      0.5120E-07   0.000    
    3079  0.4063      0.1137E-03 SOLID          1 -64.6%  0.3520E-05  0.4783E-07   0.000      0.1008E-04   0.000      0.5120E-07   0.000    
   CYCLE    TIME      TIME-STEP  ELEMENT          ERROR  I-ENERGY    K-ENERGY T  K-ENERGY R  EXT-WORK     MAS.ERR     TOTAL MASS  MASS ADDED
    3080  0.4064      0.1137E-03 SOLID          1 -64.6%  0.3522E-05  0.4783E-07   0.000      0.1009E-04   0.000      0.5120E-07   0.000    
    3081  0.4065      0.1137E-03 SOLID          1 -64.6%  0.3525E-05  0.4783E-07   0.000      0.1009E-04   0.000      0.5120E-07   0.000    
    3082  0.4066      0.1137E-03 SOLID          1 -64.6%  0.3527E-05  0.4783E-07   0.000      0.1010E-04   0.000      0.5120E-07   0.000    
    3083  0.4067      0.1137E-03 SOLID          1 -64.6%  0.3530E-05  0.4783E-07   0.000      0.1010E-04   0.000      0.5120E-07   0.000    
    3084  0.4068      0.1137E-03 SOLID          1 -64.6%  0.3533E-05  0.4783E-07   0.000      0.1010E-04   0.000      0.5120E-07   0.000    
    3085  0.4069      0.1137E-03 SOLID          1 -64.6%  0.3535E-05  0.4783E-07   0.000      0.1011E-04   0.000      0.5120E-07   0.000    
    3086  0.4071      0.1137E-03 SOLID          1 -64.5%  0.3538E-05  0.4783E-07   0.000      0.1011E-04   0.000      0.5120E-07   0.000    
    3087  0.4072      0.1136E-03 SOLID          1 -64.5%  0.3540E-05  0.4783E-07   0.000      0.1012E-04   0.000      0.5120E-07   0.000    
    3088  0.4073      0.1136E-03 SOLID          1 -64.5%  0.3543E-05  0.4784E-07   0.000      0.1012E-04   0.000      0.5120E-07   0.000    
    3089  0.4074      0.1136E-03 SOLID          1 -64.5%  0.3545E-05  0.4784E-07   0.000      0.1013E-04   0.000      0.5120E-07   0.000    
    3090  0.4075      0.1136E-03 SOLID          1 -64.5%  0.3548E-05  0.4784E-07   0.000      0.1013E-04   0.000      0.5120E-07   0.000    
    3091  0.4076      0.1136E-03 SOLID          1 -64.5%  0.3550E-05  0.4784E-07   0.000      0.1014E-04   0.000      0.5120E-07   0.000    
    3092  0.4077      0.1136E-03 SOLID          1 -64.5%  0.3553E-05  0.4784E-07   0.000      0.1014E-04   0.000      0.5120E-07   0.000    
    3093  0.4079      0.1136E-03 SOLID          1 -64.5%  0.3555E-05  0.4784E-07   0.000      0.1015E-04   0.000      0.5120E-07   0.000    
    3094  0.4080      0.1136E-03 SOLID          1 -64.5%  0.3558E-05  0.4784E-07   0.000      0.1015E-04   0.000      0.5120E-07   0.000    
    3095  0.4081      0.1136E-03 SOLID          1 -64.5%  0.3561E-05  0.4784E-07   0.000      0.1016E-04   0.000      0.5120E-07   0.000    
    3096  0.4082      0.1136E-03 SOLID          1 -64.5%  0.3563E-05  0.4784E-07   0.000      0.1016E-04   0.000      0.5120E-07   0.000    
    3097  0.4083      0.1136E-03 SOLID          1 -64.4%  0.3566E-05  0.4784E-07   0.000      0.1016E-04   0.000      0.5120E-07   0.000    
    3098  0.4084      0.1136E-03 SOLID          1 -64.4%  0.3568E-05  0.4784E-07   0.000      0.1017E-04   0.000      0.5120E-07   0.000    
    3099  0.4085      0.1136E-03 SOLID          1 -64.4%  0.3571E-05  0.4784E-07   0.000      0.1017E-04   0.000      0.5120E-07   0.000    
    3100  0.4086      0.1136E-03 SOLID          1 -64.4%  0.3573E-05  0.4784E-07   0.000      0.1018E-04   0.000      0.5120E-07   0.000    
    3101  0.4088      0.1136E-03 SOLID          1 -64.4%  0.3576E-05  0.4784E-07   0.000      0.1018E-04   0.000      0.5120E-07   0.000    
    3102  0.4089      0.1136E-03 SOLID          1 -64.4%  0.3579E-05  0.4784E-07   0.000      0.1019E-04   0.000      0.5120E-07   0.000    
    3103  0.4090      0.1135E-03 SOLID          1 -64.4%  0.3581E-05  0.4784E-07   0.000      0.1019E-04   0.000      0.5120E-07   0.000    
    3104  0.4091      0.1135E-03 SOLID          1 -64.4%  0.3584E-05  0.4784E-07   0.000      0.1020E-04   0.000      0.5120E-07   0.000    
    3105  0.4092      0.1135E-03 SOLID          1 -64.4%  0.3586E-05  0.4784E-07   0.000      0.1020E-04   0.000      0.5120E-07   0.000    
    3106  0.4093      0.1135E-03 SOLID          1 -64.4%  0.3589E-05  0.4784E-07   0.000      0.1021E-04   0.000      0.5120E-07   0.000    
    3107  0.4094      0.1135E-03 SOLID          1 -64.4%  0.3591E-05  0.4784E-07   0.000      0.1021E-04   0.000      0.5120E-07   0.000    
    3108  0.4096      0.1135E-03 SOLID          1 -64.3%  0.3594E-05  0.4784E-07   0.000      0.1022E-04   0.000      0.5120E-07   0.000    
    3109  0.4097      0.1135E-03 SOLID          1 -64.3%  0.3597E-05  0.4784E-07   0.000      0.1022E-04   0.000      0.5120E-07   0.000    
    3110  0.4098      0.1135E-03 SOLID          1 -64.3%  0.3599E-05  0.4784E-07   0.000      0.1022E-04   0.000      0.5120E-07   0.000    
    3111  0.4099      0.1135E-03 SOLID          1 -64.3%  0.3602E-05  0.4784E-07   0.000      0.1023E-04   0.000      0.5120E-07   0.000    
    3112  0.4100      0.1135E-03 SOLID          1 -64.3%  0.3604E-05  0.4784E-07   0.000      0.1023E-04   0.000      0.5120E-07   0.000    
    3113  0.4101      0.1135E-03 SOLID          1 -64.3%  0.3607E-05  0.4784E-07   0.000      0.1024E-04   0.000      0.5120E-07   0.000    
    3114  0.4102      0.1135E-03 SOLID          1 -64.3%  0.3610E-05  0.4784E-07   0.000      0.1024E-04   0.000      0.5120E-07   0.000    
    3115  0.4104      0.1135E-03 SOLID          1 -64.3%  0.3612E-05  0.4784E-07   0.000      0.1025E-04   0.000      0.5120E-07   0.000    
    3116  0.4105      0.1135E-03 SOLID          1 -64.3%  0.3615E-05  0.4784E-07   0.000      0.1025E-04   0.000      0.5120E-07   0.000    
    3117  0.4106      0.1135E-03 SOLID          1 -64.3%  0.3617E-05  0.4784E-07   0.000      0.1026E-04   0.000      0.5120E-07   0.000    
    3118  0.4107      0.1135E-03 SOLID          1 -64.3%  0.3620E-05  0.4784E-07   0.000      0.1026E-04   0.000      0.5120E-07   0.000    
    3119  0.4108      0.1135E-03 SOLID          1 -64.2%  0.3623E-05  0.4784E-07   0.000      0.1027E-04   0.000      0.5120E-07   0.000    
    3120  0.4109      0.1134E-03 SOLID          1 -64.2%  0.3625E-05  0.4784E-07   0.000      0.1027E-04   0.000      0.5120E-07   0.000    
    3121  0.4110      0.1134E-03 SOLID          1 -64.2%  0.3628E-05  0.4784E-07   0.000      0.1028E-04   0.000      0.5120E-07   0.000    
    3122  0.4111      0.1134E-03 SOLID          1 -64.2%  0.3630E-05  0.4784E-07   0.000      0.1028E-04   0.000      0.5120E-07   0.000    
    3123  0.4113      0.1134E-03 SOLID          1 -64.2%  0.3633E-05  0.4784E-07   0.000      0.1028E-04   0.000      0.5120E-07   0.000    
    3124  0.4114      0.1134E-03 SOLID          1 -64.2%  0.3636E-05  0.4784E-07   0.000      0.1029E-04   0.000      0.5120E-07   0.000    
    3125  0.4115      0.1134E-03 SOLID          1 -64.2%  0.3638E-05  0.4784E-07   0.000      0.1029E-04   0.000      0.5120E-07   0.000    
    3126  0.4116      0.1134E-03 SOLID          1 -64.2%  0.3641E-05  0.4784E-07   0.000      0.1030E-04   0.000      0.5120E-07   0.000    
    3127  0.4117      0.1134E-03 SOLID          1 -64.2%  0.3643E-05  0.4784E-07   0.000      0.1030E-04   0.000      0.5120E-07   0.000    
    3128  0.4118      0.1134E-03 SOLID          1 -64.2%  0.3646E-05  0.4784E-07   0.000      0.1031E-04   0.000      0.5120E-07   0.000    
    3129  0.4119      0.1134E-03 SOLID          1 -64.2%  0.3649E-05  0.4784E-07   0.000      0.1031E-04   0.000      0.5120E-07   0.000    
    3130  0.4121      0.1134E-03 SOLID          1 -64.1%  0.3651E-05  0.4784E-07   0.000      0.1032E-04   0.000      0.5120E-07   0.000    
    3131  0.4122      0.1134E-03 SOLID          1 -64.1%  0.3654E-05  0.4783E-07   0.000      0.1032E-04   0.000      0.5120E-07   0.000    
    3132  0.4123      0.1134E-03 SOLID          1 -64.1%  0.3656E-05  0.4783E-07   0.000      0.1033E-04   0.000      0.5120E-07   0.000    
    3133  0.4124      0.1134E-03 SOLID          1 -64.1%  0.3659E-05  0.4783E-07   0.000      0.1033E-04   0.000      0.5120E-07   0.000    
    3134  0.4125      0.1134E-03 SOLID          1 -64.1%  0.3662E-05  0.4783E-07   0.000      0.1034E-04   0.000      0.5120E-07   0.000    
   CYCLE    TIME      TIME-STEP  ELEMENT          ERROR  I-ENERGY    K-ENERGY T  K-ENERGY R  EXT-WORK     MAS.ERR     TOTAL MASS  MASS ADDED
    3135  0.4126      0.1134E-03 SOLID          1 -64.1%  0.3664E-05  0.4783E-07   0.000      0.1034E-04   0.000      0.5120E-07   0.000    
    3136  0.4127      0.1133E-03 SOLID          1 -64.1%  0.3667E-05  0.4783E-07   0.000      0.1034E-04   0.000      0.5120E-07   0.000    
    3137  0.4128      0.1133E-03 SOLID          1 -64.1%  0.3670E-05  0.4783E-07   0.000      0.1035E-04   0.000      0.5120E-07   0.000    
    3138  0.4130      0.1133E-03 SOLID          1 -64.1%  0.3672E-05  0.4783E-07   0.000      0.1035E-04   0.000      0.5120E-07   0.000    
    3139  0.4131      0.1133E-03 SOLID          1 -64.1%  0.3675E-05  0.4782E-07   0.000      0.1036E-04   0.000      0.5120E-07   0.000    
    3140  0.4132      0.1133E-03 SOLID          1 -64.1%  0.3677E-05  0.4782E-07   0.000      0.1036E-04   0.000      0.5120E-07   0.000    
    3141  0.4133      0.1133E-03 SOLID          1 -64.0%  0.3680E-05  0.4782E-07   0.000      0.1037E-04   0.000      0.5120E-07   0.000    
    3142  0.4134      0.1133E-03 SOLID          1 -64.0%  0.3683E-05  0.4782E-07   0.000      0.1037E-04   0.000      0.5120E-07   0.000    
    3143  0.4135      0.1133E-03 SOLID          1 -64.0%  0.3685E-05  0.4782E-07   0.000      0.1038E-04   0.000      0.5120E-07   0.000    
    3144  0.4136      0.1133E-03 SOLID          1 -64.0%  0.3688E-05  0.4782E-07   0.000      0.1038E-04   0.000      0.5120E-07   0.000    
    3145  0.4138      0.1133E-03 SOLID          1 -64.0%  0.3691E-05  0.4782E-07   0.000      0.1039E-04   0.000      0.5120E-07   0.000    
    3146  0.4139      0.1133E-03 SOLID          1 -64.0%  0.3693E-05  0.4781E-07   0.000      0.1039E-04   0.000      0.5120E-07   0.000    
    3147  0.4140      0.1133E-03 SOLID          1 -64.0%  0.3696E-05  0.4781E-07   0.000      0.1040E-04   0.000      0.5120E-07   0.000    
    3148  0.4141      0.1133E-03 SOLID          1 -64.0%  0.3699E-05  0.4781E-07   0.000      0.1040E-04   0.000      0.5120E-07   0.000    
    3149  0.4142      0.1133E-03 SOLID          1 -64.0%  0.3701E-05  0.4781E-07   0.000      0.1040E-04   0.000      0.5120E-07   0.000    
    3150  0.4143      0.1133E-03 SOLID          1 -64.0%  0.3704E-05  0.4781E-07   0.000      0.1041E-04   0.000      0.5120E-07   0.000    
    3151  0.4144      0.1133E-03 SOLID          1 -63.9%  0.3707E-05  0.4780E-07   0.000      0.1041E-04   0.000      0.5120E-07   0.000    
    3152  0.4145      0.1133E-03 SOLID          1 -63.9%  0.3709E-05  0.4780E-07   0.000      0.1042E-04   0.000      0.5120E-07   0.000    
    3153  0.4147      0.1132E-03 SOLID          1 -63.9%  0.3712E-05  0.4780E-07   0.000      0.1042E-04   0.000      0.5120E-07   0.000    
    3154  0.4148      0.1132E-03 SOLID          1 -63.9%  0.3715E-05  0.4780E-07   0.000      0.1043E-04   0.000      0.5120E-07   0.000    
    3155  0.4149      0.1132E-03 SOLID          1 -63.9%  0.3717E-05  0.4779E-07   0.000      0.1043E-04   0.000      0.5120E-07   0.000    
    3156  0.4150      0.1132E-03 SOLID          1 -63.9%  0.3720E-05  0.4779E-07   0.000      0.1044E-04   0.000      0.5120E-07   0.000    
    3157  0.4151      0.1132E-03 SOLID          1 -63.9%  0.3723E-05  0.4779E-07   0.000      0.1044E-04   0.000      0.5120E-07   0.000    
    3158  0.4152      0.1132E-03 SOLID          1 -63.9%  0.3725E-05  0.4779E-07   0.000      0.1045E-04   0.000      0.5120E-07   0.000    
    3159  0.4153      0.1132E-03 SOLID          1 -63.9%  0.3728E-05  0.4778E-07   0.000      0.1045E-04   0.000      0.5120E-07   0.000    
    3160  0.4155      0.1132E-03 SOLID          1 -63.9%  0.3731E-05  0.4778E-07   0.000      0.1046E-04   0.000      0.5120E-07   0.000    
    3161  0.4156      0.1132E-03 SOLID          1 -63.9%  0.3733E-05  0.4778E-07   0.000      0.1046E-04   0.000      0.5120E-07   0.000    
    3162  0.4157      0.1132E-03 SOLID          1 -63.8%  0.3736E-05  0.4778E-07   0.000      0.1047E-04   0.000      0.5120E-07   0.000    
    3163  0.4158      0.1132E-03 SOLID          1 -63.8%  0.3739E-05  0.4777E-07   0.000      0.1047E-04   0.000      0.5120E-07   0.000    
    3164  0.4159      0.1132E-03 SOLID          1 -63.8%  0.3741E-05  0.4777E-07   0.000      0.1047E-04   0.000      0.5120E-07   0.000    
    3165  0.4160      0.1132E-03 SOLID          1 -63.8%  0.3744E-05  0.4777E-07   0.000      0.1048E-04   0.000      0.5120E-07   0.000    
    3166  0.4161      0.1132E-03 SOLID          1 -63.8%  0.3747E-05  0.4776E-07   0.000      0.1048E-04   0.000      0.5120E-07   0.000    
    3167  0.4162      0.1132E-03 SOLID          1 -63.8%  0.3749E-05  0.4776E-07   0.000      0.1049E-04   0.000      0.5120E-07   0.000    
    3168  0.4164      0.1132E-03 SOLID          1 -63.8%  0.3752E-05  0.4776E-07   0.000      0.1049E-04   0.000      0.5120E-07   0.000    
    3169  0.4165      0.1132E-03 SOLID          1 -63.8%  0.3755E-05  0.4776E-07   0.000      0.1050E-04   0.000      0.5120E-07   0.000    
    3170  0.4166      0.1132E-03 SOLID          1 -63.8%  0.3757E-05  0.4775E-07   0.000      0.1050E-04   0.000      0.5120E-07   0.000    
    3171  0.4167      0.1131E-03 SOLID          1 -63.8%  0.3760E-05  0.4775E-07   0.000      0.1051E-04   0.000      0.5120E-07   0.000    
    3172  0.4168      0.1131E-03 SOLID          1 -63.8%  0.3763E-05  0.4775E-07   0.000      0.1051E-04   0.000      0.5120E-07   0.000    
    3173  0.4169      0.1131E-03 SOLID          1 -63.7%  0.3765E-05  0.4774E-07   0.000      0.1052E-04   0.000      0.5120E-07   0.000    
    3174  0.4170      0.1131E-03 SOLID          1 -63.7%  0.3768E-05  0.4774E-07   0.000      0.1052E-04   0.000      0.5120E-07   0.000    
    3175  0.4172      0.1131E-03 SOLID          1 -63.7%  0.3771E-05  0.4773E-07   0.000      0.1053E-04   0.000      0.5120E-07   0.000    
    3176  0.4173      0.1131E-03 SOLID          1 -63.7%  0.3773E-05  0.4773E-07   0.000      0.1053E-04   0.000      0.5120E-07   0.000    
    3177  0.4174      0.1131E-03 SOLID          1 -63.7%  0.3776E-05  0.4773E-07   0.000      0.1054E-04   0.000      0.5120E-07   0.000    
    3178  0.4175      0.1131E-03 SOLID          1 -63.7%  0.3779E-05  0.4772E-07   0.000      0.1054E-04   0.000      0.5120E-07   0.000    
    3179  0.4176      0.1131E-03 SOLID          1 -63.7%  0.3782E-05  0.4772E-07   0.000      0.1054E-04   0.000      0.5120E-07   0.000    
    3180  0.4177      0.1131E-03 SOLID          1 -63.7%  0.3784E-05  0.4772E-07   0.000      0.1055E-04   0.000      0.5120E-07   0.000    
    3181  0.4178      0.1131E-03 SOLID          1 -63.7%  0.3787E-05  0.4771E-07   0.000      0.1055E-04   0.000      0.5120E-07   0.000    
    3182  0.4179      0.1131E-03 SOLID          1 -63.7%  0.3790E-05  0.4771E-07   0.000      0.1056E-04   0.000      0.5120E-07   0.000    
    3183  0.4181      0.1131E-03 SOLID          1 -63.6%  0.3792E-05  0.4770E-07   0.000      0.1056E-04   0.000      0.5120E-07   0.000    
    3184  0.4182      0.1131E-03 SOLID          1 -63.6%  0.3795E-05  0.4770E-07   0.000      0.1057E-04   0.000      0.5120E-07   0.000    
    3185  0.4183      0.1131E-03 SOLID          1 -63.6%  0.3798E-05  0.4769E-07   0.000      0.1057E-04   0.000      0.5120E-07   0.000    
    3186  0.4184      0.1131E-03 SOLID          1 -63.6%  0.3800E-05  0.4769E-07   0.000      0.1058E-04   0.000      0.5120E-07   0.000    
    3187  0.4185      0.1131E-03 SOLID          1 -63.6%  0.3803E-05  0.4769E-07   0.000      0.1058E-04   0.000      0.5120E-07   0.000    
    3188  0.4186      0.1130E-03 SOLID          1 -63.6%  0.3806E-05  0.4768E-07   0.000      0.1059E-04   0.000      0.5120E-07   0.000    
    3189  0.4187      0.1130E-03 SOLID          1 -63.6%  0.3809E-05  0.4768E-07   0.000      0.1059E-04   0.000      0.5120E-07   0.000    
   CYCLE    TIME      TIME-STEP  ELEMENT          ERROR  I-ENERGY    K-ENERGY T  K-ENERGY R  EXT-WORK     MAS.ERR     TOTAL MASS  MASS ADDED
    3190  0.4188      0.1130E-03 SOLID          1 -63.6%  0.3811E-05  0.4767E-07   0.000      0.1060E-04   0.000      0.5120E-07   0.000    
    3191  0.4190      0.1130E-03 SOLID          1 -63.6%  0.3814E-05  0.4767E-07   0.000      0.1060E-04   0.000      0.5120E-07   0.000    
    3192  0.4191      0.1130E-03 SOLID          1 -63.6%  0.3817E-05  0.4766E-07   0.000      0.1061E-04   0.000      0.5120E-07   0.000    
    3193  0.4192      0.1130E-03 SOLID          1 -63.6%  0.3819E-05  0.4766E-07   0.000      0.1061E-04   0.000      0.5120E-07   0.000    
    3194  0.4193      0.1130E-03 SOLID          1 -63.5%  0.3822E-05  0.4765E-07   0.000      0.1061E-04   0.000      0.5120E-07   0.000    
    3195  0.4194      0.1130E-03 SOLID          1 -63.5%  0.3825E-05  0.4765E-07   0.000      0.1062E-04   0.000      0.5120E-07   0.000    
    3196  0.4195      0.1130E-03 SOLID          1 -63.5%  0.3828E-05  0.4764E-07   0.000      0.1062E-04   0.000      0.5120E-07   0.000    
    3197  0.4196      0.1130E-03 SOLID          1 -63.5%  0.3830E-05  0.4764E-07   0.000      0.1063E-04   0.000      0.5120E-07   0.000    
    3198  0.4198      0.1130E-03 SOLID          1 -63.5%  0.3833E-05  0.4763E-07   0.000      0.1063E-04   0.000      0.5120E-07   0.000    
    3199  0.4199      0.1130E-03 SOLID          1 -63.5%  0.3836E-05  0.4763E-07   0.000      0.1064E-04   0.000      0.5120E-07   0.000    
    3200  0.4200      0.1130E-03 SOLID          1 -63.5%  0.3839E-05  0.4762E-07   0.000      0.1064E-04   0.000      0.5120E-07   0.000    
    3201  0.4201      0.1130E-03 SOLID          1 -63.5%  0.3841E-05  0.4762E-07   0.000      0.1065E-04   0.000      0.5120E-07   0.000    
    3202  0.4202      0.1130E-03 SOLID          1 -63.5%  0.3844E-05  0.4761E-07   0.000      0.1065E-04   0.000      0.5120E-07   0.000    
    3203  0.4203      0.1130E-03 SOLID          1 -63.5%  0.3847E-05  0.4761E-07   0.000      0.1066E-04   0.000      0.5120E-07   0.000    
    3204  0.4204      0.1130E-03 SOLID          1 -63.4%  0.3850E-05  0.4760E-07   0.000      0.1066E-04   0.000      0.5120E-07   0.000    
    3205  0.4205      0.1130E-03 SOLID          1 -63.4%  0.3852E-05  0.4759E-07   0.000      0.1067E-04   0.000      0.5120E-07   0.000    
    3206  0.4207      0.1129E-03 SOLID          1 -63.4%  0.3855E-05  0.4759E-07   0.000      0.1067E-04   0.000      0.5120E-07   0.000    
    3207  0.4208      0.1129E-03 SOLID          1 -63.4%  0.3858E-05  0.4758E-07   0.000      0.1068E-04   0.000      0.5120E-07   0.000    
    3208  0.4209      0.1129E-03 SOLID          1 -63.4%  0.3861E-05  0.4758E-07   0.000      0.1068E-04   0.000      0.5120E-07   0.000    
    3209  0.4210      0.1129E-03 SOLID          1 -63.4%  0.3863E-05  0.4757E-07   0.000      0.1069E-04   0.000      0.5120E-07   0.000    
    3210  0.4211      0.1129E-03 SOLID          1 -63.4%  0.3866E-05  0.4756E-07   0.000      0.1069E-04   0.000      0.5120E-07   0.000    
    3211  0.4212      0.1129E-03 SOLID          1 -63.4%  0.3869E-05  0.4756E-07   0.000      0.1069E-04   0.000      0.5120E-07   0.000    
    3212  0.4213      0.1129E-03 SOLID          1 -63.4%  0.3872E-05  0.4755E-07   0.000      0.1070E-04   0.000      0.5120E-07   0.000    
    3213  0.4214      0.1129E-03 SOLID          1 -63.4%  0.3874E-05  0.4755E-07   0.000      0.1070E-04   0.000      0.5120E-07   0.000    
    3214  0.4216      0.1129E-03 SOLID          1 -63.4%  0.3877E-05  0.4754E-07   0.000      0.1071E-04   0.000      0.5120E-07   0.000    
    3215  0.4217      0.1129E-03 SOLID          1 -63.3%  0.3880E-05  0.4753E-07   0.000      0.1071E-04   0.000      0.5120E-07   0.000    
    3216  0.4218      0.1129E-03 SOLID          1 -63.3%  0.3883E-05  0.4753E-07   0.000      0.1072E-04   0.000      0.5120E-07   0.000    
    3217  0.4219      0.1129E-03 SOLID          1 -63.3%  0.3885E-05  0.4752E-07   0.000      0.1072E-04   0.000      0.5120E-07   0.000    
    3218  0.4220      0.1129E-03 SOLID          1 -63.3%  0.3888E-05  0.4751E-07   0.000      0.1073E-04   0.000      0.5120E-07   0.000    
    3219  0.4221      0.1129E-03 SOLID          1 -63.3%  0.3891E-05  0.4751E-07   0.000      0.1073E-04   0.000      0.5120E-07   0.000    
    3220  0.4222      0.1129E-03 SOLID          1 -63.3%  0.3894E-05  0.4750E-07   0.000      0.1074E-04   0.000      0.5120E-07   0.000    
    3221  0.4223      0.1129E-03 SOLID          1 -63.3%  0.3896E-05  0.4749E-07   0.000      0.1074E-04   0.000      0.5120E-07   0.000    
    3222  0.4225      0.1129E-03 SOLID          1 -63.3%  0.3899E-05  0.4749E-07   0.000      0.1075E-04   0.000      0.5120E-07   0.000    
    3223  0.4226      0.1128E-03 SOLID          1 -63.3%  0.3902E-05  0.4748E-07   0.000      0.1075E-04   0.000      0.5120E-07   0.000    
    3224  0.4227      0.1128E-03 SOLID          1 -63.3%  0.3905E-05  0.4747E-07   0.000      0.1076E-04   0.000      0.5120E-07   0.000    
    3225  0.4228      0.1128E-03 SOLID          1 -63.2%  0.3907E-05  0.4747E-07   0.000      0.1076E-04   0.000      0.5120E-07   0.000    
    3226  0.4229      0.1128E-03 SOLID          1 -63.2%  0.3910E-05  0.4746E-07   0.000      0.1077E-04   0.000      0.5120E-07   0.000    
    3227  0.4230      0.1128E-03 SOLID          1 -63.2%  0.3913E-05  0.4745E-07   0.000      0.1077E-04   0.000      0.5120E-07   0.000    
    3228  0.4231      0.1128E-03 SOLID          1 -63.2%  0.3916E-05  0.4744E-07   0.000      0.1078E-04   0.000      0.5120E-07   0.000    
    3229  0.4233      0.1128E-03 SOLID          1 -63.2%  0.3919E-05  0.4744E-07   0.000      0.1078E-04   0.000      0.5120E-07   0.000    
    3230  0.4234      0.1128E-03 SOLID          1 -63.2%  0.3921E-05  0.4743E-07   0.000      0.1078E-04   0.000      0.5120E-07   0.000    
    3231  0.4235      0.1128E-03 SOLID          1 -63.2%  0.3924E-05  0.4742E-07   0.000      0.1079E-04   0.000      0.5120E-07   0.000    
    3232  0.4236      0.1128E-03 SOLID          1 -63.2%  0.3927E-05  0.4742E-07   0.000      0.1079E-04   0.000      0.5120E-07   0.000    
    3233  0.4237      0.1128E-03 SOLID          1 -63.2%  0.3930E-05  0.4741E-07   0.000      0.1080E-04   0.000      0.5120E-07   0.000    
    3234  0.4238      0.1128E-03 SOLID          1 -63.2%  0.3933E-05  0.4740E-07   0.000      0.1080E-04   0.000      0.5120E-07   0.000    
    3235  0.4239      0.1128E-03 SOLID          1 -63.2%  0.3935E-05  0.4739E-07   0.000      0.1081E-04   0.000      0.5120E-07   0.000    
    3236  0.4240      0.1128E-03 SOLID          1 -63.1%  0.3938E-05  0.4739E-07   0.000      0.1081E-04   0.000      0.5120E-07   0.000    
    3237  0.4242      0.1128E-03 SOLID          1 -63.1%  0.3941E-05  0.4738E-07   0.000      0.1082E-04   0.000      0.5120E-07   0.000    
    3238  0.4243      0.1128E-03 SOLID          1 -63.1%  0.3944E-05  0.4737E-07   0.000      0.1082E-04   0.000      0.5120E-07   0.000    
    3239  0.4244      0.1128E-03 SOLID          1 -63.1%  0.3947E-05  0.4736E-07   0.000      0.1083E-04   0.000      0.5120E-07   0.000    
    3240  0.4245      0.1128E-03 SOLID          1 -63.1%  0.3949E-05  0.4735E-07   0.000      0.1083E-04   0.000      0.5120E-07   0.000    
    3241  0.4246      0.1127E-03 SOLID          1 -63.1%  0.3952E-05  0.4735E-07   0.000      0.1084E-04   0.000      0.5120E-07   0.000    
    3242  0.4247      0.1127E-03 SOLID          1 -63.1%  0.3955E-05  0.4734E-07   0.000      0.1084E-04   0.000      0.5120E-07   0.000    
    3243  0.4248      0.1127E-03 SOLID          1 -63.1%  0.3958E-05  0.4733E-07   0.000      0.1085E-04   0.000      0.5120E-07   0.000    
    3244  0.4249      0.1127E-03 SOLID          1 -63.1%  0.3961E-05  0.4732E-07   0.000      0.1085E-04   0.000      0.5120E-07   0.000    
   CYCLE    TIME      TIME-STEP  ELEMENT          ERROR  I-ENERGY    K-ENERGY T  K-ENERGY R  EXT-WORK     MAS.ERR     TOTAL MASS  MASS ADDED
    3245  0.4251      0.1127E-03 SOLID          1 -63.1%  0.3963E-05  0.4731E-07   0.000      0.1086E-04   0.000      0.5120E-07   0.000    
    3246  0.4252      0.1127E-03 SOLID          1 -63.0%  0.3966E-05  0.4731E-07   0.000      0.1086E-04   0.000      0.5120E-07   0.000    
    3247  0.4253      0.1127E-03 SOLID          1 -63.0%  0.3969E-05  0.4730E-07   0.000      0.1087E-04   0.000      0.5120E-07   0.000    
    3248  0.4254      0.1127E-03 SOLID          1 -63.0%  0.3972E-05  0.4729E-07   0.000      0.1087E-04   0.000      0.5120E-07   0.000    
    3249  0.4255      0.1127E-03 SOLID          1 -63.0%  0.3975E-05  0.4728E-07   0.000      0.1087E-04   0.000      0.5120E-07   0.000    
    3250  0.4256      0.1127E-03 SOLID          1 -63.0%  0.3977E-05  0.4727E-07   0.000      0.1088E-04   0.000      0.5120E-07   0.000    
    3251  0.4257      0.1127E-03 SOLID          1 -63.0%  0.3980E-05  0.4726E-07   0.000      0.1088E-04   0.000      0.5120E-07   0.000    
    3252  0.4258      0.1127E-03 SOLID          1 -63.0%  0.3983E-05  0.4726E-07   0.000      0.1089E-04   0.000      0.5120E-07   0.000    
    3253  0.4260      0.1127E-03 SOLID          1 -63.0%  0.3986E-05  0.4725E-07   0.000      0.1089E-04   0.000      0.5120E-07   0.000    
    3254  0.4261      0.1127E-03 SOLID          1 -63.0%  0.3989E-05  0.4724E-07   0.000      0.1090E-04   0.000      0.5120E-07   0.000    
    3255  0.4262      0.1127E-03 SOLID          1 -63.0%  0.3992E-05  0.4723E-07   0.000      0.1090E-04   0.000      0.5120E-07   0.000    
    3256  0.4263      0.1127E-03 SOLID          1 -62.9%  0.3994E-05  0.4722E-07   0.000      0.1091E-04   0.000      0.5120E-07   0.000    
    3257  0.4264      0.1127E-03 SOLID          1 -62.9%  0.3997E-05  0.4721E-07   0.000      0.1091E-04   0.000      0.5120E-07   0.000    
    3258  0.4265      0.1127E-03 SOLID          1 -62.9%  0.4000E-05  0.4720E-07   0.000      0.1092E-04   0.000      0.5120E-07   0.000    
    3259  0.4266      0.1126E-03 SOLID          1 -62.9%  0.4003E-05  0.4719E-07   0.000      0.1092E-04   0.000      0.5120E-07   0.000    
    3260  0.4267      0.1126E-03 SOLID          1 -62.9%  0.4006E-05  0.4718E-07   0.000      0.1093E-04   0.000      0.5120E-07   0.000    
    3261  0.4269      0.1126E-03 SOLID          1 -62.9%  0.4009E-05  0.4718E-07   0.000      0.1093E-04   0.000      0.5120E-07   0.000    
    3262  0.4270      0.1126E-03 SOLID          1 -62.9%  0.4011E-05  0.4717E-07   0.000      0.1094E-04   0.000      0.5120E-07   0.000    
    3263  0.4271      0.1126E-03 SOLID          1 -62.9%  0.4014E-05  0.4716E-07   0.000      0.1094E-04   0.000      0.5120E-07   0.000    
    3264  0.4272      0.1126E-03 SOLID          1 -62.9%  0.4017E-05  0.4715E-07   0.000      0.1095E-04   0.000      0.5120E-07   0.000    
    3265  0.4273      0.1126E-03 SOLID          1 -62.9%  0.4020E-05  0.4714E-07   0.000      0.1095E-04   0.000      0.5120E-07   0.000    
    3266  0.4274      0.1126E-03 SOLID          1 -62.9%  0.4023E-05  0.4713E-07   0.000      0.1096E-04   0.000      0.5120E-07   0.000    
    3267  0.4275      0.1126E-03 SOLID          1 -62.8%  0.4026E-05  0.4712E-07   0.000      0.1096E-04   0.000      0.5120E-07   0.000    
    3268  0.4276      0.1126E-03 SOLID          1 -62.8%  0.4029E-05  0.4711E-07   0.000      0.1097E-04   0.000      0.5120E-07   0.000    
    3269  0.4278      0.1126E-03 SOLID          1 -62.8%  0.4031E-05  0.4710E-07   0.000      0.1097E-04   0.000      0.5120E-07   0.000    
    3270  0.4279      0.1126E-03 SOLID          1 -62.8%  0.4034E-05  0.4709E-07   0.000      0.1097E-04   0.000      0.5120E-07   0.000    
    3271  0.4280      0.1126E-03 SOLID          1 -62.8%  0.4037E-05  0.4708E-07   0.000      0.1098E-04   0.000      0.5120E-07   0.000    
    3272  0.4281      0.1126E-03 SOLID          1 -62.8%  0.4040E-05  0.4707E-07   0.000      0.1098E-04   0.000      0.5120E-07   0.000    
    3273  0.4282      0.1126E-03 SOLID          1 -62.8%  0.4043E-05  0.4706E-07   0.000      0.1099E-04   0.000      0.5120E-07   0.000    
    3274  0.4283      0.1126E-03 SOLID          1 -62.8%  0.4046E-05  0.4705E-07   0.000      0.1099E-04   0.000      0.5120E-07   0.000    
    3275  0.4284      0.1126E-03 SOLID          1 -62.8%  0.4049E-05  0.4704E-07   0.000      0.1100E-04   0.000      0.5120E-07   0.000    
    3276  0.4285      0.1126E-03 SOLID          1 -62.8%  0.4051E-05  0.4704E-07   0.000      0.1100E-04   0.000      0.5120E-07   0.000    
    3277  0.4287      0.1125E-03 SOLID          1 -62.7%  0.4054E-05  0.4703E-07   0.000      0.1101E-04   0.000      0.5120E-07   0.000    
    3278  0.4288      0.1125E-03 SOLID          1 -62.7%  0.4057E-05  0.4702E-07   0.000      0.1101E-04   0.000      0.5120E-07   0.000    
    3279  0.4289      0.1125E-03 SOLID          1 -62.7%  0.4060E-05  0.4701E-07   0.000      0.1102E-04   0.000      0.5120E-07   0.000    
    3280  0.4290      0.1125E-03 SOLID          1 -62.7%  0.4063E-05  0.4700E-07   0.000      0.1102E-04   0.000      0.5120E-07   0.000    
    3281  0.4291      0.1125E-03 SOLID          1 -62.7%  0.4066E-05  0.4699E-07   0.000      0.1103E-04   0.000      0.5120E-07   0.000    
    3282  0.4292      0.1125E-03 SOLID          1 -62.7%  0.4069E-05  0.4698E-07   0.000      0.1103E-04   0.000      0.5120E-07   0.000    
    3283  0.4293      0.1125E-03 SOLID          1 -62.7%  0.4071E-05  0.4697E-07   0.000      0.1104E-04   0.000      0.5120E-07   0.000    
    3284  0.4294      0.1125E-03 SOLID          1 -62.7%  0.4074E-05  0.4696E-07   0.000      0.1104E-04   0.000      0.5120E-07   0.000    
    3285  0.4296      0.1125E-03 SOLID          1 -62.7%  0.4077E-05  0.4695E-07   0.000      0.1105E-04   0.000      0.5120E-07   0.000    
    3286  0.4297      0.1125E-03 SOLID          1 -62.7%  0.4080E-05  0.4694E-07   0.000      0.1105E-04   0.000      0.5120E-07   0.000    
    3287  0.4298      0.1125E-03 SOLID          1 -62.6%  0.4083E-05  0.4693E-07   0.000      0.1106E-04   0.000      0.5120E-07   0.000    
    3288  0.4299      0.1125E-03 SOLID          1 -62.6%  0.4086E-05  0.4692E-07   0.000      0.1106E-04   0.000      0.5120E-07   0.000    
    3289  0.4300      0.1125E-03 SOLID          1 -62.6%  0.4089E-05  0.4691E-07   0.000      0.1107E-04   0.000      0.5120E-07   0.000    
    3290  0.4301      0.1125E-03 SOLID          1 -62.6%  0.4092E-05  0.4690E-07   0.000      0.1107E-04   0.000      0.5120E-07   0.000    
    3291  0.4302      0.1125E-03 SOLID          1 -62.6%  0.4095E-05  0.4689E-07   0.000      0.1108E-04   0.000      0.5120E-07   0.000    
    3292  0.4303      0.1125E-03 SOLID          1 -62.6%  0.4097E-05  0.4688E-07   0.000      0.1108E-04   0.000      0.5120E-07   0.000    
    3293  0.4305      0.1125E-03 SOLID          1 -62.6%  0.4100E-05  0.4687E-07   0.000      0.1108E-04   0.000      0.5120E-07   0.000    
    3294  0.4306      0.1125E-03 SOLID          1 -62.6%  0.4103E-05  0.4686E-07   0.000      0.1109E-04   0.000      0.5120E-07   0.000    
    3295  0.4307      0.1124E-03 SOLID          1 -62.6%  0.4106E-05  0.4684E-07   0.000      0.1109E-04   0.000      0.5120E-07   0.000    
    3296  0.4308      0.1124E-03 SOLID          1 -62.6%  0.4109E-05  0.4683E-07   0.000      0.1110E-04   0.000      0.5120E-07   0.000    
    3297  0.4309      0.1124E-03 SOLID          1 -62.5%  0.4112E-05  0.4682E-07   0.000      0.1110E-04   0.000      0.5120E-07   0.000    
    3298  0.4310      0.1124E-03 SOLID          1 -62.5%  0.4115E-05  0.4681E-07   0.000      0.1111E-04   0.000      0.5120E-07   0.000    
    3299  0.4311      0.1124E-03 SOLID          1 -62.5%  0.4118E-05  0.4680E-07   0.000      0.1111E-04   0.000      0.5120E-07   0.000    
   CYCLE    TIME      TIME-STEP  ELEMENT          ERROR  I-ENERGY    K-ENERGY T  K-ENERGY R  EXT-WORK     MAS.ERR     TOTAL MASS  MASS ADDED
    3300  0.4312      0.1124E-03 SOLID          1 -62.5%  0.4121E-05  0.4679E-07   0.000      0.1112E-04   0.000      0.5120E-07   0.000    
    3301  0.4314      0.1124E-03 SOLID          1 -62.5%  0.4124E-05  0.4678E-07   0.000      0.1112E-04   0.000      0.5120E-07   0.000    
    3302  0.4315      0.1124E-03 SOLID          1 -62.5%  0.4126E-05  0.4677E-07   0.000      0.1113E-04   0.000      0.5120E-07   0.000    
    3303  0.4316      0.1124E-03 SOLID          1 -62.5%  0.4129E-05  0.4676E-07   0.000      0.1113E-04   0.000      0.5120E-07   0.000    
    3304  0.4317      0.1124E-03 SOLID          1 -62.5%  0.4132E-05  0.4675E-07   0.000      0.1114E-04   0.000      0.5120E-07   0.000    
    3305  0.4318      0.1124E-03 SOLID          1 -62.5%  0.4135E-05  0.4674E-07   0.000      0.1114E-04   0.000      0.5120E-07   0.000    
    3306  0.4319      0.1124E-03 SOLID          1 -62.5%  0.4138E-05  0.4673E-07   0.000      0.1115E-04   0.000      0.5120E-07   0.000    
    3307  0.4320      0.1124E-03 SOLID          1 -62.4%  0.4141E-05  0.4672E-07   0.000      0.1115E-04   0.000      0.5120E-07   0.000    
    3308  0.4321      0.1124E-03 SOLID          1 -62.4%  0.4144E-05  0.4671E-07   0.000      0.1116E-04   0.000      0.5120E-07   0.000    
    3309  0.4323      0.1124E-03 SOLID          1 -62.4%  0.4147E-05  0.4670E-07   0.000      0.1116E-04   0.000      0.5120E-07   0.000    
    3310  0.4324      0.1124E-03 SOLID          1 -62.4%  0.4150E-05  0.4669E-07   0.000      0.1117E-04   0.000      0.5120E-07   0.000    
    3311  0.4325      0.1124E-03 SOLID          1 -62.4%  0.4153E-05  0.4668E-07   0.000      0.1117E-04   0.000      0.5120E-07   0.000    
    3312  0.4326      0.1124E-03 SOLID          1 -62.4%  0.4156E-05  0.4667E-07   0.000      0.1118E-04   0.000      0.5120E-07   0.000    
    3313  0.4327      0.1123E-03 SOLID          1 -62.4%  0.4159E-05  0.4665E-07   0.000      0.1118E-04   0.000      0.5120E-07   0.000    
    3314  0.4328      0.1123E-03 SOLID          1 -62.4%  0.4162E-05  0.4664E-07   0.000      0.1119E-04   0.000      0.5120E-07   0.000    
    3315  0.4329      0.1123E-03 SOLID          1 -62.4%  0.4164E-05  0.4663E-07   0.000      0.1119E-04   0.000      0.5120E-07   0.000    
    3316  0.4330      0.1123E-03 SOLID          1 -62.4%  0.4167E-05  0.4662E-07   0.000      0.1120E-04   0.000      0.5120E-07   0.000    
    3317  0.4332      0.1123E-03 SOLID          1 -62.4%  0.4170E-05  0.4661E-07   0.000      0.1120E-04   0.000      0.5120E-07   0.000    
    3318  0.4333      0.1123E-03 SOLID          1 -62.3%  0.4173E-05  0.4660E-07   0.000      0.1121E-04   0.000      0.5120E-07   0.000    
    3319  0.4334      0.1123E-03 SOLID          1 -62.3%  0.4176E-05  0.4659E-07   0.000      0.1121E-04   0.000      0.5120E-07   0.000    
    3320  0.4335      0.1123E-03 SOLID          1 -62.3%  0.4179E-05  0.4658E-07   0.000      0.1122E-04   0.000      0.5120E-07   0.000    
    3321  0.4336      0.1123E-03 SOLID          1 -62.3%  0.4182E-05  0.4657E-07   0.000      0.1122E-04   0.000      0.5120E-07   0.000    
    3322  0.4337      0.1123E-03 SOLID          1 -62.3%  0.4185E-05  0.4656E-07   0.000      0.1122E-04   0.000      0.5120E-07   0.000    
    3323  0.4338      0.1123E-03 SOLID          1 -62.3%  0.4188E-05  0.4655E-07   0.000      0.1123E-04   0.000      0.5120E-07   0.000    
    3324  0.4339      0.1123E-03 SOLID          1 -62.3%  0.4191E-05  0.4654E-07   0.000      0.1123E-04   0.000      0.5120E-07   0.000    
    3325  0.4341      0.1123E-03 SOLID          1 -62.3%  0.4194E-05  0.4652E-07   0.000      0.1124E-04   0.000      0.5120E-07   0.000    
    3326  0.4342      0.1123E-03 SOLID          1 -62.3%  0.4197E-05  0.4651E-07   0.000      0.1124E-04   0.000      0.5120E-07   0.000    
    3327  0.4343      0.1123E-03 SOLID          1 -62.3%  0.4200E-05  0.4650E-07   0.000      0.1125E-04   0.000      0.5120E-07   0.000    
    3328  0.4344      0.1123E-03 SOLID          1 -62.2%  0.4203E-05  0.4649E-07   0.000      0.1125E-04   0.000      0.5120E-07   0.000    
    3329  0.4345      0.1123E-03 SOLID          1 -62.2%  0.4206E-05  0.4648E-07   0.000      0.1126E-04   0.000      0.5120E-07   0.000    
    3330  0.4346      0.1123E-03 SOLID          1 -62.2%  0.4209E-05  0.4647E-07   0.000      0.1126E-04   0.000      0.5120E-07   0.000    
    3331  0.4347      0.1123E-03 SOLID          1 -62.2%  0.4212E-05  0.4646E-07   0.000      0.1127E-04   0.000      0.5120E-07   0.000    
    3332  0.4348      0.1122E-03 SOLID          1 -62.2%  0.4215E-05  0.4645E-07   0.000      0.1127E-04   0.000      0.5120E-07   0.000    
    3333  0.4350      0.1122E-03 SOLID          1 -62.2%  0.4218E-05  0.4644E-07   0.000      0.1128E-04   0.000      0.5120E-07   0.000    
    3334  0.4351      0.1122E-03 SOLID          1 -62.2%  0.4221E-05  0.4643E-07   0.000      0.1128E-04   0.000      0.5120E-07   0.000    
    3335  0.4352      0.1122E-03 SOLID          1 -62.2%  0.4224E-05  0.4641E-07   0.000      0.1129E-04   0.000      0.5120E-07   0.000    
    3336  0.4353      0.1122E-03 SOLID          1 -62.2%  0.4226E-05  0.4640E-07   0.000      0.1129E-04   0.000      0.5120E-07   0.000    
    3337  0.4354      0.1122E-03 SOLID          1 -62.2%  0.4229E-05  0.4639E-07   0.000      0.1130E-04   0.000      0.5120E-07   0.000    
    3338  0.4355      0.1122E-03 SOLID          1 -62.1%  0.4232E-05  0.4638E-07   0.000      0.1130E-04   0.000      0.5120E-07   0.000    
    3339  0.4356      0.1122E-03 SOLID          1 -62.1%  0.4235E-05  0.4637E-07   0.000      0.1131E-04   0.000      0.5120E-07   0.000    
    3340  0.4357      0.1122E-03 SOLID          1 -62.1%  0.4238E-05  0.4636E-07   0.000      0.1131E-04   0.000      0.5120E-07   0.000    
    3341  0.4359      0.1122E-03 SOLID          1 -62.1%  0.4241E-05  0.4635E-07   0.000      0.1132E-04   0.000      0.5120E-07   0.000    
    3342  0.4360      0.1122E-03 SOLID          1 -62.1%  0.4244E-05  0.4634E-07   0.000      0.1132E-04   0.000      0.5120E-07   0.000    
    3343  0.4361      0.1122E-03 SOLID          1 -62.1%  0.4247E-05  0.4633E-07   0.000      0.1133E-04   0.000      0.5120E-07   0.000    
    3344  0.4362      0.1122E-03 SOLID          1 -62.1%  0.4250E-05  0.4632E-07   0.000      0.1133E-04   0.000      0.5120E-07   0.000    
    3345  0.4363      0.1122E-03 SOLID          1 -62.1%  0.4253E-05  0.4630E-07   0.000      0.1134E-04   0.000      0.5120E-07   0.000    
    3346  0.4364      0.1122E-03 SOLID          1 -62.1%  0.4256E-05  0.4629E-07   0.000      0.1134E-04   0.000      0.5120E-07   0.000    
    3347  0.4365      0.1122E-03 SOLID          1 -62.1%  0.4259E-05  0.4628E-07   0.000      0.1135E-04   0.000      0.5120E-07   0.000    
    3348  0.4366      0.1122E-03 SOLID          1 -62.0%  0.4262E-05  0.4627E-07   0.000      0.1135E-04   0.000      0.5120E-07   0.000    
    3349  0.4367      0.1122E-03 SOLID          1 -62.0%  0.4265E-05  0.4626E-07   0.000      0.1136E-04   0.000      0.5120E-07   0.000    
    3350  0.4369      0.1121E-03 SOLID          1 -62.0%  0.4268E-05  0.4625E-07   0.000      0.1136E-04   0.000      0.5120E-07   0.000    
    3351  0.4370      0.1121E-03 SOLID          1 -62.0%  0.4271E-05  0.4624E-07   0.000      0.1137E-04   0.000      0.5120E-07   0.000    
    3352  0.4371      0.1121E-03 SOLID          1 -62.0%  0.4274E-05  0.4623E-07   0.000      0.1137E-04   0.000      0.5120E-07   0.000    
    3353  0.4372      0.1121E-03 SOLID          1 -62.0%  0.4277E-05  0.4622E-07   0.000      0.1138E-04   0.000      0.5120E-07   0.000    
    3354  0.4373      0.1121E-03 SOLID          1 -62.0%  0.4280E-05  0.4621E-07   0.000      0.1138E-04   0.000      0.5120E-07   0.000    
   CYCLE    TIME      TIME-STEP  ELEMENT          ERROR  I-ENERGY    K-ENERGY T  K-ENERGY R  EXT-WORK     MAS.ERR     TOTAL MASS  MASS ADDED
    3355  0.4374      0.1121E-03 SOLID          1 -62.0%  0.4283E-05  0.4619E-07   0.000      0.1138E-04   0.000      0.5120E-07   0.000    
    3356  0.4375      0.1121E-03 SOLID          1 -62.0%  0.4286E-05  0.4618E-07   0.000      0.1139E-04   0.000      0.5120E-07   0.000    
    3357  0.4376      0.1121E-03 SOLID          1 -62.0%  0.4289E-05  0.4617E-07   0.000      0.1139E-04   0.000      0.5120E-07   0.000    
    3358  0.4378      0.1121E-03 SOLID          1 -61.9%  0.4292E-05  0.4616E-07   0.000      0.1140E-04   0.000      0.5120E-07   0.000    
    3359  0.4379      0.1121E-03 SOLID          1 -61.9%  0.4295E-05  0.4615E-07   0.000      0.1140E-04   0.000      0.5120E-07   0.000    
    3360  0.4380      0.1121E-03 SOLID          1 -61.9%  0.4298E-05  0.4614E-07   0.000      0.1141E-04   0.000      0.5120E-07   0.000    
    3361  0.4381      0.1121E-03 SOLID          1 -61.9%  0.4301E-05  0.4613E-07   0.000      0.1141E-04   0.000      0.5120E-07   0.000    
    3362  0.4382      0.1121E-03 SOLID          1 -61.9%  0.4304E-05  0.4612E-07   0.000      0.1142E-04   0.000      0.5120E-07   0.000    
    3363  0.4383      0.1121E-03 SOLID          1 -61.9%  0.4307E-05  0.4611E-07   0.000      0.1142E-04   0.000      0.5120E-07   0.000    
    3364  0.4384      0.1121E-03 SOLID          1 -61.9%  0.4310E-05  0.4610E-07   0.000      0.1143E-04   0.000      0.5120E-07   0.000    
    3365  0.4385      0.1121E-03 SOLID          1 -61.9%  0.4313E-05  0.4608E-07   0.000      0.1143E-04   0.000      0.5120E-07   0.000    
    3366  0.4387      0.1121E-03 SOLID          1 -61.9%  0.4316E-05  0.4607E-07   0.000      0.1144E-04   0.000      0.5120E-07   0.000    
    3367  0.4388      0.1121E-03 SOLID          1 -61.9%  0.4320E-05  0.4606E-07   0.000      0.1144E-04   0.000      0.5120E-07   0.000    
    3368  0.4389      0.1120E-03 SOLID          1 -61.8%  0.4323E-05  0.4605E-07   0.000      0.1145E-04   0.000      0.5120E-07   0.000    
    3369  0.4390      0.1120E-03 SOLID          1 -61.8%  0.4326E-05  0.4604E-07   0.000      0.1145E-04   0.000      0.5120E-07   0.000    
    3370  0.4391      0.1120E-03 SOLID          1 -61.8%  0.4329E-05  0.4603E-07   0.000      0.1146E-04   0.000      0.5120E-07   0.000    
    3371  0.4392      0.1120E-03 SOLID          1 -61.8%  0.4332E-05  0.4602E-07   0.000      0.1146E-04   0.000      0.5120E-07   0.000    
    3372  0.4393      0.1120E-03 SOLID          1 -61.8%  0.4335E-05  0.4601E-07   0.000      0.1147E-04   0.000      0.5120E-07   0.000    
    3373  0.4394      0.1120E-03 SOLID          1 -61.8%  0.4338E-05  0.4600E-07   0.000      0.1147E-04   0.000      0.5120E-07   0.000    
    3374  0.4396      0.1120E-03 SOLID          1 -61.8%  0.4341E-05  0.4599E-07   0.000      0.1148E-04   0.000      0.5120E-07   0.000    
    3375  0.4397      0.1120E-03 SOLID          1 -61.8%  0.4344E-05  0.4598E-07   0.000      0.1148E-04   0.000      0.5120E-07   0.000    
    3376  0.4398      0.1120E-03 SOLID          1 -61.8%  0.4347E-05  0.4596E-07   0.000      0.1149E-04   0.000      0.5120E-07   0.000    
    3377  0.4399      0.1120E-03 SOLID          1 -61.8%  0.4350E-05  0.4595E-07   0.000      0.1149E-04   0.000      0.5120E-07   0.000    
    3378  0.4400      0.1120E-03 SOLID          1 -61.7%  0.4353E-05  0.4594E-07   0.000      0.1150E-04   0.000      0.5120E-07   0.000    
    3379  0.4401      0.1120E-03 SOLID          1 -61.7%  0.4356E-05  0.4593E-07   0.000      0.1150E-04   0.000      0.5120E-07   0.000    
    3380  0.4402      0.1120E-03 SOLID          1 -61.7%  0.4359E-05  0.4592E-07   0.000      0.1151E-04   0.000      0.5120E-07   0.000    
    3381  0.4403      0.1120E-03 SOLID          1 -61.7%  0.4362E-05  0.4591E-07   0.000      0.1151E-04   0.000      0.5120E-07   0.000    
    3382  0.4404      0.1120E-03 SOLID          1 -61.7%  0.4365E-05  0.4590E-07   0.000      0.1152E-04   0.000      0.5120E-07   0.000    
    3383  0.4406      0.1120E-03 SOLID          1 -61.7%  0.4368E-05  0.4589E-07   0.000      0.1152E-04   0.000      0.5120E-07   0.000    
    3384  0.4407      0.1120E-03 SOLID          1 -61.7%  0.4371E-05  0.4588E-07   0.000      0.1153E-04   0.000      0.5120E-07   0.000    
    3385  0.4408      0.1120E-03 SOLID          1 -61.7%  0.4374E-05  0.4587E-07   0.000      0.1153E-04   0.000      0.5120E-07   0.000    
    3386  0.4409      0.1120E-03 SOLID          1 -61.7%  0.4377E-05  0.4586E-07   0.000      0.1154E-04   0.000      0.5120E-07   0.000    
    3387  0.4410      0.1119E-03 SOLID          1 -61.6%  0.4380E-05  0.4585E-07   0.000      0.1154E-04   0.000      0.5120E-07   0.000    
    3388  0.4411      0.1119E-03 SOLID          1 -61.6%  0.4384E-05  0.4584E-07   0.000      0.1155E-04   0.000      0.5120E-07   0.000    
    3389  0.4412      0.1119E-03 SOLID          1 -61.6%  0.4387E-05  0.4582E-07   0.000      0.1155E-04   0.000      0.5120E-07   0.000    
    3390  0.4413      0.1119E-03 SOLID          1 -61.6%  0.4390E-05  0.4581E-07   0.000      0.1156E-04   0.000      0.5120E-07   0.000    
    3391  0.4415      0.1119E-03 SOLID          1 -61.6%  0.4393E-05  0.4580E-07   0.000      0.1156E-04   0.000      0.5120E-07   0.000    
    3392  0.4416      0.1119E-03 SOLID          1 -61.6%  0.4396E-05  0.4579E-07   0.000      0.1157E-04   0.000      0.5120E-07   0.000    
    3393  0.4417      0.1119E-03 SOLID          1 -61.6%  0.4399E-05  0.4578E-07   0.000      0.1157E-04   0.000      0.5120E-07   0.000    
    3394  0.4418      0.1119E-03 SOLID          1 -61.6%  0.4402E-05  0.4577E-07   0.000      0.1158E-04   0.000      0.5120E-07   0.000    
    3395  0.4419      0.1119E-03 SOLID          1 -61.6%  0.4405E-05  0.4576E-07   0.000      0.1158E-04   0.000      0.5120E-07   0.000    
    3396  0.4420      0.1119E-03 SOLID          1 -61.6%  0.4408E-05  0.4575E-07   0.000      0.1159E-04   0.000      0.5120E-07   0.000    
    3397  0.4421      0.1119E-03 SOLID          1 -61.5%  0.4411E-05  0.4574E-07   0.000      0.1159E-04   0.000      0.5120E-07   0.000    
    3398  0.4422      0.1119E-03 SOLID          1 -61.5%  0.4414E-05  0.4573E-07   0.000      0.1160E-04   0.000      0.5120E-07   0.000    
    3399  0.4423      0.1119E-03 SOLID          1 -61.5%  0.4417E-05  0.4572E-07   0.000      0.1160E-04   0.000      0.5120E-07   0.000    
    3400  0.4425      0.1119E-03 SOLID          1 -61.5%  0.4420E-05  0.4571E-07   0.000      0.1161E-04   0.000      0.5120E-07   0.000    
    3401  0.4426      0.1119E-03 SOLID          1 -61.5%  0.4424E-05  0.4570E-07   0.000      0.1161E-04   0.000      0.5120E-07   0.000    
    3402  0.4427      0.1119E-03 SOLID          1 -61.5%  0.4427E-05  0.4569E-07   0.000      0.1162E-04   0.000      0.5120E-07   0.000    
    3403  0.4428      0.1119E-03 SOLID          1 -61.5%  0.4430E-05  0.4568E-07   0.000      0.1162E-04   0.000      0.5120E-07   0.000    
    3404  0.4429      0.1119E-03 SOLID          1 -61.5%  0.4433E-05  0.4567E-07   0.000      0.1163E-04   0.000      0.5120E-07   0.000    
    3405  0.4430      0.1119E-03 SOLID          1 -61.5%  0.4436E-05  0.4566E-07   0.000      0.1163E-04   0.000      0.5120E-07   0.000    
    3406  0.4431      0.1118E-03 SOLID          1 -61.5%  0.4439E-05  0.4565E-07   0.000      0.1164E-04   0.000      0.5120E-07   0.000    
    3407  0.4432      0.1118E-03 SOLID          1 -61.4%  0.4442E-05  0.4564E-07   0.000      0.1164E-04   0.000      0.5120E-07   0.000    
    3408  0.4434      0.1118E-03 SOLID          1 -61.4%  0.4445E-05  0.4563E-07   0.000      0.1164E-04   0.000      0.5120E-07   0.000    
    3409  0.4435      0.1118E-03 SOLID          1 -61.4%  0.4448E-05  0.4562E-07   0.000      0.1165E-04   0.000      0.5120E-07   0.000    
   CYCLE    TIME      TIME-STEP  ELEMENT          ERROR  I-ENERGY    K-ENERGY T  K-ENERGY R  EXT-WORK     MAS.ERR     TOTAL MASS  MASS ADDED
    3410  0.4436      0.1118E-03 SOLID          1 -61.4%  0.4451E-05  0.4561E-07   0.000      0.1165E-04   0.000      0.5120E-07   0.000    
    3411  0.4437      0.1118E-03 SOLID          1 -61.4%  0.4455E-05  0.4559E-07   0.000      0.1166E-04   0.000      0.5120E-07   0.000    
    3412  0.4438      0.1118E-03 SOLID          1 -61.4%  0.4458E-05  0.4558E-07   0.000      0.1166E-04   0.000      0.5120E-07   0.000    
    3413  0.4439      0.1118E-03 SOLID          1 -61.4%  0.4461E-05  0.4557E-07   0.000      0.1167E-04   0.000      0.5120E-07   0.000    
    3414  0.4440      0.1118E-03 SOLID          1 -61.4%  0.4464E-05  0.4556E-07   0.000      0.1167E-04   0.000      0.5120E-07   0.000    
    3415  0.4441      0.1118E-03 SOLID          1 -61.4%  0.4467E-05  0.4555E-07   0.000      0.1168E-04   0.000      0.5120E-07   0.000    
    3416  0.4443      0.1118E-03 SOLID          1 -61.4%  0.4470E-05  0.4554E-07   0.000      0.1168E-04   0.000      0.5120E-07   0.000    
    3417  0.4444      0.1118E-03 SOLID          1 -61.3%  0.4473E-05  0.4553E-07   0.000      0.1169E-04   0.000      0.5120E-07   0.000    
    3418  0.4445      0.1118E-03 SOLID          1 -61.3%  0.4476E-05  0.4552E-07   0.000      0.1169E-04   0.000      0.5120E-07   0.000    
    3419  0.4446      0.1118E-03 SOLID          1 -61.3%  0.4480E-05  0.4551E-07   0.000      0.1170E-04   0.000      0.5120E-07   0.000    
    3420  0.4447      0.1118E-03 SOLID          1 -61.3%  0.4483E-05  0.4550E-07   0.000      0.1170E-04   0.000      0.5120E-07   0.000    
    3421  0.4448      0.1118E-03 SOLID          1 -61.3%  0.4486E-05  0.4549E-07   0.000      0.1171E-04   0.000      0.5120E-07   0.000    
    3422  0.4449      0.1118E-03 SOLID          1 -61.3%  0.4489E-05  0.4548E-07   0.000      0.1171E-04   0.000      0.5120E-07   0.000    
    3423  0.4450      0.1118E-03 SOLID          1 -61.3%  0.4492E-05  0.4547E-07   0.000      0.1172E-04   0.000      0.5120E-07   0.000    
    3424  0.4451      0.1117E-03 SOLID          1 -61.3%  0.4495E-05  0.4546E-07   0.000      0.1172E-04   0.000      0.5120E-07   0.000    
    3425  0.4453      0.1117E-03 SOLID          1 -61.3%  0.4498E-05  0.4545E-07   0.000      0.1173E-04   0.000      0.5120E-07   0.000    
    3426  0.4454      0.1117E-03 SOLID          1 -61.2%  0.4501E-05  0.4544E-07   0.000      0.1173E-04   0.000      0.5120E-07   0.000    
    3427  0.4455      0.1117E-03 SOLID          1 -61.2%  0.4505E-05  0.4543E-07   0.000      0.1174E-04   0.000      0.5120E-07   0.000    
    3428  0.4456      0.1117E-03 SOLID          1 -61.2%  0.4508E-05  0.4542E-07   0.000      0.1174E-04   0.000      0.5120E-07   0.000    
    3429  0.4457      0.1117E-03 SOLID          1 -61.2%  0.4511E-05  0.4541E-07   0.000      0.1175E-04   0.000      0.5120E-07   0.000    
    3430  0.4458      0.1117E-03 SOLID          1 -61.2%  0.4514E-05  0.4541E-07   0.000      0.1175E-04   0.000      0.5120E-07   0.000    
    3431  0.4459      0.1117E-03 SOLID          1 -61.2%  0.4517E-05  0.4540E-07   0.000      0.1176E-04   0.000      0.5120E-07   0.000    
    3432  0.4460      0.1117E-03 SOLID          1 -61.2%  0.4520E-05  0.4539E-07   0.000      0.1176E-04   0.000      0.5120E-07   0.000    
    3433  0.4462      0.1117E-03 SOLID          1 -61.2%  0.4524E-05  0.4538E-07   0.000      0.1177E-04   0.000      0.5120E-07   0.000    
    3434  0.4463      0.1117E-03 SOLID          1 -61.2%  0.4527E-05  0.4537E-07   0.000      0.1177E-04   0.000      0.5120E-07   0.000    
    3435  0.4464      0.1117E-03 SOLID          1 -61.2%  0.4530E-05  0.4536E-07   0.000      0.1178E-04   0.000      0.5120E-07   0.000    
    3436  0.4465      0.1117E-03 SOLID          1 -61.1%  0.4533E-05  0.4535E-07   0.000      0.1178E-04   0.000      0.5120E-07   0.000    
    3437  0.4466      0.1117E-03 SOLID          1 -61.1%  0.4536E-05  0.4534E-07   0.000      0.1179E-04   0.000      0.5120E-07   0.000    
    3438  0.4467      0.1117E-03 SOLID          1 -61.1%  0.4539E-05  0.4533E-07   0.000      0.1179E-04   0.000      0.5120E-07   0.000    
    3439  0.4468      0.1117E-03 SOLID          1 -61.1%  0.4542E-05  0.4532E-07   0.000      0.1180E-04   0.000      0.5120E-07   0.000    
    3440  0.4469      0.1117E-03 SOLID          1 -61.1%  0.4546E-05  0.4531E-07   0.000      0.1180E-04   0.000      0.5120E-07   0.000    
    3441  0.4470      0.1117E-03 SOLID          1 -61.1%  0.4549E-05  0.4530E-07   0.000      0.1181E-04   0.000      0.5120E-07   0.000    
    3442  0.4472      0.1117E-03 SOLID          1 -61.1%  0.4552E-05  0.4529E-07   0.000      0.1181E-04   0.000      0.5120E-07   0.000    
    3443  0.4473      0.1116E-03 SOLID          1 -61.1%  0.4555E-05  0.4528E-07   0.000      0.1182E-04   0.000      0.5120E-07   0.000    
    3444  0.4474      0.1116E-03 SOLID          1 -61.1%  0.4558E-05  0.4527E-07   0.000      0.1182E-04   0.000      0.5120E-07   0.000    
    3445  0.4475      0.1116E-03 SOLID          1 -61.1%  0.4562E-05  0.4526E-07   0.000      0.1183E-04   0.000      0.5120E-07   0.000    
    3446  0.4476      0.1116E-03 SOLID          1 -61.0%  0.4565E-05  0.4525E-07   0.000      0.1183E-04   0.000      0.5120E-07   0.000    
    3447  0.4477      0.1116E-03 SOLID          1 -61.0%  0.4568E-05  0.4524E-07   0.000      0.1184E-04   0.000      0.5120E-07   0.000    
    3448  0.4478      0.1116E-03 SOLID          1 -61.0%  0.4571E-05  0.4523E-07   0.000      0.1184E-04   0.000      0.5120E-07   0.000    
    3449  0.4479      0.1116E-03 SOLID          1 -61.0%  0.4574E-05  0.4522E-07   0.000      0.1185E-04   0.000      0.5120E-07   0.000    
    3450  0.4480      0.1116E-03 SOLID          1 -61.0%  0.4577E-05  0.4522E-07   0.000      0.1185E-04   0.000      0.5120E-07   0.000    
    3451  0.4482      0.1116E-03 SOLID          1 -61.0%  0.4581E-05  0.4521E-07   0.000      0.1186E-04   0.000      0.5120E-07   0.000    
    3452  0.4483      0.1116E-03 SOLID          1 -61.0%  0.4584E-05  0.4520E-07   0.000      0.1186E-04   0.000      0.5120E-07   0.000    
    3453  0.4484      0.1116E-03 SOLID          1 -61.0%  0.4587E-05  0.4519E-07   0.000      0.1187E-04   0.000      0.5120E-07   0.000    
    3454  0.4485      0.1116E-03 SOLID          1 -61.0%  0.4590E-05  0.4518E-07   0.000      0.1187E-04   0.000      0.5120E-07   0.000    
    3455  0.4486      0.1116E-03 SOLID          1 -60.9%  0.4593E-05  0.4517E-07   0.000      0.1188E-04   0.000      0.5120E-07   0.000    
    3456  0.4487      0.1116E-03 SOLID          1 -60.9%  0.4597E-05  0.4516E-07   0.000      0.1188E-04   0.000      0.5120E-07   0.000    
    3457  0.4488      0.1116E-03 SOLID          1 -60.9%  0.4600E-05  0.4515E-07   0.000      0.1189E-04   0.000      0.5120E-07   0.000    
    3458  0.4489      0.1116E-03 SOLID          1 -60.9%  0.4603E-05  0.4514E-07   0.000      0.1189E-04   0.000      0.5120E-07   0.000    
    3459  0.4491      0.1116E-03 SOLID          1 -60.9%  0.4606E-05  0.4513E-07   0.000      0.1190E-04   0.000      0.5120E-07   0.000    
    3460  0.4492      0.1116E-03 SOLID          1 -60.9%  0.4609E-05  0.4513E-07   0.000      0.1190E-04   0.000      0.5120E-07   0.000    
    3461  0.4493      0.1116E-03 SOLID          1 -60.9%  0.4613E-05  0.4512E-07   0.000      0.1191E-04   0.000      0.5120E-07   0.000    
    3462  0.4494      0.1115E-03 SOLID          1 -60.9%  0.4616E-05  0.4511E-07   0.000      0.1191E-04   0.000      0.5120E-07   0.000    
    3463  0.4495      0.1115E-03 SOLID          1 -60.9%  0.4619E-05  0.4510E-07   0.000      0.1192E-04   0.000      0.5120E-07   0.000    
    3464  0.4496      0.1115E-03 SOLID          1 -60.9%  0.4622E-05  0.4509E-07   0.000      0.1192E-04   0.000      0.5120E-07   0.000    
   CYCLE    TIME      TIME-STEP  ELEMENT          ERROR  I-ENERGY    K-ENERGY T  K-ENERGY R  EXT-WORK     MAS.ERR     TOTAL MASS  MASS ADDED
    3465  0.4497      0.1115E-03 SOLID          1 -60.8%  0.4625E-05  0.4508E-07   0.000      0.1193E-04   0.000      0.5120E-07   0.000    
    3466  0.4498      0.1115E-03 SOLID          1 -60.8%  0.4629E-05  0.4507E-07   0.000      0.1193E-04   0.000      0.5120E-07   0.000    
    3467  0.4499      0.1115E-03 SOLID          1 -60.8%  0.4632E-05  0.4506E-07   0.000      0.1194E-04   0.000      0.5120E-07   0.000    
    3468  0.4501      0.1115E-03 SOLID          1 -60.8%  0.4635E-05  0.4506E-07   0.000      0.1194E-04   0.000      0.5120E-07   0.000    
     ANIMATION FILE: M50BA010 WRITTEN
    3469  0.4502      0.1115E-03 SOLID          1 -60.8%  0.4638E-05  0.4505E-07   0.000      0.1195E-04   0.000      0.5120E-07   0.000    
    3470  0.4503      0.1115E-03 SOLID          1 -60.8%  0.4642E-05  0.4504E-07   0.000      0.1195E-04   0.000      0.5120E-07   0.000    
    3471  0.4504      0.1115E-03 SOLID          1 -60.8%  0.4645E-05  0.4503E-07   0.000      0.1196E-04   0.000      0.5120E-07   0.000    
    3472  0.4505      0.1115E-03 SOLID          1 -60.8%  0.4648E-05  0.4502E-07   0.000      0.1196E-04   0.000      0.5120E-07   0.000    
    3473  0.4506      0.1115E-03 SOLID          1 -60.8%  0.4651E-05  0.4501E-07   0.000      0.1197E-04   0.000      0.5120E-07   0.000    
    3474  0.4507      0.1115E-03 SOLID          1 -60.7%  0.4654E-05  0.4500E-07   0.000      0.1197E-04   0.000      0.5120E-07   0.000    
    3475  0.4508      0.1115E-03 SOLID          1 -60.7%  0.4658E-05  0.4500E-07   0.000      0.1198E-04   0.000      0.5120E-07   0.000    
    3476  0.4509      0.1115E-03 SOLID          1 -60.7%  0.4661E-05  0.4499E-07   0.000      0.1198E-04   0.000      0.5120E-07   0.000    
    3477  0.4511      0.1115E-03 SOLID          1 -60.7%  0.4664E-05  0.4498E-07   0.000      0.1199E-04   0.000      0.5120E-07   0.000    
    3478  0.4512      0.1115E-03 SOLID          1 -60.7%  0.4667E-05  0.4497E-07   0.000      0.1199E-04   0.000      0.5120E-07   0.000    
    3479  0.4513      0.1115E-03 SOLID          1 -60.7%  0.4671E-05  0.4496E-07   0.000      0.1200E-04   0.000      0.5120E-07   0.000    
    3480  0.4514      0.1115E-03 SOLID          1 -60.7%  0.4674E-05  0.4495E-07   0.000      0.1200E-04   0.000      0.5120E-07   0.000    
    3481  0.4515      0.1115E-03 SOLID          1 -60.7%  0.4677E-05  0.4495E-07   0.000      0.1201E-04   0.000      0.5120E-07   0.000    
    3482  0.4516      0.1114E-03 SOLID          1 -60.7%  0.4680E-05  0.4494E-07   0.000      0.1201E-04   0.000      0.5120E-07   0.000    
    3483  0.4517      0.1114E-03 SOLID          1 -60.7%  0.4684E-05  0.4493E-07   0.000      0.1202E-04   0.000      0.5120E-07   0.000    
    3484  0.4518      0.1114E-03 SOLID          1 -60.6%  0.4687E-05  0.4492E-07   0.000      0.1202E-04   0.000      0.5120E-07   0.000    
    3485  0.4520      0.1114E-03 SOLID          1 -60.6%  0.4690E-05  0.4491E-07   0.000      0.1203E-04   0.000      0.5120E-07   0.000    
    3486  0.4521      0.1114E-03 SOLID          1 -60.6%  0.4693E-05  0.4490E-07   0.000      0.1203E-04   0.000      0.5120E-07   0.000    
    3487  0.4522      0.1114E-03 SOLID          1 -60.6%  0.4697E-05  0.4490E-07   0.000      0.1204E-04   0.000      0.5120E-07   0.000    
    3488  0.4523      0.1114E-03 SOLID          1 -60.6%  0.4700E-05  0.4489E-07   0.000      0.1204E-04   0.000      0.5120E-07   0.000    
    3489  0.4524      0.1114E-03 SOLID          1 -60.6%  0.4703E-05  0.4488E-07   0.000      0.1205E-04   0.000      0.5120E-07   0.000    
    3490  0.4525      0.1114E-03 SOLID          1 -60.6%  0.4706E-05  0.4487E-07   0.000      0.1205E-04   0.000      0.5120E-07   0.000    
    3491  0.4526      0.1114E-03 SOLID          1 -60.6%  0.4710E-05  0.4486E-07   0.000      0.1206E-04   0.000      0.5120E-07   0.000    
    3492  0.4527      0.1114E-03 SOLID          1 -60.6%  0.4713E-05  0.4486E-07   0.000      0.1206E-04   0.000      0.5120E-07   0.000    
    3493  0.4528      0.1114E-03 SOLID          1 -60.5%  0.4716E-05  0.4485E-07   0.000      0.1207E-04   0.000      0.5120E-07   0.000    
    3494  0.4530      0.1114E-03 SOLID          1 -60.5%  0.4720E-05  0.4484E-07   0.000      0.1207E-04   0.000      0.5120E-07   0.000    
    3495  0.4531      0.1114E-03 SOLID          1 -60.5%  0.4723E-05  0.4483E-07   0.000      0.1208E-04   0.000      0.5120E-07   0.000    
    3496  0.4532      0.1114E-03 SOLID          1 -60.5%  0.4726E-05  0.4483E-07   0.000      0.1208E-04   0.000      0.5120E-07   0.000    
    3497  0.4533      0.1114E-03 SOLID          1 -60.5%  0.4729E-05  0.4482E-07   0.000      0.1209E-04   0.000      0.5120E-07   0.000    
    3498  0.4534      0.1114E-03 SOLID          1 -60.5%  0.4733E-05  0.4481E-07   0.000      0.1209E-04   0.000      0.5120E-07   0.000    
    3499  0.4535      0.1114E-03 SOLID          1 -60.5%  0.4736E-05  0.4480E-07   0.000      0.1210E-04   0.000      0.5120E-07   0.000    
    3500  0.4536      0.1114E-03 SOLID          1 -60.5%  0.4739E-05  0.4479E-07   0.000      0.1210E-04   0.000      0.5120E-07   0.000    
    3501  0.4537      0.1113E-03 SOLID          1 -60.5%  0.4743E-05  0.4479E-07   0.000      0.1211E-04   0.000      0.5120E-07   0.000    
    3502  0.4538      0.1113E-03 SOLID          1 -60.5%  0.4746E-05  0.4478E-07   0.000      0.1211E-04   0.000      0.5120E-07   0.000    
    3503  0.4540      0.1113E-03 SOLID          1 -60.4%  0.4749E-05  0.4477E-07   0.000      0.1212E-04   0.000      0.5120E-07   0.000    
    3504  0.4541      0.1113E-03 SOLID          1 -60.4%  0.4752E-05  0.4476E-07   0.000      0.1212E-04   0.000      0.5120E-07   0.000    
    3505  0.4542      0.1113E-03 SOLID          1 -60.4%  0.4756E-05  0.4476E-07   0.000      0.1213E-04   0.000      0.5120E-07   0.000    
    3506  0.4543      0.1113E-03 SOLID          1 -60.4%  0.4759E-05  0.4475E-07   0.000      0.1213E-04   0.000      0.5120E-07   0.000    
    3507  0.4544      0.1113E-03 SOLID          1 -60.4%  0.4762E-05  0.4474E-07   0.000      0.1214E-04   0.000      0.5120E-07   0.000    
    3508  0.4545      0.1113E-03 SOLID          1 -60.4%  0.4766E-05  0.4473E-07   0.000      0.1214E-04   0.000      0.5120E-07   0.000    
    3509  0.4546      0.1113E-03 SOLID          1 -60.4%  0.4769E-05  0.4473E-07   0.000      0.1215E-04   0.000      0.5120E-07   0.000    
    3510  0.4547      0.1113E-03 SOLID          1 -60.4%  0.4772E-05  0.4472E-07   0.000      0.1215E-04   0.000      0.5120E-07   0.000    
    3511  0.4548      0.1113E-03 SOLID          1 -60.4%  0.4776E-05  0.4471E-07   0.000      0.1216E-04   0.000      0.5120E-07   0.000    
    3512  0.4550      0.1113E-03 SOLID          1 -60.3%  0.4779E-05  0.4471E-07   0.000      0.1216E-04   0.000      0.5120E-07   0.000    
    3513  0.4551      0.1113E-03 SOLID          1 -60.3%  0.4782E-05  0.4470E-07   0.000      0.1217E-04   0.000      0.5120E-07   0.000    
    3514  0.4552      0.1113E-03 SOLID          1 -60.3%  0.4785E-05  0.4469E-07   0.000      0.1217E-04   0.000      0.5120E-07   0.000    
    3515  0.4553      0.1113E-03 SOLID          1 -60.3%  0.4789E-05  0.4468E-07   0.000      0.1218E-04   0.000      0.5120E-07   0.000    
    3516  0.4554      0.1113E-03 SOLID          1 -60.3%  0.4792E-05  0.4468E-07   0.000      0.1218E-04   0.000      0.5120E-07   0.000    
    3517  0.4555      0.1113E-03 SOLID          1 -60.3%  0.4795E-05  0.4467E-07   0.000      0.1219E-04   0.000      0.5120E-07   0.000    
    3518  0.4556      0.1113E-03 SOLID          1 -60.3%  0.4799E-05  0.4466E-07   0.000      0.1219E-04   0.000      0.5120E-07   0.000    
    3519  0.4557      0.1113E-03 SOLID          1 -60.3%  0.4802E-05  0.4466E-07   0.000      0.1220E-04   0.000      0.5120E-07   0.000    
   CYCLE    TIME      TIME-STEP  ELEMENT          ERROR  I-ENERGY    K-ENERGY T  K-ENERGY R  EXT-WORK     MAS.ERR     TOTAL MASS  MASS ADDED
    3520  0.4558      0.1113E-03 SOLID          1 -60.3%  0.4805E-05  0.4465E-07   0.000      0.1220E-04   0.000      0.5120E-07   0.000    
    3521  0.4560      0.1112E-03 SOLID          1 -60.3%  0.4809E-05  0.4464E-07   0.000      0.1221E-04   0.000      0.5120E-07   0.000    
    3522  0.4561      0.1112E-03 SOLID          1 -60.2%  0.4812E-05  0.4464E-07   0.000      0.1222E-04   0.000      0.5120E-07   0.000    
    3523  0.4562      0.1112E-03 SOLID          1 -60.2%  0.4815E-05  0.4463E-07   0.000      0.1222E-04   0.000      0.5120E-07   0.000    
    3524  0.4563      0.1112E-03 SOLID          1 -60.2%  0.4819E-05  0.4462E-07   0.000      0.1223E-04   0.000      0.5120E-07   0.000    
    3525  0.4564      0.1112E-03 SOLID          1 -60.2%  0.4822E-05  0.4461E-07   0.000      0.1223E-04   0.000      0.5120E-07   0.000    
    3526  0.4565      0.1112E-03 SOLID          1 -60.2%  0.4825E-05  0.4461E-07   0.000      0.1224E-04   0.000      0.5120E-07   0.000    
    3527  0.4566      0.1112E-03 SOLID          1 -60.2%  0.4829E-05  0.4460E-07   0.000      0.1224E-04   0.000      0.5120E-07   0.000    
    3528  0.4567      0.1112E-03 SOLID          1 -60.2%  0.4832E-05  0.4459E-07   0.000      0.1225E-04   0.000      0.5120E-07   0.000    
    3529  0.4569      0.1112E-03 SOLID          1 -60.2%  0.4835E-05  0.4459E-07   0.000      0.1225E-04   0.000      0.5120E-07   0.000    
    3530  0.4570      0.1112E-03 SOLID          1 -60.2%  0.4839E-05  0.4458E-07   0.000      0.1226E-04   0.000      0.5120E-07   0.000    
    3531  0.4571      0.1112E-03 SOLID          1 -60.1%  0.4842E-05  0.4458E-07   0.000      0.1226E-04   0.000      0.5120E-07   0.000    
    3532  0.4572      0.1112E-03 SOLID          1 -60.1%  0.4845E-05  0.4457E-07   0.000      0.1227E-04   0.000      0.5120E-07   0.000    
    3533  0.4573      0.1112E-03 SOLID          1 -60.1%  0.4849E-05  0.4456E-07   0.000      0.1227E-04   0.000      0.5120E-07   0.000    
    3534  0.4574      0.1112E-03 SOLID          1 -60.1%  0.4852E-05  0.4456E-07   0.000      0.1228E-04   0.000      0.5120E-07   0.000    
    3535  0.4575      0.1112E-03 SOLID          1 -60.1%  0.4856E-05  0.4455E-07   0.000      0.1228E-04   0.000      0.5120E-07   0.000    
    3536  0.4576      0.1112E-03 SOLID          1 -60.1%  0.4859E-05  0.4454E-07   0.000      0.1229E-04   0.000      0.5120E-07   0.000    
    3537  0.4577      0.1112E-03 SOLID          1 -60.1%  0.4862E-05  0.4454E-07   0.000      0.1229E-04   0.000      0.5120E-07   0.000    
    3538  0.4579      0.1112E-03 SOLID          1 -60.1%  0.4866E-05  0.4453E-07   0.000      0.1230E-04   0.000      0.5120E-07   0.000    
    3539  0.4580      0.1112E-03 SOLID          1 -60.1%  0.4869E-05  0.4452E-07   0.000      0.1230E-04   0.000      0.5120E-07   0.000    
    3540  0.4581      0.1112E-03 SOLID          1 -60.0%  0.4872E-05  0.4452E-07   0.000      0.1231E-04   0.000      0.5120E-07   0.000    
    3541  0.4582      0.1111E-03 SOLID          1 -60.0%  0.4876E-05  0.4451E-07   0.000      0.1231E-04   0.000      0.5120E-07   0.000    
    3542  0.4583      0.1111E-03 SOLID          1 -60.0%  0.4879E-05  0.4451E-07   0.000      0.1232E-04   0.000      0.5120E-07   0.000    
    3543  0.4584      0.1111E-03 SOLID          1 -60.0%  0.4882E-05  0.4450E-07   0.000      0.1232E-04   0.000      0.5120E-07   0.000    
    3544  0.4585      0.1111E-03 SOLID          1 -60.0%  0.4886E-05  0.4449E-07   0.000      0.1233E-04   0.000      0.5120E-07   0.000    
    3545  0.4586      0.1111E-03 SOLID          1 -60.0%  0.4889E-05  0.4449E-07   0.000      0.1233E-04   0.000      0.5120E-07   0.000    
    3546  0.4587      0.1111E-03 SOLID          1 -60.0%  0.4893E-05  0.4448E-07   0.000      0.1234E-04   0.000      0.5120E-07   0.000    
    3547  0.4589      0.1111E-03 SOLID          1 -60.0%  0.4896E-05  0.4448E-07   0.000      0.1234E-04   0.000      0.5120E-07   0.000    
    3548  0.4590      0.1111E-03 SOLID          1 -60.0%  0.4899E-05  0.4447E-07   0.000      0.1235E-04   0.000      0.5120E-07   0.000    
    3549  0.4591      0.1111E-03 SOLID          1 -59.9%  0.4903E-05  0.4446E-07   0.000      0.1235E-04   0.000      0.5120E-07   0.000    
    3550  0.4592      0.1111E-03 SOLID          1 -59.9%  0.4906E-05  0.4446E-07   0.000      0.1236E-04   0.000      0.5120E-07   0.000    
    3551  0.4593      0.1111E-03 SOLID          1 -59.9%  0.4909E-05  0.4445E-07   0.000      0.1236E-04   0.000      0.5120E-07   0.000    
    3552  0.4594      0.1111E-03 SOLID          1 -59.9%  0.4913E-05  0.4445E-07   0.000      0.1237E-04   0.000      0.5120E-07   0.000    
    3553  0.4595      0.1111E-03 SOLID          1 -59.9%  0.4916E-05  0.4444E-07   0.000      0.1237E-04   0.000      0.5120E-07   0.000    
    3554  0.4596      0.1111E-03 SOLID          1 -59.9%  0.4920E-05  0.4443E-07   0.000      0.1238E-04   0.000      0.5120E-07   0.000    
    3555  0.4597      0.1111E-03 SOLID          1 -59.9%  0.4923E-05  0.4443E-07   0.000      0.1238E-04   0.000      0.5120E-07   0.000    
    3556  0.4599      0.1111E-03 SOLID          1 -59.9%  0.4926E-05  0.4442E-07   0.000      0.1239E-04   0.000      0.5120E-07   0.000    
    3557  0.4600      0.1111E-03 SOLID          1 -59.9%  0.4930E-05  0.4442E-07   0.000      0.1239E-04   0.000      0.5120E-07   0.000    
    3558  0.4601      0.1111E-03 SOLID          1 -59.9%  0.4933E-05  0.4441E-07   0.000      0.1240E-04   0.000      0.5120E-07   0.000    
    3559  0.4602      0.1111E-03 SOLID          1 -59.8%  0.4937E-05  0.4441E-07   0.000      0.1240E-04   0.000      0.5120E-07   0.000    
    3560  0.4603      0.1111E-03 SOLID          1 -59.8%  0.4940E-05  0.4440E-07   0.000      0.1241E-04   0.000      0.5120E-07   0.000    
    3561  0.4604      0.1110E-03 SOLID          1 -59.8%  0.4943E-05  0.4440E-07   0.000      0.1241E-04   0.000      0.5120E-07   0.000    
    3562  0.4605      0.1110E-03 SOLID          1 -59.8%  0.4947E-05  0.4439E-07   0.000      0.1242E-04   0.000      0.5120E-07   0.000    
    3563  0.4606      0.1110E-03 SOLID          1 -59.8%  0.4950E-05  0.4438E-07   0.000      0.1242E-04   0.000      0.5120E-07   0.000    
    3564  0.4607      0.1110E-03 SOLID          1 -59.8%  0.4954E-05  0.4438E-07   0.000      0.1243E-04   0.000      0.5120E-07   0.000    
    3565  0.4609      0.1110E-03 SOLID          1 -59.8%  0.4957E-05  0.4437E-07   0.000      0.1243E-04   0.000      0.5120E-07   0.000    
    3566  0.4610      0.1110E-03 SOLID          1 -59.8%  0.4961E-05  0.4437E-07   0.000      0.1244E-04   0.000      0.5120E-07   0.000    
    3567  0.4611      0.1110E-03 SOLID          1 -59.8%  0.4964E-05  0.4436E-07   0.000      0.1244E-04   0.000      0.5120E-07   0.000    
    3568  0.4612      0.1110E-03 SOLID          1 -59.7%  0.4967E-05  0.4436E-07   0.000      0.1245E-04   0.000      0.5120E-07   0.000    
    3569  0.4613      0.1110E-03 SOLID          1 -59.7%  0.4971E-05  0.4435E-07   0.000      0.1245E-04   0.000      0.5120E-07   0.000    
    3570  0.4614      0.1110E-03 SOLID          1 -59.7%  0.4974E-05  0.4435E-07   0.000      0.1246E-04   0.000      0.5120E-07   0.000    
    3571  0.4615      0.1110E-03 SOLID          1 -59.7%  0.4978E-05  0.4434E-07   0.000      0.1246E-04   0.000      0.5120E-07   0.000    
    3572  0.4616      0.1110E-03 SOLID          1 -59.7%  0.4981E-05  0.4434E-07   0.000      0.1247E-04   0.000      0.5120E-07   0.000    
    3573  0.4617      0.1110E-03 SOLID          1 -59.7%  0.4985E-05  0.4433E-07   0.000      0.1248E-04   0.000      0.5120E-07   0.000    
    3574  0.4618      0.1110E-03 SOLID          1 -59.7%  0.4988E-05  0.4433E-07   0.000      0.1248E-04   0.000      0.5120E-07   0.000    
   CYCLE    TIME      TIME-STEP  ELEMENT          ERROR  I-ENERGY    K-ENERGY T  K-ENERGY R  EXT-WORK     MAS.ERR     TOTAL MASS  MASS ADDED
    3575  0.4620      0.1110E-03 SOLID          1 -59.7%  0.4991E-05  0.4432E-07   0.000      0.1249E-04   0.000      0.5120E-07   0.000    
    3576  0.4621      0.1110E-03 SOLID          1 -59.7%  0.4995E-05  0.4432E-07   0.000      0.1249E-04   0.000      0.5120E-07   0.000    
    3577  0.4622      0.1110E-03 SOLID          1 -59.6%  0.4998E-05  0.4431E-07   0.000      0.1250E-04   0.000      0.5120E-07   0.000    
    3578  0.4623      0.1110E-03 SOLID          1 -59.6%  0.5002E-05  0.4431E-07   0.000      0.1250E-04   0.000      0.5120E-07   0.000    
    3579  0.4624      0.1110E-03 SOLID          1 -59.6%  0.5005E-05  0.4430E-07   0.000      0.1251E-04   0.000      0.5120E-07   0.000    
    3580  0.4625      0.1110E-03 SOLID          1 -59.6%  0.5009E-05  0.4430E-07   0.000      0.1251E-04   0.000      0.5120E-07   0.000    
    3581  0.4626      0.1109E-03 SOLID          1 -59.6%  0.5012E-05  0.4429E-07   0.000      0.1252E-04   0.000      0.5120E-07   0.000    
    3582  0.4627      0.1109E-03 SOLID          1 -59.6%  0.5016E-05  0.4429E-07   0.000      0.1252E-04   0.000      0.5120E-07   0.000    
    3583  0.4628      0.1109E-03 SOLID          1 -59.6%  0.5019E-05  0.4428E-07   0.000      0.1253E-04   0.000      0.5120E-07   0.000    
    3584  0.4630      0.1109E-03 SOLID          1 -59.6%  0.5022E-05  0.4428E-07   0.000      0.1253E-04   0.000      0.5120E-07   0.000    
    3585  0.4631      0.1109E-03 SOLID          1 -59.6%  0.5026E-05  0.4428E-07   0.000      0.1254E-04   0.000      0.5120E-07   0.000    
    3586  0.4632      0.1109E-03 SOLID          1 -59.5%  0.5029E-05  0.4427E-07   0.000      0.1254E-04   0.000      0.5120E-07   0.000    
    3587  0.4633      0.1109E-03 SOLID          1 -59.5%  0.5033E-05  0.4427E-07   0.000      0.1255E-04   0.000      0.5120E-07   0.000    
    3588  0.4634      0.1109E-03 SOLID          1 -59.5%  0.5036E-05  0.4426E-07   0.000      0.1255E-04   0.000      0.5120E-07   0.000    
    3589  0.4635      0.1109E-03 SOLID          1 -59.5%  0.5040E-05  0.4426E-07   0.000      0.1256E-04   0.000      0.5120E-07   0.000    
    3590  0.4636      0.1109E-03 SOLID          1 -59.5%  0.5043E-05  0.4425E-07   0.000      0.1256E-04   0.000      0.5120E-07   0.000    
    3591  0.4637      0.1109E-03 SOLID          1 -59.5%  0.5047E-05  0.4425E-07   0.000      0.1257E-04   0.000      0.5120E-07   0.000    
    3592  0.4638      0.1109E-03 SOLID          1 -59.5%  0.5050E-05  0.4424E-07   0.000      0.1257E-04   0.000      0.5120E-07   0.000    
    3593  0.4640      0.1109E-03 SOLID          1 -59.5%  0.5054E-05  0.4424E-07   0.000      0.1258E-04   0.000      0.5120E-07   0.000    
    3594  0.4641      0.1109E-03 SOLID          1 -59.5%  0.5057E-05  0.4424E-07   0.000      0.1258E-04   0.000      0.5120E-07   0.000    
    3595  0.4642      0.1109E-03 SOLID          1 -59.4%  0.5061E-05  0.4423E-07   0.000      0.1259E-04   0.000      0.5120E-07   0.000    
    3596  0.4643      0.1109E-03 SOLID          1 -59.4%  0.5064E-05  0.4423E-07   0.000      0.1259E-04   0.000      0.5120E-07   0.000    
    3597  0.4644      0.1109E-03 SOLID          1 -59.4%  0.5067E-05  0.4422E-07   0.000      0.1260E-04   0.000      0.5120E-07   0.000    
    3598  0.4645      0.1109E-03 SOLID          1 -59.4%  0.5071E-05  0.4422E-07   0.000      0.1260E-04   0.000      0.5120E-07   0.000    
    3599  0.4646      0.1109E-03 SOLID          1 -59.4%  0.5074E-05  0.4422E-07   0.000      0.1261E-04   0.000      0.5120E-07   0.000    
    3600  0.4647      0.1109E-03 SOLID          1 -59.4%  0.5078E-05  0.4421E-07   0.000      0.1261E-04   0.000      0.5120E-07   0.000    
    3601  0.4648      0.1109E-03 SOLID          1 -59.4%  0.5081E-05  0.4421E-07   0.000      0.1262E-04   0.000      0.5120E-07   0.000    
    3602  0.4650      0.1108E-03 SOLID          1 -59.4%  0.5085E-05  0.4420E-07   0.000      0.1262E-04   0.000      0.5120E-07   0.000    
    3603  0.4651      0.1108E-03 SOLID          1 -59.4%  0.5088E-05  0.4420E-07   0.000      0.1263E-04   0.000      0.5120E-07   0.000    
    3604  0.4652      0.1108E-03 SOLID          1 -59.3%  0.5092E-05  0.4420E-07   0.000      0.1263E-04   0.000      0.5120E-07   0.000    
    3605  0.4653      0.1108E-03 SOLID          1 -59.3%  0.5095E-05  0.4419E-07   0.000      0.1264E-04   0.000      0.5120E-07   0.000    
    3606  0.4654      0.1108E-03 SOLID          1 -59.3%  0.5099E-05  0.4419E-07   0.000      0.1265E-04   0.000      0.5120E-07   0.000    
    3607  0.4655      0.1108E-03 SOLID          1 -59.3%  0.5102E-05  0.4419E-07   0.000      0.1265E-04   0.000      0.5120E-07   0.000    
    3608  0.4656      0.1108E-03 SOLID          1 -59.3%  0.5106E-05  0.4418E-07   0.000      0.1266E-04   0.000      0.5120E-07   0.000    
    3609  0.4657      0.1108E-03 SOLID          1 -59.3%  0.5109E-05  0.4418E-07   0.000      0.1266E-04   0.000      0.5120E-07   0.000    
    3610  0.4658      0.1108E-03 SOLID          1 -59.3%  0.5113E-05  0.4417E-07   0.000      0.1267E-04   0.000      0.5120E-07   0.000    
    3611  0.4660      0.1108E-03 SOLID          1 -59.3%  0.5116E-05  0.4417E-07   0.000      0.1267E-04   0.000      0.5120E-07   0.000    
    3612  0.4661      0.1108E-03 SOLID          1 -59.3%  0.5120E-05  0.4417E-07   0.000      0.1268E-04   0.000      0.5120E-07   0.000    
    3613  0.4662      0.1108E-03 SOLID          1 -59.3%  0.5123E-05  0.4416E-07   0.000      0.1268E-04   0.000      0.5120E-07   0.000    
    3614  0.4663      0.1108E-03 SOLID          1 -59.2%  0.5127E-05  0.4416E-07   0.000      0.1269E-04   0.000      0.5120E-07   0.000    
    3615  0.4664      0.1108E-03 SOLID          1 -59.2%  0.5130E-05  0.4416E-07   0.000      0.1269E-04   0.000      0.5120E-07   0.000    
    3616  0.4665      0.1108E-03 SOLID          1 -59.2%  0.5134E-05  0.4415E-07   0.000      0.1270E-04   0.000      0.5120E-07   0.000    
    3617  0.4666      0.1108E-03 SOLID          1 -59.2%  0.5138E-05  0.4415E-07   0.000      0.1270E-04   0.000      0.5120E-07   0.000    
    3618  0.4667      0.1108E-03 SOLID          1 -59.2%  0.5141E-05  0.4415E-07   0.000      0.1271E-04   0.000      0.5120E-07   0.000    
    3619  0.4668      0.1108E-03 SOLID          1 -59.2%  0.5145E-05  0.4414E-07   0.000      0.1271E-04   0.000      0.5120E-07   0.000    
    3620  0.4670      0.1108E-03 SOLID          1 -59.2%  0.5148E-05  0.4414E-07   0.000      0.1272E-04   0.000      0.5120E-07   0.000    
    3621  0.4671      0.1108E-03 SOLID          1 -59.2%  0.5152E-05  0.4414E-07   0.000      0.1272E-04   0.000      0.5120E-07   0.000    
    3622  0.4672      0.1108E-03 SOLID          1 -59.2%  0.5155E-05  0.4413E-07   0.000      0.1273E-04   0.000      0.5120E-07   0.000    
    3623  0.4673      0.1107E-03 SOLID          1 -59.1%  0.5159E-05  0.4413E-07   0.000      0.1273E-04   0.000      0.5120E-07   0.000    
    3624  0.4674      0.1107E-03 SOLID          1 -59.1%  0.5162E-05  0.4413E-07   0.000      0.1274E-04   0.000      0.5120E-07   0.000    
    3625  0.4675      0.1107E-03 SOLID          1 -59.1%  0.5166E-05  0.4412E-07   0.000      0.1274E-04   0.000      0.5120E-07   0.000    
    3626  0.4676      0.1107E-03 SOLID          1 -59.1%  0.5169E-05  0.4412E-07   0.000      0.1275E-04   0.000      0.5120E-07   0.000    
    3627  0.4677      0.1107E-03 SOLID          1 -59.1%  0.5173E-05  0.4412E-07   0.000      0.1275E-04   0.000      0.5120E-07   0.000    
    3628  0.4678      0.1107E-03 SOLID          1 -59.1%  0.5176E-05  0.4412E-07   0.000      0.1276E-04   0.000      0.5120E-07   0.000    
    3629  0.4679      0.1107E-03 SOLID          1 -59.1%  0.5180E-05  0.4411E-07   0.000      0.1276E-04   0.000      0.5120E-07   0.000    
   CYCLE    TIME      TIME-STEP  ELEMENT          ERROR  I-ENERGY    K-ENERGY T  K-ENERGY R  EXT-WORK     MAS.ERR     TOTAL MASS  MASS ADDED
    3630  0.4681      0.1107E-03 SOLID          1 -59.1%  0.5183E-05  0.4411E-07   0.000      0.1277E-04   0.000      0.5120E-07   0.000    
    3631  0.4682      0.1107E-03 SOLID          1 -59.1%  0.5187E-05  0.4411E-07   0.000      0.1277E-04   0.000      0.5120E-07   0.000    
    3632  0.4683      0.1107E-03 SOLID          1 -59.0%  0.5191E-05  0.4410E-07   0.000      0.1278E-04   0.000      0.5120E-07   0.000    
    3633  0.4684      0.1107E-03 SOLID          1 -59.0%  0.5194E-05  0.4410E-07   0.000      0.1279E-04   0.000      0.5120E-07   0.000    
    3634  0.4685      0.1107E-03 SOLID          1 -59.0%  0.5198E-05  0.4410E-07   0.000      0.1279E-04   0.000      0.5120E-07   0.000    
    3635  0.4686      0.1107E-03 SOLID          1 -59.0%  0.5201E-05  0.4410E-07   0.000      0.1280E-04   0.000      0.5120E-07   0.000    
    3636  0.4687      0.1107E-03 SOLID          1 -59.0%  0.5205E-05  0.4409E-07   0.000      0.1280E-04   0.000      0.5120E-07   0.000    
    3637  0.4688      0.1107E-03 SOLID          1 -59.0%  0.5208E-05  0.4409E-07   0.000      0.1281E-04   0.000      0.5120E-07   0.000    
    3638  0.4689      0.1107E-03 SOLID          1 -59.0%  0.5212E-05  0.4409E-07   0.000      0.1281E-04   0.000      0.5120E-07   0.000    
    3639  0.4691      0.1107E-03 SOLID          1 -59.0%  0.5215E-05  0.4408E-07   0.000      0.1282E-04   0.000      0.5120E-07   0.000    
    3640  0.4692      0.1107E-03 SOLID          1 -59.0%  0.5219E-05  0.4408E-07   0.000      0.1282E-04   0.000      0.5120E-07   0.000    
    3641  0.4693      0.1107E-03 SOLID          1 -58.9%  0.5223E-05  0.4408E-07   0.000      0.1283E-04   0.000      0.5120E-07   0.000    
    3642  0.4694      0.1107E-03 SOLID          1 -58.9%  0.5226E-05  0.4408E-07   0.000      0.1283E-04   0.000      0.5120E-07   0.000    
    3643  0.4695      0.1107E-03 SOLID          1 -58.9%  0.5230E-05  0.4407E-07   0.000      0.1284E-04   0.000      0.5120E-07   0.000    
    3644  0.4696      0.1106E-03 SOLID          1 -58.9%  0.5233E-05  0.4407E-07   0.000      0.1284E-04   0.000      0.5120E-07   0.000    
    3645  0.4697      0.1106E-03 SOLID          1 -58.9%  0.5237E-05  0.4407E-07   0.000      0.1285E-04   0.000      0.5120E-07   0.000    
    3646  0.4698      0.1106E-03 SOLID          1 -58.9%  0.5240E-05  0.4407E-07   0.000      0.1285E-04   0.000      0.5120E-07   0.000    
    3647  0.4699      0.1106E-03 SOLID          1 -58.9%  0.5244E-05  0.4407E-07   0.000      0.1286E-04   0.000      0.5120E-07   0.000    
    3648  0.4700      0.1106E-03 SOLID          1 -58.9%  0.5248E-05  0.4406E-07   0.000      0.1286E-04   0.000      0.5120E-07   0.000    
    3649  0.4702      0.1106E-03 SOLID          1 -58.9%  0.5251E-05  0.4406E-07   0.000      0.1287E-04   0.000      0.5120E-07   0.000    
    3650  0.4703      0.1106E-03 SOLID          1 -58.8%  0.5255E-05  0.4406E-07   0.000      0.1287E-04   0.000      0.5120E-07   0.000    
    3651  0.4704      0.1106E-03 SOLID          1 -58.8%  0.5258E-05  0.4406E-07   0.000      0.1288E-04   0.000      0.5120E-07   0.000    
    3652  0.4705      0.1106E-03 SOLID          1 -58.8%  0.5262E-05  0.4405E-07   0.000      0.1288E-04   0.000      0.5120E-07   0.000    
    3653  0.4706      0.1106E-03 SOLID          1 -58.8%  0.5266E-05  0.4405E-07   0.000      0.1289E-04   0.000      0.5120E-07   0.000    
    3654  0.4707      0.1106E-03 SOLID          1 -58.8%  0.5269E-05  0.4405E-07   0.000      0.1289E-04   0.000      0.5120E-07   0.000    
    3655  0.4708      0.1106E-03 SOLID          1 -58.8%  0.5273E-05  0.4405E-07   0.000      0.1290E-04   0.000      0.5120E-07   0.000    
    3656  0.4709      0.1106E-03 SOLID          1 -58.8%  0.5276E-05  0.4405E-07   0.000      0.1291E-04   0.000      0.5120E-07   0.000    
    3657  0.4710      0.1106E-03 SOLID          1 -58.8%  0.5280E-05  0.4404E-07   0.000      0.1291E-04   0.000      0.5120E-07   0.000    
    3658  0.4712      0.1106E-03 SOLID          1 -58.8%  0.5284E-05  0.4404E-07   0.000      0.1292E-04   0.000      0.5120E-07   0.000    
    3659  0.4713      0.1106E-03 SOLID          1 -58.7%  0.5287E-05  0.4404E-07   0.000      0.1292E-04   0.000      0.5120E-07   0.000    
    3660  0.4714      0.1106E-03 SOLID          1 -58.7%  0.5291E-05  0.4404E-07   0.000      0.1293E-04   0.000      0.5120E-07   0.000    
    3661  0.4715      0.1106E-03 SOLID          1 -58.7%  0.5294E-05  0.4404E-07   0.000      0.1293E-04   0.000      0.5120E-07   0.000    
    3662  0.4716      0.1106E-03 SOLID          1 -58.7%  0.5298E-05  0.4403E-07   0.000      0.1294E-04   0.000      0.5120E-07   0.000    
    3663  0.4717      0.1106E-03 SOLID          1 -58.7%  0.5302E-05  0.4403E-07   0.000      0.1294E-04   0.000      0.5120E-07   0.000    
    3664  0.4718      0.1106E-03 SOLID          1 -58.7%  0.5305E-05  0.4403E-07   0.000      0.1295E-04   0.000      0.5120E-07   0.000    
    3665  0.4719      0.1106E-03 SOLID          1 -58.7%  0.5309E-05  0.4403E-07   0.000      0.1295E-04   0.000      0.5120E-07   0.000    
    3666  0.4720      0.1105E-03 SOLID          1 -58.7%  0.5312E-05  0.4403E-07   0.000      0.1296E-04   0.000      0.5120E-07   0.000    
    3667  0.4722      0.1105E-03 SOLID          1 -58.7%  0.5316E-05  0.4402E-07   0.000      0.1296E-04   0.000      0.5120E-07   0.000    
    3668  0.4723      0.1105E-03 SOLID          1 -58.6%  0.5320E-05  0.4402E-07   0.000      0.1297E-04   0.000      0.5120E-07   0.000    
    3669  0.4724      0.1105E-03 SOLID          1 -58.6%  0.5323E-05  0.4402E-07   0.000      0.1297E-04   0.000      0.5120E-07   0.000    
    3670  0.4725      0.1105E-03 SOLID          1 -58.6%  0.5327E-05  0.4402E-07   0.000      0.1298E-04   0.000      0.5120E-07   0.000    
    3671  0.4726      0.1105E-03 SOLID          1 -58.6%  0.5331E-05  0.4402E-07   0.000      0.1298E-04   0.000      0.5120E-07   0.000    
    3672  0.4727      0.1105E-03 SOLID          1 -58.6%  0.5334E-05  0.4402E-07   0.000      0.1299E-04   0.000      0.5120E-07   0.000    
    3673  0.4728      0.1105E-03 SOLID          1 -58.6%  0.5338E-05  0.4401E-07   0.000      0.1299E-04   0.000      0.5120E-07   0.000    
    3674  0.4729      0.1105E-03 SOLID          1 -58.6%  0.5341E-05  0.4401E-07   0.000      0.1300E-04   0.000      0.5120E-07   0.000    
    3675  0.4730      0.1105E-03 SOLID          1 -58.6%  0.5345E-05  0.4401E-07   0.000      0.1301E-04   0.000      0.5120E-07   0.000    
    3676  0.4731      0.1105E-03 SOLID          1 -58.6%  0.5349E-05  0.4401E-07   0.000      0.1301E-04   0.000      0.5120E-07   0.000    
    3677  0.4733      0.1105E-03 SOLID          1 -58.5%  0.5352E-05  0.4401E-07   0.000      0.1302E-04   0.000      0.5120E-07   0.000    
    3678  0.4734      0.1105E-03 SOLID          1 -58.5%  0.5356E-05  0.4401E-07   0.000      0.1302E-04   0.000      0.5120E-07   0.000    
    3679  0.4735      0.1105E-03 SOLID          1 -58.5%  0.5360E-05  0.4400E-07   0.000      0.1303E-04   0.000      0.5120E-07   0.000    
    3680  0.4736      0.1105E-03 SOLID          1 -58.5%  0.5363E-05  0.4400E-07   0.000      0.1303E-04   0.000      0.5120E-07   0.000    
    3681  0.4737      0.1105E-03 SOLID          1 -58.5%  0.5367E-05  0.4400E-07   0.000      0.1304E-04   0.000      0.5120E-07   0.000    
    3682  0.4738      0.1105E-03 SOLID          1 -58.5%  0.5371E-05  0.4400E-07   0.000      0.1304E-04   0.000      0.5120E-07   0.000    
    3683  0.4739      0.1105E-03 SOLID          1 -58.5%  0.5374E-05  0.4400E-07   0.000      0.1305E-04   0.000      0.5120E-07   0.000    
    3684  0.4740      0.1105E-03 SOLID          1 -58.5%  0.5378E-05  0.4400E-07   0.000      0.1305E-04   0.000      0.5120E-07   0.000    
   CYCLE    TIME      TIME-STEP  ELEMENT          ERROR  I-ENERGY    K-ENERGY T  K-ENERGY R  EXT-WORK     MAS.ERR     TOTAL MASS  MASS ADDED
    3685  0.4741      0.1105E-03 SOLID          1 -58.4%  0.5382E-05  0.4400E-07   0.000      0.1306E-04   0.000      0.5120E-07   0.000    
    3686  0.4743      0.1105E-03 SOLID          1 -58.4%  0.5385E-05  0.4399E-07   0.000      0.1306E-04   0.000      0.5120E-07   0.000    
    3687  0.4744      0.1105E-03 SOLID          1 -58.4%  0.5389E-05  0.4399E-07   0.000      0.1307E-04   0.000      0.5120E-07   0.000    
    3688  0.4745      0.1104E-03 SOLID          1 -58.4%  0.5393E-05  0.4399E-07   0.000      0.1307E-04   0.000      0.5120E-07   0.000    
    3689  0.4746      0.1104E-03 SOLID          1 -58.4%  0.5396E-05  0.4399E-07   0.000      0.1308E-04   0.000      0.5120E-07   0.000    
    3690  0.4747      0.1104E-03 SOLID          1 -58.4%  0.5400E-05  0.4399E-07   0.000      0.1308E-04   0.000      0.5120E-07   0.000    
    3691  0.4748      0.1104E-03 SOLID          1 -58.4%  0.5403E-05  0.4399E-07   0.000      0.1309E-04   0.000      0.5120E-07   0.000    
    3692  0.4749      0.1104E-03 SOLID          1 -58.4%  0.5407E-05  0.4399E-07   0.000      0.1309E-04   0.000      0.5120E-07   0.000    
    3693  0.4750      0.1104E-03 SOLID          1 -58.4%  0.5411E-05  0.4398E-07   0.000      0.1310E-04   0.000      0.5120E-07   0.000    
    3694  0.4751      0.1104E-03 SOLID          1 -58.3%  0.5415E-05  0.4398E-07   0.000      0.1311E-04   0.000      0.5120E-07   0.000    
    3695  0.4752      0.1104E-03 SOLID          1 -58.3%  0.5418E-05  0.4398E-07   0.000      0.1311E-04   0.000      0.5120E-07   0.000    
    3696  0.4754      0.1104E-03 SOLID          1 -58.3%  0.5422E-05  0.4398E-07   0.000      0.1312E-04   0.000      0.5120E-07   0.000    
    3697  0.4755      0.1104E-03 SOLID          1 -58.3%  0.5426E-05  0.4398E-07   0.000      0.1312E-04   0.000      0.5120E-07   0.000    
    3698  0.4756      0.1104E-03 SOLID          1 -58.3%  0.5429E-05  0.4398E-07   0.000      0.1313E-04   0.000      0.5120E-07   0.000    
    3699  0.4757      0.1104E-03 SOLID          1 -58.3%  0.5433E-05  0.4398E-07   0.000      0.1313E-04   0.000      0.5120E-07   0.000    
    3700  0.4758      0.1104E-03 SOLID          1 -58.3%  0.5437E-05  0.4398E-07   0.000      0.1314E-04   0.000      0.5120E-07   0.000    
    3701  0.4759      0.1104E-03 SOLID          1 -58.3%  0.5440E-05  0.4397E-07   0.000      0.1314E-04   0.000      0.5120E-07   0.000    
    3702  0.4760      0.1104E-03 SOLID          1 -58.3%  0.5444E-05  0.4397E-07   0.000      0.1315E-04   0.000      0.5120E-07   0.000    
    3703  0.4761      0.1104E-03 SOLID          1 -58.2%  0.5448E-05  0.4397E-07   0.000      0.1315E-04   0.000      0.5120E-07   0.000    
    3704  0.4762      0.1104E-03 SOLID          1 -58.2%  0.5451E-05  0.4397E-07   0.000      0.1316E-04   0.000      0.5120E-07   0.000    
    3705  0.4763      0.1104E-03 SOLID          1 -58.2%  0.5455E-05  0.4397E-07   0.000      0.1316E-04   0.000      0.5120E-07   0.000    
    3706  0.4765      0.1104E-03 SOLID          1 -58.2%  0.5459E-05  0.4397E-07   0.000      0.1317E-04   0.000      0.5120E-07   0.000    
    3707  0.4766      0.1104E-03 SOLID          1 -58.2%  0.5462E-05  0.4397E-07   0.000      0.1317E-04   0.000      0.5120E-07   0.000    
    3708  0.4767      0.1104E-03 SOLID          1 -58.2%  0.5466E-05  0.4397E-07   0.000      0.1318E-04   0.000      0.5120E-07   0.000    
    3709  0.4768      0.1104E-03 SOLID          1 -58.2%  0.5470E-05  0.4397E-07   0.000      0.1318E-04   0.000      0.5120E-07   0.000    
    3710  0.4769      0.1104E-03 SOLID          1 -58.2%  0.5474E-05  0.4396E-07   0.000      0.1319E-04   0.000      0.5120E-07   0.000    
    3711  0.4770      0.1103E-03 SOLID          1 -58.2%  0.5477E-05  0.4396E-07   0.000      0.1320E-04   0.000      0.5120E-07   0.000    
    3712  0.4771      0.1103E-03 SOLID          1 -58.1%  0.5481E-05  0.4396E-07   0.000      0.1320E-04   0.000      0.5120E-07   0.000    
    3713  0.4772      0.1103E-03 SOLID          1 -58.1%  0.5485E-05  0.4396E-07   0.000      0.1321E-04   0.000      0.5120E-07   0.000    
    3714  0.4773      0.1103E-03 SOLID          1 -58.1%  0.5488E-05  0.4396E-07   0.000      0.1321E-04   0.000      0.5120E-07   0.000    
    3715  0.4775      0.1103E-03 SOLID          1 -58.1%  0.5492E-05  0.4396E-07   0.000      0.1322E-04   0.000      0.5120E-07   0.000    
    3716  0.4776      0.1103E-03 SOLID          1 -58.1%  0.5496E-05  0.4396E-07   0.000      0.1322E-04   0.000      0.5120E-07   0.000    
    3717  0.4777      0.1103E-03 SOLID          1 -58.1%  0.5499E-05  0.4396E-07   0.000      0.1323E-04   0.000      0.5120E-07   0.000    
    3718  0.4778      0.1103E-03 SOLID          1 -58.1%  0.5503E-05  0.4396E-07   0.000      0.1323E-04   0.000      0.5120E-07   0.000    
    3719  0.4779      0.1103E-03 SOLID          1 -58.1%  0.5507E-05  0.4395E-07   0.000      0.1324E-04   0.000      0.5120E-07   0.000    
    3720  0.4780      0.1103E-03 SOLID          1 -58.1%  0.5511E-05  0.4395E-07   0.000      0.1324E-04   0.000      0.5120E-07   0.000    
    3721  0.4781      0.1103E-03 SOLID          1 -58.0%  0.5514E-05  0.4395E-07   0.000      0.1325E-04   0.000      0.5120E-07   0.000    
    3722  0.4782      0.1103E-03 SOLID          1 -58.0%  0.5518E-05  0.4395E-07   0.000      0.1325E-04   0.000      0.5120E-07   0.000    
    3723  0.4783      0.1103E-03 SOLID          1 -58.0%  0.5522E-05  0.4395E-07   0.000      0.1326E-04   0.000      0.5120E-07   0.000    
    3724  0.4784      0.1103E-03 SOLID          1 -58.0%  0.5526E-05  0.4395E-07   0.000      0.1326E-04   0.000      0.5120E-07   0.000    
    3725  0.4786      0.1103E-03 SOLID          1 -58.0%  0.5529E-05  0.4395E-07   0.000      0.1327E-04   0.000      0.5120E-07   0.000    
    3726  0.4787      0.1103E-03 SOLID          1 -58.0%  0.5533E-05  0.4395E-07   0.000      0.1327E-04   0.000      0.5120E-07   0.000    
    3727  0.4788      0.1103E-03 SOLID          1 -58.0%  0.5537E-05  0.4395E-07   0.000      0.1328E-04   0.000      0.5120E-07   0.000    
    3728  0.4789      0.1103E-03 SOLID          1 -58.0%  0.5540E-05  0.4394E-07   0.000      0.1329E-04   0.000      0.5120E-07   0.000    
    3729  0.4790      0.1103E-03 SOLID          1 -58.0%  0.5544E-05  0.4394E-07   0.000      0.1329E-04   0.000      0.5120E-07   0.000    
    3730  0.4791      0.1103E-03 SOLID          1 -57.9%  0.5548E-05  0.4394E-07   0.000      0.1330E-04   0.000      0.5120E-07   0.000    
    3731  0.4792      0.1103E-03 SOLID          1 -57.9%  0.5552E-05  0.4394E-07   0.000      0.1330E-04   0.000      0.5120E-07   0.000    
    3732  0.4793      0.1103E-03 SOLID          1 -57.9%  0.5555E-05  0.4394E-07   0.000      0.1331E-04   0.000      0.5120E-07   0.000    
    3733  0.4794      0.1103E-03 SOLID          1 -57.9%  0.5559E-05  0.4394E-07   0.000      0.1331E-04   0.000      0.5120E-07   0.000    
    3734  0.4795      0.1102E-03 SOLID          1 -57.9%  0.5563E-05  0.4394E-07   0.000      0.1332E-04   0.000      0.5120E-07   0.000    
    3735  0.4797      0.1102E-03 SOLID          1 -57.9%  0.5567E-05  0.4394E-07   0.000      0.1332E-04   0.000      0.5120E-07   0.000    
    3736  0.4798      0.1102E-03 SOLID          1 -57.9%  0.5570E-05  0.4393E-07   0.000      0.1333E-04   0.000      0.5120E-07   0.000    
    3737  0.4799      0.1102E-03 SOLID          1 -57.9%  0.5574E-05  0.4393E-07   0.000      0.1333E-04   0.000      0.5120E-07   0.000    
    3738  0.4800      0.1102E-03 SOLID          1 -57.9%  0.5578E-05  0.4393E-07   0.000      0.1334E-04   0.000      0.5120E-07   0.000    
    3739  0.4801      0.1102E-03 SOLID          1 -57.8%  0.5582E-05  0.4393E-07   0.000      0.1334E-04   0.000      0.5120E-07   0.000    
   CYCLE    TIME      TIME-STEP  ELEMENT          ERROR  I-ENERGY    K-ENERGY T  K-ENERGY R  EXT-WORK     MAS.ERR     TOTAL MASS  MASS ADDED
    3740  0.4802      0.1102E-03 SOLID          1 -57.8%  0.5585E-05  0.4393E-07   0.000      0.1335E-04   0.000      0.5120E-07   0.000    
    3741  0.4803      0.1102E-03 SOLID          1 -57.8%  0.5589E-05  0.4393E-07   0.000      0.1335E-04   0.000      0.5120E-07   0.000    
    3742  0.4804      0.1102E-03 SOLID          1 -57.8%  0.5593E-05  0.4393E-07   0.000      0.1336E-04   0.000      0.5120E-07   0.000    
    3743  0.4805      0.1102E-03 SOLID          1 -57.8%  0.5597E-05  0.4393E-07   0.000      0.1337E-04   0.000      0.5120E-07   0.000    
    3744  0.4806      0.1102E-03 SOLID          1 -57.8%  0.5601E-05  0.4393E-07   0.000      0.1337E-04   0.000      0.5120E-07   0.000    
    3745  0.4808      0.1102E-03 SOLID          1 -57.8%  0.5604E-05  0.4392E-07   0.000      0.1338E-04   0.000      0.5120E-07   0.000    
    3746  0.4809      0.1102E-03 SOLID          1 -57.8%  0.5608E-05  0.4392E-07   0.000      0.1338E-04   0.000      0.5120E-07   0.000    
    3747  0.4810      0.1102E-03 SOLID          1 -57.8%  0.5612E-05  0.4392E-07   0.000      0.1339E-04   0.000      0.5120E-07   0.000    
    3748  0.4811      0.1102E-03 SOLID          1 -57.7%  0.5616E-05  0.4392E-07   0.000      0.1339E-04   0.000      0.5120E-07   0.000    
    3749  0.4812      0.1102E-03 SOLID          1 -57.7%  0.5619E-05  0.4392E-07   0.000      0.1340E-04   0.000      0.5120E-07   0.000    
    3750  0.4813      0.1102E-03 SOLID          1 -57.7%  0.5623E-05  0.4392E-07   0.000      0.1340E-04   0.000      0.5120E-07   0.000    
    3751  0.4814      0.1102E-03 SOLID          1 -57.7%  0.5627E-05  0.4392E-07   0.000      0.1341E-04   0.000      0.5120E-07   0.000    
    3752  0.4815      0.1102E-03 SOLID          1 -57.7%  0.5631E-05  0.4391E-07   0.000      0.1341E-04   0.000      0.5120E-07   0.000    
    3753  0.4816      0.1102E-03 SOLID          1 -57.7%  0.5635E-05  0.4391E-07   0.000      0.1342E-04   0.000      0.5120E-07   0.000    
    3754  0.4818      0.1102E-03 SOLID          1 -57.7%  0.5638E-05  0.4391E-07   0.000      0.1342E-04   0.000      0.5120E-07   0.000    
    3755  0.4819      0.1102E-03 SOLID          1 -57.7%  0.5642E-05  0.4391E-07   0.000      0.1343E-04   0.000      0.5120E-07   0.000    
    3756  0.4820      0.1102E-03 SOLID          1 -57.6%  0.5646E-05  0.4391E-07   0.000      0.1344E-04   0.000      0.5120E-07   0.000    
    3757  0.4821      0.1102E-03 SOLID          1 -57.6%  0.5650E-05  0.4391E-07   0.000      0.1344E-04   0.000      0.5120E-07   0.000    
    3758  0.4822      0.1101E-03 SOLID          1 -57.6%  0.5654E-05  0.4391E-07   0.000      0.1345E-04   0.000      0.5120E-07   0.000    
    3759  0.4823      0.1101E-03 SOLID          1 -57.6%  0.5657E-05  0.4390E-07   0.000      0.1345E-04   0.000      0.5120E-07   0.000    
    3760  0.4824      0.1101E-03 SOLID          1 -57.6%  0.5661E-05  0.4390E-07   0.000      0.1346E-04   0.000      0.5120E-07   0.000    
    3761  0.4825      0.1101E-03 SOLID          1 -57.6%  0.5665E-05  0.4390E-07   0.000      0.1346E-04   0.000      0.5120E-07   0.000    
    3762  0.4826      0.1101E-03 SOLID          1 -57.6%  0.5669E-05  0.4390E-07   0.000      0.1347E-04   0.000      0.5120E-07   0.000    
    3763  0.4827      0.1101E-03 SOLID          1 -57.6%  0.5673E-05  0.4390E-07   0.000      0.1347E-04   0.000      0.5120E-07   0.000    
    3764  0.4829      0.1101E-03 SOLID          1 -57.6%  0.5676E-05  0.4390E-07   0.000      0.1348E-04   0.000      0.5120E-07   0.000    
    3765  0.4830      0.1101E-03 SOLID          1 -57.5%  0.5680E-05  0.4389E-07   0.000      0.1348E-04   0.000      0.5120E-07   0.000    
    3766  0.4831      0.1101E-03 SOLID          1 -57.5%  0.5684E-05  0.4389E-07   0.000      0.1349E-04   0.000      0.5120E-07   0.000    
    3767  0.4832      0.1101E-03 SOLID          1 -57.5%  0.5688E-05  0.4389E-07   0.000      0.1349E-04   0.000      0.5120E-07   0.000    
    3768  0.4833      0.1101E-03 SOLID          1 -57.5%  0.5692E-05  0.4389E-07   0.000      0.1350E-04   0.000      0.5120E-07   0.000    
    3769  0.4834      0.1101E-03 SOLID          1 -57.5%  0.5695E-05  0.4389E-07   0.000      0.1350E-04   0.000      0.5120E-07   0.000    
    3770  0.4835      0.1101E-03 SOLID          1 -57.5%  0.5699E-05  0.4389E-07   0.000      0.1351E-04   0.000      0.5120E-07   0.000    
    3771  0.4836      0.1101E-03 SOLID          1 -57.5%  0.5703E-05  0.4388E-07   0.000      0.1352E-04   0.000      0.5120E-07   0.000    
    3772  0.4837      0.1101E-03 SOLID          1 -57.5%  0.5707E-05  0.4388E-07   0.000      0.1352E-04   0.000      0.5120E-07   0.000    
    3773  0.4838      0.1101E-03 SOLID          1 -57.5%  0.5711E-05  0.4388E-07   0.000      0.1353E-04   0.000      0.5120E-07   0.000    
    3774  0.4840      0.1101E-03 SOLID          1 -57.4%  0.5714E-05  0.4388E-07   0.000      0.1353E-04   0.000      0.5120E-07   0.000    
    3775  0.4841      0.1101E-03 SOLID          1 -57.4%  0.5718E-05  0.4388E-07   0.000      0.1354E-04   0.000      0.5120E-07   0.000    
    3776  0.4842      0.1101E-03 SOLID          1 -57.4%  0.5722E-05  0.4387E-07   0.000      0.1354E-04   0.000      0.5120E-07   0.000    
    3777  0.4843      0.1101E-03 SOLID          1 -57.4%  0.5726E-05  0.4387E-07   0.000      0.1355E-04   0.000      0.5120E-07   0.000    
    3778  0.4844      0.1101E-03 SOLID          1 -57.4%  0.5730E-05  0.4387E-07   0.000      0.1355E-04   0.000      0.5120E-07   0.000    
    3779  0.4845      0.1101E-03 SOLID          1 -57.4%  0.5734E-05  0.4387E-07   0.000      0.1356E-04   0.000      0.5120E-07   0.000    
    3780  0.4846      0.1101E-03 SOLID          1 -57.4%  0.5737E-05  0.4387E-07   0.000      0.1356E-04   0.000      0.5120E-07   0.000    
    3781  0.4847      0.1101E-03 SOLID          1 -57.4%  0.5741E-05  0.4386E-07   0.000      0.1357E-04   0.000      0.5120E-07   0.000    
    3782  0.4848      0.1100E-03 SOLID          1 -57.4%  0.5745E-05  0.4386E-07   0.000      0.1357E-04   0.000      0.5120E-07   0.000    
    3783  0.4849      0.1100E-03 SOLID          1 -57.3%  0.5749E-05  0.4386E-07   0.000      0.1358E-04   0.000      0.5120E-07   0.000    
    3784  0.4851      0.1100E-03 SOLID          1 -57.3%  0.5753E-05  0.4386E-07   0.000      0.1359E-04   0.000      0.5120E-07   0.000    
    3785  0.4852      0.1100E-03 SOLID          1 -57.3%  0.5757E-05  0.4386E-07   0.000      0.1359E-04   0.000      0.5120E-07   0.000    
    3786  0.4853      0.1100E-03 SOLID          1 -57.3%  0.5761E-05  0.4385E-07   0.000      0.1360E-04   0.000      0.5120E-07   0.000    
    3787  0.4854      0.1100E-03 SOLID          1 -57.3%  0.5764E-05  0.4385E-07   0.000      0.1360E-04   0.000      0.5120E-07   0.000    
    3788  0.4855      0.1100E-03 SOLID          1 -57.3%  0.5768E-05  0.4385E-07   0.000      0.1361E-04   0.000      0.5120E-07   0.000    
    3789  0.4856      0.1100E-03 SOLID          1 -57.3%  0.5772E-05  0.4385E-07   0.000      0.1361E-04   0.000      0.5120E-07   0.000    
    3790  0.4857      0.1100E-03 SOLID          1 -57.3%  0.5776E-05  0.4384E-07   0.000      0.1362E-04   0.000      0.5120E-07   0.000    
    3791  0.4858      0.1100E-03 SOLID          1 -57.3%  0.5780E-05  0.4384E-07   0.000      0.1362E-04   0.000      0.5120E-07   0.000    
    3792  0.4859      0.1100E-03 SOLID          1 -57.2%  0.5784E-05  0.4384E-07   0.000      0.1363E-04   0.000      0.5120E-07   0.000    
    3793  0.4860      0.1100E-03 SOLID          1 -57.2%  0.5788E-05  0.4384E-07   0.000      0.1363E-04   0.000      0.5120E-07   0.000    
    3794  0.4862      0.1100E-03 SOLID          1 -57.2%  0.5791E-05  0.4383E-07   0.000      0.1364E-04   0.000      0.5120E-07   0.000    
   CYCLE    TIME      TIME-STEP  ELEMENT          ERROR  I-ENERGY    K-ENERGY T  K-ENERGY R  EXT-WORK     MAS.ERR     TOTAL MASS  MASS ADDED
    3795  0.4863      0.1100E-03 SOLID          1 -57.2%  0.5795E-05  0.4383E-07   0.000      0.1365E-04   0.000      0.5120E-07   0.000    
    3796  0.4864      0.1100E-03 SOLID          1 -57.2%  0.5799E-05  0.4383E-07   0.000      0.1365E-04   0.000      0.5120E-07   0.000    
    3797  0.4865      0.1100E-03 SOLID          1 -57.2%  0.5803E-05  0.4383E-07   0.000      0.1366E-04   0.000      0.5120E-07   0.000    
    3798  0.4866      0.1100E-03 SOLID          1 -57.2%  0.5807E-05  0.4382E-07   0.000      0.1366E-04   0.000      0.5120E-07   0.000    
    3799  0.4867      0.1100E-03 SOLID          1 -57.2%  0.5811E-05  0.4382E-07   0.000      0.1367E-04   0.000      0.5120E-07   0.000    
    3800  0.4868      0.1100E-03 SOLID          1 -57.2%  0.5815E-05  0.4382E-07   0.000      0.1367E-04   0.000      0.5120E-07   0.000    
    3801  0.4869      0.1100E-03 SOLID          1 -57.1%  0.5819E-05  0.4381E-07   0.000      0.1368E-04   0.000      0.5120E-07   0.000    
    3802  0.4870      0.1100E-03 SOLID          1 -57.1%  0.5822E-05  0.4381E-07   0.000      0.1368E-04   0.000      0.5120E-07   0.000    
    3803  0.4871      0.1100E-03 SOLID          1 -57.1%  0.5826E-05  0.4381E-07   0.000      0.1369E-04   0.000      0.5120E-07   0.000    
    3804  0.4873      0.1100E-03 SOLID          1 -57.1%  0.5830E-05  0.4381E-07   0.000      0.1369E-04   0.000      0.5120E-07   0.000    
    3805  0.4874      0.1100E-03 SOLID          1 -57.1%  0.5834E-05  0.4380E-07   0.000      0.1370E-04   0.000      0.5120E-07   0.000    
    3806  0.4875      0.1099E-03 SOLID          1 -57.1%  0.5838E-05  0.4380E-07   0.000      0.1370E-04   0.000      0.5120E-07   0.000    
    3807  0.4876      0.1099E-03 SOLID          1 -57.1%  0.5842E-05  0.4380E-07   0.000      0.1371E-04   0.000      0.5120E-07   0.000    
    3808  0.4877      0.1099E-03 SOLID          1 -57.1%  0.5846E-05  0.4379E-07   0.000      0.1372E-04   0.000      0.5120E-07   0.000    
    3809  0.4878      0.1099E-03 SOLID          1 -57.0%  0.5850E-05  0.4379E-07   0.000      0.1372E-04   0.000      0.5120E-07   0.000    
    3810  0.4879      0.1099E-03 SOLID          1 -57.0%  0.5853E-05  0.4379E-07   0.000      0.1373E-04   0.000      0.5120E-07   0.000    
    3811  0.4880      0.1099E-03 SOLID          1 -57.0%  0.5857E-05  0.4378E-07   0.000      0.1373E-04   0.000      0.5120E-07   0.000    
    3812  0.4881      0.1099E-03 SOLID          1 -57.0%  0.5861E-05  0.4378E-07   0.000      0.1374E-04   0.000      0.5120E-07   0.000    
    3813  0.4882      0.1099E-03 SOLID          1 -57.0%  0.5865E-05  0.4378E-07   0.000      0.1374E-04   0.000      0.5120E-07   0.000    
    3814  0.4884      0.1099E-03 SOLID          1 -57.0%  0.5869E-05  0.4377E-07   0.000      0.1375E-04   0.000      0.5120E-07   0.000    
    3815  0.4885      0.1099E-03 SOLID          1 -57.0%  0.5873E-05  0.4377E-07   0.000      0.1375E-04   0.000      0.5120E-07   0.000    
    3816  0.4886      0.1099E-03 SOLID          1 -57.0%  0.5877E-05  0.4377E-07   0.000      0.1376E-04   0.000      0.5120E-07   0.000    
    3817  0.4887      0.1099E-03 SOLID          1 -57.0%  0.5881E-05  0.4376E-07   0.000      0.1376E-04   0.000      0.5120E-07   0.000    
    3818  0.4888      0.1099E-03 SOLID          1 -56.9%  0.5885E-05  0.4376E-07   0.000      0.1377E-04   0.000      0.5120E-07   0.000    
    3819  0.4889      0.1099E-03 SOLID          1 -56.9%  0.5889E-05  0.4375E-07   0.000      0.1378E-04   0.000      0.5120E-07   0.000    
    3820  0.4890      0.1099E-03 SOLID          1 -56.9%  0.5893E-05  0.4375E-07   0.000      0.1378E-04   0.000      0.5120E-07   0.000    
    3821  0.4891      0.1099E-03 SOLID          1 -56.9%  0.5896E-05  0.4375E-07   0.000      0.1379E-04   0.000      0.5120E-07   0.000    
    3822  0.4892      0.1099E-03 SOLID          1 -56.9%  0.5900E-05  0.4374E-07   0.000      0.1379E-04   0.000      0.5120E-07   0.000    
    3823  0.4893      0.1099E-03 SOLID          1 -56.9%  0.5904E-05  0.4374E-07   0.000      0.1380E-04   0.000      0.5120E-07   0.000    
    3824  0.4895      0.1099E-03 SOLID          1 -56.9%  0.5908E-05  0.4374E-07   0.000      0.1380E-04   0.000      0.5120E-07   0.000    
    3825  0.4896      0.1099E-03 SOLID          1 -56.9%  0.5912E-05  0.4373E-07   0.000      0.1381E-04   0.000      0.5120E-07   0.000    
    3826  0.4897      0.1099E-03 SOLID          1 -56.9%  0.5916E-05  0.4373E-07   0.000      0.1381E-04   0.000      0.5120E-07   0.000    
    3827  0.4898      0.1099E-03 SOLID          1 -56.8%  0.5920E-05  0.4372E-07   0.000      0.1382E-04   0.000      0.5120E-07   0.000    
    3828  0.4899      0.1099E-03 SOLID          1 -56.8%  0.5924E-05  0.4372E-07   0.000      0.1382E-04   0.000      0.5120E-07   0.000    
    3829  0.4900      0.1099E-03 SOLID          1 -56.8%  0.5928E-05  0.4372E-07   0.000      0.1383E-04   0.000      0.5120E-07   0.000    
    3830  0.4901      0.1099E-03 SOLID          1 -56.8%  0.5932E-05  0.4371E-07   0.000      0.1384E-04   0.000      0.5120E-07   0.000    
    3831  0.4902      0.1098E-03 SOLID          1 -56.8%  0.5936E-05  0.4371E-07   0.000      0.1384E-04   0.000      0.5120E-07   0.000    
    3832  0.4903      0.1098E-03 SOLID          1 -56.8%  0.5940E-05  0.4370E-07   0.000      0.1385E-04   0.000      0.5120E-07   0.000    
    3833  0.4904      0.1098E-03 SOLID          1 -56.8%  0.5944E-05  0.4370E-07   0.000      0.1385E-04   0.000      0.5120E-07   0.000    
    3834  0.4906      0.1098E-03 SOLID          1 -56.8%  0.5948E-05  0.4369E-07   0.000      0.1386E-04   0.000      0.5120E-07   0.000    
    3835  0.4907      0.1098E-03 SOLID          1 -56.8%  0.5951E-05  0.4369E-07   0.000      0.1386E-04   0.000      0.5120E-07   0.000    
    3836  0.4908      0.1098E-03 SOLID          1 -56.7%  0.5955E-05  0.4368E-07   0.000      0.1387E-04   0.000      0.5120E-07   0.000    
    3837  0.4909      0.1098E-03 SOLID          1 -56.7%  0.5959E-05  0.4368E-07   0.000      0.1387E-04   0.000      0.5120E-07   0.000    
    3838  0.4910      0.1098E-03 SOLID          1 -56.7%  0.5963E-05  0.4368E-07   0.000      0.1388E-04   0.000      0.5120E-07   0.000    
    3839  0.4911      0.1098E-03 SOLID          1 -56.7%  0.5967E-05  0.4367E-07   0.000      0.1388E-04   0.000      0.5120E-07   0.000    
    3840  0.4912      0.1098E-03 SOLID          1 -56.7%  0.5971E-05  0.4367E-07   0.000      0.1389E-04   0.000      0.5120E-07   0.000    
    3841  0.4913      0.1098E-03 SOLID          1 -56.7%  0.5975E-05  0.4366E-07   0.000      0.1390E-04   0.000      0.5120E-07   0.000    
    3842  0.4914      0.1098E-03 SOLID          1 -56.7%  0.5979E-05  0.4366E-07   0.000      0.1390E-04   0.000      0.5120E-07   0.000    
    3843  0.4915      0.1098E-03 SOLID          1 -56.7%  0.5983E-05  0.4365E-07   0.000      0.1391E-04   0.000      0.5120E-07   0.000    
    3844  0.4916      0.1098E-03 SOLID          1 -56.7%  0.5987E-05  0.4365E-07   0.000      0.1391E-04   0.000      0.5120E-07   0.000    
    3845  0.4918      0.1098E-03 SOLID          1 -56.6%  0.5991E-05  0.4364E-07   0.000      0.1392E-04   0.000      0.5120E-07   0.000    
    3846  0.4919      0.1098E-03 SOLID          1 -56.6%  0.5995E-05  0.4364E-07   0.000      0.1392E-04   0.000      0.5120E-07   0.000    
    3847  0.4920      0.1098E-03 SOLID          1 -56.6%  0.5999E-05  0.4363E-07   0.000      0.1393E-04   0.000      0.5120E-07   0.000    
    3848  0.4921      0.1098E-03 SOLID          1 -56.6%  0.6003E-05  0.4363E-07   0.000      0.1393E-04   0.000      0.5120E-07   0.000    
    3849  0.4922      0.1098E-03 SOLID          1 -56.6%  0.6007E-05  0.4362E-07   0.000      0.1394E-04   0.000      0.5120E-07   0.000    
   CYCLE    TIME      TIME-STEP  ELEMENT          ERROR  I-ENERGY    K-ENERGY T  K-ENERGY R  EXT-WORK     MAS.ERR     TOTAL MASS  MASS ADDED
    3850  0.4923      0.1098E-03 SOLID          1 -56.6%  0.6011E-05  0.4362E-07   0.000      0.1394E-04   0.000      0.5120E-07   0.000    
    3851  0.4924      0.1098E-03 SOLID          1 -56.6%  0.6015E-05  0.4361E-07   0.000      0.1395E-04   0.000      0.5120E-07   0.000    
    3852  0.4925      0.1098E-03 SOLID          1 -56.6%  0.6019E-05  0.4361E-07   0.000      0.1396E-04   0.000      0.5120E-07   0.000    
    3853  0.4926      0.1098E-03 SOLID          1 -56.5%  0.6023E-05  0.4360E-07   0.000      0.1396E-04   0.000      0.5120E-07   0.000    
    3854  0.4927      0.1098E-03 SOLID          1 -56.5%  0.6027E-05  0.4359E-07   0.000      0.1397E-04   0.000      0.5120E-07   0.000    
    3855  0.4929      0.1098E-03 SOLID          1 -56.5%  0.6031E-05  0.4359E-07   0.000      0.1397E-04   0.000      0.5120E-07   0.000    
    3856  0.4930      0.1097E-03 SOLID          1 -56.5%  0.6035E-05  0.4358E-07   0.000      0.1398E-04   0.000      0.5120E-07   0.000    
    3857  0.4931      0.1097E-03 SOLID          1 -56.5%  0.6039E-05  0.4358E-07   0.000      0.1398E-04   0.000      0.5120E-07   0.000    
    3858  0.4932      0.1097E-03 SOLID          1 -56.5%  0.6043E-05  0.4357E-07   0.000      0.1399E-04   0.000      0.5120E-07   0.000    
    3859  0.4933      0.1097E-03 SOLID          1 -56.5%  0.6047E-05  0.4357E-07   0.000      0.1399E-04   0.000      0.5120E-07   0.000    
    3860  0.4934      0.1097E-03 SOLID          1 -56.5%  0.6051E-05  0.4356E-07   0.000      0.1400E-04   0.000      0.5120E-07   0.000    
    3861  0.4935      0.1097E-03 SOLID          1 -56.5%  0.6055E-05  0.4355E-07   0.000      0.1401E-04   0.000      0.5120E-07   0.000    
    3862  0.4936      0.1097E-03 SOLID          1 -56.4%  0.6059E-05  0.4355E-07   0.000      0.1401E-04   0.000      0.5120E-07   0.000    
    3863  0.4937      0.1097E-03 SOLID          1 -56.4%  0.6063E-05  0.4354E-07   0.000      0.1402E-04   0.000      0.5120E-07   0.000    
    3864  0.4938      0.1097E-03 SOLID          1 -56.4%  0.6067E-05  0.4354E-07   0.000      0.1402E-04   0.000      0.5120E-07   0.000    
    3865  0.4940      0.1097E-03 SOLID          1 -56.4%  0.6071E-05  0.4353E-07   0.000      0.1403E-04   0.000      0.5120E-07   0.000    
    3866  0.4941      0.1097E-03 SOLID          1 -56.4%  0.6075E-05  0.4353E-07   0.000      0.1403E-04   0.000      0.5120E-07   0.000    
    3867  0.4942      0.1097E-03 SOLID          1 -56.4%  0.6079E-05  0.4352E-07   0.000      0.1404E-04   0.000      0.5120E-07   0.000    
    3868  0.4943      0.1097E-03 SOLID          1 -56.4%  0.6083E-05  0.4351E-07   0.000      0.1404E-04   0.000      0.5120E-07   0.000    
    3869  0.4944      0.1097E-03 SOLID          1 -56.4%  0.6087E-05  0.4351E-07   0.000      0.1405E-04   0.000      0.5120E-07   0.000    
    3870  0.4945      0.1097E-03 SOLID          1 -56.4%  0.6091E-05  0.4350E-07   0.000      0.1405E-04   0.000      0.5120E-07   0.000    
    3871  0.4946      0.1097E-03 SOLID          1 -56.3%  0.6095E-05  0.4349E-07   0.000      0.1406E-04   0.000      0.5120E-07   0.000    
    3872  0.4947      0.1097E-03 SOLID          1 -56.3%  0.6099E-05  0.4349E-07   0.000      0.1407E-04   0.000      0.5120E-07   0.000    
    3873  0.4948      0.1097E-03 SOLID          1 -56.3%  0.6103E-05  0.4348E-07   0.000      0.1407E-04   0.000      0.5120E-07   0.000    
    3874  0.4949      0.1097E-03 SOLID          1 -56.3%  0.6107E-05  0.4347E-07   0.000      0.1408E-04   0.000      0.5120E-07   0.000    
    3875  0.4951      0.1097E-03 SOLID          1 -56.3%  0.6111E-05  0.4347E-07   0.000      0.1408E-04   0.000      0.5120E-07   0.000    
    3876  0.4952      0.1097E-03 SOLID          1 -56.3%  0.6115E-05  0.4346E-07   0.000      0.1409E-04   0.000      0.5120E-07   0.000    
    3877  0.4953      0.1097E-03 SOLID          1 -56.3%  0.6119E-05  0.4345E-07   0.000      0.1409E-04   0.000      0.5120E-07   0.000    
    3878  0.4954      0.1097E-03 SOLID          1 -56.3%  0.6123E-05  0.4345E-07   0.000      0.1410E-04   0.000      0.5120E-07   0.000    
    3879  0.4955      0.1097E-03 SOLID          1 -56.3%  0.6127E-05  0.4344E-07   0.000      0.1410E-04   0.000      0.5120E-07   0.000    
    3880  0.4956      0.1097E-03 SOLID          1 -56.2%  0.6131E-05  0.4343E-07   0.000      0.1411E-04   0.000      0.5120E-07   0.000    
    3881  0.4957      0.1097E-03 SOLID          1 -56.2%  0.6135E-05  0.4343E-07   0.000      0.1412E-04   0.000      0.5120E-07   0.000    
    3882  0.4958      0.1096E-03 SOLID          1 -56.2%  0.6139E-05  0.4342E-07   0.000      0.1412E-04   0.000      0.5120E-07   0.000    
    3883  0.4959      0.1096E-03 SOLID          1 -56.2%  0.6143E-05  0.4341E-07   0.000      0.1413E-04   0.000      0.5120E-07   0.000    
    3884  0.4960      0.1096E-03 SOLID          1 -56.2%  0.6147E-05  0.4341E-07   0.000      0.1413E-04   0.000      0.5120E-07   0.000    
    3885  0.4961      0.1096E-03 SOLID          1 -56.2%  0.6151E-05  0.4340E-07   0.000      0.1414E-04   0.000      0.5120E-07   0.000    
    3886  0.4963      0.1096E-03 SOLID          1 -56.2%  0.6155E-05  0.4339E-07   0.000      0.1414E-04   0.000      0.5120E-07   0.000    
    3887  0.4964      0.1096E-03 SOLID          1 -56.2%  0.6159E-05  0.4339E-07   0.000      0.1415E-04   0.000      0.5120E-07   0.000    
    3888  0.4965      0.1096E-03 SOLID          1 -56.1%  0.6163E-05  0.4338E-07   0.000      0.1415E-04   0.000      0.5120E-07   0.000    
    3889  0.4966      0.1096E-03 SOLID          1 -56.1%  0.6167E-05  0.4337E-07   0.000      0.1416E-04   0.000      0.5120E-07   0.000    
    3890  0.4967      0.1096E-03 SOLID          1 -56.1%  0.6171E-05  0.4336E-07   0.000      0.1417E-04   0.000      0.5120E-07   0.000    
    3891  0.4968      0.1096E-03 SOLID          1 -56.1%  0.6175E-05  0.4336E-07   0.000      0.1417E-04   0.000      0.5120E-07   0.000    
    3892  0.4969      0.1096E-03 SOLID          1 -56.1%  0.6179E-05  0.4335E-07   0.000      0.1418E-04   0.000      0.5120E-07   0.000    
    3893  0.4970      0.1096E-03 SOLID          1 -56.1%  0.6183E-05  0.4334E-07   0.000      0.1418E-04   0.000      0.5120E-07   0.000    
    3894  0.4971      0.1096E-03 SOLID          1 -56.1%  0.6187E-05  0.4333E-07   0.000      0.1419E-04   0.000      0.5120E-07   0.000    
    3895  0.4972      0.1096E-03 SOLID          1 -56.1%  0.6192E-05  0.4333E-07   0.000      0.1419E-04   0.000      0.5120E-07   0.000    
    3896  0.4974      0.1096E-03 SOLID          1 -56.1%  0.6196E-05  0.4332E-07   0.000      0.1420E-04   0.000      0.5120E-07   0.000    
    3897  0.4975      0.1096E-03 SOLID          1 -56.0%  0.6200E-05  0.4331E-07   0.000      0.1420E-04   0.000      0.5120E-07   0.000    
    3898  0.4976      0.1096E-03 SOLID          1 -56.0%  0.6204E-05  0.4330E-07   0.000      0.1421E-04   0.000      0.5120E-07   0.000    
    3899  0.4977      0.1096E-03 SOLID          1 -56.0%  0.6208E-05  0.4330E-07   0.000      0.1421E-04   0.000      0.5120E-07   0.000    
    3900  0.4978      0.1096E-03 SOLID          1 -56.0%  0.6212E-05  0.4329E-07   0.000      0.1422E-04   0.000      0.5120E-07   0.000    
    3901  0.4979      0.1096E-03 SOLID          1 -56.0%  0.6216E-05  0.4328E-07   0.000      0.1423E-04   0.000      0.5120E-07   0.000    
    3902  0.4980      0.1096E-03 SOLID          1 -56.0%  0.6220E-05  0.4327E-07   0.000      0.1423E-04   0.000      0.5120E-07   0.000    
    3903  0.4981      0.1096E-03 SOLID          1 -56.0%  0.6224E-05  0.4326E-07   0.000      0.1424E-04   0.000      0.5120E-07   0.000    
    3904  0.4982      0.1096E-03 SOLID          1 -56.0%  0.6228E-05  0.4326E-07   0.000      0.1424E-04   0.000      0.5120E-07   0.000    
   CYCLE    TIME      TIME-STEP  ELEMENT          ERROR  I-ENERGY    K-ENERGY T  K-ENERGY R  EXT-WORK     MAS.ERR     TOTAL MASS  MASS ADDED
    3905  0.4983      0.1096E-03 SOLID          1 -56.0%  0.6232E-05  0.4325E-07   0.000      0.1425E-04   0.000      0.5120E-07   0.000    
    3906  0.4984      0.1096E-03 SOLID          1 -55.9%  0.6236E-05  0.4324E-07   0.000      0.1425E-04   0.000      0.5120E-07   0.000    
    3907  0.4986      0.1095E-03 SOLID          1 -55.9%  0.6240E-05  0.4323E-07   0.000      0.1426E-04   0.000      0.5120E-07   0.000    
    3908  0.4987      0.1095E-03 SOLID          1 -55.9%  0.6244E-05  0.4322E-07   0.000      0.1426E-04   0.000      0.5120E-07   0.000    
    3909  0.4988      0.1095E-03 SOLID          1 -55.9%  0.6249E-05  0.4322E-07   0.000      0.1427E-04   0.000      0.5120E-07   0.000    
    3910  0.4989      0.1095E-03 SOLID          1 -55.9%  0.6253E-05  0.4321E-07   0.000      0.1428E-04   0.000      0.5120E-07   0.000    
    3911  0.4990      0.1095E-03 SOLID          1 -55.9%  0.6257E-05  0.4320E-07   0.000      0.1428E-04   0.000      0.5120E-07   0.000    
    3912  0.4991      0.1095E-03 SOLID          1 -55.9%  0.6261E-05  0.4319E-07   0.000      0.1429E-04   0.000      0.5120E-07   0.000    
    3913  0.4992      0.1095E-03 SOLID          1 -55.9%  0.6265E-05  0.4318E-07   0.000      0.1429E-04   0.000      0.5120E-07   0.000    
    3914  0.4993      0.1095E-03 SOLID          1 -55.9%  0.6269E-05  0.4317E-07   0.000      0.1430E-04   0.000      0.5120E-07   0.000    
    3915  0.4994      0.1095E-03 SOLID          1 -55.8%  0.6273E-05  0.4317E-07   0.000      0.1430E-04   0.000      0.5120E-07   0.000    
    3916  0.4995      0.1095E-03 SOLID          1 -55.8%  0.6277E-05  0.4316E-07   0.000      0.1431E-04   0.000      0.5120E-07   0.000    
    3917  0.4997      0.1095E-03 SOLID          1 -55.8%  0.6281E-05  0.4315E-07   0.000      0.1431E-04   0.000      0.5120E-07   0.000    
    3918  0.4998      0.1095E-03 SOLID          1 -55.8%  0.6285E-05  0.4314E-07   0.000      0.1432E-04   0.000      0.5120E-07   0.000    
    3919  0.4999      0.1095E-03 SOLID          1 -55.8%  0.6290E-05  0.4313E-07   0.000      0.1433E-04   0.000      0.5120E-07   0.000    
    3920  0.5000      0.1095E-03 SOLID          1 -55.8%  0.6294E-05  0.4312E-07   0.000      0.1433E-04   0.000      0.5120E-07   0.000    

     RESTART FILES: M50B_0001_[0001-0004].rst WRITTEN
     -------------

    3921  0.5001      0.1095E-03 SOLID          1 -55.8%  0.6298E-05  0.4311E-07   0.000      0.1434E-04   0.000      0.5120E-07   0.000    
     ANIMATION FILE: M50BA011 WRITTEN
  
                           ** CPU USER TIME **
  
  
                        ** SUMMARY **
  
 #PROC  ELEMENT   KINCOND   INTEG     IO        T0        ASM       RESOL    
   1   .1337E+00 .8013E-01 .5287E-01 .5708E+00 .1794E+00 .2813E-01 .1349E+01
   2   .5678E-01 .5908E-01 .5040E-01 .2891E+00 .6780E+00 .2612E-01 .1480E+01
   3   .5663E-01 .6093E-01 .5143E-01 .2680E+00 .6670E+00 .2702E-01 .1453E+01
   4   .5596E-01 .5873E-01 .5051E-01 .2893E+00 .6826E+00 .2575E-01 .1479E+01
  
                 ** SPMD COM. TIME **
  
 #PROC  FORCES    RBYFOR    RBYVEL    VEL       TOT       %        
   1   .1661E-01 .0000E+00 .0000E+00 .1870E-01 .3531E-01 .2617E+01
   2   .1633E-01 .0000E+00 .0000E+00 .1707E-01 .3340E-01 .2257E+01
   3   .1677E-01 .0000E+00 .0000E+00 .1793E-01 .3470E-01 .2388E+01
   4   .1666E-01 .0000E+00 .0000E+00 .1701E-01 .3367E-01 .2277E+01
  
 
                   ** CUMULATIVE CPU TIME SUMMARY **
  
 CONTACT SORTING.............: .0000E+00     0.00 % 
 CONTACT FORCES..............: .2427E-01     0.42 % 
 ELEMENT FORCES..............: .3031E+00     5.26 % 
 KINEMATIC COND..............: .2589E+00     4.49 % 
 INTEGRATION.................: .2052E+00     3.56 % 
 ASSEMBLING..................: .1070E+00     1.86 % 
 OTHERS (including I/O)......: .4862E+01    84.40 % 
 TOTAL.......................: .5761E+01   100.00 % 
  
  
                           ** ELAPSED TIME **
  
  
                        ** SUMMARY **
  
 #PROC  ELEMENT   KINCOND   INTEG     IO        T0        ASM       RESOL    
   1   .8199E-01 .4982E-01 .3246E-01 .3749E+00 .1104E+00 .1735E-01 .8509E+00
   2   .3278E-01 .3462E-01 .2924E-01 .1693E+00 .3874E+00 .1517E-01 .8533E+00
   3   .3324E-01 .3633E-01 .3024E-01 .1600E+00 .3877E+00 .1577E-01 .8518E+00
   4   .3234E-01 .3429E-01 .2920E-01 .1697E+00 .3902E+00 .1490E-01 .8533E+00
  
        ELEMENT   KINCOND   INTEG     IO        T0        ASM       RESOL    
 MIN   .3234E-01 .3429E-01 .2920E-01 .1600E+00 .1104E+00 .1490E-01 .8509E+00
 MAX   .8199E-01 .4982E-01 .3246E-01 .3749E+00 .3902E+00 .1735E-01 .8533E+00
 AVG   .4509E-01 .3877E-01 .3028E-01 .2185E+00 .3189E+00 .1580E-01 .8523E+00
  
                 ** SPMD COM. TIME **
  
 #PROC  FORCES    RBYFOR    RBYVEL    VEL       TOT       %        
   1   .1039E-01 .0000E+00 .0000E+00 .1163E-01 .2202E-01 .2588E+01
   2   .9392E-02 .0000E+00 .0000E+00 .9977E-02 .1937E-01 .2270E+01
   3   .9835E-02 .0000E+00 .0000E+00 .1060E-01 .2043E-01 .2399E+01
   4   .9569E-02 .0000E+00 .0000E+00 .9903E-02 .1947E-01 .2282E+01
  
        FORCES    RBYFOR    RBYVEL    VEL       TOT       %        
 MIN   .9392E-02 .0000E+00 .0000E+00 .9903E-02 .1937E-01 .2270E+01
 MAX   .1039E-01 .0000E+00 .0000E+00 .1163E-01 .2202E-01 .2588E+01
 AVG   .9797E-02 .0000E+00 .0000E+00 .1053E-01 .2032E-01 .2385E+01
  
                   ** MEMORY USAGE STATISTICS **
  
 TOTAL MEMORY USED .........................:      228 MB
 MAXIMUM MEMORY PER PROCESSOR...............:       57 MB
 MINIMUM MEMORY PER PROCESSOR...............:       57 MB
 AVERAGE MEMORY PER PROCESSOR...............:       57 MB
  
                   ** DISK USAGE STATISTICS **
  
 TOTAL DISK SPACE USED .....................:          1 MB
 ANIMATION/H3D/TH/OUTP SIZE ................:          0 MB
 RESTART FILE SIZE .........................:          1 MB
  
                   ** COMPUTE TIME INFORMATION **
                        ** CURRENT ENGINE **
  
 EXECUTION STARTED .........................:      2022/11/23  16:22:09
 EXECUTION COMPLETED .......................:      2022/11/23  16:22:10
  
 ELAPSED TIME     =          0.95 s
                          0:00:00
 ESTIMATED SPEEDUP=          6.06



     NORMAL TERMINATION      



     TOTAL NUMBER OF CYCLES  :    3922

  
                   ** COMPUTE RUNTIME INFORMATION SUMMARY **
  
        STARTER RUNTIME =          0.61s (00:00:00)
 # 001   ENGINE RUNTIME =          0.95s (00:00:00)
 ------------------------------ 
 STARTER+ENGINE RUNTIME =          1.57s (00:00:01)
  
