 DAMPC_0001.out
************************************************************************
**                                                                    **
**                                                                    **
**                         OpenRadioss Engine                         **
**                                                                    **
**            Non-linear Finite Element Analysis Software             **
**                                                                    **
**                                                                    **
**                                                                    **
**                Linux 64 bits, GNU compiler, OpenMPI                **
**                                                                    **
**                                                                    **
**                                                                    **
** CommitID: 440deeba848d606665f88afb8302e85b1ecf72bf                 **
************************************************************************
** OpenRadioss Software                                               **
** COPYRIGHT (C) 1986-2022 Altair Engineering, Inc.                   **
** Licensed under GNU Affero General Public License.                  **
** See License file.                                                  **
************************************************************************
 
 NUMBER OF SPMD DOMAINS           4
 NUMBER OF THREADS PER DOMAIN     2
 NUMBER OF HMPP PROCESSES         8
  
 COMPUTATION HARDWARE DESCRIPTION
  
 CPU#  HOSTNAME     CPU TYPE, FREQUENCY AND MEMORY
   1   fr-shady.europe.altair.com   Intel(R) Xeon(R) CPU           X5680  @ 3.33GHz (x86_64), 1596 MHz,  20012 MB RAM,  49126 MB swap
   2   fr-shady.europe.altair.com   Intel(R) Xeon(R) CPU           X5680  @ 3.33GHz (x86_64), 1596 MHz,  20012 MB RAM,  49126 MB swap
   3   fr-shady.europe.altair.com   Intel(R) Xeon(R) CPU           X5680  @ 3.33GHz (x86_64), 1596 MHz,  20012 MB RAM,  49126 MB swap
   4   fr-shady.europe.altair.com   Intel(R) Xeon(R) CPU           X5680  @ 3.33GHz (x86_64), 1596 MHz,  20012 MB RAM,  49126 MB swap
  
************************************************************************


 DAMPCD01                                                                        


 FINAL TIME . . . . . . . . . . . . . . . . . . .   2.100000    

 TIME INTERVAL FOR TIME HISTORY PLOTS . . . . . .   0.000000    

 TIME STEP SCALE FACTOR . . . . . . . . . . . . .  0.1000000    

 MINIMUM TIME STEP  . . . . . . . . . . . . . . .   0.000000    


 BRICK TIME STEP SCALE FACTOR . . . . . . . . . .  0.1000000    
 BRICK MINIMUM TIME STEP. . . . . . . . . . . . .   0.000000    
 MIN. TIME STEP FLAG (1:STOP RUN, 2:DELETE BRICK)     1

 QUAD TIME STEP SCALE FACTOR. . . . . . . . . . .  0.1000000    
 QUAD MINIMUM TIME STEP . . . . . . . . . . . . .   0.000000    
 MIN. TIME STEP FLAG (1:STOP RUN, 2:DELETE QUAD).     1

 SHELL TIME STEP SCALE FACTOR . . . . . . . . . .  0.1000000    
 SHELL MINIMUM TIME STEP. . . . . . . . . . . . .   0.000000    
 MIN. TIME FLAG (1:STOP, 2:DELETE, 3:SMALL STRAIN)    2

 TRUSS TIME STEP SCALE FACTOR . . . . . . . . . .  0.1000000    
 TRUSS MINIMUM TIME STEP. . . . . . . . . . . . .   0.000000    
 MIN. TIME FLAG (1:STOP, 2:DELETE). . . . . . . .     0

 BEAM TIME STEP SCALE FACTOR. . . . . . . . . . .  0.1000000    
 BEAM MINIMUM TIME STEP . . . . . . . . . . . . .   0.000000    
 MIN. TIME FLAG (1:STOP, 2:DELETE). . . . . . . .     0

 SPRING TIME STEP SCALE FACTOR. . . . . . . . . .  0.1000000    
 SPRING MINIMUM TIME STEP . . . . . . . . . . . .   0.000000    
 MIN. TIME FLAG (1:STOP, 2:DELETE). . . . . . . .     0

 AIRBAG TIME STEP SCALE FACTOR. . . . . . . . . .  0.1000000    
 AIRBAG MINIMUM TIME STEP . . . . . . . . . . . .   0.000000    
 MIN. TIME FLAG (1:STOP). . . . . . . . . . . . .     0

 CONTACT TIME STEP SCALE FACTOR . . . . . . . . .  0.1000000    
 CONTACT MINIMUM TIME STEP. . . . . . . . . . . .   0.000000    
 MIN. TIME FLAG(1:STOP, 2:REMOVE NODE FROM INTERF)    0

 PRINTOUT CYCLE FREQUENCY . . . . . . . . . . . .    -1

 RESTART CYCLE FREQUENCY. . . . . . . . . . . . .        100

 MAXIMUM RESTART WRITE BEFORE OVERWRITE . . . . .     0

 INVERS: INPUT DECK VERSION . . . . . . . . . . .  2019
 ITTYP : FLAG FOR TYPE OF T-FILE. . . . . . . . .     4


 TIME FOR FIRST ANIMATION-FILE PLOT . . . . . . .   0.000000    
 TIME INTERVAL FOR ANIMATION-FILE PLOTS . . . . .   1.000000    
 SENSOR FOR ANIMATION-FILE PLOTS. . . . . . . . .          0
 TIME INTERVAL FOR SENSOR ANIMATION-FILE PLOTS. .   0.000000    

 VARIABLE SAVED ON ANIMATION FILES (1: YES) :
      PLASTIC STRAIN. . . . . .     0
      DENSITY     (SOLID ONLY).     0
      SPECIFIC ENERGY . . . . .     0
      HOURGLASS ENERGY. . . . .     0
      TEMPERATURE (SOLID ONLY).     0
      THICKNESS   (SHELL ONLY).     0
      PRESSURE    (SOLID ONLY).     0
      VON MISES . . . . . . . .     0
      TURBULENT ENERGY (FLUID).     0
      TURBULENT VISCOSITY(FLUID)    0
      VORTICITY (FLUID) . . . .     0
 NODAL VALUES SAVED ON ANIMATION FILES (1: YES) :
      PRESSURE. . . . . . . . .     0
      DENSITY . . . . . . . . .     0
      TEMPERATURE . . . . . . .     0
 VECTOR SAVED ON ANIMATION FILES (1: YES) :
      VELOCITY VECTOR . . . . .     1
      DISPLACEMENT VECTOR . . .     0
      ACCELERATION VECTOR . . .     0
      CONTACT FORCES. . . . . .     0
      INTERNAL FORCES . . . . .     1
      EXTERNAL FORCES . . . . .     0
      SECTION RBY RWALL FORCES.     0
      ROTATIONAL VELOCITY VECTOR    0
      CONTACT PRESSURE (VECTORS)    0
 SHELL TENSOR SAVED ON ANIMATION FILES (1: YES) :
      MEMBRANE STRESS . . . . .     0
      BENDING STRESS(MOMENT/T^2)    0
      UPPER LAYER STRESS. . . .     0
      LOWER LAYER STRESS. . . .     0
      MEMBRANE STRAIN . . . . .     0
      CURVATURE . . . . . . . .     0
      UPPER LAYER STRAIN. . . .     0
      LOWER LAYER STRAIN. . . .     0
 NODAL MASS SAVED ON ANIMATION FILES (1: YES) :    0
 KEEP DELETED ELEMENT (1: YES) :    0


 INITIAL TIME STEP. . . . . . . . . . . . . . . .   0.000000    
 MAXIMUM TIME STEP. . . . . . . . . . . . . . . .  0.1000000E+31

 PARALLEL ARITHMETIC ON
 NUMBER OF INTERFACES TO BE ELIMINATED. . . . . .        0

 NUMBER OF SOLID  ELEMENT BLOCKS TO BE ELIMINATED        0

 NUMBER OF QUAD   ELEMENT BLOCKS TO BE ELIMINATED        0

 NUMBER OF SHELL  ELEMENT BLOCKS TO BE ELIMINATED        0

 NUMBER OF TRUSS  ELEMENT BLOCKS TO BE ELIMINATED        0

 NUMBER OF BEAM   ELEMENT BLOCKS TO BE ELIMINATED        0

 NUMBER OF SPRING ELEMENT BLOCKS TO BE ELIMINATED        0

 NUMBER OF SH_3N  ELEMENT BLOCKS TO BE ELIMINATED        0

 NUMBER OF  SPH PARTICLES BLOCKS TO BE ELIMINATED        0

 NUMBER OF RIGID LINKS. . . . . . . . . . . . . .        0

 NUMBER OF NEW BOUNDARY CONDITIONS. . . . . . . .        0

 RAYLEIGH DAMPING
  NUMBER OF NEW DAMPING PARAMETERS. . . . . . =       1

DAMPING ID . . . . . . . . . . . . .         1
     ALPHA. . . . . . . . . . . . . .  40.00000000000    
     BETA . . . . . . . . . . . . . .  0.000000000000    
     MAX TIME STEP FACTOR . . . . . .  1.000000000000    

 23/11/2022
   CYCLE    TIME      TIME-STEP  ELEMENT          ERROR  I-ENERGY    K-ENERGY T  K-ENERGY R  EXT-WORK     MAS.ERR     TOTAL MASS  MASS ADDED
       0   0.000      0.6141E-02 SPRIN         12   0.0%   0.000       0.000       0.000       0.000       0.000       100.0       0.000    
     ANIMATION FILE: DAMPCA001 WRITTEN
       1  0.6141E-02  0.6141E-02 SPRIN         12  29.0%  0.5690E-05  0.1188E-02   0.000      0.9252E-03   0.000       100.0       0.000    
       2  0.1228E-01  0.6141E-02 SPRIN         12  28.4%  0.7140E-04  0.3712E-02   0.000      0.2947E-02   0.000       100.0       0.000    
       3  0.1842E-01  0.6141E-02 SPRIN         12  27.3%  0.2981E-03  0.6527E-02   0.000      0.5360E-02   0.000       100.0       0.000    
       4  0.2457E-01  0.6141E-02 SPRIN         12  25.9%  0.7872E-03  0.9075E-02   0.000      0.7832E-02   0.000       100.0       0.000    
       5  0.3071E-01  0.6141E-02 SPRIN         12  24.1%  0.1614E-02  0.1110E-01   0.000      0.1024E-01   0.000       100.0       0.000    
       6  0.3685E-01  0.6141E-02 SPRIN         12  22.1%  0.2818E-02  0.1253E-01   0.000      0.1257E-01   0.000       100.0       0.000    
       7  0.4299E-01  0.6141E-02 SPRIN         12  19.9%  0.4405E-02  0.1341E-01   0.000      0.1485E-01   0.000       100.0       0.000    
       8  0.4913E-01  0.6141E-02 SPRIN         12  17.7%  0.6350E-02  0.1380E-01   0.000      0.1712E-01   0.000       100.0       0.000    
       9  0.5527E-01  0.6141E-02 SPRIN         12  15.5%  0.8607E-02  0.1382E-01   0.000      0.1942E-01   0.000       100.0       0.000    
      10  0.6141E-01  0.6141E-02 SPRIN         12  13.5%  0.1112E-01  0.1357E-01   0.000      0.2174E-01   0.000       100.0       0.000    
      11  0.6756E-01  0.6141E-02 SPRIN         12  11.7%  0.1381E-01  0.1312E-01   0.000      0.2412E-01   0.000       100.0       0.000    
      12  0.7370E-01  0.6141E-02 SPRIN         12  10.1%  0.1663E-01  0.1257E-01   0.000      0.2652E-01   0.000       100.0       0.000    
      13  0.7984E-01  0.6141E-02 SPRIN         12   8.7%  0.1951E-01  0.1196E-01   0.000      0.2894E-01   0.000       100.0       0.000    
      14  0.8598E-01  0.6141E-02 SPRIN         12   7.6%  0.2240E-01  0.1133E-01   0.000      0.3136E-01   0.000       100.0       0.000    
      15  0.9212E-01  0.6141E-02 SPRIN         12   6.6%  0.2525E-01  0.1073E-01   0.000      0.3375E-01   0.000       100.0       0.000    
      16  0.9826E-01  0.6141E-02 SPRIN         12   5.8%  0.2803E-01  0.1015E-01   0.000      0.3609E-01   0.000       100.0       0.000    
      17  0.1044      0.6141E-02 SPRIN         12   5.1%  0.3071E-01  0.9623E-02   0.000      0.3837E-01   0.000       100.0       0.000    
      18  0.1105      0.6141E-02 SPRIN         12   4.6%  0.3326E-01  0.9141E-02   0.000      0.4056E-01   0.000       100.0       0.000    
      19  0.1167      0.6141E-02 SPRIN         12   4.1%  0.3569E-01  0.8707E-02   0.000      0.4266E-01   0.000       100.0       0.000    
      20  0.1228      0.6141E-02 SPRIN         12   3.7%  0.3798E-01  0.8319E-02   0.000      0.4465E-01   0.000       100.0       0.000    
      21  0.1290      0.6141E-02 SPRIN         12   3.4%  0.4014E-01  0.7973E-02   0.000      0.4655E-01   0.000       100.0       0.000    
      22  0.1351      0.6141E-02 SPRIN         12   3.1%  0.4216E-01  0.7664E-02   0.000      0.4834E-01   0.000       100.0       0.000    
      23  0.1413      0.6141E-02 SPRIN         12   2.8%  0.4406E-01  0.7388E-02   0.000      0.5002E-01   0.000       100.0       0.000    
      24  0.1474      0.6141E-02 SPRIN         12   2.6%  0.4584E-01  0.7140E-02   0.000      0.5162E-01   0.000       100.0       0.000    
      25  0.1535      0.6141E-02 SPRIN         12   2.5%  0.4752E-01  0.6916E-02   0.000      0.5312E-01   0.000       100.0       0.000    
      26  0.1597      0.6141E-02 SPRIN         12   2.3%  0.4910E-01  0.6712E-02   0.000      0.5455E-01   0.000       100.0       0.000    
      27  0.1658      0.6141E-02 SPRIN         12   2.2%  0.5059E-01  0.6527E-02   0.000      0.5590E-01   0.000       100.0       0.000    
      28  0.1720      0.6141E-02 SPRIN         12   2.1%  0.5200E-01  0.6356E-02   0.000      0.5718E-01   0.000       100.0       0.000    
      29  0.1781      0.6141E-02 SPRIN         12   1.9%  0.5334E-01  0.6199E-02   0.000      0.5840E-01   0.000       100.0       0.000    
      30  0.1842      0.6141E-02 SPRIN         12   1.8%  0.5463E-01  0.6053E-02   0.000      0.5958E-01   0.000       100.0       0.000    
      31  0.1904      0.6141E-02 SPRIN         12   1.8%  0.5586E-01  0.5917E-02   0.000      0.6071E-01   0.000       100.0       0.000    
      32  0.1965      0.6141E-02 SPRIN         12   1.7%  0.5704E-01  0.5790E-02   0.000      0.6180E-01   0.000       100.0       0.000    
      33  0.2027      0.6141E-02 SPRIN         12   1.6%  0.5819E-01  0.5670E-02   0.000      0.6285E-01   0.000       100.0       0.000    
      34  0.2088      0.6141E-02 SPRIN         12   1.5%  0.5930E-01  0.5558E-02   0.000      0.6388E-01   0.000       100.0       0.000    
      35  0.2149      0.6141E-02 SPRIN         12   1.5%  0.6039E-01  0.5452E-02   0.000      0.6489E-01   0.000       100.0       0.000    
      36  0.2211      0.6141E-02 SPRIN         12   1.4%  0.6145E-01  0.5352E-02   0.000      0.6587E-01   0.000       100.0       0.000    
      37  0.2272      0.6141E-02 SPRIN         12   1.4%  0.6249E-01  0.5257E-02   0.000      0.6683E-01   0.000       100.0       0.000    
      38  0.2334      0.6141E-02 SPRIN         12   1.3%  0.6350E-01  0.5168E-02   0.000      0.6779E-01   0.000       100.0       0.000    
      39  0.2395      0.6141E-02 SPRIN         12   1.3%  0.6451E-01  0.5083E-02   0.000      0.6872E-01   0.000       100.0       0.000    
      40  0.2457      0.6141E-02 SPRIN         12   1.2%  0.6549E-01  0.5001E-02   0.000      0.6965E-01   0.000       100.0       0.000    
      41  0.2518      0.6141E-02 SPRIN         12   1.2%  0.6647E-01  0.4924E-02   0.000      0.7056E-01   0.000       100.0       0.000    
      42  0.2579      0.6141E-02 SPRIN         12   1.1%  0.6743E-01  0.4851E-02   0.000      0.7147E-01   0.000       100.0       0.000    
      43  0.2641      0.6141E-02 SPRIN         12   1.1%  0.6838E-01  0.4780E-02   0.000      0.7237E-01   0.000       100.0       0.000    
      44  0.2702      0.6141E-02 SPRIN         12   1.1%  0.6932E-01  0.4713E-02   0.000      0.7326E-01   0.000       100.0       0.000    
      45  0.2764      0.6141E-02 SPRIN         12   1.0%  0.7025E-01  0.4649E-02   0.000      0.7414E-01   0.000       100.0       0.000    
      46  0.2825      0.6141E-02 SPRIN         12   1.0%  0.7117E-01  0.4587E-02   0.000      0.7501E-01   0.000       100.0       0.000    
      47  0.2886      0.6141E-02 SPRIN         12   1.0%  0.7208E-01  0.4527E-02   0.000      0.7588E-01   0.000       100.0       0.000    
      48  0.2948      0.6141E-02 SPRIN         12   0.9%  0.7299E-01  0.4470E-02   0.000      0.7674E-01   0.000       100.0       0.000    
      49  0.3009      0.6141E-02 SPRIN         12   0.9%  0.7388E-01  0.4416E-02   0.000      0.7759E-01   0.000       100.0       0.000    
      50  0.3071      0.6141E-02 SPRIN         12   0.9%  0.7477E-01  0.4363E-02   0.000      0.7844E-01   0.000       100.0       0.000    
      51  0.3132      0.6141E-02 SPRIN         12   0.9%  0.7565E-01  0.4312E-02   0.000      0.7928E-01   0.000       100.0       0.000    
      52  0.3194      0.6141E-02 SPRIN         12   0.8%  0.7652E-01  0.4263E-02   0.000      0.8011E-01   0.000       100.0       0.000    
      53  0.3255      0.6141E-02 SPRIN         12   0.8%  0.7738E-01  0.4215E-02   0.000      0.8094E-01   0.000       100.0       0.000    
      54  0.3316      0.6141E-02 SPRIN         12   0.8%  0.7824E-01  0.4169E-02   0.000      0.8176E-01   0.000       100.0       0.000    
   CYCLE    TIME      TIME-STEP  ELEMENT          ERROR  I-ENERGY    K-ENERGY T  K-ENERGY R  EXT-WORK     MAS.ERR     TOTAL MASS  MASS ADDED
      55  0.3378      0.6141E-02 SPRIN         12   0.8%  0.7908E-01  0.4125E-02   0.000      0.8257E-01   0.000       100.0       0.000    
      56  0.3439      0.6141E-02 SPRIN         12   0.7%  0.7992E-01  0.4082E-02   0.000      0.8338E-01   0.000       100.0       0.000    
      57  0.3501      0.6141E-02 SPRIN         12   0.7%  0.8075E-01  0.4040E-02   0.000      0.8418E-01   0.000       100.0       0.000    
      58  0.3562      0.6141E-02 SPRIN         12   0.7%  0.8158E-01  0.4000E-02   0.000      0.8497E-01   0.000       100.0       0.000    
      59  0.3623      0.6141E-02 SPRIN         12   0.7%  0.8239E-01  0.3960E-02   0.000      0.8576E-01   0.000       100.0       0.000    
      60  0.3685      0.6141E-02 SPRIN         12   0.7%  0.8320E-01  0.3922E-02   0.000      0.8654E-01   0.000       100.0       0.000    
      61  0.3746      0.6141E-02 SPRIN         12   0.7%  0.8400E-01  0.3885E-02   0.000      0.8731E-01   0.000       100.0       0.000    
      62  0.3808      0.6141E-02 SPRIN         12   0.6%  0.8479E-01  0.3849E-02   0.000      0.8808E-01   0.000       100.0       0.000    
      63  0.3869      0.6141E-02 SPRIN         12   0.6%  0.8558E-01  0.3815E-02   0.000      0.8884E-01   0.000       100.0       0.000    
      64  0.3931      0.6141E-02 SPRIN         12   0.6%  0.8636E-01  0.3781E-02   0.000      0.8959E-01   0.000       100.0       0.000    
      65  0.3992      0.6141E-02 SPRIN         12   0.6%  0.8713E-01  0.3747E-02   0.000      0.9034E-01   0.000       100.0       0.000    
      66  0.4053      0.6141E-02 SPRIN         12   0.6%  0.8790E-01  0.3715E-02   0.000      0.9108E-01   0.000       100.0       0.000    
      67  0.4115      0.6141E-02 SPRIN         12   0.6%  0.8866E-01  0.3684E-02   0.000      0.9181E-01   0.000       100.0       0.000    
      68  0.4176      0.6141E-02 SPRIN         12   0.6%  0.8941E-01  0.3653E-02   0.000      0.9254E-01   0.000       100.0       0.000    
      69  0.4238      0.6141E-02 SPRIN         12   0.5%  0.9016E-01  0.3623E-02   0.000      0.9327E-01   0.000       100.0       0.000    
      70  0.4299      0.6141E-02 SPRIN         12   0.5%  0.9090E-01  0.3594E-02   0.000      0.9399E-01   0.000       100.0       0.000    
      71  0.4360      0.6141E-02 SPRIN         12   0.5%  0.9163E-01  0.3566E-02   0.000      0.9470E-01   0.000       100.0       0.000    
      72  0.4422      0.6141E-02 SPRIN         12   0.5%  0.9236E-01  0.3538E-02   0.000      0.9541E-01   0.000       100.0       0.000    
      73  0.4483      0.6141E-02 SPRIN         12   0.5%  0.9308E-01  0.3511E-02   0.000      0.9611E-01   0.000       100.0       0.000    
      74  0.4545      0.6141E-02 SPRIN         12   0.5%  0.9380E-01  0.3484E-02   0.000      0.9681E-01   0.000       100.0       0.000    
      75  0.4606      0.6141E-02 SPRIN         12   0.5%  0.9451E-01  0.3458E-02   0.000      0.9750E-01   0.000       100.0       0.000    
      76  0.4667      0.6141E-02 SPRIN         12   0.5%  0.9522E-01  0.3433E-02   0.000      0.9818E-01   0.000       100.0       0.000    
      77  0.4729      0.6141E-02 SPRIN         12   0.5%  0.9592E-01  0.3408E-02   0.000      0.9887E-01   0.000       100.0       0.000    
      78  0.4790      0.6141E-02 SPRIN         12   0.5%  0.9661E-01  0.3384E-02   0.000      0.9954E-01   0.000       100.0       0.000    
      79  0.4852      0.6141E-02 SPRIN         12   0.4%  0.9730E-01  0.3360E-02   0.000      0.1002       0.000       100.0       0.000    
      80  0.4913      0.6141E-02 SPRIN         12   0.4%  0.9799E-01  0.3337E-02   0.000      0.1009       0.000       100.0       0.000    
      81  0.4975      0.6141E-02 SPRIN         12   0.4%  0.9867E-01  0.3314E-02   0.000      0.1016       0.000       100.0       0.000    
      82  0.5036      0.6141E-02 SPRIN         12   0.4%  0.9935E-01  0.3292E-02   0.000      0.1022       0.000       100.0       0.000    
      83  0.5097      0.6141E-02 SPRIN         12   0.4%  0.1000      0.3270E-02   0.000      0.1029       0.000       100.0       0.000    
      84  0.5159      0.6141E-02 SPRIN         12   0.4%  0.1007      0.3249E-02   0.000      0.1035       0.000       100.0       0.000    
      85  0.5220      0.6141E-02 SPRIN         12   0.4%  0.1014      0.3227E-02   0.000      0.1042       0.000       100.0       0.000    
      86  0.5282      0.6141E-02 SPRIN         12   0.4%  0.1020      0.3207E-02   0.000      0.1048       0.000       100.0       0.000    
      87  0.5343      0.6141E-02 SPRIN         12   0.4%  0.1027      0.3187E-02   0.000      0.1054       0.000       100.0       0.000    
      88  0.5404      0.6141E-02 SPRIN         12   0.4%  0.1033      0.3167E-02   0.000      0.1061       0.000       100.0       0.000    
      89  0.5466      0.6141E-02 SPRIN         12   0.4%  0.1040      0.3147E-02   0.000      0.1067       0.000       100.0       0.000    
      90  0.5527      0.6141E-02 SPRIN         12   0.4%  0.1046      0.3128E-02   0.000      0.1073       0.000       100.0       0.000    
      91  0.5589      0.6141E-02 SPRIN         12   0.4%  0.1052      0.3109E-02   0.000      0.1080       0.000       100.0       0.000    
      92  0.5650      0.6141E-02 SPRIN         12   0.4%  0.1059      0.3091E-02   0.000      0.1086       0.000       100.0       0.000    
      93  0.5712      0.6141E-02 SPRIN         12   0.3%  0.1065      0.3073E-02   0.000      0.1092       0.000       100.0       0.000    
      94  0.5773      0.6141E-02 SPRIN         12   0.3%  0.1071      0.3055E-02   0.000      0.1098       0.000       100.0       0.000    
      95  0.5834      0.6141E-02 SPRIN         12   0.3%  0.1078      0.3038E-02   0.000      0.1104       0.000       100.0       0.000    
      96  0.5896      0.6141E-02 SPRIN         12   0.3%  0.1084      0.3020E-02   0.000      0.1110       0.000       100.0       0.000    
      97  0.5957      0.6141E-02 SPRIN         12   0.3%  0.1090      0.3004E-02   0.000      0.1116       0.000       100.0       0.000    
      98  0.6019      0.6141E-02 SPRIN         12   0.3%  0.1096      0.2987E-02   0.000      0.1122       0.000       100.0       0.000    
      99  0.6080      0.6141E-02 SPRIN         12   0.3%  0.1102      0.2971E-02   0.000      0.1128       0.000       100.0       0.000    

     RESTART FILES: DAMPC_0001_[0001-0004].rst WRITTEN
     -------------

     100  0.6141      0.6141E-02 SPRIN         12   0.3%  0.1108      0.2954E-02   0.000      0.1134       0.000       100.0       0.000    
     101  0.6203      0.6141E-02 SPRIN         12   0.3%  0.1114      0.2939E-02   0.000      0.1140       0.000       100.0       0.000    
     102  0.6264      0.6141E-02 SPRIN         12   0.3%  0.1120      0.2923E-02   0.000      0.1146       0.000       100.0       0.000    
     103  0.6326      0.6141E-02 SPRIN         12   0.3%  0.1126      0.2908E-02   0.000      0.1152       0.000       100.0       0.000    
     104  0.6387      0.6141E-02 SPRIN         12   0.3%  0.1132      0.2893E-02   0.000      0.1158       0.000       100.0       0.000    
     105  0.6448      0.6141E-02 SPRIN         12   0.3%  0.1138      0.2878E-02   0.000      0.1164       0.000       100.0       0.000    
     106  0.6510      0.6141E-02 SPRIN         12   0.3%  0.1144      0.2863E-02   0.000      0.1169       0.000       100.0       0.000    
     107  0.6571      0.6141E-02 SPRIN         12   0.3%  0.1150      0.2849E-02   0.000      0.1175       0.000       100.0       0.000    
     108  0.6633      0.6141E-02 SPRIN         12   0.3%  0.1156      0.2835E-02   0.000      0.1181       0.000       100.0       0.000    
     109  0.6694      0.6141E-02 SPRIN         12   0.3%  0.1161      0.2821E-02   0.000      0.1186       0.000       100.0       0.000    
   CYCLE    TIME      TIME-STEP  ELEMENT          ERROR  I-ENERGY    K-ENERGY T  K-ENERGY R  EXT-WORK     MAS.ERR     TOTAL MASS  MASS ADDED
     110  0.6756      0.6141E-02 SPRIN         12   0.3%  0.1167      0.2807E-02   0.000      0.1192       0.000       100.0       0.000    
     111  0.6817      0.6141E-02 SPRIN         12   0.3%  0.1173      0.2793E-02   0.000      0.1198       0.000       100.0       0.000    
     112  0.6878      0.6141E-02 SPRIN         12   0.3%  0.1179      0.2780E-02   0.000      0.1203       0.000       100.0       0.000    
     113  0.6940      0.6141E-02 SPRIN         12   0.2%  0.1184      0.2767E-02   0.000      0.1209       0.000       100.0       0.000    
     114  0.7001      0.6141E-02 SPRIN         12   0.2%  0.1190      0.2754E-02   0.000      0.1215       0.000       100.0       0.000    
     115  0.7063      0.6141E-02 SPRIN         12   0.2%  0.1196      0.2741E-02   0.000      0.1220       0.000       100.0       0.000    
     116  0.7124      0.6141E-02 SPRIN         12   0.2%  0.1201      0.2728E-02   0.000      0.1226       0.000       100.0       0.000    
     117  0.7185      0.6141E-02 SPRIN         12   0.2%  0.1207      0.2716E-02   0.000      0.1231       0.000       100.0       0.000    
     118  0.7247      0.6141E-02 SPRIN         12   0.2%  0.1212      0.2703E-02   0.000      0.1236       0.000       100.0       0.000    
     119  0.7308      0.6141E-02 SPRIN         12   0.2%  0.1218      0.2691E-02   0.000      0.1242       0.000       100.0       0.000    
     120  0.7370      0.6141E-02 SPRIN         12   0.2%  0.1223      0.2679E-02   0.000      0.1247       0.000       100.0       0.000    
     121  0.7431      0.6141E-02 SPRIN         12   0.2%  0.1229      0.2668E-02   0.000      0.1253       0.000       100.0       0.000    
     122  0.7493      0.6141E-02 SPRIN         12   0.2%  0.1234      0.2656E-02   0.000      0.1258       0.000       100.0       0.000    
     123  0.7554      0.6141E-02 SPRIN         12   0.2%  0.1240      0.2644E-02   0.000      0.1263       0.000       100.0       0.000    
     124  0.7615      0.6141E-02 SPRIN         12   0.2%  0.1245      0.2633E-02   0.000      0.1269       0.000       100.0       0.000    
     125  0.7677      0.6141E-02 SPRIN         12   0.2%  0.1250      0.2622E-02   0.000      0.1274       0.000       100.0       0.000    
     126  0.7738      0.6141E-02 SPRIN         12   0.2%  0.1256      0.2611E-02   0.000      0.1279       0.000       100.0       0.000    
     127  0.7800      0.6141E-02 SPRIN         12   0.2%  0.1261      0.2600E-02   0.000      0.1284       0.000       100.0       0.000    
     128  0.7861      0.6141E-02 SPRIN         12   0.2%  0.1266      0.2589E-02   0.000      0.1290       0.000       100.0       0.000    
     129  0.7922      0.6141E-02 SPRIN         12   0.2%  0.1272      0.2578E-02   0.000      0.1295       0.000       100.0       0.000    
     130  0.7984      0.6141E-02 SPRIN         12   0.2%  0.1277      0.2568E-02   0.000      0.1300       0.000       100.0       0.000    
     131  0.8045      0.6141E-02 SPRIN         12   0.2%  0.1282      0.2557E-02   0.000      0.1305       0.000       100.0       0.000    
     132  0.8107      0.6141E-02 SPRIN         12   0.2%  0.1287      0.2547E-02   0.000      0.1310       0.000       100.0       0.000    
     133  0.8168      0.6141E-02 SPRIN         12   0.2%  0.1293      0.2537E-02   0.000      0.1316       0.000       100.0       0.000    
     134  0.8230      0.6141E-02 SPRIN         12   0.2%  0.1298      0.2527E-02   0.000      0.1321       0.000       100.0       0.000    
     135  0.8291      0.6141E-02 SPRIN         12   0.2%  0.1303      0.2517E-02   0.000      0.1326       0.000       100.0       0.000    
     136  0.8352      0.6141E-02 SPRIN         12   0.2%  0.1308      0.2507E-02   0.000      0.1331       0.000       100.0       0.000    
     137  0.8414      0.6141E-02 SPRIN         12   0.2%  0.1313      0.2498E-02   0.000      0.1336       0.000       100.0       0.000    
     138  0.8475      0.6141E-02 SPRIN         12   0.2%  0.1318      0.2488E-02   0.000      0.1341       0.000       100.0       0.000    
     139  0.8537      0.6141E-02 SPRIN         12   0.2%  0.1323      0.2479E-02   0.000      0.1346       0.000       100.0       0.000    
     140  0.8598      0.6141E-02 SPRIN         12   0.2%  0.1328      0.2469E-02   0.000      0.1351       0.000       100.0       0.000    
     141  0.8659      0.6141E-02 SPRIN         12   0.2%  0.1333      0.2460E-02   0.000      0.1356       0.000       100.0       0.000    
     142  0.8721      0.6141E-02 SPRIN         12   0.2%  0.1338      0.2451E-02   0.000      0.1361       0.000       100.0       0.000    
     143  0.8782      0.6141E-02 SPRIN         12   0.2%  0.1343      0.2442E-02   0.000      0.1366       0.000       100.0       0.000    
     144  0.8844      0.6141E-02 SPRIN         12   0.2%  0.1348      0.2433E-02   0.000      0.1371       0.000       100.0       0.000    
     145  0.8905      0.6141E-02 SPRIN         12   0.2%  0.1353      0.2424E-02   0.000      0.1375       0.000       100.0       0.000    
     146  0.8966      0.6141E-02 SPRIN         12   0.2%  0.1358      0.2415E-02   0.000      0.1380       0.000       100.0       0.000    
     147  0.9028      0.6141E-02 SPRIN         12   0.2%  0.1363      0.2407E-02   0.000      0.1385       0.000       100.0       0.000    
     148  0.9089      0.6141E-02 SPRIN         12   0.2%  0.1368      0.2398E-02   0.000      0.1390       0.000       100.0       0.000    
     149  0.9151      0.6141E-02 SPRIN         12   0.2%  0.1373      0.2389E-02   0.000      0.1395       0.000       100.0       0.000    
     150  0.9212      0.6141E-02 SPRIN         12   0.1%  0.1378      0.2381E-02   0.000      0.1400       0.000       100.0       0.000    
     151  0.9274      0.6141E-02 SPRIN         12   0.1%  0.1383      0.2373E-02   0.000      0.1405       0.000       100.0       0.000    
     152  0.9335      0.6141E-02 SPRIN         12   0.1%  0.1388      0.2365E-02   0.000      0.1409       0.000       100.0       0.000    
     153  0.9396      0.6141E-02 SPRIN         12   0.1%  0.1392      0.2356E-02   0.000      0.1414       0.000       100.0       0.000    
     154  0.9458      0.6141E-02 SPRIN         12   0.1%  0.1397      0.2348E-02   0.000      0.1419       0.000       100.0       0.000    
     155  0.9519      0.6141E-02 SPRIN         12   0.1%  0.1402      0.2340E-02   0.000      0.1424       0.000       100.0       0.000    
     156  0.9581      0.6141E-02 SPRIN         12   0.1%  0.1407      0.2333E-02   0.000      0.1428       0.000       100.0       0.000    
     157  0.9642      0.6141E-02 SPRIN         12   0.1%  0.1412      0.2325E-02   0.000      0.1433       0.000       100.0       0.000    
     158  0.9703      0.6141E-02 SPRIN         12   0.1%  0.1416      0.2317E-02   0.000      0.1438       0.000       100.0       0.000    
     159  0.9765      0.6141E-02 SPRIN         12   0.1%  0.1421      0.2309E-02   0.000      0.1442       0.000       100.0       0.000    
     160  0.9826      0.6141E-02 SPRIN         12   0.1%  0.1426      0.2302E-02   0.000      0.1447       0.000       100.0       0.000    
     161  0.9888      0.6141E-02 SPRIN         12   0.1%  0.1431      0.2294E-02   0.000      0.1452       0.000       100.0       0.000    
     162  0.9949      0.6141E-02 SPRIN         12   0.1%  0.1435      0.2287E-02   0.000      0.1456       0.000       100.0       0.000    
     163   1.001      0.6141E-02 SPRIN         12   0.1%  0.1440      0.2279E-02   0.000      0.1461       0.000       100.0       0.000    
     ANIMATION FILE: DAMPCA002 WRITTEN
     164   1.007      0.6141E-02 SPRIN         12   0.1%  0.1445      0.2272E-02   0.000      0.1465       0.000       100.0       0.000    
   CYCLE    TIME      TIME-STEP  ELEMENT          ERROR  I-ENERGY    K-ENERGY T  K-ENERGY R  EXT-WORK     MAS.ERR     TOTAL MASS  MASS ADDED
     165   1.013      0.6141E-02 SPRIN         12   0.1%  0.1449      0.2265E-02   0.000      0.1470       0.000       100.0       0.000    
     166   1.019      0.6141E-02 SPRIN         12   0.1%  0.1454      0.2258E-02   0.000      0.1475       0.000       100.0       0.000    
     167   1.026      0.6141E-02 SPRIN         12   0.1%  0.1458      0.2251E-02   0.000      0.1479       0.000       100.0       0.000    
     168   1.032      0.6141E-02 SPRIN         12   0.1%  0.1463      0.2244E-02   0.000      0.1484       0.000       100.0       0.000    
     169   1.038      0.6141E-02 SPRIN         12   0.1%  0.1468      0.2237E-02   0.000      0.1488       0.000       100.0       0.000    
     170   1.044      0.6141E-02 SPRIN         12   0.1%  0.1472      0.2230E-02   0.000      0.1493       0.000       100.0       0.000    
     171   1.050      0.6141E-02 SPRIN         12   0.1%  0.1477      0.2223E-02   0.000      0.1497       0.000       100.0       0.000    
     172   1.056      0.6141E-02 SPRIN         12   0.1%  0.1481      0.2216E-02   0.000      0.1502       0.000       100.0       0.000    
     173   1.062      0.6141E-02 SPRIN         12   0.1%  0.1486      0.2210E-02   0.000      0.1506       0.000       100.0       0.000    
     174   1.069      0.6141E-02 SPRIN         12   0.1%  0.1490      0.2203E-02   0.000      0.1511       0.000       100.0       0.000    
     175   1.075      0.6141E-02 SPRIN         12   0.1%  0.1495      0.2196E-02   0.000      0.1515       0.000       100.0       0.000    
     176   1.081      0.6141E-02 SPRIN         12   0.1%  0.1499      0.2190E-02   0.000      0.1519       0.000       100.0       0.000    
     177   1.087      0.6141E-02 SPRIN         12   0.1%  0.1504      0.2183E-02   0.000      0.1524       0.000       100.0       0.000    
     178   1.093      0.6141E-02 SPRIN         12   0.1%  0.1508      0.2177E-02   0.000      0.1528       0.000       100.0       0.000    
     179   1.099      0.6141E-02 SPRIN         12   0.1%  0.1513      0.2171E-02   0.000      0.1533       0.000       100.0       0.000    
     180   1.105      0.6141E-02 SPRIN         12   0.1%  0.1517      0.2164E-02   0.000      0.1537       0.000       100.0       0.000    
     181   1.112      0.6141E-02 SPRIN         12   0.1%  0.1521      0.2158E-02   0.000      0.1541       0.000       100.0       0.000    
     182   1.118      0.6141E-02 SPRIN         12   0.1%  0.1526      0.2152E-02   0.000      0.1546       0.000       100.0       0.000    
     183   1.124      0.6141E-02 SPRIN         12   0.1%  0.1530      0.2146E-02   0.000      0.1550       0.000       100.0       0.000    
     184   1.130      0.6141E-02 SPRIN         12   0.1%  0.1535      0.2140E-02   0.000      0.1554       0.000       100.0       0.000    
     185   1.136      0.6141E-02 SPRIN         12   0.1%  0.1539      0.2133E-02   0.000      0.1559       0.000       100.0       0.000    
     186   1.142      0.6141E-02 SPRIN         12   0.1%  0.1543      0.2128E-02   0.000      0.1563       0.000       100.0       0.000    
     187   1.148      0.6141E-02 SPRIN         12   0.1%  0.1548      0.2122E-02   0.000      0.1567       0.000       100.0       0.000    
     188   1.155      0.6141E-02 SPRIN         12   0.1%  0.1552      0.2116E-02   0.000      0.1572       0.000       100.0       0.000    
     189   1.161      0.6141E-02 SPRIN         12   0.1%  0.1556      0.2110E-02   0.000      0.1576       0.000       100.0       0.000    
     190   1.167      0.6141E-02 SPRIN         12   0.1%  0.1561      0.2104E-02   0.000      0.1580       0.000       100.0       0.000    
     191   1.173      0.6141E-02 SPRIN         12   0.1%  0.1565      0.2098E-02   0.000      0.1584       0.000       100.0       0.000    
     192   1.179      0.6141E-02 SPRIN         12   0.1%  0.1569      0.2093E-02   0.000      0.1589       0.000       100.0       0.000    
     193   1.185      0.6141E-02 SPRIN         12   0.1%  0.1573      0.2087E-02   0.000      0.1593       0.000       100.0       0.000    
     194   1.191      0.6141E-02 SPRIN         12   0.1%  0.1578      0.2081E-02   0.000      0.1597       0.000       100.0       0.000    
     195   1.198      0.6141E-02 SPRIN         12   0.1%  0.1582      0.2076E-02   0.000      0.1601       0.000       100.0       0.000    
     196   1.204      0.6141E-02 SPRIN         12   0.1%  0.1586      0.2070E-02   0.000      0.1606       0.000       100.0       0.000    
     197   1.210      0.6141E-02 SPRIN         12   0.1%  0.1590      0.2065E-02   0.000      0.1610       0.000       100.0       0.000    
     198   1.216      0.6141E-02 SPRIN         12   0.1%  0.1595      0.2059E-02   0.000      0.1614       0.000       100.0       0.000    
     199   1.222      0.6141E-02 SPRIN         12   0.1%  0.1599      0.2054E-02   0.000      0.1618       0.000       100.0       0.000    

     RESTART FILES: DAMPC_0001_[0001-0004].rst WRITTEN
     -------------

     200   1.228      0.6141E-02 SPRIN         12   0.1%  0.1603      0.2048E-02   0.000      0.1622       0.000       100.0       0.000    
     201   1.234      0.6141E-02 SPRIN         12   0.1%  0.1607      0.2043E-02   0.000      0.1626       0.000       100.0       0.000    
     202   1.241      0.6141E-02 SPRIN         12   0.1%  0.1611      0.2038E-02   0.000      0.1631       0.000       100.0       0.000    
     203   1.247      0.6141E-02 SPRIN         12   0.1%  0.1616      0.2033E-02   0.000      0.1635       0.000       100.0       0.000    
     204   1.253      0.6141E-02 SPRIN         12   0.1%  0.1620      0.2027E-02   0.000      0.1639       0.000       100.0       0.000    
     205   1.259      0.6141E-02 SPRIN         12   0.1%  0.1624      0.2022E-02   0.000      0.1643       0.000       100.0       0.000    
     206   1.265      0.6141E-02 SPRIN         12   0.1%  0.1628      0.2017E-02   0.000      0.1647       0.000       100.0       0.000    
     207   1.271      0.6141E-02 SPRIN         12   0.1%  0.1632      0.2012E-02   0.000      0.1651       0.000       100.0       0.000    
     208   1.277      0.6141E-02 SPRIN         12   0.1%  0.1636      0.2007E-02   0.000      0.1655       0.000       100.0       0.000    
     209   1.284      0.6141E-02 SPRIN         12   0.1%  0.1640      0.2002E-02   0.000      0.1659       0.000       100.0       0.000    
     210   1.290      0.6141E-02 SPRIN         12   0.1%  0.1644      0.1997E-02   0.000      0.1663       0.000       100.0       0.000    
     211   1.296      0.6141E-02 SPRIN         12   0.1%  0.1648      0.1992E-02   0.000      0.1667       0.000       100.0       0.000    
     212   1.302      0.6141E-02 SPRIN         12   0.1%  0.1653      0.1987E-02   0.000      0.1671       0.000       100.0       0.000    
     213   1.308      0.6141E-02 SPRIN         12   0.1%  0.1657      0.1982E-02   0.000      0.1675       0.000       100.0       0.000    
     214   1.314      0.6141E-02 SPRIN         12   0.1%  0.1661      0.1977E-02   0.000      0.1679       0.000       100.0       0.000    
     215   1.320      0.6141E-02 SPRIN         12   0.1%  0.1665      0.1972E-02   0.000      0.1683       0.000       100.0       0.000    
     216   1.327      0.6141E-02 SPRIN         12   0.1%  0.1669      0.1968E-02   0.000      0.1687       0.000       100.0       0.000    
     217   1.333      0.6141E-02 SPRIN         12   0.1%  0.1673      0.1963E-02   0.000      0.1691       0.000       100.0       0.000    
     218   1.339      0.6141E-02 SPRIN         12   0.1%  0.1677      0.1958E-02   0.000      0.1695       0.000       100.0       0.000    
     219   1.345      0.6141E-02 SPRIN         12   0.1%  0.1681      0.1954E-02   0.000      0.1699       0.000       100.0       0.000    
   CYCLE    TIME      TIME-STEP  ELEMENT          ERROR  I-ENERGY    K-ENERGY T  K-ENERGY R  EXT-WORK     MAS.ERR     TOTAL MASS  MASS ADDED
     220   1.351      0.6141E-02 SPRIN         12   0.1%  0.1685      0.1949E-02   0.000      0.1703       0.000       100.0       0.000    
     221   1.357      0.6141E-02 SPRIN         12   0.1%  0.1689      0.1944E-02   0.000      0.1707       0.000       100.0       0.000    
     222   1.363      0.6141E-02 SPRIN         12   0.1%  0.1693      0.1940E-02   0.000      0.1711       0.000       100.0       0.000    
     223   1.370      0.6141E-02 SPRIN         12   0.1%  0.1697      0.1935E-02   0.000      0.1715       0.000       100.0       0.000    
     224   1.376      0.6141E-02 SPRIN         12   0.1%  0.1701      0.1931E-02   0.000      0.1719       0.000       100.0       0.000    
     225   1.382      0.6141E-02 SPRIN         12   0.1%  0.1705      0.1926E-02   0.000      0.1723       0.000       100.0       0.000    
     226   1.388      0.6141E-02 SPRIN         12   0.1%  0.1709      0.1922E-02   0.000      0.1727       0.000       100.0       0.000    
     227   1.394      0.6141E-02 SPRIN         12   0.1%  0.1712      0.1917E-02   0.000      0.1731       0.000       100.0       0.000    
     228   1.400      0.6141E-02 SPRIN         12   0.1%  0.1716      0.1913E-02   0.000      0.1735       0.000       100.0       0.000    
     229   1.406      0.6141E-02 SPRIN         12   0.1%  0.1720      0.1908E-02   0.000      0.1738       0.000       100.0       0.000    
     230   1.413      0.6141E-02 SPRIN         12   0.1%  0.1724      0.1904E-02   0.000      0.1742       0.000       100.0       0.000    
     231   1.419      0.6141E-02 SPRIN         12   0.1%  0.1728      0.1900E-02   0.000      0.1746       0.000       100.0       0.000    
     232   1.425      0.6141E-02 SPRIN         12   0.1%  0.1732      0.1895E-02   0.000      0.1750       0.000       100.0       0.000    
     233   1.431      0.6141E-02 SPRIN         12   0.0%  0.1736      0.1891E-02   0.000      0.1754       0.000       100.0       0.000    
     234   1.437      0.6141E-02 SPRIN         12   0.0%  0.1740      0.1887E-02   0.000      0.1758       0.000       100.0       0.000    
     235   1.443      0.6141E-02 SPRIN         12   0.0%  0.1744      0.1883E-02   0.000      0.1762       0.000       100.0       0.000    
     236   1.449      0.6141E-02 SPRIN         12   0.0%  0.1747      0.1878E-02   0.000      0.1765       0.000       100.0       0.000    
     237   1.456      0.6141E-02 SPRIN         12   0.0%  0.1751      0.1874E-02   0.000      0.1769       0.000       100.0       0.000    
     238   1.462      0.6141E-02 SPRIN         12   0.0%  0.1755      0.1870E-02   0.000      0.1773       0.000       100.0       0.000    
     239   1.468      0.6141E-02 SPRIN         12   0.0%  0.1759      0.1866E-02   0.000      0.1777       0.000       100.0       0.000    
     240   1.474      0.6141E-02 SPRIN         12   0.0%  0.1763      0.1862E-02   0.000      0.1781       0.000       100.0       0.000    
     241   1.480      0.6141E-02 SPRIN         12   0.0%  0.1767      0.1858E-02   0.000      0.1784       0.000       100.0       0.000    
     242   1.486      0.6141E-02 SPRIN         12   0.0%  0.1770      0.1854E-02   0.000      0.1788       0.000       100.0       0.000    
     243   1.492      0.6141E-02 SPRIN         12   0.0%  0.1774      0.1850E-02   0.000      0.1792       0.000       100.0       0.000    
     244   1.499      0.6141E-02 SPRIN         12   0.0%  0.1778      0.1846E-02   0.000      0.1796       0.000       100.0       0.000    
     245   1.505      0.6141E-02 SPRIN         12   0.0%  0.1782      0.1842E-02   0.000      0.1800       0.000       100.0       0.000    
     246   1.511      0.6141E-02 SPRIN         12   0.0%  0.1786      0.1838E-02   0.000      0.1803       0.000       100.0       0.000    
     247   1.517      0.6141E-02 SPRIN         12   0.0%  0.1789      0.1834E-02   0.000      0.1807       0.000       100.0       0.000    
     248   1.523      0.6141E-02 SPRIN         12   0.0%  0.1793      0.1830E-02   0.000      0.1811       0.000       100.0       0.000    
     249   1.529      0.6141E-02 SPRIN         12   0.0%  0.1797      0.1826E-02   0.000      0.1814       0.000       100.0       0.000    
     250   1.535      0.6141E-02 SPRIN         12   0.0%  0.1801      0.1822E-02   0.000      0.1818       0.000       100.0       0.000    
     251   1.541      0.6141E-02 SPRIN         12   0.0%  0.1804      0.1818E-02   0.000      0.1822       0.000       100.0       0.000    
     252   1.548      0.6141E-02 SPRIN         12   0.0%  0.1808      0.1814E-02   0.000      0.1826       0.000       100.0       0.000    
     253   1.554      0.6141E-02 SPRIN         12   0.0%  0.1812      0.1810E-02   0.000      0.1829       0.000       100.0       0.000    
     254   1.560      0.6141E-02 SPRIN         12   0.0%  0.1816      0.1807E-02   0.000      0.1833       0.000       100.0       0.000    
     255   1.566      0.6141E-02 SPRIN         12   0.0%  0.1819      0.1803E-02   0.000      0.1837       0.000       100.0       0.000    
     256   1.572      0.6141E-02 SPRIN         12   0.0%  0.1823      0.1799E-02   0.000      0.1840       0.000       100.0       0.000    
     257   1.578      0.6141E-02 SPRIN         12   0.0%  0.1827      0.1795E-02   0.000      0.1844       0.000       100.0       0.000    
     258   1.584      0.6141E-02 SPRIN         12   0.0%  0.1830      0.1792E-02   0.000      0.1848       0.000       100.0       0.000    
     259   1.591      0.6141E-02 SPRIN         12   0.0%  0.1834      0.1788E-02   0.000      0.1851       0.000       100.0       0.000    
     260   1.597      0.6141E-02 SPRIN         12   0.0%  0.1838      0.1784E-02   0.000      0.1855       0.000       100.0       0.000    
     261   1.603      0.6141E-02 SPRIN         12   0.0%  0.1841      0.1781E-02   0.000      0.1859       0.000       100.0       0.000    
     262   1.609      0.6141E-02 SPRIN         12   0.0%  0.1845      0.1777E-02   0.000      0.1862       0.000       100.0       0.000    
     263   1.615      0.6141E-02 SPRIN         12   0.0%  0.1849      0.1773E-02   0.000      0.1866       0.000       100.0       0.000    
     264   1.621      0.6141E-02 SPRIN         12   0.0%  0.1852      0.1770E-02   0.000      0.1870       0.000       100.0       0.000    
     265   1.627      0.6141E-02 SPRIN         12   0.0%  0.1856      0.1766E-02   0.000      0.1873       0.000       100.0       0.000    
     266   1.634      0.6141E-02 SPRIN         12   0.0%  0.1860      0.1763E-02   0.000      0.1877       0.000       100.0       0.000    
     267   1.640      0.6141E-02 SPRIN         12   0.0%  0.1863      0.1759E-02   0.000      0.1880       0.000       100.0       0.000    
     268   1.646      0.6141E-02 SPRIN         12   0.0%  0.1867      0.1756E-02   0.000      0.1884       0.000       100.0       0.000    
     269   1.652      0.6141E-02 SPRIN         12   0.0%  0.1871      0.1752E-02   0.000      0.1888       0.000       100.0       0.000    
     270   1.658      0.6141E-02 SPRIN         12   0.0%  0.1874      0.1748E-02   0.000      0.1891       0.000       100.0       0.000    
     271   1.664      0.6141E-02 SPRIN         12   0.0%  0.1878      0.1745E-02   0.000      0.1895       0.000       100.0       0.000    
     272   1.670      0.6141E-02 SPRIN         12   0.0%  0.1881      0.1742E-02   0.000      0.1898       0.000       100.0       0.000    
     273   1.677      0.6141E-02 SPRIN         12   0.0%  0.1885      0.1738E-02   0.000      0.1902       0.000       100.0       0.000    
     274   1.683      0.6141E-02 SPRIN         12   0.0%  0.1889      0.1735E-02   0.000      0.1906       0.000       100.0       0.000    
   CYCLE    TIME      TIME-STEP  ELEMENT          ERROR  I-ENERGY    K-ENERGY T  K-ENERGY R  EXT-WORK     MAS.ERR     TOTAL MASS  MASS ADDED
     275   1.689      0.6141E-02 SPRIN         12   0.0%  0.1892      0.1731E-02   0.000      0.1909       0.000       100.0       0.000    
     276   1.695      0.6141E-02 SPRIN         12   0.0%  0.1896      0.1728E-02   0.000      0.1913       0.000       100.0       0.000    
     277   1.701      0.6141E-02 SPRIN         12   0.0%  0.1899      0.1724E-02   0.000      0.1916       0.000       100.0       0.000    
     278   1.707      0.6141E-02 SPRIN         12   0.0%  0.1903      0.1721E-02   0.000      0.1920       0.000       100.0       0.000    
     279   1.713      0.6141E-02 SPRIN         12   0.0%  0.1907      0.1718E-02   0.000      0.1923       0.000       100.0       0.000    
     280   1.720      0.6141E-02 SPRIN         12   0.0%  0.1910      0.1714E-02   0.000      0.1927       0.000       100.0       0.000    
     281   1.726      0.6141E-02 SPRIN         12   0.0%  0.1914      0.1711E-02   0.000      0.1930       0.000       100.0       0.000    
     282   1.732      0.6141E-02 SPRIN         12   0.0%  0.1917      0.1708E-02   0.000      0.1934       0.000       100.0       0.000    
     283   1.738      0.6141E-02 SPRIN         12   0.0%  0.1921      0.1704E-02   0.000      0.1937       0.000       100.0       0.000    
     284   1.744      0.6141E-02 SPRIN         12   0.0%  0.1924      0.1701E-02   0.000      0.1941       0.000       100.0       0.000    
     285   1.750      0.6141E-02 SPRIN         12   0.0%  0.1928      0.1698E-02   0.000      0.1944       0.000       100.0       0.000    
     286   1.756      0.6141E-02 SPRIN         12   0.0%  0.1931      0.1695E-02   0.000      0.1948       0.000       100.0       0.000    
     287   1.763      0.6141E-02 SPRIN         12   0.0%  0.1935      0.1691E-02   0.000      0.1951       0.000       100.0       0.000    
     288   1.769      0.6141E-02 SPRIN         12   0.0%  0.1938      0.1688E-02   0.000      0.1955       0.000       100.0       0.000    
     289   1.775      0.6141E-02 SPRIN         12   0.0%  0.1942      0.1685E-02   0.000      0.1958       0.000       100.0       0.000    
     290   1.781      0.6141E-02 SPRIN         12   0.0%  0.1945      0.1682E-02   0.000      0.1962       0.000       100.0       0.000    
     291   1.787      0.6141E-02 SPRIN         12   0.0%  0.1949      0.1679E-02   0.000      0.1965       0.000       100.0       0.000    
     292   1.793      0.6141E-02 SPRIN         12   0.0%  0.1952      0.1676E-02   0.000      0.1969       0.000       100.0       0.000    
     293   1.799      0.6141E-02 SPRIN         12   0.0%  0.1956      0.1672E-02   0.000      0.1972       0.000       100.0       0.000    
     294   1.806      0.6141E-02 SPRIN         12   0.0%  0.1959      0.1669E-02   0.000      0.1976       0.000       100.0       0.000    
     295   1.812      0.6141E-02 SPRIN         12   0.0%  0.1963      0.1666E-02   0.000      0.1979       0.000       100.0       0.000    
     296   1.818      0.6141E-02 SPRIN         12   0.0%  0.1966      0.1663E-02   0.000      0.1983       0.000       100.0       0.000    
     297   1.824      0.6141E-02 SPRIN         12   0.0%  0.1970      0.1660E-02   0.000      0.1986       0.000       100.0       0.000    
     298   1.830      0.6141E-02 SPRIN         12   0.0%  0.1973      0.1657E-02   0.000      0.1990       0.000       100.0       0.000    
     299   1.836      0.6141E-02 SPRIN         12   0.0%  0.1977      0.1654E-02   0.000      0.1993       0.000       100.0       0.000    

     RESTART FILES: DAMPC_0001_[0001-0004].rst WRITTEN
     -------------

     300   1.842      0.6141E-02 SPRIN         12   0.0%  0.1980      0.1651E-02   0.000      0.1996       0.000       100.0       0.000    
     301   1.849      0.6141E-02 SPRIN         12   0.0%  0.1984      0.1648E-02   0.000      0.2000       0.000       100.0       0.000    
     302   1.855      0.6141E-02 SPRIN         12   0.0%  0.1987      0.1645E-02   0.000      0.2003       0.000       100.0       0.000    
     303   1.861      0.6141E-02 SPRIN         12   0.0%  0.1991      0.1642E-02   0.000      0.2007       0.000       100.0       0.000    
     304   1.867      0.6141E-02 SPRIN         12   0.0%  0.1994      0.1639E-02   0.000      0.2010       0.000       100.0       0.000    
     305   1.873      0.6141E-02 SPRIN         12   0.0%  0.1997      0.1636E-02   0.000      0.2014       0.000       100.0       0.000    
     306   1.879      0.6141E-02 SPRIN         12   0.0%  0.2001      0.1633E-02   0.000      0.2017       0.000       100.0       0.000    
     307   1.885      0.6141E-02 SPRIN         12   0.0%  0.2004      0.1630E-02   0.000      0.2020       0.000       100.0       0.000    
     308   1.892      0.6141E-02 SPRIN         12   0.0%  0.2008      0.1627E-02   0.000      0.2024       0.000       100.0       0.000    
     309   1.898      0.6141E-02 SPRIN         12   0.0%  0.2011      0.1624E-02   0.000      0.2027       0.000       100.0       0.000    
     310   1.904      0.6141E-02 SPRIN         12   0.0%  0.2015      0.1621E-02   0.000      0.2031       0.000       100.0       0.000    
     311   1.910      0.6141E-02 SPRIN         12   0.0%  0.2018      0.1618E-02   0.000      0.2034       0.000       100.0       0.000    
     312   1.916      0.6141E-02 SPRIN         12   0.0%  0.2021      0.1615E-02   0.000      0.2037       0.000       100.0       0.000    
     313   1.922      0.6141E-02 SPRIN         12   0.0%  0.2025      0.1612E-02   0.000      0.2041       0.000       100.0       0.000    
     314   1.928      0.6141E-02 SPRIN         12   0.0%  0.2028      0.1609E-02   0.000      0.2044       0.000       100.0       0.000    
     315   1.935      0.6141E-02 SPRIN         12   0.0%  0.2031      0.1606E-02   0.000      0.2047       0.000       100.0       0.000    
     316   1.941      0.6141E-02 SPRIN         12   0.0%  0.2035      0.1603E-02   0.000      0.2051       0.000       100.0       0.000    
     317   1.947      0.6141E-02 SPRIN         12   0.0%  0.2038      0.1600E-02   0.000      0.2054       0.000       100.0       0.000    
     318   1.953      0.6141E-02 SPRIN         12   0.0%  0.2042      0.1598E-02   0.000      0.2057       0.000       100.0       0.000    
     319   1.959      0.6141E-02 SPRIN         12   0.0%  0.2045      0.1595E-02   0.000      0.2061       0.000       100.0       0.000    
     320   1.965      0.6141E-02 SPRIN         12   0.0%  0.2048      0.1592E-02   0.000      0.2064       0.000       100.0       0.000    
     321   1.971      0.6141E-02 SPRIN         12   0.0%  0.2052      0.1589E-02   0.000      0.2068       0.000       100.0       0.000    
     322   1.978      0.6141E-02 SPRIN         12   0.0%  0.2055      0.1586E-02   0.000      0.2071       0.000       100.0       0.000    
     323   1.984      0.6141E-02 SPRIN         12   0.0%  0.2058      0.1583E-02   0.000      0.2074       0.000       100.0       0.000    
     324   1.990      0.6141E-02 SPRIN         12   0.0%  0.2062      0.1581E-02   0.000      0.2078       0.000       100.0       0.000    
     325   1.996      0.6141E-02 SPRIN         12   0.0%  0.2065      0.1578E-02   0.000      0.2081       0.000       100.0       0.000    
     326   2.002      0.6141E-02 SPRIN         12   0.0%  0.2069      0.1575E-02   0.000      0.2084       0.000       100.0       0.000    
     ANIMATION FILE: DAMPCA003 WRITTEN
     327   2.008      0.6141E-02 SPRIN         12   0.0%  0.2072      0.1572E-02   0.000      0.2087       0.000       100.0       0.000    
     328   2.014      0.6141E-02 SPRIN         12   0.0%  0.2075      0.1569E-02   0.000      0.2091       0.000       100.0       0.000    
     329   2.021      0.6141E-02 SPRIN         12   0.0%  0.2079      0.1567E-02   0.000      0.2094       0.000       100.0       0.000    
   CYCLE    TIME      TIME-STEP  ELEMENT          ERROR  I-ENERGY    K-ENERGY T  K-ENERGY R  EXT-WORK     MAS.ERR     TOTAL MASS  MASS ADDED
     330   2.027      0.6141E-02 SPRIN         12   0.0%  0.2082      0.1564E-02   0.000      0.2097       0.000       100.0       0.000    
     331   2.033      0.6141E-02 SPRIN         12   0.0%  0.2085      0.1561E-02   0.000      0.2101       0.000       100.0       0.000    
     332   2.039      0.6141E-02 SPRIN         12   0.0%  0.2089      0.1559E-02   0.000      0.2104       0.000       100.0       0.000    
     333   2.045      0.6141E-02 SPRIN         12   0.0%  0.2092      0.1556E-02   0.000      0.2107       0.000       100.0       0.000    
     334   2.051      0.6141E-02 SPRIN         12   0.0%  0.2095      0.1553E-02   0.000      0.2111       0.000       100.0       0.000    
     335   2.057      0.6141E-02 SPRIN         12   0.0%  0.2098      0.1550E-02   0.000      0.2114       0.000       100.0       0.000    
     336   2.064      0.6141E-02 SPRIN         12   0.0%  0.2102      0.1548E-02   0.000      0.2117       0.000       100.0       0.000    
     337   2.070      0.6141E-02 SPRIN         12   0.0%  0.2105      0.1545E-02   0.000      0.2121       0.000       100.0       0.000    
     338   2.076      0.6141E-02 SPRIN         12   0.0%  0.2108      0.1542E-02   0.000      0.2124       0.000       100.0       0.000    
     339   2.082      0.6141E-02 SPRIN         12   0.0%  0.2112      0.1540E-02   0.000      0.2127       0.000       100.0       0.000    
     340   2.088      0.6141E-02 SPRIN         12   0.0%  0.2115      0.1537E-02   0.000      0.2130       0.000       100.0       0.000    
     341   2.094      0.6141E-02 SPRIN         12  -0.0%  0.2118      0.1534E-02   0.000      0.2134       0.000       100.0       0.000    

     RESTART FILES: DAMPC_0001_[0001-0004].rst WRITTEN
     -------------

  
                           ** CPU USER TIME **
  
  
                        ** SUMMARY **
  
 #PROC  ELEMENT   KINCOND   INTEG     IO        T0        ASM       RESOL    
   1   .7124E-02 .6111E-02 .5321E-02 .9192E-01 .1141E-01 .3007E-02 .1705E+00
   2   .6721E-02 .6851E-02 .5096E-02 .8566E-01 .1711E-01 .2735E-02 .1863E+00
   3   .7896E-02 .7762E-02 .5739E-02 .8695E-01 .3628E-01 .3101E-02 .1944E+00
   4   .7344E-02 .6322E-02 .5416E-02 .8969E-01 .3584E-01 .2907E-02 .2007E+00
  
                 ** SPMD COM. TIME **
  
 #PROC  FORCES    RBYFOR    RBYVEL    VEL       TOT       %        
   1   .4449E-02 .0000E+00 .0000E+00 .1904E-02 .6353E-02 .3726E+01
   2   .2441E-01 .0000E+00 .0000E+00 .1840E-02 .2625E-01 .1409E+02
   3   .4363E-02 .0000E+00 .0000E+00 .2054E-02 .6417E-02 .3301E+01
   4   .1019E-01 .0000E+00 .0000E+00 .1837E-02 .1203E-01 .5993E+01
  
 
                   ** CUMULATIVE CPU TIME SUMMARY **
  
 CONTACT SORTING.............: .0000E+00     0.00 % 
 CONTACT FORCES..............: .2569E-02     0.34 % 
 ELEMENT FORCES..............: .2908E-01     3.87 % 
 KINEMATIC COND..............: .2705E-01     3.60 % 
 INTEGRATION.................: .2157E-01     2.87 % 
 ASSEMBLING..................: .1175E-01     1.56 % 
 OTHERS (including I/O)......: .6599E+00    87.76 % 
 TOTAL.......................: .7519E+00   100.00 % 
  
  
                           ** ELAPSED TIME **
  
  
                        ** SUMMARY **
  
 #PROC  ELEMENT   KINCOND   INTEG     IO        T0        ASM       RESOL    
   1   .4754E-02 .4020E-02 .3455E-02 .6536E-01 .7445E-02 .1965E-02 .1188E+00
   2   .4283E-02 .4178E-02 .3045E-02 .5486E-01 .1063E-01 .1661E-02 .1202E+00
   3   .4753E-02 .4667E-02 .3332E-02 .5263E-01 .2165E-01 .1847E-02 .1200E+00
   4   .4303E-02 .3625E-02 .3062E-02 .5384E-01 .2033E-01 .1677E-02 .1200E+00
  
        ELEMENT   KINCOND   INTEG     IO        T0        ASM       RESOL    
 MIN   .4283E-02 .3625E-02 .3045E-02 .5263E-01 .7445E-02 .1661E-02 .1188E+00
 MAX   .4754E-02 .4667E-02 .3455E-02 .6536E-01 .2165E-01 .1965E-02 .1202E+00
 AVG   .4523E-02 .4123E-02 .3224E-02 .5667E-01 .1501E-01 .1787E-02 .1198E+00
  
                 ** SPMD COM. TIME **
  
 #PROC  FORCES    RBYFOR    RBYVEL    VEL       TOT       %        
   1   .2951E-02 .0000E+00 .0000E+00 .1272E-02 .4223E-02 .3555E+01
   2   .1463E-01 .0000E+00 .0000E+00 .1138E-02 .1576E-01 .1311E+02
   3   .2628E-02 .0000E+00 .0000E+00 .1212E-02 .3840E-02 .3200E+01
   4   .5804E-02 .0000E+00 .0000E+00 .1065E-02 .6870E-02 .5724E+01
  
        FORCES    RBYFOR    RBYVEL    VEL       TOT       %        
 MIN   .2628E-02 .0000E+00 .0000E+00 .1065E-02 .3840E-02 .3200E+01
 MAX   .1463E-01 .0000E+00 .0000E+00 .1272E-02 .1576E-01 .1311E+02
 AVG   .6502E-02 .0000E+00 .0000E+00 .1172E-02 .7674E-02 .6398E+01
  
                   ** MEMORY USAGE STATISTICS **
  
 TOTAL MEMORY USED .........................:      228 MB
 MAXIMUM MEMORY PER PROCESSOR...............:       57 MB
 MINIMUM MEMORY PER PROCESSOR...............:       57 MB
 AVERAGE MEMORY PER PROCESSOR...............:       57 MB
  
                   ** DISK USAGE STATISTICS **
  
 TOTAL DISK SPACE USED .....................:          1 MB
 ANIMATION/H3D/TH/OUTP SIZE ................:          0 MB
 RESTART FILE SIZE .........................:          1 MB
  
                   ** COMPUTE TIME INFORMATION **
                        ** CURRENT ENGINE **
  
 EXECUTION STARTED .........................:      2022/11/23  16:22:37
 EXECUTION COMPLETED .......................:      2022/11/23  16:22:37
  
 ELAPSED TIME     =          0.22 s
                          0:00:00
 ESTIMATED SPEEDUP=          3.40



     NORMAL TERMINATION      



     TOTAL NUMBER OF CYCLES  :     342

  
                   ** COMPUTE RUNTIME INFORMATION SUMMARY **
  
        STARTER RUNTIME =          0.60s (00:00:00)
 # 001   ENGINE RUNTIME =          0.22s (00:00:00)
 ------------------------------ 
 STARTER+ENGINE RUNTIME =          0.82s (00:00:00)
  
