 SPR_PRE_2FLAG_0001.out
************************************************************************
**                                                                    **
**                                                                    **
**                         OpenRadioss Engine                         **
**                                                                    **
**            Non-linear Finite Element Analysis Software             **
**                                                                    **
**                                                                    **
**                                                                    **
**                Linux 64 bits, GNU compiler, OpenMPI                **
**                                                                    **
**                                                                    **
**                                                                    **
** CommitID: 440deeba848d606665f88afb8302e85b1ecf72bf                 **
************************************************************************
** OpenRadioss Software                                               **
** COPYRIGHT (C) 1986-2022 Altair Engineering, Inc.                   **
** Licensed under GNU Affero General Public License.                  **
** See License file.                                                  **
************************************************************************
 
 NUMBER OF SPMD DOMAINS           4
 NUMBER OF THREADS PER DOMAIN     2
 NUMBER OF HMPP PROCESSES         8
  
 COMPUTATION HARDWARE DESCRIPTION
  
 CPU#  HOSTNAME     CPU TYPE, FREQUENCY AND MEMORY
   1   fr-shady.europe.altair.com   Intel(R) Xeon(R) CPU           X5680  @ 3.33GHz (x86_64), 1596 MHz,  20012 MB RAM,  49126 MB swap
   2   fr-shady.europe.altair.com   Intel(R) Xeon(R) CPU           X5680  @ 3.33GHz (x86_64), 1596 MHz,  20012 MB RAM,  49126 MB swap
   3   fr-shady.europe.altair.com   Intel(R) Xeon(R) CPU           X5680  @ 3.33GHz (x86_64), 1596 MHz,  20012 MB RAM,  49126 MB swap
   4   fr-shady.europe.altair.com   Intel(R) Xeon(R) CPU           X5680  @ 3.33GHz (x86_64), 1596 MHz,  20012 MB RAM,  49126 MB swap
  
************************************************************************


 SPR_PRE_2FLAGD01                                                                


 FINAL TIME . . . . . . . . . . . . . . . . . . .   10.00100    

 TIME INTERVAL FOR TIME HISTORY PLOTS . . . . . .  0.1000000E-01

 TIME STEP SCALE FACTOR . . . . . . . . . . . . .  0.9000000    

 MINIMUM TIME STEP  . . . . . . . . . . . . . . .   0.000000    


 BRICK TIME STEP SCALE FACTOR . . . . . . . . . .  0.9000000    
 BRICK MINIMUM TIME STEP. . . . . . . . . . . . .   0.000000    
 MIN. TIME STEP FLAG (1:STOP RUN, 2:DELETE BRICK)     1

 QUAD TIME STEP SCALE FACTOR. . . . . . . . . . .  0.9000000    
 QUAD MINIMUM TIME STEP . . . . . . . . . . . . .   0.000000    
 MIN. TIME STEP FLAG (1:STOP RUN, 2:DELETE QUAD).     1

 SHELL TIME STEP SCALE FACTOR . . . . . . . . . .  0.9000000    
 SHELL MINIMUM TIME STEP. . . . . . . . . . . . .   0.000000    
 MIN. TIME FLAG (1:STOP, 2:DELETE, 3:SMALL STRAIN)    2

 TRUSS TIME STEP SCALE FACTOR . . . . . . . . . .  0.9000000    
 TRUSS MINIMUM TIME STEP. . . . . . . . . . . . .   0.000000    
 MIN. TIME FLAG (1:STOP, 2:DELETE). . . . . . . .     0

 BEAM TIME STEP SCALE FACTOR. . . . . . . . . . .  0.9000000    
 BEAM MINIMUM TIME STEP . . . . . . . . . . . . .   0.000000    
 MIN. TIME FLAG (1:STOP, 2:DELETE). . . . . . . .     0

 SPRING TIME STEP SCALE FACTOR. . . . . . . . . .  0.9000000    
 SPRING MINIMUM TIME STEP . . . . . . . . . . . .   0.000000    
 MIN. TIME FLAG (1:STOP, 2:DELETE). . . . . . . .     0

 AIRBAG TIME STEP SCALE FACTOR. . . . . . . . . .  0.9000000    
 AIRBAG MINIMUM TIME STEP . . . . . . . . . . . .   0.000000    
 MIN. TIME FLAG (1:STOP). . . . . . . . . . . . .     0

 CONTACT TIME STEP SCALE FACTOR . . . . . . . . .  0.9000000    
 CONTACT MINIMUM TIME STEP. . . . . . . . . . . .   0.000000    
 MIN. TIME FLAG(1:STOP, 2:REMOVE NODE FROM INTERF)    0

 PRINTOUT CYCLE FREQUENCY . . . . . . . . . . . .    -1

 RESTART CYCLE FREQUENCY. . . . . . . . . . . . .   10000000

 MAXIMUM RESTART WRITE BEFORE OVERWRITE . . . . .     0

 INVERS: INPUT DECK VERSION . . . . . . . . . . .   100
 ITTYP : FLAG FOR TYPE OF T-FILE. . . . . . . . .     4


 TIME FOR FIRST ANIMATION-FILE PLOT . . . . . . .   0.000000    
 TIME INTERVAL FOR ANIMATION-FILE PLOTS . . . . .  0.2000000    
 SENSOR FOR ANIMATION-FILE PLOTS. . . . . . . . .          0
 TIME INTERVAL FOR SENSOR ANIMATION-FILE PLOTS. .   0.000000    

 VARIABLE SAVED ON ANIMATION FILES (1: YES) :
      PLASTIC STRAIN. . . . . .     0
      DENSITY     (SOLID ONLY).     0
      SPECIFIC ENERGY . . . . .     0
      HOURGLASS ENERGY. . . . .     0
      TEMPERATURE (SOLID ONLY).     0
      THICKNESS   (SHELL ONLY).     0
      PRESSURE    (SOLID ONLY).     0
      VON MISES . . . . . . . .     1
      TURBULENT ENERGY (FLUID).     0
      TURBULENT VISCOSITY(FLUID)    0
      VORTICITY (FLUID) . . . .     0
 NODAL VALUES SAVED ON ANIMATION FILES (1: YES) :
      PRESSURE. . . . . . . . .     0
      DENSITY . . . . . . . . .     0
      TEMPERATURE . . . . . . .     0
 VECTOR SAVED ON ANIMATION FILES (1: YES) :
      VELOCITY VECTOR . . . . .     1
      DISPLACEMENT VECTOR . . .     1
      ACCELERATION VECTOR . . .     0
      CONTACT FORCES. . . . . .     0
      INTERNAL FORCES . . . . .     0
      EXTERNAL FORCES . . . . .     0
      SECTION RBY RWALL FORCES.     0
      ROTATIONAL VELOCITY VECTOR    0
      CONTACT PRESSURE (VECTORS)    0
 SHELL TENSOR SAVED ON ANIMATION FILES (1: YES) :
      MEMBRANE STRESS . . . . .     0
      BENDING STRESS(MOMENT/T^2)    0
      UPPER LAYER STRESS. . . .     0
      LOWER LAYER STRESS. . . .     0
      MEMBRANE STRAIN . . . . .     0
      CURVATURE . . . . . . . .     0
      UPPER LAYER STRAIN. . . .     0
      LOWER LAYER STRAIN. . . .     0
 NODAL MASS SAVED ON ANIMATION FILES (1: YES) :    0
 KEEP DELETED ELEMENT (1: YES) :    0


 INITIAL TIME STEP. . . . . . . . . . . . . . . .   0.000000    
 MAXIMUM TIME STEP. . . . . . . . . . . . . . . .  0.1000000E+31

 PARALLEL ARITHMETIC ON
 NUMBER OF INTERFACES TO BE ELIMINATED. . . . . .        0

 NUMBER OF SOLID  ELEMENT BLOCKS TO BE ELIMINATED        0

 NUMBER OF QUAD   ELEMENT BLOCKS TO BE ELIMINATED        0

 NUMBER OF SHELL  ELEMENT BLOCKS TO BE ELIMINATED        0

 NUMBER OF TRUSS  ELEMENT BLOCKS TO BE ELIMINATED        0

 NUMBER OF BEAM   ELEMENT BLOCKS TO BE ELIMINATED        0

 NUMBER OF SPRING ELEMENT BLOCKS TO BE ELIMINATED        0

 NUMBER OF SH_3N  ELEMENT BLOCKS TO BE ELIMINATED        0

 NUMBER OF  SPH PARTICLES BLOCKS TO BE ELIMINATED        0

 NUMBER OF RIGID LINKS. . . . . . . . . . . . . .        0

 NUMBER OF NEW BOUNDARY CONDITIONS. . . . . . . .        0

 23/11/2022
 SENSOR NUMBER          1 ACTIVATED AT TIME  0.00000E+00
   CYCLE    TIME      TIME-STEP  ELEMENT          ERROR  I-ENERGY    K-ENERGY T  K-ENERGY R  EXT-WORK     MAS.ERR     TOTAL MASS  MASS ADDED
       0   0.000      0.6364E-03 SPRIN         11   0.0%   50.00       0.000       0.000       0.000       0.000      0.5000E-01   0.000    
     ANIMATION FILE: SPR_PRE_2FLAGA001 WRITTEN
       1  0.6364E-03  0.6364E-03 SPRIN         11   0.0%   49.99      0.5000E-03   0.000     -0.5863E-02   0.000      0.5000E-01   0.000    
       2  0.1273E-02  0.6364E-03 SPRIN         11   0.0%   49.98      0.5000E-03   0.000     -0.1859E-01   0.000      0.5000E-01   0.000    
       3  0.1909E-02  0.6364E-03 SPRIN         11   0.0%   49.97      0.5000E-03   0.000     -0.3131E-01   0.000      0.5000E-01   0.000    
       4  0.2546E-02  0.6364E-03 SPRIN         11   0.0%   49.96      0.5000E-03   0.000     -0.4403E-01   0.000      0.5000E-01   0.000    
       5  0.3182E-02  0.6364E-03 SPRIN         11   0.0%   49.94      0.5000E-03   0.000     -0.5676E-01   0.000      0.5000E-01   0.000    
       6  0.3818E-02  0.6364E-03 SPRIN         11   0.0%   49.93      0.5000E-03   0.000     -0.6947E-01   0.000      0.5000E-01   0.000    
       7  0.4455E-02  0.6364E-03 SPRIN         11   0.0%   49.92      0.5000E-03   0.000     -0.8219E-01   0.000      0.5000E-01   0.000    
       8  0.5091E-02  0.6364E-03 SPRIN         11   0.0%   49.90      0.5000E-03   0.000     -0.9491E-01   0.000      0.5000E-01   0.000    
       9  0.5728E-02  0.6364E-03 SPRIN         11   0.0%   49.89      0.5000E-03   0.000     -0.1076       0.000      0.5000E-01   0.000    
      10  0.6364E-02  0.6364E-03 SPRIN         11   0.0%   49.88      0.5000E-03   0.000     -0.1203       0.000      0.5000E-01   0.000    
      11  0.7000E-02  0.6364E-03 SPRIN         11  -0.0%   49.87      0.5000E-03   0.000     -0.1330       0.000      0.5000E-01   0.000    
      12  0.7637E-02  0.6364E-03 SPRIN         11  -0.0%   49.85      0.5000E-03   0.000     -0.1458       0.000      0.5000E-01   0.000    
      13  0.8273E-02  0.6364E-03 SPRIN         11  -0.0%   49.84      0.5000E-03   0.000     -0.1585       0.000      0.5000E-01   0.000    
      14  0.8910E-02  0.6364E-03 SPRIN         11  -0.0%   49.83      0.5000E-03   0.000     -0.1712       0.000      0.5000E-01   0.000    
      15  0.9546E-02  0.6364E-03 SPRIN         11  -0.0%   49.82      0.5000E-03   0.000     -0.1839       0.000      0.5000E-01   0.000    
      16  0.1018E-01  0.6364E-03 SPRIN         11  -0.0%   49.80      0.5000E-03   0.000     -0.1966       0.000      0.5000E-01   0.000    
      17  0.1082E-01  0.6364E-03 SPRIN         11  -0.0%   49.79      0.5000E-03   0.000     -0.2093       0.000      0.5000E-01   0.000    
      18  0.1146E-01  0.6364E-03 SPRIN         11  -0.0%   49.78      0.5000E-03   0.000     -0.2220       0.000      0.5000E-01   0.000    
      19  0.1209E-01  0.6364E-03 SPRIN         11  -0.0%   49.76      0.5000E-03   0.000     -0.2347       0.000      0.5000E-01   0.000    
      20  0.1273E-01  0.6364E-03 SPRIN         11   0.0%   49.75      0.5000E-03   0.000     -0.2474       0.000      0.5000E-01   0.000    
      21  0.1336E-01  0.6364E-03 SPRIN         11   0.0%   49.74      0.5000E-03   0.000     -0.2601       0.000      0.5000E-01   0.000    
      22  0.1400E-01  0.6364E-03 SPRIN         11   0.0%   49.73      0.5000E-03   0.000     -0.2728       0.000      0.5000E-01   0.000    
      23  0.1464E-01  0.6364E-03 SPRIN         11   0.0%   49.71      0.5000E-03   0.000     -0.2854       0.000      0.5000E-01   0.000    
      24  0.1527E-01  0.6364E-03 SPRIN         11   0.0%   49.70      0.5000E-03   0.000     -0.2981       0.000      0.5000E-01   0.000    
      25  0.1591E-01  0.6364E-03 SPRIN         11   0.0%   49.69      0.5000E-03   0.000     -0.3108       0.000      0.5000E-01   0.000    
      26  0.1655E-01  0.6364E-03 SPRIN         11  -0.0%   49.68      0.5000E-03   0.000     -0.3235       0.000      0.5000E-01   0.000    
      27  0.1718E-01  0.6364E-03 SPRIN         11  -0.0%   49.66      0.5000E-03   0.000     -0.3362       0.000      0.5000E-01   0.000    
      28  0.1782E-01  0.6364E-03 SPRIN         11  -0.0%   49.65      0.5000E-03   0.000     -0.3489       0.000      0.5000E-01   0.000    
      29  0.1846E-01  0.6364E-03 SPRIN         11  -0.0%   49.64      0.5000E-03   0.000     -0.3616       0.000      0.5000E-01   0.000    
      30  0.1909E-01  0.6364E-03 SPRIN         11  -0.0%   49.63      0.5000E-03   0.000     -0.3742       0.000      0.5000E-01   0.000    
      31  0.1973E-01  0.6364E-03 SPRIN         11  -0.0%   49.61      0.5000E-03   0.000     -0.3869       0.000      0.5000E-01   0.000    
      32  0.2036E-01  0.6364E-03 SPRIN         11  -0.0%   49.60      0.5000E-03   0.000     -0.3996       0.000      0.5000E-01   0.000    
      33  0.2100E-01  0.6364E-03 SPRIN         11  -0.0%   49.59      0.5000E-03   0.000     -0.4123       0.000      0.5000E-01   0.000    
      34  0.2164E-01  0.6364E-03 SPRIN         11  -0.0%   49.57      0.5000E-03   0.000     -0.4249       0.000      0.5000E-01   0.000    
      35  0.2227E-01  0.6364E-03 SPRIN         11  -0.0%   49.56      0.5000E-03   0.000     -0.4376       0.000      0.5000E-01   0.000    
      36  0.2291E-01  0.6364E-03 SPRIN         11  -0.0%   49.55      0.5000E-03   0.000     -0.4503       0.000      0.5000E-01   0.000    
      37  0.2355E-01  0.6364E-03 SPRIN         11   0.0%   49.54      0.5000E-03   0.000     -0.4630       0.000      0.5000E-01   0.000    
      38  0.2418E-01  0.6364E-03 SPRIN         11   0.0%   49.52      0.5000E-03   0.000     -0.4756       0.000      0.5000E-01   0.000    
      39  0.2482E-01  0.6364E-03 SPRIN         11   0.0%   49.51      0.5000E-03   0.000     -0.4883       0.000      0.5000E-01   0.000    
      40  0.2546E-01  0.6364E-03 SPRIN         11   0.0%   49.50      0.5000E-03   0.000     -0.5010       0.000      0.5000E-01   0.000    
      41  0.2609E-01  0.6364E-03 SPRIN         11   0.0%   49.49      0.5000E-03   0.000     -0.5136       0.000      0.5000E-01   0.000    
      42  0.2673E-01  0.6364E-03 SPRIN         11   0.0%   49.47      0.5000E-03   0.000     -0.5263       0.000      0.5000E-01   0.000    
      43  0.2737E-01  0.6364E-03 SPRIN         11  -0.0%   49.46      0.5000E-03   0.000     -0.5389       0.000      0.5000E-01   0.000    
      44  0.2800E-01  0.6364E-03 SPRIN         11  -0.0%   49.45      0.5000E-03   0.000     -0.5516       0.000      0.5000E-01   0.000    
      45  0.2864E-01  0.6364E-03 SPRIN         11  -0.0%   49.44      0.5000E-03   0.000     -0.5643       0.000      0.5000E-01   0.000    
      46  0.2927E-01  0.6364E-03 SPRIN         11  -0.0%   49.42      0.5000E-03   0.000     -0.5769       0.000      0.5000E-01   0.000    
      47  0.2991E-01  0.6364E-03 SPRIN         11  -0.0%   49.41      0.5000E-03   0.000     -0.5896       0.000      0.5000E-01   0.000    
      48  0.3055E-01  0.6364E-03 SPRIN         11  -0.0%   49.40      0.5000E-03   0.000     -0.6022       0.000      0.5000E-01   0.000    
      49  0.3118E-01  0.6364E-03 SPRIN         11  -0.0%   49.38      0.5000E-03   0.000     -0.6149       0.000      0.5000E-01   0.000    
      50  0.3182E-01  0.6364E-03 SPRIN         11  -0.0%   49.37      0.5000E-03   0.000     -0.6275       0.000      0.5000E-01   0.000    
      51  0.3246E-01  0.6364E-03 SPRIN         11  -0.0%   49.36      0.5000E-03   0.000     -0.6402       0.000      0.5000E-01   0.000    
      52  0.3309E-01  0.6364E-03 SPRIN         11   0.0%   49.35      0.5000E-03   0.000     -0.6528       0.000      0.5000E-01   0.000    
      53  0.3373E-01  0.6364E-03 SPRIN         11   0.0%   49.33      0.5000E-03   0.000     -0.6654       0.000      0.5000E-01   0.000    
      54  0.3437E-01  0.6364E-03 SPRIN         11   0.0%   49.32      0.5000E-03   0.000     -0.6781       0.000      0.5000E-01   0.000    
   CYCLE    TIME      TIME-STEP  ELEMENT          ERROR  I-ENERGY    K-ENERGY T  K-ENERGY R  EXT-WORK     MAS.ERR     TOTAL MASS  MASS ADDED
      55  0.3500E-01  0.6364E-03 SPRIN         11   0.0%   49.31      0.5000E-03   0.000     -0.6907       0.000      0.5000E-01   0.000    
      56  0.3564E-01  0.6364E-03 SPRIN         11   0.0%   49.30      0.5000E-03   0.000     -0.7034       0.000      0.5000E-01   0.000    
      57  0.3627E-01  0.6364E-03 SPRIN         11   0.0%   49.28      0.5000E-03   0.000     -0.7160       0.000      0.5000E-01   0.000    
      58  0.3691E-01  0.6364E-03 SPRIN         11   0.0%   49.27      0.5000E-03   0.000     -0.7286       0.000      0.5000E-01   0.000    
      59  0.3755E-01  0.6364E-03 SPRIN         11   0.0%   49.26      0.5000E-03   0.000     -0.7413       0.000      0.5000E-01   0.000    
      60  0.3818E-01  0.6364E-03 SPRIN         11   0.0%   49.25      0.5000E-03   0.000     -0.7539       0.000      0.5000E-01   0.000    
      61  0.3882E-01  0.6364E-03 SPRIN         11   0.0%   49.23      0.5000E-03   0.000     -0.7665       0.000      0.5000E-01   0.000    
      62  0.3946E-01  0.6364E-03 SPRIN         11   0.0%   49.22      0.5000E-03   0.000     -0.7792       0.000      0.5000E-01   0.000    
      63  0.4009E-01  0.6364E-03 SPRIN         11   0.0%   49.21      0.5000E-03   0.000     -0.7918       0.000      0.5000E-01   0.000    
      64  0.4073E-01  0.6364E-03 SPRIN         11   0.0%   49.20      0.5000E-03   0.000     -0.8044       0.000      0.5000E-01   0.000    
      65  0.4137E-01  0.6364E-03 SPRIN         11  -0.0%   49.18      0.5000E-03   0.000     -0.8170       0.000      0.5000E-01   0.000    
      66  0.4200E-01  0.6364E-03 SPRIN         11  -0.0%   49.17      0.5000E-03   0.000     -0.8297       0.000      0.5000E-01   0.000    
      67  0.4264E-01  0.6364E-03 SPRIN         11  -0.0%   49.16      0.5000E-03   0.000     -0.8423       0.000      0.5000E-01   0.000    
      68  0.4327E-01  0.6364E-03 SPRIN         11  -0.0%   49.14      0.5000E-03   0.000     -0.8549       0.000      0.5000E-01   0.000    
      69  0.4391E-01  0.6364E-03 SPRIN         11  -0.0%   49.13      0.5000E-03   0.000     -0.8675       0.000      0.5000E-01   0.000    
      70  0.4455E-01  0.6364E-03 SPRIN         11   0.0%   49.12      0.5000E-03   0.000     -0.8801       0.000      0.5000E-01   0.000    
      71  0.4518E-01  0.6364E-03 SPRIN         11   0.0%   49.11      0.5000E-03   0.000     -0.8927       0.000      0.5000E-01   0.000    
      72  0.4582E-01  0.6364E-03 SPRIN         11   0.0%   49.09      0.5000E-03   0.000     -0.9053       0.000      0.5000E-01   0.000    
      73  0.4646E-01  0.6364E-03 SPRIN         11   0.0%   49.08      0.5000E-03   0.000     -0.9180       0.000      0.5000E-01   0.000    
      74  0.4709E-01  0.6364E-03 SPRIN         11   0.0%   49.07      0.5000E-03   0.000     -0.9306       0.000      0.5000E-01   0.000    
      75  0.4773E-01  0.6364E-03 SPRIN         11   0.0%   49.06      0.5000E-03   0.000     -0.9432       0.000      0.5000E-01   0.000    
      76  0.4837E-01  0.6364E-03 SPRIN         11   0.0%   49.04      0.5000E-03   0.000     -0.9558       0.000      0.5000E-01   0.000    
      77  0.4900E-01  0.6364E-03 SPRIN         11   0.0%   49.03      0.5000E-03   0.000     -0.9684       0.000      0.5000E-01   0.000    
      78  0.4964E-01  0.6364E-03 SPRIN         11   0.0%   49.02      0.5000E-03   0.000     -0.9810       0.000      0.5000E-01   0.000    
      79  0.5028E-01  0.6364E-03 SPRIN         11   0.0%   49.01      0.5000E-03   0.000     -0.9936       0.000      0.5000E-01   0.000    
      80  0.5091E-01  0.6364E-03 SPRIN         11   0.0%   48.99      0.5000E-03   0.000      -1.006       0.000      0.5000E-01   0.000    
      81  0.5155E-01  0.6364E-03 SPRIN         11   0.0%   48.98      0.5000E-03   0.000      -1.019       0.000      0.5000E-01   0.000    
      82  0.5218E-01  0.6364E-03 SPRIN         11  -0.0%   48.97      0.5000E-03   0.000      -1.031       0.000      0.5000E-01   0.000    
      83  0.5282E-01  0.6364E-03 SPRIN         11  -0.0%   48.96      0.5000E-03   0.000      -1.044       0.000      0.5000E-01   0.000    
      84  0.5346E-01  0.6364E-03 SPRIN         11  -0.0%   48.94      0.5000E-03   0.000      -1.057       0.000      0.5000E-01   0.000    
      85  0.5409E-01  0.6364E-03 SPRIN         11  -0.0%   48.93      0.5000E-03   0.000      -1.069       0.000      0.5000E-01   0.000    
      86  0.5473E-01  0.6364E-03 SPRIN         11  -0.0%   48.92      0.5000E-03   0.000      -1.082       0.000      0.5000E-01   0.000    
      87  0.5537E-01  0.6364E-03 SPRIN         11   0.0%   48.91      0.5000E-03   0.000      -1.094       0.000      0.5000E-01   0.000    
      88  0.5600E-01  0.6364E-03 SPRIN         11   0.0%   48.89      0.5000E-03   0.000      -1.107       0.000      0.5000E-01   0.000    
      89  0.5664E-01  0.6364E-03 SPRIN         11   0.0%   48.88      0.5000E-03   0.000      -1.120       0.000      0.5000E-01   0.000    
      90  0.5728E-01  0.6364E-03 SPRIN         11   0.0%   48.87      0.5000E-03   0.000      -1.132       0.000      0.5000E-01   0.000    
      91  0.5791E-01  0.6364E-03 SPRIN         11   0.0%   48.85      0.5000E-03   0.000      -1.145       0.000      0.5000E-01   0.000    
      92  0.5855E-01  0.6364E-03 SPRIN         11   0.0%   48.84      0.5000E-03   0.000      -1.157       0.000      0.5000E-01   0.000    
      93  0.5918E-01  0.6364E-03 SPRIN         11   0.0%   48.83      0.5000E-03   0.000      -1.170       0.000      0.5000E-01   0.000    
      94  0.5982E-01  0.6364E-03 SPRIN         11   0.0%   48.82      0.5000E-03   0.000      -1.182       0.000      0.5000E-01   0.000    
      95  0.6046E-01  0.6364E-03 SPRIN         11   0.0%   48.80      0.5000E-03   0.000      -1.195       0.000      0.5000E-01   0.000    
      96  0.6109E-01  0.6364E-03 SPRIN         11   0.0%   48.79      0.5000E-03   0.000      -1.208       0.000      0.5000E-01   0.000    
      97  0.6173E-01  0.6364E-03 SPRIN         11   0.0%   48.78      0.5000E-03   0.000      -1.220       0.000      0.5000E-01   0.000    
      98  0.6237E-01  0.6364E-03 SPRIN         11   0.0%   48.77      0.5000E-03   0.000      -1.233       0.000      0.5000E-01   0.000    
      99  0.6300E-01  0.6364E-03 SPRIN         11   0.0%   48.75      0.5000E-03   0.000      -1.245       0.000      0.5000E-01   0.000    
     100  0.6364E-01  0.6364E-03 SPRIN         11   0.0%   48.74      0.5000E-03   0.000      -1.258       0.000      0.5000E-01   0.000    
     101  0.6428E-01  0.6364E-03 SPRIN         11   0.0%   48.73      0.5000E-03   0.000      -1.270       0.000      0.5000E-01   0.000    
     102  0.6491E-01  0.6364E-03 SPRIN         11  -0.0%   48.72      0.5000E-03   0.000      -1.283       0.000      0.5000E-01   0.000    
     103  0.6555E-01  0.6364E-03 SPRIN         11  -0.0%   48.70      0.5000E-03   0.000      -1.296       0.000      0.5000E-01   0.000    
     104  0.6619E-01  0.6364E-03 SPRIN         11  -0.0%   48.69      0.5000E-03   0.000      -1.308       0.000      0.5000E-01   0.000    
     105  0.6682E-01  0.6364E-03 SPRIN         11  -0.0%   48.68      0.5000E-03   0.000      -1.321       0.000      0.5000E-01   0.000    
     106  0.6746E-01  0.6364E-03 SPRIN         11   0.0%   48.67      0.5000E-03   0.000      -1.333       0.000      0.5000E-01   0.000    
     107  0.6809E-01  0.6364E-03 SPRIN         11   0.0%   48.65      0.5000E-03   0.000      -1.346       0.000      0.5000E-01   0.000    
     108  0.6873E-01  0.6364E-03 SPRIN         11   0.0%   48.64      0.5000E-03   0.000      -1.358       0.000      0.5000E-01   0.000    
     109  0.6937E-01  0.6364E-03 SPRIN         11   0.0%   48.63      0.5000E-03   0.000      -1.371       0.000      0.5000E-01   0.000    
   CYCLE    TIME      TIME-STEP  ELEMENT          ERROR  I-ENERGY    K-ENERGY T  K-ENERGY R  EXT-WORK     MAS.ERR     TOTAL MASS  MASS ADDED
     110  0.7000E-01  0.6364E-03 SPRIN         11   0.0%   48.62      0.5000E-03   0.000      -1.383       0.000      0.5000E-01   0.000    
     111  0.7064E-01  0.6364E-03 SPRIN         11   0.0%   48.60      0.5000E-03   0.000      -1.396       0.000      0.5000E-01   0.000    
     112  0.7128E-01  0.6364E-03 SPRIN         11   0.0%   48.59      0.5000E-03   0.000      -1.409       0.000      0.5000E-01   0.000    
     113  0.7191E-01  0.6364E-03 SPRIN         11   0.0%   48.58      0.5000E-03   0.000      -1.421       0.000      0.5000E-01   0.000    
     114  0.7255E-01  0.6364E-03 SPRIN         11   0.0%   48.57      0.5000E-03   0.000      -1.434       0.000      0.5000E-01   0.000    
     115  0.7319E-01  0.6364E-03 SPRIN         11   0.0%   48.55      0.5000E-03   0.000      -1.446       0.000      0.5000E-01   0.000    
     116  0.7382E-01  0.6364E-03 SPRIN         11   0.0%   48.54      0.5000E-03   0.000      -1.459       0.000      0.5000E-01   0.000    
     117  0.7446E-01  0.6364E-03 SPRIN         11  -0.0%   48.53      0.5000E-03   0.000      -1.471       0.000      0.5000E-01   0.000    
     118  0.7509E-01  0.6364E-03 SPRIN         11  -0.0%   48.52      0.5000E-03   0.000      -1.484       0.000      0.5000E-01   0.000    
     119  0.7573E-01  0.6364E-03 SPRIN         11  -0.0%   48.50      0.5000E-03   0.000      -1.496       0.000      0.5000E-01   0.000    
     120  0.7637E-01  0.6364E-03 SPRIN         11  -0.0%   48.49      0.5000E-03   0.000      -1.509       0.000      0.5000E-01   0.000    
     121  0.7700E-01  0.6364E-03 SPRIN         11  -0.0%   48.48      0.5000E-03   0.000      -1.521       0.000      0.5000E-01   0.000    
     122  0.7764E-01  0.6364E-03 SPRIN         11  -0.0%   48.47      0.5000E-03   0.000      -1.534       0.000      0.5000E-01   0.000    
     123  0.7828E-01  0.6364E-03 SPRIN         11  -0.0%   48.45      0.5000E-03   0.000      -1.546       0.000      0.5000E-01   0.000    
     124  0.7891E-01  0.6364E-03 SPRIN         11   0.0%   48.44      0.5000E-03   0.000      -1.559       0.000      0.5000E-01   0.000    
     125  0.7955E-01  0.6364E-03 SPRIN         11   0.0%   48.43      0.5000E-03   0.000      -1.571       0.000      0.5000E-01   0.000    
     126  0.8019E-01  0.6364E-03 SPRIN         11   0.0%   48.42      0.5000E-03   0.000      -1.584       0.000      0.5000E-01   0.000    
     127  0.8082E-01  0.6364E-03 SPRIN         11   0.0%   48.40      0.5000E-03   0.000      -1.597       0.000      0.5000E-01   0.000    
     128  0.8146E-01  0.6364E-03 SPRIN         11   0.0%   48.39      0.5000E-03   0.000      -1.609       0.000      0.5000E-01   0.000    
     129  0.8210E-01  0.6364E-03 SPRIN         11   0.0%   48.38      0.5000E-03   0.000      -1.622       0.000      0.5000E-01   0.000    
     130  0.8273E-01  0.6364E-03 SPRIN         11   0.0%   48.37      0.5000E-03   0.000      -1.634       0.000      0.5000E-01   0.000    
     131  0.8337E-01  0.6364E-03 SPRIN         11   0.0%   48.35      0.5000E-03   0.000      -1.647       0.000      0.5000E-01   0.000    
     132  0.8400E-01  0.6364E-03 SPRIN         11   0.0%   48.34      0.5000E-03   0.000      -1.659       0.000      0.5000E-01   0.000    
     133  0.8464E-01  0.6364E-03 SPRIN         11   0.0%   48.33      0.5000E-03   0.000      -1.672       0.000      0.5000E-01   0.000    
     134  0.8528E-01  0.6364E-03 SPRIN         11   0.0%   48.32      0.5000E-03   0.000      -1.684       0.000      0.5000E-01   0.000    
     135  0.8591E-01  0.6364E-03 SPRIN         11  -0.0%   48.30      0.5000E-03   0.000      -1.697       0.000      0.5000E-01   0.000    
     136  0.8655E-01  0.6364E-03 SPRIN         11  -0.0%   48.29      0.5000E-03   0.000      -1.709       0.000      0.5000E-01   0.000    
     137  0.8719E-01  0.6364E-03 SPRIN         11  -0.0%   48.28      0.5000E-03   0.000      -1.722       0.000      0.5000E-01   0.000    
     138  0.8782E-01  0.6364E-03 SPRIN         11  -0.0%   48.27      0.5000E-03   0.000      -1.734       0.000      0.5000E-01   0.000    
     139  0.8846E-01  0.6364E-03 SPRIN         11   0.0%   48.25      0.5000E-03   0.000      -1.747       0.000      0.5000E-01   0.000    
     140  0.8910E-01  0.6364E-03 SPRIN         11   0.0%   48.24      0.5000E-03   0.000      -1.759       0.000      0.5000E-01   0.000    
     141  0.8973E-01  0.6364E-03 SPRIN         11   0.0%   48.23      0.5000E-03   0.000      -1.772       0.000      0.5000E-01   0.000    
     142  0.9037E-01  0.6364E-03 SPRIN         11   0.0%   48.22      0.5000E-03   0.000      -1.784       0.000      0.5000E-01   0.000    
     143  0.9100E-01  0.6364E-03 SPRIN         11   0.0%   48.20      0.5000E-03   0.000      -1.797       0.000      0.5000E-01   0.000    
     144  0.9164E-01  0.6364E-03 SPRIN         11   0.0%   48.19      0.5000E-03   0.000      -1.809       0.000      0.5000E-01   0.000    
     145  0.9228E-01  0.6364E-03 SPRIN         11   0.0%   48.18      0.5000E-03   0.000      -1.822       0.000      0.5000E-01   0.000    
     146  0.9291E-01  0.6364E-03 SPRIN         11   0.0%   48.17      0.5000E-03   0.000      -1.834       0.000      0.5000E-01   0.000    
     147  0.9355E-01  0.6364E-03 SPRIN         11   0.0%   48.15      0.5000E-03   0.000      -1.847       0.000      0.5000E-01   0.000    
     148  0.9419E-01  0.6364E-03 SPRIN         11   0.0%   48.14      0.5000E-03   0.000      -1.859       0.000      0.5000E-01   0.000    
     149  0.9482E-01  0.6364E-03 SPRIN         11   0.0%   48.13      0.5000E-03   0.000      -1.872       0.000      0.5000E-01   0.000    
     150  0.9546E-01  0.6364E-03 SPRIN         11   0.0%   48.12      0.5000E-03   0.000      -1.884       0.000      0.5000E-01   0.000    
     151  0.9610E-01  0.6364E-03 SPRIN         11   0.0%   48.10      0.5000E-03   0.000      -1.897       0.000      0.5000E-01   0.000    
     152  0.9673E-01  0.6364E-03 SPRIN         11   0.0%   48.09      0.5000E-03   0.000      -1.909       0.000      0.5000E-01   0.000    
     153  0.9737E-01  0.6364E-03 SPRIN         11   0.0%   48.08      0.5000E-03   0.000      -1.922       0.000      0.5000E-01   0.000    
     154  0.9800E-01  0.6364E-03 SPRIN         11   0.0%   48.07      0.5000E-03   0.000      -1.934       0.000      0.5000E-01   0.000    
     155  0.9864E-01  0.6364E-03 SPRIN         11  -0.0%   48.05      0.5000E-03   0.000      -1.947       0.000      0.5000E-01   0.000    
     156  0.9928E-01  0.6364E-03 SPRIN         11  -0.0%   48.04      0.5000E-03   0.000      -1.959       0.000      0.5000E-01   0.000    
     157  0.9991E-01  0.6364E-03 SPRIN         11  -0.0%   48.03      0.5000E-03   0.000      -1.971       0.000      0.5000E-01   0.000    
     158  0.1006      0.6364E-03 SPRIN         11   0.0%   48.02      0.5000E-03   0.000      -1.984       0.000      0.5000E-01   0.000    
     159  0.1012      0.6364E-03 SPRIN         11   0.0%   48.00      0.5000E-03   0.000      -1.996       0.000      0.5000E-01   0.000    
     160  0.1018      0.6364E-03 SPRIN         11   0.0%   47.99      0.5000E-03   0.000      -2.009       0.000      0.5000E-01   0.000    
     161  0.1025      0.6364E-03 SPRIN         11   0.0%   47.98      0.5000E-03   0.000      -2.021       0.000      0.5000E-01   0.000    
     162  0.1031      0.6364E-03 SPRIN         11   0.0%   47.97      0.5000E-03   0.000      -2.034       0.000      0.5000E-01   0.000    
     163  0.1037      0.6364E-03 SPRIN         11   0.0%   47.95      0.5000E-03   0.000      -2.046       0.000      0.5000E-01   0.000    
     164  0.1044      0.6364E-03 SPRIN         11   0.0%   47.94      0.5000E-03   0.000      -2.059       0.000      0.5000E-01   0.000    
   CYCLE    TIME      TIME-STEP  ELEMENT          ERROR  I-ENERGY    K-ENERGY T  K-ENERGY R  EXT-WORK     MAS.ERR     TOTAL MASS  MASS ADDED
     165  0.1050      0.6364E-03 SPRIN         11   0.0%   47.93      0.5000E-03   0.000      -2.071       0.000      0.5000E-01   0.000    
     166  0.1056      0.6364E-03 SPRIN         11   0.0%   47.92      0.5000E-03   0.000      -2.084       0.000      0.5000E-01   0.000    
     167  0.1063      0.6364E-03 SPRIN         11   0.0%   47.90      0.5000E-03   0.000      -2.096       0.000      0.5000E-01   0.000    
     168  0.1069      0.6364E-03 SPRIN         11   0.0%   47.89      0.5000E-03   0.000      -2.109       0.000      0.5000E-01   0.000    
     169  0.1076      0.6364E-03 SPRIN         11   0.0%   47.88      0.5000E-03   0.000      -2.121       0.000      0.5000E-01   0.000    
     170  0.1082      0.6364E-03 SPRIN         11   0.0%   47.87      0.5000E-03   0.000      -2.133       0.000      0.5000E-01   0.000    
     171  0.1088      0.6364E-03 SPRIN         11   0.0%   47.85      0.5000E-03   0.000      -2.146       0.000      0.5000E-01   0.000    
     172  0.1095      0.6364E-03 SPRIN         11   0.0%   47.84      0.5000E-03   0.000      -2.158       0.000      0.5000E-01   0.000    
     173  0.1101      0.6364E-03 SPRIN         11  -0.0%   47.83      0.5000E-03   0.000      -2.171       0.000      0.5000E-01   0.000    
     174  0.1107      0.6364E-03 SPRIN         11   0.0%   47.82      0.5000E-03   0.000      -2.183       0.000      0.5000E-01   0.000    
     175  0.1114      0.6364E-03 SPRIN         11   0.0%   47.80      0.5000E-03   0.000      -2.196       0.000      0.5000E-01   0.000    
     176  0.1120      0.6364E-03 SPRIN         11   0.0%   47.79      0.5000E-03   0.000      -2.208       0.000      0.5000E-01   0.000    
     177  0.1126      0.6364E-03 SPRIN         11   0.0%   47.78      0.5000E-03   0.000      -2.221       0.000      0.5000E-01   0.000    
     178  0.1133      0.6364E-03 SPRIN         11   0.0%   47.77      0.5000E-03   0.000      -2.233       0.000      0.5000E-01   0.000    
     179  0.1139      0.6364E-03 SPRIN         11   0.0%   47.75      0.5000E-03   0.000      -2.245       0.000      0.5000E-01   0.000    
     180  0.1146      0.6364E-03 SPRIN         11   0.0%   47.74      0.5000E-03   0.000      -2.258       0.000      0.5000E-01   0.000    
     181  0.1152      0.6364E-03 SPRIN         11   0.0%   47.73      0.5000E-03   0.000      -2.270       0.000      0.5000E-01   0.000    
     182  0.1158      0.6364E-03 SPRIN         11   0.0%   47.72      0.5000E-03   0.000      -2.283       0.000      0.5000E-01   0.000    
     183  0.1165      0.6364E-03 SPRIN         11   0.0%   47.70      0.5000E-03   0.000      -2.295       0.000      0.5000E-01   0.000    
     184  0.1171      0.6364E-03 SPRIN         11   0.0%   47.69      0.5000E-03   0.000      -2.308       0.000      0.5000E-01   0.000    
     185  0.1177      0.6364E-03 SPRIN         11   0.0%   47.68      0.5000E-03   0.000      -2.320       0.000      0.5000E-01   0.000    
     186  0.1184      0.6364E-03 SPRIN         11   0.0%   47.67      0.5000E-03   0.000      -2.333       0.000      0.5000E-01   0.000    
     187  0.1190      0.6364E-03 SPRIN         11   0.0%   47.65      0.5000E-03   0.000      -2.345       0.000      0.5000E-01   0.000    
     188  0.1196      0.6364E-03 SPRIN         11   0.0%   47.64      0.5000E-03   0.000      -2.357       0.000      0.5000E-01   0.000    
     189  0.1203      0.6364E-03 SPRIN         11   0.0%   47.63      0.5000E-03   0.000      -2.370       0.000      0.5000E-01   0.000    
     190  0.1209      0.6364E-03 SPRIN         11   0.0%   47.62      0.5000E-03   0.000      -2.382       0.000      0.5000E-01   0.000    
     191  0.1216      0.6364E-03 SPRIN         11   0.0%   47.60      0.5000E-03   0.000      -2.395       0.000      0.5000E-01   0.000    
     192  0.1222      0.6364E-03 SPRIN         11  -0.0%   47.59      0.5000E-03   0.000      -2.407       0.000      0.5000E-01   0.000    
     193  0.1228      0.6364E-03 SPRIN         11   0.0%   47.58      0.5000E-03   0.000      -2.419       0.000      0.5000E-01   0.000    
     194  0.1235      0.6364E-03 SPRIN         11   0.0%   47.57      0.5000E-03   0.000      -2.432       0.000      0.5000E-01   0.000    
     195  0.1241      0.6364E-03 SPRIN         11   0.0%   47.56      0.5000E-03   0.000      -2.444       0.000      0.5000E-01   0.000    
     196  0.1247      0.6364E-03 SPRIN         11   0.0%   47.54      0.5000E-03   0.000      -2.457       0.000      0.5000E-01   0.000    
     197  0.1254      0.6364E-03 SPRIN         11   0.0%   47.53      0.5000E-03   0.000      -2.469       0.000      0.5000E-01   0.000    
     198  0.1260      0.6364E-03 SPRIN         11   0.0%   47.52      0.5000E-03   0.000      -2.482       0.000      0.5000E-01   0.000    
     199  0.1266      0.6364E-03 SPRIN         11   0.0%   47.51      0.5000E-03   0.000      -2.494       0.000      0.5000E-01   0.000    
     200  0.1273      0.6364E-03 SPRIN         11   0.0%   47.49      0.5000E-03   0.000      -2.506       0.000      0.5000E-01   0.000    
     201  0.1279      0.6364E-03 SPRIN         11   0.0%   47.48      0.5000E-03   0.000      -2.519       0.000      0.5000E-01   0.000    
     202  0.1286      0.6364E-03 SPRIN         11   0.0%   47.47      0.5000E-03   0.000      -2.531       0.000      0.5000E-01   0.000    
     203  0.1292      0.6364E-03 SPRIN         11   0.0%   47.46      0.5000E-03   0.000      -2.544       0.000      0.5000E-01   0.000    
     204  0.1298      0.6364E-03 SPRIN         11   0.0%   47.44      0.5000E-03   0.000      -2.556       0.000      0.5000E-01   0.000    
     205  0.1305      0.6364E-03 SPRIN         11   0.0%   47.43      0.5000E-03   0.000      -2.568       0.000      0.5000E-01   0.000    
     206  0.1311      0.6364E-03 SPRIN         11   0.0%   47.42      0.5000E-03   0.000      -2.581       0.000      0.5000E-01   0.000    
     207  0.1317      0.6364E-03 SPRIN         11   0.0%   47.41      0.5000E-03   0.000      -2.593       0.000      0.5000E-01   0.000    
     208  0.1324      0.6364E-03 SPRIN         11   0.0%   47.39      0.5000E-03   0.000      -2.605       0.000      0.5000E-01   0.000    
     209  0.1330      0.6364E-03 SPRIN         11   0.0%   47.38      0.5000E-03   0.000      -2.618       0.000      0.5000E-01   0.000    
     210  0.1336      0.6364E-03 SPRIN         11  -0.0%   47.37      0.5000E-03   0.000      -2.630       0.000      0.5000E-01   0.000    
     211  0.1343      0.6364E-03 SPRIN         11   0.0%   47.36      0.5000E-03   0.000      -2.643       0.000      0.5000E-01   0.000    
     212  0.1349      0.6364E-03 SPRIN         11   0.0%   47.34      0.5000E-03   0.000      -2.655       0.000      0.5000E-01   0.000    
     213  0.1356      0.6364E-03 SPRIN         11   0.0%   47.33      0.5000E-03   0.000      -2.667       0.000      0.5000E-01   0.000    
     214  0.1362      0.6364E-03 SPRIN         11   0.0%   47.32      0.5000E-03   0.000      -2.680       0.000      0.5000E-01   0.000    
     215  0.1368      0.6364E-03 SPRIN         11   0.0%   47.31      0.5000E-03   0.000      -2.692       0.000      0.5000E-01   0.000    
     216  0.1375      0.6364E-03 SPRIN         11   0.0%   47.29      0.5000E-03   0.000      -2.705       0.000      0.5000E-01   0.000    
     217  0.1381      0.6364E-03 SPRIN         11   0.0%   47.28      0.5000E-03   0.000      -2.717       0.000      0.5000E-01   0.000    
     218  0.1387      0.6364E-03 SPRIN         11   0.0%   47.27      0.5000E-03   0.000      -2.729       0.000      0.5000E-01   0.000    
     219  0.1394      0.6364E-03 SPRIN         11   0.0%   47.26      0.5000E-03   0.000      -2.742       0.000      0.5000E-01   0.000    
   CYCLE    TIME      TIME-STEP  ELEMENT          ERROR  I-ENERGY    K-ENERGY T  K-ENERGY R  EXT-WORK     MAS.ERR     TOTAL MASS  MASS ADDED
     220  0.1400      0.6364E-03 SPRIN         11   0.0%   47.25      0.5000E-03   0.000      -2.754       0.000      0.5000E-01   0.000    
     221  0.1406      0.6364E-03 SPRIN         11   0.0%   47.23      0.5000E-03   0.000      -2.766       0.000      0.5000E-01   0.000    
     222  0.1413      0.6364E-03 SPRIN         11   0.0%   47.22      0.5000E-03   0.000      -2.779       0.000      0.5000E-01   0.000    
     223  0.1419      0.6364E-03 SPRIN         11   0.0%   47.21      0.5000E-03   0.000      -2.791       0.000      0.5000E-01   0.000    
     224  0.1426      0.6364E-03 SPRIN         11   0.0%   47.20      0.5000E-03   0.000      -2.804       0.000      0.5000E-01   0.000    
     225  0.1432      0.6364E-03 SPRIN         11   0.0%   47.18      0.5000E-03   0.000      -2.816       0.000      0.5000E-01   0.000    
     226  0.1438      0.6364E-03 SPRIN         11   0.0%   47.17      0.5000E-03   0.000      -2.828       0.000      0.5000E-01   0.000    
     227  0.1445      0.6364E-03 SPRIN         11  -0.0%   47.16      0.5000E-03   0.000      -2.841       0.000      0.5000E-01   0.000    
     228  0.1451      0.6364E-03 SPRIN         11  -0.0%   47.15      0.5000E-03   0.000      -2.853       0.000      0.5000E-01   0.000    
     229  0.1457      0.6364E-03 SPRIN         11  -0.0%   47.13      0.5000E-03   0.000      -2.865       0.000      0.5000E-01   0.000    
     230  0.1464      0.6364E-03 SPRIN         11   0.0%   47.12      0.5000E-03   0.000      -2.878       0.000      0.5000E-01   0.000    
     231  0.1470      0.6364E-03 SPRIN         11   0.0%   47.11      0.5000E-03   0.000      -2.890       0.000      0.5000E-01   0.000    
     232  0.1476      0.6364E-03 SPRIN         11   0.0%   47.10      0.5000E-03   0.000      -2.902       0.000      0.5000E-01   0.000    
     233  0.1483      0.6364E-03 SPRIN         11   0.0%   47.08      0.5000E-03   0.000      -2.915       0.000      0.5000E-01   0.000    
     234  0.1489      0.6364E-03 SPRIN         11   0.0%   47.07      0.5000E-03   0.000      -2.927       0.000      0.5000E-01   0.000    
     235  0.1496      0.6364E-03 SPRIN         11   0.0%   47.06      0.5000E-03   0.000      -2.939       0.000      0.5000E-01   0.000    
     236  0.1502      0.6364E-03 SPRIN         11   0.0%   47.05      0.5000E-03   0.000      -2.952       0.000      0.5000E-01   0.000    
     237  0.1508      0.6364E-03 SPRIN         11   0.0%   47.04      0.5000E-03   0.000      -2.964       0.000      0.5000E-01   0.000    
     238  0.1515      0.6364E-03 SPRIN         11   0.0%   47.02      0.5000E-03   0.000      -2.976       0.000      0.5000E-01   0.000    
     239  0.1521      0.6364E-03 SPRIN         11   0.0%   47.01      0.5000E-03   0.000      -2.989       0.000      0.5000E-01   0.000    
     240  0.1527      0.6364E-03 SPRIN         11   0.0%   47.00      0.5000E-03   0.000      -3.001       0.000      0.5000E-01   0.000    
     241  0.1534      0.6364E-03 SPRIN         11   0.0%   46.99      0.5000E-03   0.000      -3.014       0.000      0.5000E-01   0.000    
     242  0.1540      0.6364E-03 SPRIN         11   0.0%   46.97      0.5000E-03   0.000      -3.026       0.000      0.5000E-01   0.000    
     243  0.1546      0.6364E-03 SPRIN         11   0.0%   46.96      0.5000E-03   0.000      -3.038       0.000      0.5000E-01   0.000    
     244  0.1553      0.6364E-03 SPRIN         11   0.0%   46.95      0.5000E-03   0.000      -3.051       0.000      0.5000E-01   0.000    
     245  0.1559      0.6364E-03 SPRIN         11  -0.0%   46.94      0.5000E-03   0.000      -3.063       0.000      0.5000E-01   0.000    
     246  0.1566      0.6364E-03 SPRIN         11   0.0%   46.92      0.5000E-03   0.000      -3.075       0.000      0.5000E-01   0.000    
     247  0.1572      0.6364E-03 SPRIN         11  -0.0%   46.91      0.5000E-03   0.000      -3.088       0.000      0.5000E-01   0.000    
     248  0.1578      0.6364E-03 SPRIN         11   0.0%   46.90      0.5000E-03   0.000      -3.100       0.000      0.5000E-01   0.000    
     249  0.1585      0.6364E-03 SPRIN         11   0.0%   46.89      0.5000E-03   0.000      -3.112       0.000      0.5000E-01   0.000    
     250  0.1591      0.6364E-03 SPRIN         11   0.0%   46.88      0.5000E-03   0.000      -3.124       0.000      0.5000E-01   0.000    
     251  0.1597      0.6364E-03 SPRIN         11   0.0%   46.86      0.5000E-03   0.000      -3.137       0.000      0.5000E-01   0.000    
     252  0.1604      0.6364E-03 SPRIN         11   0.0%   46.85      0.5000E-03   0.000      -3.149       0.000      0.5000E-01   0.000    
     253  0.1610      0.6364E-03 SPRIN         11   0.0%   46.84      0.5000E-03   0.000      -3.161       0.000      0.5000E-01   0.000    
     254  0.1616      0.6364E-03 SPRIN         11   0.0%   46.83      0.5000E-03   0.000      -3.174       0.000      0.5000E-01   0.000    
     255  0.1623      0.6364E-03 SPRIN         11   0.0%   46.81      0.5000E-03   0.000      -3.186       0.000      0.5000E-01   0.000    
     256  0.1629      0.6364E-03 SPRIN         11   0.0%   46.80      0.5000E-03   0.000      -3.198       0.000      0.5000E-01   0.000    
     257  0.1636      0.6364E-03 SPRIN         11   0.0%   46.79      0.5000E-03   0.000      -3.211       0.000      0.5000E-01   0.000    
     258  0.1642      0.6364E-03 SPRIN         11   0.0%   46.78      0.5000E-03   0.000      -3.223       0.000      0.5000E-01   0.000    
     259  0.1648      0.6364E-03 SPRIN         11   0.0%   46.76      0.5000E-03   0.000      -3.235       0.000      0.5000E-01   0.000    
     260  0.1655      0.6364E-03 SPRIN         11   0.0%   46.75      0.5000E-03   0.000      -3.248       0.000      0.5000E-01   0.000    
     261  0.1661      0.6364E-03 SPRIN         11   0.0%   46.74      0.5000E-03   0.000      -3.260       0.000      0.5000E-01   0.000    
     262  0.1667      0.6364E-03 SPRIN         11  -0.0%   46.73      0.5000E-03   0.000      -3.272       0.000      0.5000E-01   0.000    
     263  0.1674      0.6364E-03 SPRIN         11   0.0%   46.71      0.5000E-03   0.000      -3.285       0.000      0.5000E-01   0.000    
     264  0.1680      0.6364E-03 SPRIN         11   0.0%   46.70      0.5000E-03   0.000      -3.297       0.000      0.5000E-01   0.000    
     265  0.1686      0.6364E-03 SPRIN         11   0.0%   46.69      0.5000E-03   0.000      -3.309       0.000      0.5000E-01   0.000    
     266  0.1693      0.6364E-03 SPRIN         11   0.0%   46.68      0.5000E-03   0.000      -3.321       0.000      0.5000E-01   0.000    
     267  0.1699      0.6364E-03 SPRIN         11   0.0%   46.67      0.5000E-03   0.000      -3.334       0.000      0.5000E-01   0.000    
     268  0.1706      0.6364E-03 SPRIN         11   0.0%   46.65      0.5000E-03   0.000      -3.346       0.000      0.5000E-01   0.000    
     269  0.1712      0.6364E-03 SPRIN         11   0.0%   46.64      0.5000E-03   0.000      -3.358       0.000      0.5000E-01   0.000    
     270  0.1718      0.6364E-03 SPRIN         11   0.0%   46.63      0.5000E-03   0.000      -3.371       0.000      0.5000E-01   0.000    
     271  0.1725      0.6364E-03 SPRIN         11   0.0%   46.62      0.5000E-03   0.000      -3.383       0.000      0.5000E-01   0.000    
     272  0.1731      0.6364E-03 SPRIN         11   0.0%   46.60      0.5000E-03   0.000      -3.395       0.000      0.5000E-01   0.000    
     273  0.1737      0.6364E-03 SPRIN         11   0.0%   46.59      0.5000E-03   0.000      -3.407       0.000      0.5000E-01   0.000    
     274  0.1744      0.6364E-03 SPRIN         11   0.0%   46.58      0.5000E-03   0.000      -3.420       0.000      0.5000E-01   0.000    
   CYCLE    TIME      TIME-STEP  ELEMENT          ERROR  I-ENERGY    K-ENERGY T  K-ENERGY R  EXT-WORK     MAS.ERR     TOTAL MASS  MASS ADDED
     275  0.1750      0.6364E-03 SPRIN         11   0.0%   46.57      0.5000E-03   0.000      -3.432       0.000      0.5000E-01   0.000    
     276  0.1756      0.6364E-03 SPRIN         11   0.0%   46.56      0.5000E-03   0.000      -3.444       0.000      0.5000E-01   0.000    
     277  0.1763      0.6364E-03 SPRIN         11   0.0%   46.54      0.5000E-03   0.000      -3.457       0.000      0.5000E-01   0.000    
     278  0.1769      0.6364E-03 SPRIN         11   0.0%   46.53      0.5000E-03   0.000      -3.469       0.000      0.5000E-01   0.000    
     279  0.1776      0.6364E-03 SPRIN         11   0.0%   46.52      0.5000E-03   0.000      -3.481       0.000      0.5000E-01   0.000    
     280  0.1782      0.6364E-03 SPRIN         11   0.0%   46.51      0.5000E-03   0.000      -3.493       0.000      0.5000E-01   0.000    
     281  0.1788      0.6364E-03 SPRIN         11   0.0%   46.49      0.5000E-03   0.000      -3.506       0.000      0.5000E-01   0.000    
     282  0.1795      0.6364E-03 SPRIN         11   0.0%   46.48      0.5000E-03   0.000      -3.518       0.000      0.5000E-01   0.000    
     283  0.1801      0.6364E-03 SPRIN         11   0.0%   46.47      0.5000E-03   0.000      -3.530       0.000      0.5000E-01   0.000    
     284  0.1807      0.6364E-03 SPRIN         11   0.0%   46.46      0.5000E-03   0.000      -3.543       0.000      0.5000E-01   0.000    
     285  0.1814      0.6364E-03 SPRIN         11   0.0%   46.44      0.5000E-03   0.000      -3.555       0.000      0.5000E-01   0.000    
     286  0.1820      0.6364E-03 SPRIN         11   0.0%   46.43      0.5000E-03   0.000      -3.567       0.000      0.5000E-01   0.000    
     287  0.1826      0.6364E-03 SPRIN         11   0.0%   46.42      0.5000E-03   0.000      -3.579       0.000      0.5000E-01   0.000    
     288  0.1833      0.6364E-03 SPRIN         11   0.0%   46.41      0.5000E-03   0.000      -3.592       0.000      0.5000E-01   0.000    
     289  0.1839      0.6364E-03 SPRIN         11   0.0%   46.40      0.5000E-03   0.000      -3.604       0.000      0.5000E-01   0.000    
     290  0.1846      0.6364E-03 SPRIN         11   0.0%   46.38      0.5000E-03   0.000      -3.616       0.000      0.5000E-01   0.000    
     291  0.1852      0.6364E-03 SPRIN         11   0.0%   46.37      0.5000E-03   0.000      -3.628       0.000      0.5000E-01   0.000    
     292  0.1858      0.6364E-03 SPRIN         11   0.0%   46.36      0.5000E-03   0.000      -3.641       0.000      0.5000E-01   0.000    
     293  0.1865      0.6364E-03 SPRIN         11   0.0%   46.35      0.5000E-03   0.000      -3.653       0.000      0.5000E-01   0.000    
     294  0.1871      0.6364E-03 SPRIN         11   0.0%   46.33      0.5000E-03   0.000      -3.665       0.000      0.5000E-01   0.000    
     295  0.1877      0.6364E-03 SPRIN         11   0.0%   46.32      0.5000E-03   0.000      -3.677       0.000      0.5000E-01   0.000    
     296  0.1884      0.6364E-03 SPRIN         11   0.0%   46.31      0.5000E-03   0.000      -3.690       0.000      0.5000E-01   0.000    
     297  0.1890      0.6364E-03 SPRIN         11   0.0%   46.30      0.5000E-03   0.000      -3.702       0.000      0.5000E-01   0.000    
     298  0.1896      0.6364E-03 SPRIN         11   0.0%   46.29      0.5000E-03   0.000      -3.714       0.000      0.5000E-01   0.000    
     299  0.1903      0.6364E-03 SPRIN         11  -0.0%   46.27      0.5000E-03   0.000      -3.726       0.000      0.5000E-01   0.000    
     300  0.1909      0.6364E-03 SPRIN         11   0.0%   46.26      0.5000E-03   0.000      -3.739       0.000      0.5000E-01   0.000    
     301  0.1916      0.6364E-03 SPRIN         11   0.0%   46.25      0.5000E-03   0.000      -3.751       0.000      0.5000E-01   0.000    
     302  0.1922      0.6364E-03 SPRIN         11   0.0%   46.24      0.5000E-03   0.000      -3.763       0.000      0.5000E-01   0.000    
     303  0.1928      0.6364E-03 SPRIN         11   0.0%   46.22      0.5000E-03   0.000      -3.775       0.000      0.5000E-01   0.000    
     304  0.1935      0.6364E-03 SPRIN         11   0.0%   46.21      0.5000E-03   0.000      -3.788       0.000      0.5000E-01   0.000    
     305  0.1941      0.6364E-03 SPRIN         11   0.0%   46.20      0.5000E-03   0.000      -3.800       0.000      0.5000E-01   0.000    
     306  0.1947      0.6364E-03 SPRIN         11   0.0%   46.19      0.5000E-03   0.000      -3.812       0.000      0.5000E-01   0.000    
     307  0.1954      0.6364E-03 SPRIN         11   0.0%   46.18      0.5000E-03   0.000      -3.824       0.000      0.5000E-01   0.000    
     308  0.1960      0.6364E-03 SPRIN         11   0.0%   46.16      0.5000E-03   0.000      -3.836       0.000      0.5000E-01   0.000    
     309  0.1966      0.6364E-03 SPRIN         11   0.0%   46.15      0.5000E-03   0.000      -3.849       0.000      0.5000E-01   0.000    
     310  0.1973      0.6364E-03 SPRIN         11   0.0%   46.14      0.5000E-03   0.000      -3.861       0.000      0.5000E-01   0.000    
     311  0.1979      0.6364E-03 SPRIN         11   0.0%   46.13      0.5000E-03   0.000      -3.873       0.000      0.5000E-01   0.000    
     312  0.1986      0.6364E-03 SPRIN         11   0.0%   46.11      0.5000E-03   0.000      -3.885       0.000      0.5000E-01   0.000    
     313  0.1992      0.6364E-03 SPRIN         11   0.0%   46.10      0.5000E-03   0.000      -3.898       0.000      0.5000E-01   0.000    
     314  0.1998      0.6364E-03 SPRIN         11   0.0%   46.09      0.5000E-03   0.000      -3.910       0.000      0.5000E-01   0.000    
     315  0.2005      0.6364E-03 SPRIN         11   0.0%   46.08      0.5000E-03   0.000      -3.922       0.000      0.5000E-01   0.000    
     ANIMATION FILE: SPR_PRE_2FLAGA002 WRITTEN
     316  0.2011      0.6364E-03 SPRIN         11   0.0%   46.07      0.5000E-03   0.000      -3.934       0.000      0.5000E-01   0.000    
     317  0.2017      0.6364E-03 SPRIN         11  -0.0%   46.05      0.5000E-03   0.000      -3.946       0.000      0.5000E-01   0.000    
     318  0.2024      0.6364E-03 SPRIN         11   0.0%   46.04      0.5000E-03   0.000      -3.959       0.000      0.5000E-01   0.000    
     319  0.2030      0.6364E-03 SPRIN         11  -0.0%   46.03      0.5000E-03   0.000      -3.971       0.000      0.5000E-01   0.000    
     320  0.2036      0.6364E-03 SPRIN         11   0.0%   46.02      0.5000E-03   0.000      -3.983       0.000      0.5000E-01   0.000    
     321  0.2043      0.6364E-03 SPRIN         11   0.0%   46.00      0.5000E-03   0.000      -3.995       0.000      0.5000E-01   0.000    
     322  0.2049      0.6364E-03 SPRIN         11   0.0%   45.99      0.5000E-03   0.000      -4.008       0.000      0.5000E-01   0.000    
     323  0.2056      0.6364E-03 SPRIN         11   0.0%   45.98      0.5000E-03   0.000      -4.020       0.000      0.5000E-01   0.000    
     324  0.2062      0.6364E-03 SPRIN         11   0.0%   45.97      0.5000E-03   0.000      -4.032       0.000      0.5000E-01   0.000    
     325  0.2068      0.6364E-03 SPRIN         11   0.0%   45.96      0.5000E-03   0.000      -4.044       0.000      0.5000E-01   0.000    
     326  0.2075      0.6364E-03 SPRIN         11   0.0%   45.94      0.5000E-03   0.000      -4.056       0.000      0.5000E-01   0.000    
     327  0.2081      0.6364E-03 SPRIN         11   0.0%   45.93      0.5000E-03   0.000      -4.069       0.000      0.5000E-01   0.000    
     328  0.2087      0.6364E-03 SPRIN         11   0.0%   45.92      0.5000E-03   0.000      -4.081       0.000      0.5000E-01   0.000    
     329  0.2094      0.6364E-03 SPRIN         11   0.0%   45.91      0.5000E-03   0.000      -4.093       0.000      0.5000E-01   0.000    
   CYCLE    TIME      TIME-STEP  ELEMENT          ERROR  I-ENERGY    K-ENERGY T  K-ENERGY R  EXT-WORK     MAS.ERR     TOTAL MASS  MASS ADDED
     330  0.2100      0.6364E-03 SPRIN         11   0.0%   45.89      0.5000E-03   0.000      -4.105       0.000      0.5000E-01   0.000    
     331  0.2106      0.6364E-03 SPRIN         11   0.0%   45.88      0.5000E-03   0.000      -4.117       0.000      0.5000E-01   0.000    
     332  0.2113      0.6364E-03 SPRIN         11   0.0%   45.87      0.5000E-03   0.000      -4.130       0.000      0.5000E-01   0.000    
     333  0.2119      0.6364E-03 SPRIN         11  -0.0%   45.86      0.5000E-03   0.000      -4.142       0.000      0.5000E-01   0.000    
     334  0.2126      0.6364E-03 SPRIN         11  -0.0%   45.85      0.5000E-03   0.000      -4.154       0.000      0.5000E-01   0.000    
     335  0.2132      0.6364E-03 SPRIN         11  -0.0%   45.83      0.5000E-03   0.000      -4.166       0.000      0.5000E-01   0.000    
     336  0.2138      0.6364E-03 SPRIN         11   0.0%   45.82      0.5000E-03   0.000      -4.178       0.000      0.5000E-01   0.000    
     337  0.2145      0.6364E-03 SPRIN         11   0.0%   45.81      0.5000E-03   0.000      -4.190       0.000      0.5000E-01   0.000    
     338  0.2151      0.6364E-03 SPRIN         11   0.0%   45.80      0.5000E-03   0.000      -4.203       0.000      0.5000E-01   0.000    
     339  0.2157      0.6364E-03 SPRIN         11   0.0%   45.78      0.5000E-03   0.000      -4.215       0.000      0.5000E-01   0.000    
     340  0.2164      0.6364E-03 SPRIN         11   0.0%   45.77      0.5000E-03   0.000      -4.227       0.000      0.5000E-01   0.000    
     341  0.2170      0.6364E-03 SPRIN         11   0.0%   45.76      0.5000E-03   0.000      -4.239       0.000      0.5000E-01   0.000    
     342  0.2176      0.6364E-03 SPRIN         11   0.0%   45.75      0.5000E-03   0.000      -4.251       0.000      0.5000E-01   0.000    
     343  0.2183      0.6364E-03 SPRIN         11   0.0%   45.74      0.5000E-03   0.000      -4.264       0.000      0.5000E-01   0.000    
     344  0.2189      0.6364E-03 SPRIN         11   0.0%   45.72      0.5000E-03   0.000      -4.276       0.000      0.5000E-01   0.000    
     345  0.2196      0.6364E-03 SPRIN         11   0.0%   45.71      0.5000E-03   0.000      -4.288       0.000      0.5000E-01   0.000    
     346  0.2202      0.6364E-03 SPRIN         11   0.0%   45.70      0.5000E-03   0.000      -4.300       0.000      0.5000E-01   0.000    
     347  0.2208      0.6364E-03 SPRIN         11   0.0%   45.69      0.5000E-03   0.000      -4.312       0.000      0.5000E-01   0.000    
     348  0.2215      0.6364E-03 SPRIN         11   0.0%   45.68      0.5000E-03   0.000      -4.324       0.000      0.5000E-01   0.000    
     349  0.2221      0.6364E-03 SPRIN         11   0.0%   45.66      0.5000E-03   0.000      -4.337       0.000      0.5000E-01   0.000    
     350  0.2227      0.6364E-03 SPRIN         11   0.0%   45.65      0.5000E-03   0.000      -4.349       0.000      0.5000E-01   0.000    
     351  0.2234      0.6364E-03 SPRIN         11   0.0%   45.64      0.5000E-03   0.000      -4.361       0.000      0.5000E-01   0.000    
     352  0.2240      0.6364E-03 SPRIN         11   0.0%   45.63      0.5000E-03   0.000      -4.373       0.000      0.5000E-01   0.000    
     353  0.2246      0.6364E-03 SPRIN         11  -0.0%   45.61      0.5000E-03   0.000      -4.385       0.000      0.5000E-01   0.000    
     354  0.2253      0.6364E-03 SPRIN         11   0.0%   45.60      0.5000E-03   0.000      -4.397       0.000      0.5000E-01   0.000    
     355  0.2259      0.6364E-03 SPRIN         11   0.0%   45.59      0.5000E-03   0.000      -4.409       0.000      0.5000E-01   0.000    
     356  0.2266      0.6364E-03 SPRIN         11   0.0%   45.58      0.5000E-03   0.000      -4.422       0.000      0.5000E-01   0.000    
     357  0.2272      0.6364E-03 SPRIN         11   0.0%   45.57      0.5000E-03   0.000      -4.434       0.000      0.5000E-01   0.000    
     358  0.2278      0.6364E-03 SPRIN         11   0.0%   45.55      0.5000E-03   0.000      -4.446       0.000      0.5000E-01   0.000    
     359  0.2285      0.6364E-03 SPRIN         11   0.0%   45.54      0.5000E-03   0.000      -4.458       0.000      0.5000E-01   0.000    
     360  0.2291      0.6364E-03 SPRIN         11   0.0%   45.53      0.5000E-03   0.000      -4.470       0.000      0.5000E-01   0.000    
     361  0.2297      0.6364E-03 SPRIN         11   0.0%   45.52      0.5000E-03   0.000      -4.482       0.000      0.5000E-01   0.000    
     362  0.2304      0.6364E-03 SPRIN         11   0.0%   45.51      0.5000E-03   0.000      -4.494       0.000      0.5000E-01   0.000    
     363  0.2310      0.6364E-03 SPRIN         11   0.0%   45.49      0.5000E-03   0.000      -4.507       0.000      0.5000E-01   0.000    
     364  0.2316      0.6364E-03 SPRIN         11   0.0%   45.48      0.5000E-03   0.000      -4.519       0.000      0.5000E-01   0.000    
     365  0.2323      0.6364E-03 SPRIN         11   0.0%   45.47      0.5000E-03   0.000      -4.531       0.000      0.5000E-01   0.000    
     366  0.2329      0.6364E-03 SPRIN         11   0.0%   45.46      0.5000E-03   0.000      -4.543       0.000      0.5000E-01   0.000    
     367  0.2336      0.6364E-03 SPRIN         11   0.0%   45.44      0.5000E-03   0.000      -4.555       0.000      0.5000E-01   0.000    
     368  0.2342      0.6364E-03 SPRIN         11   0.0%   45.43      0.5000E-03   0.000      -4.567       0.000      0.5000E-01   0.000    
     369  0.2348      0.6364E-03 SPRIN         11   0.0%   45.42      0.5000E-03   0.000      -4.579       0.000      0.5000E-01   0.000    
     370  0.2355      0.6364E-03 SPRIN         11   0.0%   45.41      0.5000E-03   0.000      -4.592       0.000      0.5000E-01   0.000    
     371  0.2361      0.6364E-03 SPRIN         11   0.0%   45.40      0.5000E-03   0.000      -4.604       0.000      0.5000E-01   0.000    
     372  0.2367      0.6364E-03 SPRIN         11   0.0%   45.38      0.5000E-03   0.000      -4.616       0.000      0.5000E-01   0.000    
     373  0.2374      0.6364E-03 SPRIN         11   0.0%   45.37      0.5000E-03   0.000      -4.628       0.000      0.5000E-01   0.000    
     374  0.2380      0.6364E-03 SPRIN         11   0.0%   45.36      0.5000E-03   0.000      -4.640       0.000      0.5000E-01   0.000    
     375  0.2386      0.6364E-03 SPRIN         11   0.0%   45.35      0.5000E-03   0.000      -4.652       0.000      0.5000E-01   0.000    
     376  0.2393      0.6364E-03 SPRIN         11   0.0%   45.34      0.5000E-03   0.000      -4.664       0.000      0.5000E-01   0.000    
     377  0.2399      0.6364E-03 SPRIN         11   0.0%   45.32      0.5000E-03   0.000      -4.676       0.000      0.5000E-01   0.000    
     378  0.2406      0.6364E-03 SPRIN         11   0.0%   45.31      0.5000E-03   0.000      -4.689       0.000      0.5000E-01   0.000    
     379  0.2412      0.6364E-03 SPRIN         11   0.0%   45.30      0.5000E-03   0.000      -4.701       0.000      0.5000E-01   0.000    
     380  0.2418      0.6364E-03 SPRIN         11   0.0%   45.29      0.5000E-03   0.000      -4.713       0.000      0.5000E-01   0.000    
     381  0.2425      0.6364E-03 SPRIN         11   0.0%   45.27      0.5000E-03   0.000      -4.725       0.000      0.5000E-01   0.000    
     382  0.2431      0.6364E-03 SPRIN         11   0.0%   45.26      0.5000E-03   0.000      -4.737       0.000      0.5000E-01   0.000    
     383  0.2437      0.6364E-03 SPRIN         11   0.0%   45.25      0.5000E-03   0.000      -4.749       0.000      0.5000E-01   0.000    
     384  0.2444      0.6364E-03 SPRIN         11   0.0%   45.24      0.5000E-03   0.000      -4.761       0.000      0.5000E-01   0.000    
   CYCLE    TIME      TIME-STEP  ELEMENT          ERROR  I-ENERGY    K-ENERGY T  K-ENERGY R  EXT-WORK     MAS.ERR     TOTAL MASS  MASS ADDED
     385  0.2450      0.6364E-03 SPRIN         11   0.0%   45.23      0.5000E-03   0.000      -4.773       0.000      0.5000E-01   0.000    
     386  0.2456      0.6364E-03 SPRIN         11   0.0%   45.21      0.5000E-03   0.000      -4.785       0.000      0.5000E-01   0.000    
     387  0.2463      0.6364E-03 SPRIN         11   0.0%   45.20      0.5000E-03   0.000      -4.798       0.000      0.5000E-01   0.000    
     388  0.2469      0.6364E-03 SPRIN         11   0.0%   45.19      0.5000E-03   0.000      -4.810       0.000      0.5000E-01   0.000    
     389  0.2476      0.6364E-03 SPRIN         11   0.0%   45.18      0.5000E-03   0.000      -4.822       0.000      0.5000E-01   0.000    
     390  0.2482      0.6364E-03 SPRIN         11   0.0%   45.17      0.5000E-03   0.000      -4.834       0.000      0.5000E-01   0.000    
     391  0.2488      0.6364E-03 SPRIN         11   0.0%   45.15      0.5000E-03   0.000      -4.846       0.000      0.5000E-01   0.000    
     392  0.2495      0.6364E-03 SPRIN         11   0.0%   45.14      0.5000E-03   0.000      -4.858       0.000      0.5000E-01   0.000    
     393  0.2501      0.6364E-03 SPRIN         11   0.0%   45.13      0.5000E-03   0.000      -4.870       0.000      0.5000E-01   0.000    
     394  0.2507      0.6364E-03 SPRIN         11   0.0%   45.12      0.5000E-03   0.000      -4.882       0.000      0.5000E-01   0.000    
     395  0.2514      0.6364E-03 SPRIN         11   0.0%   45.11      0.5000E-03   0.000      -4.894       0.000      0.5000E-01   0.000    
     396  0.2520      0.6364E-03 SPRIN         11   0.0%   45.09      0.5000E-03   0.000      -4.906       0.000      0.5000E-01   0.000    
     397  0.2526      0.6364E-03 SPRIN         11   0.0%   45.08      0.5000E-03   0.000      -4.918       0.000      0.5000E-01   0.000    
     398  0.2533      0.6364E-03 SPRIN         11   0.0%   45.07      0.5000E-03   0.000      -4.931       0.000      0.5000E-01   0.000    
     399  0.2539      0.6364E-03 SPRIN         11   0.0%   45.06      0.5000E-03   0.000      -4.943       0.000      0.5000E-01   0.000    
     400  0.2546      0.6364E-03 SPRIN         11   0.0%   45.04      0.5000E-03   0.000      -4.955       0.000      0.5000E-01   0.000    
     401  0.2552      0.6364E-03 SPRIN         11   0.0%   45.03      0.5000E-03   0.000      -4.967       0.000      0.5000E-01   0.000    
     402  0.2558      0.6364E-03 SPRIN         11   0.0%   45.02      0.5000E-03   0.000      -4.979       0.000      0.5000E-01   0.000    
     403  0.2565      0.6364E-03 SPRIN         11   0.0%   45.01      0.5000E-03   0.000      -4.991       0.000      0.5000E-01   0.000    
     404  0.2571      0.6364E-03 SPRIN         11  -0.0%   45.00      0.5000E-03   0.000      -5.003       0.000      0.5000E-01   0.000    
     405  0.2577      0.6364E-03 SPRIN         11  -0.0%   44.98      0.5000E-03   0.000      -5.015       0.000      0.5000E-01   0.000    
     406  0.2584      0.6364E-03 SPRIN         11  -0.0%   44.97      0.5000E-03   0.000      -5.027       0.000      0.5000E-01   0.000    
     407  0.2590      0.6364E-03 SPRIN         11   0.0%   44.96      0.5000E-03   0.000      -5.039       0.000      0.5000E-01   0.000    
     408  0.2596      0.6364E-03 SPRIN         11   0.0%   44.95      0.5000E-03   0.000      -5.051       0.000      0.5000E-01   0.000    
     409  0.2603      0.6364E-03 SPRIN         11   0.0%   44.94      0.5000E-03   0.000      -5.063       0.000      0.5000E-01   0.000    
     410  0.2609      0.6364E-03 SPRIN         11   0.0%   44.92      0.5000E-03   0.000      -5.075       0.000      0.5000E-01   0.000    
     411  0.2616      0.6364E-03 SPRIN         11   0.0%   44.91      0.5000E-03   0.000      -5.087       0.000      0.5000E-01   0.000    
     412  0.2622      0.6364E-03 SPRIN         11   0.0%   44.90      0.5000E-03   0.000      -5.100       0.000      0.5000E-01   0.000    
     413  0.2628      0.6364E-03 SPRIN         11   0.0%   44.89      0.5000E-03   0.000      -5.112       0.000      0.5000E-01   0.000    
     414  0.2635      0.6364E-03 SPRIN         11   0.0%   44.88      0.5000E-03   0.000      -5.124       0.000      0.5000E-01   0.000    
     415  0.2641      0.6364E-03 SPRIN         11   0.0%   44.86      0.5000E-03   0.000      -5.136       0.000      0.5000E-01   0.000    
     416  0.2647      0.6364E-03 SPRIN         11   0.0%   44.85      0.5000E-03   0.000      -5.148       0.000      0.5000E-01   0.000    
     417  0.2654      0.6364E-03 SPRIN         11   0.0%   44.84      0.5000E-03   0.000      -5.160       0.000      0.5000E-01   0.000    
     418  0.2660      0.6364E-03 SPRIN         11   0.0%   44.83      0.5000E-03   0.000      -5.172       0.000      0.5000E-01   0.000    
     419  0.2666      0.6364E-03 SPRIN         11   0.0%   44.82      0.5000E-03   0.000      -5.184       0.000      0.5000E-01   0.000    
     420  0.2673      0.6364E-03 SPRIN         11   0.0%   44.80      0.5000E-03   0.000      -5.196       0.000      0.5000E-01   0.000    
     421  0.2679      0.6364E-03 SPRIN         11  -0.0%   44.79      0.5000E-03   0.000      -5.208       0.000      0.5000E-01   0.000    
     422  0.2686      0.6364E-03 SPRIN         11  -0.0%   44.78      0.5000E-03   0.000      -5.220       0.000      0.5000E-01   0.000    
     423  0.2692      0.6364E-03 SPRIN         11  -0.0%   44.77      0.5000E-03   0.000      -5.232       0.000      0.5000E-01   0.000    
     424  0.2698      0.6364E-03 SPRIN         11   0.0%   44.76      0.5000E-03   0.000      -5.244       0.000      0.5000E-01   0.000    
     425  0.2705      0.6364E-03 SPRIN         11   0.0%   44.74      0.5000E-03   0.000      -5.256       0.000      0.5000E-01   0.000    
     426  0.2711      0.6364E-03 SPRIN         11   0.0%   44.73      0.5000E-03   0.000      -5.268       0.000      0.5000E-01   0.000    
     427  0.2717      0.6364E-03 SPRIN         11   0.0%   44.72      0.5000E-03   0.000      -5.280       0.000      0.5000E-01   0.000    
     428  0.2724      0.6364E-03 SPRIN         11   0.0%   44.71      0.5000E-03   0.000      -5.292       0.000      0.5000E-01   0.000    
     429  0.2730      0.6364E-03 SPRIN         11   0.0%   44.70      0.5000E-03   0.000      -5.304       0.000      0.5000E-01   0.000    
     430  0.2737      0.6364E-03 SPRIN         11   0.0%   44.68      0.5000E-03   0.000      -5.316       0.000      0.5000E-01   0.000    
     431  0.2743      0.6364E-03 SPRIN         11   0.0%   44.67      0.5000E-03   0.000      -5.328       0.000      0.5000E-01   0.000    
     432  0.2749      0.6364E-03 SPRIN         11   0.0%   44.66      0.5000E-03   0.000      -5.340       0.000      0.5000E-01   0.000    
     433  0.2756      0.6364E-03 SPRIN         11   0.0%   44.65      0.5000E-03   0.000      -5.352       0.000      0.5000E-01   0.000    
     434  0.2762      0.6364E-03 SPRIN         11   0.0%   44.64      0.5000E-03   0.000      -5.364       0.000      0.5000E-01   0.000    
     435  0.2768      0.6364E-03 SPRIN         11   0.0%   44.62      0.5000E-03   0.000      -5.377       0.000      0.5000E-01   0.000    
     436  0.2775      0.6364E-03 SPRIN         11   0.0%   44.61      0.5000E-03   0.000      -5.389       0.000      0.5000E-01   0.000    
     437  0.2781      0.6364E-03 SPRIN         11   0.0%   44.60      0.5000E-03   0.000      -5.401       0.000      0.5000E-01   0.000    
     438  0.2787      0.6364E-03 SPRIN         11   0.0%   44.59      0.5000E-03   0.000      -5.413       0.000      0.5000E-01   0.000    
     439  0.2794      0.6364E-03 SPRIN         11   0.0%   44.57      0.5000E-03   0.000      -5.425       0.000      0.5000E-01   0.000    
   CYCLE    TIME      TIME-STEP  ELEMENT          ERROR  I-ENERGY    K-ENERGY T  K-ENERGY R  EXT-WORK     MAS.ERR     TOTAL MASS  MASS ADDED
     440  0.2800      0.6364E-03 SPRIN         11   0.0%   44.56      0.5000E-03   0.000      -5.437       0.000      0.5000E-01   0.000    
     441  0.2807      0.6364E-03 SPRIN         11   0.0%   44.55      0.5000E-03   0.000      -5.449       0.000      0.5000E-01   0.000    
     442  0.2813      0.6364E-03 SPRIN         11   0.0%   44.54      0.5000E-03   0.000      -5.461       0.000      0.5000E-01   0.000    
     443  0.2819      0.6364E-03 SPRIN         11   0.0%   44.53      0.5000E-03   0.000      -5.473       0.000      0.5000E-01   0.000    
     444  0.2826      0.6364E-03 SPRIN         11   0.0%   44.51      0.5000E-03   0.000      -5.485       0.000      0.5000E-01   0.000    
     445  0.2832      0.6364E-03 SPRIN         11   0.0%   44.50      0.5000E-03   0.000      -5.497       0.000      0.5000E-01   0.000    
     446  0.2838      0.6364E-03 SPRIN         11   0.0%   44.49      0.5000E-03   0.000      -5.509       0.000      0.5000E-01   0.000    
     447  0.2845      0.6364E-03 SPRIN         11   0.0%   44.48      0.5000E-03   0.000      -5.521       0.000      0.5000E-01   0.000    
     448  0.2851      0.6364E-03 SPRIN         11   0.0%   44.47      0.5000E-03   0.000      -5.533       0.000      0.5000E-01   0.000    
     449  0.2857      0.6364E-03 SPRIN         11   0.0%   44.45      0.5000E-03   0.000      -5.545       0.000      0.5000E-01   0.000    
     450  0.2864      0.6364E-03 SPRIN         11   0.0%   44.44      0.5000E-03   0.000      -5.557       0.000      0.5000E-01   0.000    
     451  0.2870      0.6364E-03 SPRIN         11   0.0%   44.43      0.5000E-03   0.000      -5.569       0.000      0.5000E-01   0.000    
     452  0.2877      0.6364E-03 SPRIN         11   0.0%   44.42      0.5000E-03   0.000      -5.581       0.000      0.5000E-01   0.000    
     453  0.2883      0.6364E-03 SPRIN         11   0.0%   44.41      0.5000E-03   0.000      -5.593       0.000      0.5000E-01   0.000    
     454  0.2889      0.6364E-03 SPRIN         11   0.0%   44.39      0.5000E-03   0.000      -5.605       0.000      0.5000E-01   0.000    
     455  0.2896      0.6364E-03 SPRIN         11   0.0%   44.38      0.5000E-03   0.000      -5.617       0.000      0.5000E-01   0.000    
     456  0.2902      0.6364E-03 SPRIN         11   0.0%   44.37      0.5000E-03   0.000      -5.629       0.000      0.5000E-01   0.000    
     457  0.2908      0.6364E-03 SPRIN         11   0.0%   44.36      0.5000E-03   0.000      -5.641       0.000      0.5000E-01   0.000    
     458  0.2915      0.6364E-03 SPRIN         11   0.0%   44.35      0.5000E-03   0.000      -5.653       0.000      0.5000E-01   0.000    
     459  0.2921      0.6364E-03 SPRIN         11   0.0%   44.33      0.5000E-03   0.000      -5.665       0.000      0.5000E-01   0.000    
     460  0.2927      0.6364E-03 SPRIN         11   0.0%   44.32      0.5000E-03   0.000      -5.677       0.000      0.5000E-01   0.000    
     461  0.2934      0.6364E-03 SPRIN         11   0.0%   44.31      0.5000E-03   0.000      -5.689       0.000      0.5000E-01   0.000    
     462  0.2940      0.6364E-03 SPRIN         11   0.0%   44.30      0.5000E-03   0.000      -5.701       0.000      0.5000E-01   0.000    
     463  0.2947      0.6364E-03 SPRIN         11   0.0%   44.29      0.5000E-03   0.000      -5.713       0.000      0.5000E-01   0.000    
     464  0.2953      0.6364E-03 SPRIN         11   0.0%   44.27      0.5000E-03   0.000      -5.725       0.000      0.5000E-01   0.000    
     465  0.2959      0.6364E-03 SPRIN         11   0.0%   44.26      0.5000E-03   0.000      -5.736       0.000      0.5000E-01   0.000    
     466  0.2966      0.6364E-03 SPRIN         11   0.0%   44.25      0.5000E-03   0.000      -5.748       0.000      0.5000E-01   0.000    
     467  0.2972      0.6364E-03 SPRIN         11   0.0%   44.24      0.5000E-03   0.000      -5.760       0.000      0.5000E-01   0.000    
     468  0.2978      0.6364E-03 SPRIN         11   0.0%   44.23      0.5000E-03   0.000      -5.772       0.000      0.5000E-01   0.000    
     469  0.2985      0.6364E-03 SPRIN         11   0.0%   44.22      0.5000E-03   0.000      -5.784       0.000      0.5000E-01   0.000    
     470  0.2991      0.6364E-03 SPRIN         11   0.0%   44.20      0.5000E-03   0.000      -5.796       0.000      0.5000E-01   0.000    
     471  0.2997      0.6364E-03 SPRIN         11   0.0%   44.19      0.5000E-03   0.000      -5.808       0.000      0.5000E-01   0.000    
     472  0.3004      0.6364E-03 SPRIN         11   0.0%   44.18      0.5000E-03   0.000      -5.820       0.000      0.5000E-01   0.000    
     473  0.3010      0.6364E-03 SPRIN         11   0.0%   44.17      0.5000E-03   0.000      -5.832       0.000      0.5000E-01   0.000    
     474  0.3017      0.6364E-03 SPRIN         11   0.0%   44.16      0.5000E-03   0.000      -5.844       0.000      0.5000E-01   0.000    
     475  0.3023      0.6364E-03 SPRIN         11   0.0%   44.14      0.5000E-03   0.000      -5.856       0.000      0.5000E-01   0.000    
     476  0.3029      0.6364E-03 SPRIN         11   0.0%   44.13      0.5000E-03   0.000      -5.868       0.000      0.5000E-01   0.000    
     477  0.3036      0.6364E-03 SPRIN         11   0.0%   44.12      0.5000E-03   0.000      -5.880       0.000      0.5000E-01   0.000    
     478  0.3042      0.6364E-03 SPRIN         11   0.0%   44.11      0.5000E-03   0.000      -5.892       0.000      0.5000E-01   0.000    
     479  0.3048      0.6364E-03 SPRIN         11   0.0%   44.10      0.5000E-03   0.000      -5.904       0.000      0.5000E-01   0.000    
     480  0.3055      0.6364E-03 SPRIN         11   0.0%   44.08      0.5000E-03   0.000      -5.916       0.000      0.5000E-01   0.000    
     481  0.3061      0.6364E-03 SPRIN         11   0.0%   44.07      0.5000E-03   0.000      -5.928       0.000      0.5000E-01   0.000    
     482  0.3067      0.6364E-03 SPRIN         11   0.0%   44.06      0.5000E-03   0.000      -5.940       0.000      0.5000E-01   0.000    
     483  0.3074      0.6364E-03 SPRIN         11   0.0%   44.05      0.5000E-03   0.000      -5.952       0.000      0.5000E-01   0.000    
     484  0.3080      0.6364E-03 SPRIN         11   0.0%   44.04      0.5000E-03   0.000      -5.964       0.000      0.5000E-01   0.000    
     485  0.3087      0.6364E-03 SPRIN         11   0.0%   44.02      0.5000E-03   0.000      -5.976       0.000      0.5000E-01   0.000    
     486  0.3093      0.6364E-03 SPRIN         11   0.0%   44.01      0.5000E-03   0.000      -5.988       0.000      0.5000E-01   0.000    
     487  0.3099      0.6364E-03 SPRIN         11   0.0%   44.00      0.5000E-03   0.000      -6.000       0.000      0.5000E-01   0.000    
     488  0.3106      0.6364E-03 SPRIN         11   0.0%   43.99      0.5000E-03   0.000      -6.011       0.000      0.5000E-01   0.000    
     489  0.3112      0.6364E-03 SPRIN         11   0.0%   43.98      0.5000E-03   0.000      -6.023       0.000      0.5000E-01   0.000    
     490  0.3118      0.6364E-03 SPRIN         11   0.0%   43.96      0.5000E-03   0.000      -6.035       0.000      0.5000E-01   0.000    
     491  0.3125      0.6364E-03 SPRIN         11   0.0%   43.95      0.5000E-03   0.000      -6.047       0.000      0.5000E-01   0.000    
     492  0.3131      0.6364E-03 SPRIN         11   0.0%   43.94      0.5000E-03   0.000      -6.059       0.000      0.5000E-01   0.000    
     493  0.3137      0.6364E-03 SPRIN         11   0.0%   43.93      0.5000E-03   0.000      -6.071       0.000      0.5000E-01   0.000    
     494  0.3144      0.6364E-03 SPRIN         11   0.0%   43.92      0.5000E-03   0.000      -6.083       0.000      0.5000E-01   0.000    
   CYCLE    TIME      TIME-STEP  ELEMENT          ERROR  I-ENERGY    K-ENERGY T  K-ENERGY R  EXT-WORK     MAS.ERR     TOTAL MASS  MASS ADDED
     495  0.3150      0.6364E-03 SPRIN         11  -0.0%   43.90      0.5000E-03   0.000      -6.095       0.000      0.5000E-01   0.000    
     496  0.3157      0.6364E-03 SPRIN         11   0.0%   43.89      0.5000E-03   0.000      -6.107       0.000      0.5000E-01   0.000    
     497  0.3163      0.6364E-03 SPRIN         11   0.0%   43.88      0.5000E-03   0.000      -6.119       0.000      0.5000E-01   0.000    
     498  0.3169      0.6364E-03 SPRIN         11   0.0%   43.87      0.5000E-03   0.000      -6.131       0.000      0.5000E-01   0.000    
     499  0.3176      0.6364E-03 SPRIN         11   0.0%   43.86      0.5000E-03   0.000      -6.143       0.000      0.5000E-01   0.000    
     500  0.3182      0.6364E-03 SPRIN         11   0.0%   43.84      0.5000E-03   0.000      -6.155       0.000      0.5000E-01   0.000    
     501  0.3188      0.6364E-03 SPRIN         11   0.0%   43.83      0.5000E-03   0.000      -6.167       0.000      0.5000E-01   0.000    
     502  0.3195      0.6364E-03 SPRIN         11   0.0%   43.82      0.5000E-03   0.000      -6.178       0.000      0.5000E-01   0.000    
     503  0.3201      0.6364E-03 SPRIN         11   0.0%   43.81      0.5000E-03   0.000      -6.190       0.000      0.5000E-01   0.000    
     504  0.3207      0.6364E-03 SPRIN         11   0.0%   43.80      0.5000E-03   0.000      -6.202       0.000      0.5000E-01   0.000    
     505  0.3214      0.6364E-03 SPRIN         11   0.0%   43.79      0.5000E-03   0.000      -6.214       0.000      0.5000E-01   0.000    
     506  0.3220      0.6364E-03 SPRIN         11   0.0%   43.77      0.5000E-03   0.000      -6.226       0.000      0.5000E-01   0.000    
     507  0.3227      0.6364E-03 SPRIN         11   0.0%   43.76      0.5000E-03   0.000      -6.238       0.000      0.5000E-01   0.000    
     508  0.3233      0.6364E-03 SPRIN         11   0.0%   43.75      0.5000E-03   0.000      -6.250       0.000      0.5000E-01   0.000    
     509  0.3239      0.6364E-03 SPRIN         11   0.0%   43.74      0.5000E-03   0.000      -6.262       0.000      0.5000E-01   0.000    
     510  0.3246      0.6364E-03 SPRIN         11   0.0%   43.73      0.5000E-03   0.000      -6.274       0.000      0.5000E-01   0.000    
     511  0.3252      0.6364E-03 SPRIN         11  -0.0%   43.71      0.5000E-03   0.000      -6.286       0.000      0.5000E-01   0.000    
     512  0.3258      0.6364E-03 SPRIN         11   0.0%   43.70      0.5000E-03   0.000      -6.297       0.000      0.5000E-01   0.000    
     513  0.3265      0.6364E-03 SPRIN         11   0.0%   43.69      0.5000E-03   0.000      -6.309       0.000      0.5000E-01   0.000    
     514  0.3271      0.6364E-03 SPRIN         11   0.0%   43.68      0.5000E-03   0.000      -6.321       0.000      0.5000E-01   0.000    
     515  0.3277      0.6364E-03 SPRIN         11   0.0%   43.67      0.5000E-03   0.000      -6.333       0.000      0.5000E-01   0.000    
     516  0.3284      0.6364E-03 SPRIN         11   0.0%   43.65      0.5000E-03   0.000      -6.345       0.000      0.5000E-01   0.000    
     517  0.3290      0.6364E-03 SPRIN         11   0.0%   43.64      0.5000E-03   0.000      -6.357       0.000      0.5000E-01   0.000    
     518  0.3297      0.6364E-03 SPRIN         11   0.0%   43.63      0.5000E-03   0.000      -6.369       0.000      0.5000E-01   0.000    
     519  0.3303      0.6364E-03 SPRIN         11   0.0%   43.62      0.5000E-03   0.000      -6.381       0.000      0.5000E-01   0.000    
     520  0.3309      0.6364E-03 SPRIN         11   0.0%   43.61      0.5000E-03   0.000      -6.393       0.000      0.5000E-01   0.000    
     521  0.3316      0.6364E-03 SPRIN         11   0.0%   43.59      0.5000E-03   0.000      -6.405       0.000      0.5000E-01   0.000    
     522  0.3322      0.6364E-03 SPRIN         11   0.0%   43.58      0.5000E-03   0.000      -6.416       0.000      0.5000E-01   0.000    
     523  0.3328      0.6364E-03 SPRIN         11   0.0%   43.57      0.5000E-03   0.000      -6.428       0.000      0.5000E-01   0.000    
     524  0.3335      0.6364E-03 SPRIN         11   0.0%   43.56      0.5000E-03   0.000      -6.440       0.000      0.5000E-01   0.000    
     525  0.3341      0.6364E-03 SPRIN         11   0.0%   43.55      0.5000E-03   0.000      -6.452       0.000      0.5000E-01   0.000    
     526  0.3347      0.6364E-03 SPRIN         11   0.0%   43.54      0.5000E-03   0.000      -6.464       0.000      0.5000E-01   0.000    
     527  0.3354      0.6364E-03 SPRIN         11   0.0%   43.52      0.5000E-03   0.000      -6.476       0.000      0.5000E-01   0.000    
     528  0.3360      0.6364E-03 SPRIN         11   0.0%   43.51      0.5000E-03   0.000      -6.488       0.000      0.5000E-01   0.000    
     529  0.3367      0.6364E-03 SPRIN         11   0.0%   43.50      0.5000E-03   0.000      -6.500       0.000      0.5000E-01   0.000    
     530  0.3373      0.6364E-03 SPRIN         11   0.0%   43.49      0.5000E-03   0.000      -6.511       0.000      0.5000E-01   0.000    
     531  0.3379      0.6364E-03 SPRIN         11  -0.0%   43.48      0.5000E-03   0.000      -6.523       0.000      0.5000E-01   0.000    
     532  0.3386      0.6364E-03 SPRIN         11   0.0%   43.46      0.5000E-03   0.000      -6.535       0.000      0.5000E-01   0.000    
     533  0.3392      0.6364E-03 SPRIN         11   0.0%   43.45      0.5000E-03   0.000      -6.547       0.000      0.5000E-01   0.000    
     534  0.3398      0.6364E-03 SPRIN         11   0.0%   43.44      0.5000E-03   0.000      -6.559       0.000      0.5000E-01   0.000    
     535  0.3405      0.6364E-03 SPRIN         11   0.0%   43.43      0.5000E-03   0.000      -6.571       0.000      0.5000E-01   0.000    
     536  0.3411      0.6364E-03 SPRIN         11   0.0%   43.42      0.5000E-03   0.000      -6.583       0.000      0.5000E-01   0.000    
     537  0.3417      0.6364E-03 SPRIN         11   0.0%   43.41      0.5000E-03   0.000      -6.594       0.000      0.5000E-01   0.000    
     538  0.3424      0.6364E-03 SPRIN         11   0.0%   43.39      0.5000E-03   0.000      -6.606       0.000      0.5000E-01   0.000    
     539  0.3430      0.6364E-03 SPRIN         11   0.0%   43.38      0.5000E-03   0.000      -6.618       0.000      0.5000E-01   0.000    
     540  0.3437      0.6364E-03 SPRIN         11   0.0%   43.37      0.5000E-03   0.000      -6.630       0.000      0.5000E-01   0.000    
     541  0.3443      0.6364E-03 SPRIN         11   0.0%   43.36      0.5000E-03   0.000      -6.642       0.000      0.5000E-01   0.000    
     542  0.3449      0.6364E-03 SPRIN         11   0.0%   43.35      0.5000E-03   0.000      -6.654       0.000      0.5000E-01   0.000    
     543  0.3456      0.6364E-03 SPRIN         11   0.0%   43.33      0.5000E-03   0.000      -6.666       0.000      0.5000E-01   0.000    
     544  0.3462      0.6364E-03 SPRIN         11   0.0%   43.32      0.5000E-03   0.000      -6.677       0.000      0.5000E-01   0.000    
     545  0.3468      0.6364E-03 SPRIN         11  -0.0%   43.31      0.5000E-03   0.000      -6.689       0.000      0.5000E-01   0.000    
     546  0.3475      0.6364E-03 SPRIN         11  -0.0%   43.30      0.5000E-03   0.000      -6.701       0.000      0.5000E-01   0.000    
     547  0.3481      0.6364E-03 SPRIN         11   0.0%   43.29      0.5000E-03   0.000      -6.713       0.000      0.5000E-01   0.000    
     548  0.3487      0.6364E-03 SPRIN         11  -0.0%   43.27      0.5000E-03   0.000      -6.725       0.000      0.5000E-01   0.000    
     549  0.3494      0.6364E-03 SPRIN         11   0.0%   43.26      0.5000E-03   0.000      -6.737       0.000      0.5000E-01   0.000    
   CYCLE    TIME      TIME-STEP  ELEMENT          ERROR  I-ENERGY    K-ENERGY T  K-ENERGY R  EXT-WORK     MAS.ERR     TOTAL MASS  MASS ADDED
     550  0.3500      0.6364E-03 SPRIN         11   0.0%   43.25      0.5000E-03   0.000      -6.748       0.000      0.5000E-01   0.000    
     551  0.3507      0.6364E-03 SPRIN         11   0.0%   43.24      0.5000E-03   0.000      -6.760       0.000      0.5000E-01   0.000    
     552  0.3513      0.6364E-03 SPRIN         11   0.0%   43.23      0.5000E-03   0.000      -6.772       0.000      0.5000E-01   0.000    
     553  0.3519      0.6364E-03 SPRIN         11   0.0%   43.22      0.5000E-03   0.000      -6.784       0.000      0.5000E-01   0.000    
     554  0.3526      0.6364E-03 SPRIN         11   0.0%   43.20      0.5000E-03   0.000      -6.796       0.000      0.5000E-01   0.000    
     555  0.3532      0.6364E-03 SPRIN         11   0.0%   43.19      0.5000E-03   0.000      -6.808       0.000      0.5000E-01   0.000    
     556  0.3538      0.6364E-03 SPRIN         11   0.0%   43.18      0.5000E-03   0.000      -6.819       0.000      0.5000E-01   0.000    
     557  0.3545      0.6364E-03 SPRIN         11   0.0%   43.17      0.5000E-03   0.000      -6.831       0.000      0.5000E-01   0.000    
     558  0.3551      0.6364E-03 SPRIN         11   0.0%   43.16      0.5000E-03   0.000      -6.843       0.000      0.5000E-01   0.000    
     559  0.3557      0.6364E-03 SPRIN         11   0.0%   43.14      0.5000E-03   0.000      -6.855       0.000      0.5000E-01   0.000    
     560  0.3564      0.6364E-03 SPRIN         11   0.0%   43.13      0.5000E-03   0.000      -6.867       0.000      0.5000E-01   0.000    
     561  0.3570      0.6364E-03 SPRIN         11   0.0%   43.12      0.5000E-03   0.000      -6.879       0.000      0.5000E-01   0.000    
     562  0.3577      0.6364E-03 SPRIN         11   0.0%   43.11      0.5000E-03   0.000      -6.890       0.000      0.5000E-01   0.000    
     563  0.3583      0.6364E-03 SPRIN         11   0.0%   43.10      0.5000E-03   0.000      -6.902       0.000      0.5000E-01   0.000    
     564  0.3589      0.6364E-03 SPRIN         11   0.0%   43.09      0.5000E-03   0.000      -6.914       0.000      0.5000E-01   0.000    
     565  0.3596      0.6364E-03 SPRIN         11   0.0%   43.07      0.5000E-03   0.000      -6.926       0.000      0.5000E-01   0.000    
     566  0.3602      0.6364E-03 SPRIN         11  -0.0%   43.06      0.5000E-03   0.000      -6.938       0.000      0.5000E-01   0.000    
     567  0.3608      0.6364E-03 SPRIN         11   0.0%   43.05      0.5000E-03   0.000      -6.949       0.000      0.5000E-01   0.000    
     568  0.3615      0.6364E-03 SPRIN         11   0.0%   43.04      0.5000E-03   0.000      -6.961       0.000      0.5000E-01   0.000    
     569  0.3621      0.6364E-03 SPRIN         11   0.0%   43.03      0.5000E-03   0.000      -6.973       0.000      0.5000E-01   0.000    
     570  0.3627      0.6364E-03 SPRIN         11   0.0%   43.01      0.5000E-03   0.000      -6.985       0.000      0.5000E-01   0.000    
     571  0.3634      0.6364E-03 SPRIN         11   0.0%   43.00      0.5000E-03   0.000      -6.997       0.000      0.5000E-01   0.000    
     572  0.3640      0.6364E-03 SPRIN         11   0.0%   42.99      0.5000E-03   0.000      -7.008       0.000      0.5000E-01   0.000    
     573  0.3647      0.6364E-03 SPRIN         11   0.0%   42.98      0.5000E-03   0.000      -7.020       0.000      0.5000E-01   0.000    
     574  0.3653      0.6364E-03 SPRIN         11   0.0%   42.97      0.5000E-03   0.000      -7.032       0.000      0.5000E-01   0.000    
     575  0.3659      0.6364E-03 SPRIN         11   0.0%   42.96      0.5000E-03   0.000      -7.044       0.000      0.5000E-01   0.000    
     576  0.3666      0.6364E-03 SPRIN         11   0.0%   42.94      0.5000E-03   0.000      -7.056       0.000      0.5000E-01   0.000    
     577  0.3672      0.6364E-03 SPRIN         11   0.0%   42.93      0.5000E-03   0.000      -7.067       0.000      0.5000E-01   0.000    
     578  0.3678      0.6364E-03 SPRIN         11   0.0%   42.92      0.5000E-03   0.000      -7.079       0.000      0.5000E-01   0.000    
     579  0.3685      0.6364E-03 SPRIN         11   0.0%   42.91      0.5000E-03   0.000      -7.091       0.000      0.5000E-01   0.000    
     580  0.3691      0.6364E-03 SPRIN         11   0.0%   42.90      0.5000E-03   0.000      -7.103       0.000      0.5000E-01   0.000    
     581  0.3697      0.6364E-03 SPRIN         11   0.0%   42.88      0.5000E-03   0.000      -7.115       0.000      0.5000E-01   0.000    
     582  0.3704      0.6364E-03 SPRIN         11   0.0%   42.87      0.5000E-03   0.000      -7.126       0.000      0.5000E-01   0.000    
     583  0.3710      0.6364E-03 SPRIN         11   0.0%   42.86      0.5000E-03   0.000      -7.138       0.000      0.5000E-01   0.000    
     584  0.3717      0.6364E-03 SPRIN         11  -0.0%   42.85      0.5000E-03   0.000      -7.150       0.000      0.5000E-01   0.000    
     585  0.3723      0.6364E-03 SPRIN         11   0.0%   42.84      0.5000E-03   0.000      -7.162       0.000      0.5000E-01   0.000    
     586  0.3729      0.6364E-03 SPRIN         11   0.0%   42.83      0.5000E-03   0.000      -7.174       0.000      0.5000E-01   0.000    
     587  0.3736      0.6364E-03 SPRIN         11   0.0%   42.81      0.5000E-03   0.000      -7.185       0.000      0.5000E-01   0.000    
     588  0.3742      0.6364E-03 SPRIN         11   0.0%   42.80      0.5000E-03   0.000      -7.197       0.000      0.5000E-01   0.000    
     589  0.3748      0.6364E-03 SPRIN         11   0.0%   42.79      0.5000E-03   0.000      -7.209       0.000      0.5000E-01   0.000    
     590  0.3755      0.6364E-03 SPRIN         11   0.0%   42.78      0.5000E-03   0.000      -7.221       0.000      0.5000E-01   0.000    
     591  0.3761      0.6364E-03 SPRIN         11   0.0%   42.77      0.5000E-03   0.000      -7.232       0.000      0.5000E-01   0.000    
     592  0.3767      0.6364E-03 SPRIN         11   0.0%   42.76      0.5000E-03   0.000      -7.244       0.000      0.5000E-01   0.000    
     593  0.3774      0.6364E-03 SPRIN         11   0.0%   42.74      0.5000E-03   0.000      -7.256       0.000      0.5000E-01   0.000    
     594  0.3780      0.6364E-03 SPRIN         11   0.0%   42.73      0.5000E-03   0.000      -7.268       0.000      0.5000E-01   0.000    
     595  0.3787      0.6364E-03 SPRIN         11   0.0%   42.72      0.5000E-03   0.000      -7.279       0.000      0.5000E-01   0.000    
     596  0.3793      0.6364E-03 SPRIN         11   0.0%   42.71      0.5000E-03   0.000      -7.291       0.000      0.5000E-01   0.000    
     597  0.3799      0.6364E-03 SPRIN         11   0.0%   42.70      0.5000E-03   0.000      -7.303       0.000      0.5000E-01   0.000    
     598  0.3806      0.6364E-03 SPRIN         11   0.0%   42.68      0.5000E-03   0.000      -7.315       0.000      0.5000E-01   0.000    
     599  0.3812      0.6364E-03 SPRIN         11   0.0%   42.67      0.5000E-03   0.000      -7.327       0.000      0.5000E-01   0.000    
     600  0.3818      0.6364E-03 SPRIN         11   0.0%   42.66      0.5000E-03   0.000      -7.338       0.000      0.5000E-01   0.000    
     601  0.3825      0.6364E-03 SPRIN         11  -0.0%   42.65      0.5000E-03   0.000      -7.350       0.000      0.5000E-01   0.000    
     602  0.3831      0.6364E-03 SPRIN         11   0.0%   42.64      0.5000E-03   0.000      -7.362       0.000      0.5000E-01   0.000    
     603  0.3837      0.6364E-03 SPRIN         11   0.0%   42.63      0.5000E-03   0.000      -7.374       0.000      0.5000E-01   0.000    
     604  0.3844      0.6364E-03 SPRIN         11   0.0%   42.61      0.5000E-03   0.000      -7.385       0.000      0.5000E-01   0.000    
   CYCLE    TIME      TIME-STEP  ELEMENT          ERROR  I-ENERGY    K-ENERGY T  K-ENERGY R  EXT-WORK     MAS.ERR     TOTAL MASS  MASS ADDED
     605  0.3850      0.6364E-03 SPRIN         11   0.0%   42.60      0.5000E-03   0.000      -7.397       0.000      0.5000E-01   0.000    
     606  0.3857      0.6364E-03 SPRIN         11   0.0%   42.59      0.5000E-03   0.000      -7.409       0.000      0.5000E-01   0.000    
     607  0.3863      0.6364E-03 SPRIN         11   0.0%   42.58      0.5000E-03   0.000      -7.421       0.000      0.5000E-01   0.000    
     608  0.3869      0.6364E-03 SPRIN         11   0.0%   42.57      0.5000E-03   0.000      -7.432       0.000      0.5000E-01   0.000    
     609  0.3876      0.6364E-03 SPRIN         11   0.0%   42.56      0.5000E-03   0.000      -7.444       0.000      0.5000E-01   0.000    
     610  0.3882      0.6364E-03 SPRIN         11   0.0%   42.54      0.5000E-03   0.000      -7.456       0.000      0.5000E-01   0.000    
     611  0.3888      0.6364E-03 SPRIN         11   0.0%   42.53      0.5000E-03   0.000      -7.468       0.000      0.5000E-01   0.000    
     612  0.3895      0.6364E-03 SPRIN         11   0.0%   42.52      0.5000E-03   0.000      -7.479       0.000      0.5000E-01   0.000    
     613  0.3901      0.6364E-03 SPRIN         11   0.0%   42.51      0.5000E-03   0.000      -7.491       0.000      0.5000E-01   0.000    
     614  0.3907      0.6364E-03 SPRIN         11   0.0%   42.50      0.5000E-03   0.000      -7.503       0.000      0.5000E-01   0.000    
     615  0.3914      0.6364E-03 SPRIN         11   0.0%   42.49      0.5000E-03   0.000      -7.514       0.000      0.5000E-01   0.000    
     616  0.3920      0.6364E-03 SPRIN         11   0.0%   42.47      0.5000E-03   0.000      -7.526       0.000      0.5000E-01   0.000    
     617  0.3927      0.6364E-03 SPRIN         11   0.0%   42.46      0.5000E-03   0.000      -7.538       0.000      0.5000E-01   0.000    
     618  0.3933      0.6364E-03 SPRIN         11   0.0%   42.45      0.5000E-03   0.000      -7.550       0.000      0.5000E-01   0.000    
     619  0.3939      0.6364E-03 SPRIN         11   0.0%   42.44      0.5000E-03   0.000      -7.561       0.000      0.5000E-01   0.000    
     620  0.3946      0.6364E-03 SPRIN         11  -0.0%   42.43      0.5000E-03   0.000      -7.573       0.000      0.5000E-01   0.000    
     621  0.3952      0.6364E-03 SPRIN         11   0.0%   42.41      0.5000E-03   0.000      -7.585       0.000      0.5000E-01   0.000    
     622  0.3958      0.6364E-03 SPRIN         11   0.0%   42.40      0.5000E-03   0.000      -7.597       0.000      0.5000E-01   0.000    
     623  0.3965      0.6364E-03 SPRIN         11   0.0%   42.39      0.5000E-03   0.000      -7.608       0.000      0.5000E-01   0.000    
     624  0.3971      0.6364E-03 SPRIN         11   0.0%   42.38      0.5000E-03   0.000      -7.620       0.000      0.5000E-01   0.000    
     625  0.3977      0.6364E-03 SPRIN         11   0.0%   42.37      0.5000E-03   0.000      -7.632       0.000      0.5000E-01   0.000    
     626  0.3984      0.6364E-03 SPRIN         11   0.0%   42.36      0.5000E-03   0.000      -7.643       0.000      0.5000E-01   0.000    
     627  0.3990      0.6364E-03 SPRIN         11   0.0%   42.34      0.5000E-03   0.000      -7.655       0.000      0.5000E-01   0.000    
     628  0.3997      0.6364E-03 SPRIN         11   0.0%   42.33      0.5000E-03   0.000      -7.667       0.000      0.5000E-01   0.000    
     629  0.4003      0.6364E-03 SPRIN         11   0.0%   42.32      0.5000E-03   0.000      -7.679       0.000      0.5000E-01   0.000    
     ANIMATION FILE: SPR_PRE_2FLAGA003 WRITTEN
     630  0.4009      0.6364E-03 SPRIN         11   0.0%   42.31      0.5000E-03   0.000      -7.690       0.000      0.5000E-01   0.000    
     631  0.4016      0.6364E-03 SPRIN         11   0.0%   42.30      0.5000E-03   0.000      -7.702       0.000      0.5000E-01   0.000    
     632  0.4022      0.6364E-03 SPRIN         11   0.0%   42.29      0.5000E-03   0.000      -7.714       0.000      0.5000E-01   0.000    
     633  0.4028      0.6364E-03 SPRIN         11   0.0%   42.27      0.5000E-03   0.000      -7.725       0.000      0.5000E-01   0.000    
     634  0.4035      0.6364E-03 SPRIN         11   0.0%   42.26      0.5000E-03   0.000      -7.737       0.000      0.5000E-01   0.000    
     635  0.4041      0.6364E-03 SPRIN         11   0.0%   42.25      0.5000E-03   0.000      -7.749       0.000      0.5000E-01   0.000    
     636  0.4047      0.6364E-03 SPRIN         11   0.0%   42.24      0.5000E-03   0.000      -7.760       0.000      0.5000E-01   0.000    
     637  0.4054      0.6364E-03 SPRIN         11  -0.0%   42.23      0.5000E-03   0.000      -7.772       0.000      0.5000E-01   0.000    
     638  0.4060      0.6364E-03 SPRIN         11   0.0%   42.22      0.5000E-03   0.000      -7.784       0.000      0.5000E-01   0.000    
     639  0.4067      0.6364E-03 SPRIN         11   0.0%   42.20      0.5000E-03   0.000      -7.796       0.000      0.5000E-01   0.000    
     640  0.4073      0.6364E-03 SPRIN         11   0.0%   42.19      0.5000E-03   0.000      -7.807       0.000      0.5000E-01   0.000    
     641  0.4079      0.6364E-03 SPRIN         11   0.0%   42.18      0.5000E-03   0.000      -7.819       0.000      0.5000E-01   0.000    
     642  0.4086      0.6364E-03 SPRIN         11   0.0%   42.17      0.5000E-03   0.000      -7.831       0.000      0.5000E-01   0.000    
     643  0.4092      0.6364E-03 SPRIN         11   0.0%   42.16      0.5000E-03   0.000      -7.842       0.000      0.5000E-01   0.000    
     644  0.4098      0.6364E-03 SPRIN         11   0.0%   42.15      0.5000E-03   0.000      -7.854       0.000      0.5000E-01   0.000    
     645  0.4105      0.6364E-03 SPRIN         11   0.0%   42.13      0.5000E-03   0.000      -7.866       0.000      0.5000E-01   0.000    
     646  0.4111      0.6364E-03 SPRIN         11   0.0%   42.12      0.5000E-03   0.000      -7.877       0.000      0.5000E-01   0.000    
     647  0.4117      0.6364E-03 SPRIN         11   0.0%   42.11      0.5000E-03   0.000      -7.889       0.000      0.5000E-01   0.000    
     648  0.4124      0.6364E-03 SPRIN         11   0.0%   42.10      0.5000E-03   0.000      -7.901       0.000      0.5000E-01   0.000    
     649  0.4130      0.6364E-03 SPRIN         11   0.0%   42.09      0.5000E-03   0.000      -7.912       0.000      0.5000E-01   0.000    
     650  0.4137      0.6364E-03 SPRIN         11   0.0%   42.08      0.5000E-03   0.000      -7.924       0.000      0.5000E-01   0.000    
     651  0.4143      0.6364E-03 SPRIN         11   0.0%   42.06      0.5000E-03   0.000      -7.936       0.000      0.5000E-01   0.000    
     652  0.4149      0.6364E-03 SPRIN         11   0.0%   42.05      0.5000E-03   0.000      -7.947       0.000      0.5000E-01   0.000    
     653  0.4156      0.6364E-03 SPRIN         11   0.0%   42.04      0.5000E-03   0.000      -7.959       0.000      0.5000E-01   0.000    
     654  0.4162      0.6364E-03 SPRIN         11   0.0%   42.03      0.5000E-03   0.000      -7.971       0.000      0.5000E-01   0.000    
     655  0.4168      0.6364E-03 SPRIN         11   0.0%   42.02      0.5000E-03   0.000      -7.982       0.000      0.5000E-01   0.000    
     656  0.4175      0.6364E-03 SPRIN         11  -0.0%   42.01      0.5000E-03   0.000      -7.994       0.000      0.5000E-01   0.000    
     657  0.4181      0.6364E-03 SPRIN         11   0.0%   41.99      0.5000E-03   0.000      -8.006       0.000      0.5000E-01   0.000    
     658  0.4187      0.6364E-03 SPRIN         11   0.0%   41.98      0.5000E-03   0.000      -8.017       0.000      0.5000E-01   0.000    
     659  0.4194      0.6364E-03 SPRIN         11   0.0%   41.97      0.5000E-03   0.000      -8.029       0.000      0.5000E-01   0.000    
   CYCLE    TIME      TIME-STEP  ELEMENT          ERROR  I-ENERGY    K-ENERGY T  K-ENERGY R  EXT-WORK     MAS.ERR     TOTAL MASS  MASS ADDED
     660  0.4200      0.6364E-03 SPRIN         11   0.0%   41.96      0.5000E-03   0.000      -8.041       0.000      0.5000E-01   0.000    
     661  0.4207      0.6364E-03 SPRIN         11   0.0%   41.95      0.5000E-03   0.000      -8.052       0.000      0.5000E-01   0.000    
     662  0.4213      0.6364E-03 SPRIN         11   0.0%   41.94      0.5000E-03   0.000      -8.064       0.000      0.5000E-01   0.000    
     663  0.4219      0.6364E-03 SPRIN         11   0.0%   41.92      0.5000E-03   0.000      -8.076       0.000      0.5000E-01   0.000    
     664  0.4226      0.6364E-03 SPRIN         11   0.0%   41.91      0.5000E-03   0.000      -8.087       0.000      0.5000E-01   0.000    
     665  0.4232      0.6364E-03 SPRIN         11   0.0%   41.90      0.5000E-03   0.000      -8.099       0.000      0.5000E-01   0.000    
     666  0.4238      0.6364E-03 SPRIN         11   0.0%   41.89      0.5000E-03   0.000      -8.111       0.000      0.5000E-01   0.000    
     667  0.4245      0.6364E-03 SPRIN         11   0.0%   41.88      0.5000E-03   0.000      -8.122       0.000      0.5000E-01   0.000    
     668  0.4251      0.6364E-03 SPRIN         11   0.0%   41.87      0.5000E-03   0.000      -8.134       0.000      0.5000E-01   0.000    
     669  0.4257      0.6364E-03 SPRIN         11   0.0%   41.85      0.5000E-03   0.000      -8.146       0.000      0.5000E-01   0.000    
     670  0.4264      0.6364E-03 SPRIN         11   0.0%   41.84      0.5000E-03   0.000      -8.157       0.000      0.5000E-01   0.000    
     671  0.4270      0.6364E-03 SPRIN         11  -0.0%   41.83      0.5000E-03   0.000      -8.169       0.000      0.5000E-01   0.000    
     672  0.4277      0.6364E-03 SPRIN         11  -0.0%   41.82      0.5000E-03   0.000      -8.181       0.000      0.5000E-01   0.000    
     673  0.4283      0.6364E-03 SPRIN         11  -0.0%   41.81      0.5000E-03   0.000      -8.192       0.000      0.5000E-01   0.000    
     674  0.4289      0.6364E-03 SPRIN         11   0.0%   41.80      0.5000E-03   0.000      -8.204       0.000      0.5000E-01   0.000    
     675  0.4296      0.6364E-03 SPRIN         11   0.0%   41.78      0.5000E-03   0.000      -8.215       0.000      0.5000E-01   0.000    
     676  0.4302      0.6364E-03 SPRIN         11   0.0%   41.77      0.5000E-03   0.000      -8.227       0.000      0.5000E-01   0.000    
     677  0.4308      0.6364E-03 SPRIN         11   0.0%   41.76      0.5000E-03   0.000      -8.239       0.000      0.5000E-01   0.000    
     678  0.4315      0.6364E-03 SPRIN         11   0.0%   41.75      0.5000E-03   0.000      -8.250       0.000      0.5000E-01   0.000    
     679  0.4321      0.6364E-03 SPRIN         11   0.0%   41.74      0.5000E-03   0.000      -8.262       0.000      0.5000E-01   0.000    
     680  0.4327      0.6364E-03 SPRIN         11   0.0%   41.73      0.5000E-03   0.000      -8.274       0.000      0.5000E-01   0.000    
     681  0.4334      0.6364E-03 SPRIN         11   0.0%   41.71      0.5000E-03   0.000      -8.285       0.000      0.5000E-01   0.000    
     682  0.4340      0.6364E-03 SPRIN         11   0.0%   41.70      0.5000E-03   0.000      -8.297       0.000      0.5000E-01   0.000    
     683  0.4347      0.6364E-03 SPRIN         11   0.0%   41.69      0.5000E-03   0.000      -8.308       0.000      0.5000E-01   0.000    
     684  0.4353      0.6364E-03 SPRIN         11   0.0%   41.68      0.5000E-03   0.000      -8.320       0.000      0.5000E-01   0.000    
     685  0.4359      0.6364E-03 SPRIN         11   0.0%   41.67      0.5000E-03   0.000      -8.332       0.000      0.5000E-01   0.000    
     686  0.4366      0.6364E-03 SPRIN         11   0.0%   41.66      0.5000E-03   0.000      -8.343       0.000      0.5000E-01   0.000    
     687  0.4372      0.6364E-03 SPRIN         11   0.0%   41.64      0.5000E-03   0.000      -8.355       0.000      0.5000E-01   0.000    
     688  0.4378      0.6364E-03 SPRIN         11   0.0%   41.63      0.5000E-03   0.000      -8.367       0.000      0.5000E-01   0.000    
     689  0.4385      0.6364E-03 SPRIN         11   0.0%   41.62      0.5000E-03   0.000      -8.378       0.000      0.5000E-01   0.000    
     690  0.4391      0.6364E-03 SPRIN         11  -0.0%   41.61      0.5000E-03   0.000      -8.390       0.000      0.5000E-01   0.000    
     691  0.4397      0.6364E-03 SPRIN         11  -0.0%   41.60      0.5000E-03   0.000      -8.401       0.000      0.5000E-01   0.000    
     692  0.4404      0.6364E-03 SPRIN         11  -0.0%   41.59      0.5000E-03   0.000      -8.413       0.000      0.5000E-01   0.000    
     693  0.4410      0.6364E-03 SPRIN         11  -0.0%   41.57      0.5000E-03   0.000      -8.425       0.000      0.5000E-01   0.000    
     694  0.4417      0.6364E-03 SPRIN         11  -0.0%   41.56      0.5000E-03   0.000      -8.436       0.000      0.5000E-01   0.000    
     695  0.4423      0.6364E-03 SPRIN         11   0.0%   41.55      0.5000E-03   0.000      -8.448       0.000      0.5000E-01   0.000    
     696  0.4429      0.6364E-03 SPRIN         11   0.0%   41.54      0.5000E-03   0.000      -8.459       0.000      0.5000E-01   0.000    
     697  0.4436      0.6364E-03 SPRIN         11   0.0%   41.53      0.5000E-03   0.000      -8.471       0.000      0.5000E-01   0.000    
     698  0.4442      0.6364E-03 SPRIN         11   0.0%   41.52      0.5000E-03   0.000      -8.483       0.000      0.5000E-01   0.000    
     699  0.4448      0.6364E-03 SPRIN         11   0.0%   41.51      0.5000E-03   0.000      -8.494       0.000      0.5000E-01   0.000    
     700  0.4455      0.6364E-03 SPRIN         11   0.0%   41.49      0.5000E-03   0.000      -8.506       0.000      0.5000E-01   0.000    
     701  0.4461      0.6364E-03 SPRIN         11   0.0%   41.48      0.5000E-03   0.000      -8.517       0.000      0.5000E-01   0.000    
     702  0.4468      0.6364E-03 SPRIN         11   0.0%   41.47      0.5000E-03   0.000      -8.529       0.000      0.5000E-01   0.000    
     703  0.4474      0.6364E-03 SPRIN         11   0.0%   41.46      0.5000E-03   0.000      -8.541       0.000      0.5000E-01   0.000    
     704  0.4480      0.6364E-03 SPRIN         11  -0.0%   41.45      0.5000E-03   0.000      -8.552       0.000      0.5000E-01   0.000    
     705  0.4487      0.6364E-03 SPRIN         11  -0.0%   41.44      0.5000E-03   0.000      -8.564       0.000      0.5000E-01   0.000    
     706  0.4493      0.6364E-03 SPRIN         11  -0.0%   41.42      0.5000E-03   0.000      -8.575       0.000      0.5000E-01   0.000    
     707  0.4499      0.6364E-03 SPRIN         11  -0.0%   41.41      0.5000E-03   0.000      -8.587       0.000      0.5000E-01   0.000    
     708  0.4506      0.6364E-03 SPRIN         11  -0.0%   41.40      0.5000E-03   0.000      -8.598       0.000      0.5000E-01   0.000    
     709  0.4512      0.6364E-03 SPRIN         11  -0.0%   41.39      0.5000E-03   0.000      -8.610       0.000      0.5000E-01   0.000    
     710  0.4518      0.6364E-03 SPRIN         11  -0.0%   41.38      0.5000E-03   0.000      -8.622       0.000      0.5000E-01   0.000    
     711  0.4525      0.6364E-03 SPRIN         11  -0.0%   41.37      0.5000E-03   0.000      -8.633       0.000      0.5000E-01   0.000    
     712  0.4531      0.6364E-03 SPRIN         11   0.0%   41.35      0.5000E-03   0.000      -8.645       0.000      0.5000E-01   0.000    
     713  0.4538      0.6364E-03 SPRIN         11   0.0%   41.34      0.5000E-03   0.000      -8.656       0.000      0.5000E-01   0.000    
     714  0.4544      0.6364E-03 SPRIN         11   0.0%   41.33      0.5000E-03   0.000      -8.668       0.000      0.5000E-01   0.000    
   CYCLE    TIME      TIME-STEP  ELEMENT          ERROR  I-ENERGY    K-ENERGY T  K-ENERGY R  EXT-WORK     MAS.ERR     TOTAL MASS  MASS ADDED
     715  0.4550      0.6364E-03 SPRIN         11   0.0%   41.32      0.5000E-03   0.000      -8.680       0.000      0.5000E-01   0.000    
     716  0.4557      0.6364E-03 SPRIN         11   0.0%   41.31      0.5000E-03   0.000      -8.691       0.000      0.5000E-01   0.000    
     717  0.4563      0.6364E-03 SPRIN         11   0.0%   41.30      0.5000E-03   0.000      -8.703       0.000      0.5000E-01   0.000    
     718  0.4569      0.6364E-03 SPRIN         11   0.0%   41.29      0.5000E-03   0.000      -8.714       0.000      0.5000E-01   0.000    
     719  0.4576      0.6364E-03 SPRIN         11   0.0%   41.27      0.5000E-03   0.000      -8.726       0.000      0.5000E-01   0.000    
     720  0.4582      0.6364E-03 SPRIN         11   0.0%   41.26      0.5000E-03   0.000      -8.737       0.000      0.5000E-01   0.000    
     721  0.4588      0.6364E-03 SPRIN         11   0.0%   41.25      0.5000E-03   0.000      -8.749       0.000      0.5000E-01   0.000    
     722  0.4595      0.6364E-03 SPRIN         11   0.0%   41.24      0.5000E-03   0.000      -8.760       0.000      0.5000E-01   0.000    
     723  0.4601      0.6364E-03 SPRIN         11  -0.0%   41.23      0.5000E-03   0.000      -8.772       0.000      0.5000E-01   0.000    
     724  0.4608      0.6364E-03 SPRIN         11  -0.0%   41.22      0.5000E-03   0.000      -8.784       0.000      0.5000E-01   0.000    
     725  0.4614      0.6364E-03 SPRIN         11  -0.0%   41.20      0.5000E-03   0.000      -8.795       0.000      0.5000E-01   0.000    
     726  0.4620      0.6364E-03 SPRIN         11  -0.0%   41.19      0.5000E-03   0.000      -8.807       0.000      0.5000E-01   0.000    
     727  0.4627      0.6364E-03 SPRIN         11  -0.0%   41.18      0.5000E-03   0.000      -8.818       0.000      0.5000E-01   0.000    
     728  0.4633      0.6364E-03 SPRIN         11  -0.0%   41.17      0.5000E-03   0.000      -8.830       0.000      0.5000E-01   0.000    
     729  0.4639      0.6364E-03 SPRIN         11  -0.0%   41.16      0.5000E-03   0.000      -8.841       0.000      0.5000E-01   0.000    
     730  0.4646      0.6364E-03 SPRIN         11   0.0%   41.15      0.5000E-03   0.000      -8.853       0.000      0.5000E-01   0.000    
     731  0.4652      0.6364E-03 SPRIN         11   0.0%   41.14      0.5000E-03   0.000      -8.864       0.000      0.5000E-01   0.000    
     732  0.4658      0.6364E-03 SPRIN         11   0.0%   41.12      0.5000E-03   0.000      -8.876       0.000      0.5000E-01   0.000    
     733  0.4665      0.6364E-03 SPRIN         11   0.0%   41.11      0.5000E-03   0.000      -8.887       0.000      0.5000E-01   0.000    
     734  0.4671      0.6364E-03 SPRIN         11   0.0%   41.10      0.5000E-03   0.000      -8.899       0.000      0.5000E-01   0.000    
     735  0.4678      0.6364E-03 SPRIN         11   0.0%   41.09      0.5000E-03   0.000      -8.911       0.000      0.5000E-01   0.000    
     736  0.4684      0.6364E-03 SPRIN         11   0.0%   41.08      0.5000E-03   0.000      -8.922       0.000      0.5000E-01   0.000    
     737  0.4690      0.6364E-03 SPRIN         11   0.0%   41.07      0.5000E-03   0.000      -8.934       0.000      0.5000E-01   0.000    
     738  0.4697      0.6364E-03 SPRIN         11   0.0%   41.05      0.5000E-03   0.000      -8.945       0.000      0.5000E-01   0.000    
     739  0.4703      0.6364E-03 SPRIN         11   0.0%   41.04      0.5000E-03   0.000      -8.957       0.000      0.5000E-01   0.000    
     740  0.4709      0.6364E-03 SPRIN         11   0.0%   41.03      0.5000E-03   0.000      -8.968       0.000      0.5000E-01   0.000    
     741  0.4716      0.6364E-03 SPRIN         11   0.0%   41.02      0.5000E-03   0.000      -8.980       0.000      0.5000E-01   0.000    
     742  0.4722      0.6364E-03 SPRIN         11   0.0%   41.01      0.5000E-03   0.000      -8.991       0.000      0.5000E-01   0.000    
     743  0.4728      0.6364E-03 SPRIN         11   0.0%   41.00      0.5000E-03   0.000      -9.003       0.000      0.5000E-01   0.000    
     744  0.4735      0.6364E-03 SPRIN         11   0.0%   40.99      0.5000E-03   0.000      -9.014       0.000      0.5000E-01   0.000    
     745  0.4741      0.6364E-03 SPRIN         11  -0.0%   40.97      0.5000E-03   0.000      -9.026       0.000      0.5000E-01   0.000    
     746  0.4748      0.6364E-03 SPRIN         11   0.0%   40.96      0.5000E-03   0.000      -9.037       0.000      0.5000E-01   0.000    
     747  0.4754      0.6364E-03 SPRIN         11   0.0%   40.95      0.5000E-03   0.000      -9.049       0.000      0.5000E-01   0.000    
     748  0.4760      0.6364E-03 SPRIN         11   0.0%   40.94      0.5000E-03   0.000      -9.060       0.000      0.5000E-01   0.000    
     749  0.4767      0.6364E-03 SPRIN         11   0.0%   40.93      0.5000E-03   0.000      -9.072       0.000      0.5000E-01   0.000    
     750  0.4773      0.6364E-03 SPRIN         11   0.0%   40.92      0.5000E-03   0.000      -9.083       0.000      0.5000E-01   0.000    
     751  0.4779      0.6364E-03 SPRIN         11   0.0%   40.90      0.5000E-03   0.000      -9.095       0.000      0.5000E-01   0.000    
     752  0.4786      0.6364E-03 SPRIN         11   0.0%   40.89      0.5000E-03   0.000      -9.106       0.000      0.5000E-01   0.000    
     753  0.4792      0.6364E-03 SPRIN         11   0.0%   40.88      0.5000E-03   0.000      -9.118       0.000      0.5000E-01   0.000    
     754  0.4798      0.6364E-03 SPRIN         11   0.0%   40.87      0.5000E-03   0.000      -9.129       0.000      0.5000E-01   0.000    
     755  0.4805      0.6364E-03 SPRIN         11   0.0%   40.86      0.5000E-03   0.000      -9.141       0.000      0.5000E-01   0.000    
     756  0.4811      0.6364E-03 SPRIN         11   0.0%   40.85      0.5000E-03   0.000      -9.153       0.000      0.5000E-01   0.000    
     757  0.4818      0.6364E-03 SPRIN         11   0.0%   40.84      0.5000E-03   0.000      -9.164       0.000      0.5000E-01   0.000    
     758  0.4824      0.6364E-03 SPRIN         11   0.0%   40.82      0.5000E-03   0.000      -9.176       0.000      0.5000E-01   0.000    
     759  0.4830      0.6364E-03 SPRIN         11   0.0%   40.81      0.5000E-03   0.000      -9.187       0.000      0.5000E-01   0.000    
     760  0.4837      0.6364E-03 SPRIN         11  -0.0%   40.80      0.5000E-03   0.000      -9.199       0.000      0.5000E-01   0.000    
     761  0.4843      0.6364E-03 SPRIN         11  -0.0%   40.79      0.5000E-03   0.000      -9.210       0.000      0.5000E-01   0.000    
     762  0.4849      0.6364E-03 SPRIN         11  -0.0%   40.78      0.5000E-03   0.000      -9.221       0.000      0.5000E-01   0.000    
     763  0.4856      0.6364E-03 SPRIN         11  -0.0%   40.77      0.5000E-03   0.000      -9.233       0.000      0.5000E-01   0.000    
     764  0.4862      0.6364E-03 SPRIN         11  -0.0%   40.76      0.5000E-03   0.000      -9.244       0.000      0.5000E-01   0.000    
     765  0.4868      0.6364E-03 SPRIN         11   0.0%   40.74      0.5000E-03   0.000      -9.256       0.000      0.5000E-01   0.000    
     766  0.4875      0.6364E-03 SPRIN         11   0.0%   40.73      0.5000E-03   0.000      -9.267       0.000      0.5000E-01   0.000    
     767  0.4881      0.6364E-03 SPRIN         11   0.0%   40.72      0.5000E-03   0.000      -9.279       0.000      0.5000E-01   0.000    
     768  0.4888      0.6364E-03 SPRIN         11   0.0%   40.71      0.5000E-03   0.000      -9.290       0.000      0.5000E-01   0.000    
     769  0.4894      0.6364E-03 SPRIN         11   0.0%   40.70      0.5000E-03   0.000      -9.302       0.000      0.5000E-01   0.000    
   CYCLE    TIME      TIME-STEP  ELEMENT          ERROR  I-ENERGY    K-ENERGY T  K-ENERGY R  EXT-WORK     MAS.ERR     TOTAL MASS  MASS ADDED
     770  0.4900      0.6364E-03 SPRIN         11   0.0%   40.69      0.5000E-03   0.000      -9.313       0.000      0.5000E-01   0.000    
     771  0.4907      0.6364E-03 SPRIN         11   0.0%   40.67      0.5000E-03   0.000      -9.325       0.000      0.5000E-01   0.000    
     772  0.4913      0.6364E-03 SPRIN         11   0.0%   40.66      0.5000E-03   0.000      -9.336       0.000      0.5000E-01   0.000    
     773  0.4919      0.6364E-03 SPRIN         11   0.0%   40.65      0.5000E-03   0.000      -9.348       0.000      0.5000E-01   0.000    
     774  0.4926      0.6364E-03 SPRIN         11   0.0%   40.64      0.5000E-03   0.000      -9.359       0.000      0.5000E-01   0.000    
     775  0.4932      0.6364E-03 SPRIN         11   0.0%   40.63      0.5000E-03   0.000      -9.371       0.000      0.5000E-01   0.000    
     776  0.4938      0.6364E-03 SPRIN         11   0.0%   40.62      0.5000E-03   0.000      -9.382       0.000      0.5000E-01   0.000    
     777  0.4945      0.6364E-03 SPRIN         11   0.0%   40.61      0.5000E-03   0.000      -9.394       0.000      0.5000E-01   0.000    
     778  0.4951      0.6364E-03 SPRIN         11   0.0%   40.59      0.5000E-03   0.000      -9.405       0.000      0.5000E-01   0.000    
     779  0.4958      0.6364E-03 SPRIN         11   0.0%   40.58      0.5000E-03   0.000      -9.417       0.000      0.5000E-01   0.000    
     780  0.4964      0.6364E-03 SPRIN         11  -0.0%   40.57      0.5000E-03   0.000      -9.428       0.000      0.5000E-01   0.000    
     781  0.4970      0.6364E-03 SPRIN         11  -0.0%   40.56      0.5000E-03   0.000      -9.440       0.000      0.5000E-01   0.000    
     782  0.4977      0.6364E-03 SPRIN         11  -0.0%   40.55      0.5000E-03   0.000      -9.451       0.000      0.5000E-01   0.000    
     783  0.4983      0.6364E-03 SPRIN         11   0.0%   40.54      0.5000E-03   0.000      -9.462       0.000      0.5000E-01   0.000    
     784  0.4989      0.6364E-03 SPRIN         11   0.0%   40.53      0.5000E-03   0.000      -9.474       0.000      0.5000E-01   0.000    
     785  0.4996      0.6364E-03 SPRIN         11   0.0%   40.51      0.5000E-03   0.000      -9.485       0.000      0.5000E-01   0.000    
     786  0.5002      0.6364E-03 SPRIN         11   0.0%   40.50      0.5000E-03   0.000      -9.497       0.000      0.5000E-01   0.000    
     787  0.5008      0.6364E-03 SPRIN         11   0.0%   40.49      0.5000E-03   0.000      -9.508       0.000      0.5000E-01   0.000    
     788  0.5015      0.6364E-03 SPRIN         11   0.0%   40.48      0.5000E-03   0.000      -9.520       0.000      0.5000E-01   0.000    
     789  0.5021      0.6364E-03 SPRIN         11   0.0%   40.47      0.5000E-03   0.000      -9.531       0.000      0.5000E-01   0.000    
     790  0.5028      0.6364E-03 SPRIN         11   0.0%   40.46      0.5000E-03   0.000      -9.543       0.000      0.5000E-01   0.000    
     791  0.5034      0.6364E-03 SPRIN         11   0.0%   40.45      0.5000E-03   0.000      -9.554       0.000      0.5000E-01   0.000    
     792  0.5040      0.6364E-03 SPRIN         11   0.0%   40.43      0.5000E-03   0.000      -9.566       0.000      0.5000E-01   0.000    
     793  0.5047      0.6364E-03 SPRIN         11   0.0%   40.42      0.5000E-03   0.000      -9.577       0.000      0.5000E-01   0.000    
     794  0.5053      0.6364E-03 SPRIN         11   0.0%   40.41      0.5000E-03   0.000      -9.588       0.000      0.5000E-01   0.000    
     795  0.5059      0.6364E-03 SPRIN         11   0.0%   40.40      0.5000E-03   0.000      -9.600       0.000      0.5000E-01   0.000    
     796  0.5066      0.6364E-03 SPRIN         11  -0.0%   40.39      0.5000E-03   0.000      -9.611       0.000      0.5000E-01   0.000    
     797  0.5072      0.6364E-03 SPRIN         11   0.0%   40.38      0.5000E-03   0.000      -9.623       0.000      0.5000E-01   0.000    
     798  0.5078      0.6364E-03 SPRIN         11  -0.0%   40.37      0.5000E-03   0.000      -9.634       0.000      0.5000E-01   0.000    
     799  0.5085      0.6364E-03 SPRIN         11   0.0%   40.35      0.5000E-03   0.000      -9.646       0.000      0.5000E-01   0.000    
     800  0.5091      0.6364E-03 SPRIN         11   0.0%   40.34      0.5000E-03   0.000      -9.657       0.000      0.5000E-01   0.000    
     801  0.5098      0.6364E-03 SPRIN         11   0.0%   40.33      0.5000E-03   0.000      -9.669       0.000      0.5000E-01   0.000    
     802  0.5104      0.6364E-03 SPRIN         11   0.0%   40.32      0.5000E-03   0.000      -9.680       0.000      0.5000E-01   0.000    
     803  0.5110      0.6364E-03 SPRIN         11   0.0%   40.31      0.5000E-03   0.000      -9.691       0.000      0.5000E-01   0.000    
     804  0.5117      0.6364E-03 SPRIN         11   0.0%   40.30      0.5000E-03   0.000      -9.703       0.000      0.5000E-01   0.000    
     805  0.5123      0.6364E-03 SPRIN         11   0.0%   40.29      0.5000E-03   0.000      -9.714       0.000      0.5000E-01   0.000    
     806  0.5129      0.6364E-03 SPRIN         11   0.0%   40.27      0.5000E-03   0.000      -9.726       0.000      0.5000E-01   0.000    
     807  0.5136      0.6364E-03 SPRIN         11   0.0%   40.26      0.5000E-03   0.000      -9.737       0.000      0.5000E-01   0.000    
     808  0.5142      0.6364E-03 SPRIN         11   0.0%   40.25      0.5000E-03   0.000      -9.748       0.000      0.5000E-01   0.000    
     809  0.5148      0.6364E-03 SPRIN         11   0.0%   40.24      0.5000E-03   0.000      -9.760       0.000      0.5000E-01   0.000    
     810  0.5155      0.6364E-03 SPRIN         11   0.0%   40.23      0.5000E-03   0.000      -9.771       0.000      0.5000E-01   0.000    
     811  0.5161      0.6364E-03 SPRIN         11   0.0%   40.22      0.5000E-03   0.000      -9.783       0.000      0.5000E-01   0.000    
     812  0.5168      0.6364E-03 SPRIN         11   0.0%   40.21      0.5000E-03   0.000      -9.794       0.000      0.5000E-01   0.000    
     813  0.5174      0.6364E-03 SPRIN         11   0.0%   40.19      0.5000E-03   0.000      -9.806       0.000      0.5000E-01   0.000    
     814  0.5180      0.6364E-03 SPRIN         11  -0.0%   40.18      0.5000E-03   0.000      -9.817       0.000      0.5000E-01   0.000    
     815  0.5187      0.6364E-03 SPRIN         11  -0.0%   40.17      0.5000E-03   0.000      -9.828       0.000      0.5000E-01   0.000    
     816  0.5193      0.6364E-03 SPRIN         11  -0.0%   40.16      0.5000E-03   0.000      -9.840       0.000      0.5000E-01   0.000    
     817  0.5199      0.6364E-03 SPRIN         11  -0.0%   40.15      0.5000E-03   0.000      -9.851       0.000      0.5000E-01   0.000    
     818  0.5206      0.6364E-03 SPRIN         11  -0.0%   40.14      0.5000E-03   0.000      -9.863       0.000      0.5000E-01   0.000    
     819  0.5212      0.6364E-03 SPRIN         11   0.0%   40.13      0.5000E-03   0.000      -9.874       0.000      0.5000E-01   0.000    
     820  0.5218      0.6364E-03 SPRIN         11   0.0%   40.11      0.5000E-03   0.000      -9.885       0.000      0.5000E-01   0.000    
     821  0.5225      0.6364E-03 SPRIN         11   0.0%   40.10      0.5000E-03   0.000      -9.897       0.000      0.5000E-01   0.000    
     822  0.5231      0.6364E-03 SPRIN         11   0.0%   40.09      0.5000E-03   0.000      -9.908       0.000      0.5000E-01   0.000    
     823  0.5238      0.6364E-03 SPRIN         11   0.0%   40.08      0.5000E-03   0.000      -9.920       0.000      0.5000E-01   0.000    
     824  0.5244      0.6364E-03 SPRIN         11   0.0%   40.07      0.5000E-03   0.000      -9.931       0.000      0.5000E-01   0.000    
   CYCLE    TIME      TIME-STEP  ELEMENT          ERROR  I-ENERGY    K-ENERGY T  K-ENERGY R  EXT-WORK     MAS.ERR     TOTAL MASS  MASS ADDED
     825  0.5250      0.6364E-03 SPRIN         11   0.0%   40.06      0.5000E-03   0.000      -9.942       0.000      0.5000E-01   0.000    
     826  0.5257      0.6364E-03 SPRIN         11   0.0%   40.05      0.5000E-03   0.000      -9.954       0.000      0.5000E-01   0.000    
     827  0.5263      0.6364E-03 SPRIN         11   0.0%   40.03      0.5000E-03   0.000      -9.965       0.000      0.5000E-01   0.000    
     828  0.5269      0.6364E-03 SPRIN         11   0.0%   40.02      0.5000E-03   0.000      -9.977       0.000      0.5000E-01   0.000    
     829  0.5276      0.6364E-03 SPRIN         11   0.0%   40.01      0.5000E-03   0.000      -9.988       0.000      0.5000E-01   0.000    
     830  0.5282      0.6364E-03 SPRIN         11   0.0%   40.00      0.5000E-03   0.000      -9.999       0.000      0.5000E-01   0.000    
     831  0.5288      0.6364E-03 SPRIN         11   0.0%   39.99      0.5000E-03   0.000      -10.01       0.000      0.5000E-01   0.000    
     832  0.5295      0.6364E-03 SPRIN         11   0.0%   39.98      0.5000E-03   0.000      -10.02       0.000      0.5000E-01   0.000    
     833  0.5301      0.6364E-03 SPRIN         11   0.0%   39.97      0.5000E-03   0.000      -10.03       0.000      0.5000E-01   0.000    
     834  0.5308      0.6364E-03 SPRIN         11  -0.0%   39.95      0.5000E-03   0.000      -10.04       0.000      0.5000E-01   0.000    
     835  0.5314      0.6364E-03 SPRIN         11   0.0%   39.94      0.5000E-03   0.000      -10.06       0.000      0.5000E-01   0.000    
     836  0.5320      0.6364E-03 SPRIN         11   0.0%   39.93      0.5000E-03   0.000      -10.07       0.000      0.5000E-01   0.000    
     837  0.5327      0.6364E-03 SPRIN         11   0.0%   39.92      0.5000E-03   0.000      -10.08       0.000      0.5000E-01   0.000    
     838  0.5333      0.6364E-03 SPRIN         11   0.0%   39.91      0.5000E-03   0.000      -10.09       0.000      0.5000E-01   0.000    
     839  0.5339      0.6364E-03 SPRIN         11   0.0%   39.90      0.5000E-03   0.000      -10.10       0.000      0.5000E-01   0.000    
     840  0.5346      0.6364E-03 SPRIN         11   0.0%   39.89      0.5000E-03   0.000      -10.11       0.000      0.5000E-01   0.000    
     841  0.5352      0.6364E-03 SPRIN         11   0.0%   39.88      0.5000E-03   0.000      -10.12       0.000      0.5000E-01   0.000    
     842  0.5358      0.6364E-03 SPRIN         11   0.0%   39.86      0.5000E-03   0.000      -10.14       0.000      0.5000E-01   0.000    
     843  0.5365      0.6364E-03 SPRIN         11   0.0%   39.85      0.5000E-03   0.000      -10.15       0.000      0.5000E-01   0.000    
     844  0.5371      0.6364E-03 SPRIN         11   0.0%   39.84      0.5000E-03   0.000      -10.16       0.000      0.5000E-01   0.000    
     845  0.5378      0.6364E-03 SPRIN         11   0.0%   39.83      0.5000E-03   0.000      -10.17       0.000      0.5000E-01   0.000    
     846  0.5384      0.6364E-03 SPRIN         11   0.0%   39.82      0.5000E-03   0.000      -10.18       0.000      0.5000E-01   0.000    
     847  0.5390      0.6364E-03 SPRIN         11   0.0%   39.81      0.5000E-03   0.000      -10.19       0.000      0.5000E-01   0.000    
     848  0.5397      0.6364E-03 SPRIN         11   0.0%   39.80      0.5000E-03   0.000      -10.20       0.000      0.5000E-01   0.000    
     849  0.5403      0.6364E-03 SPRIN         11   0.0%   39.78      0.5000E-03   0.000      -10.22       0.000      0.5000E-01   0.000    
     850  0.5409      0.6364E-03 SPRIN         11  -0.0%   39.77      0.5000E-03   0.000      -10.23       0.000      0.5000E-01   0.000    
     851  0.5416      0.6364E-03 SPRIN         11  -0.0%   39.76      0.5000E-03   0.000      -10.24       0.000      0.5000E-01   0.000    
     852  0.5422      0.6364E-03 SPRIN         11  -0.0%   39.75      0.5000E-03   0.000      -10.25       0.000      0.5000E-01   0.000    
     853  0.5428      0.6364E-03 SPRIN         11   0.0%   39.74      0.5000E-03   0.000      -10.26       0.000      0.5000E-01   0.000    
     854  0.5435      0.6364E-03 SPRIN         11   0.0%   39.73      0.5000E-03   0.000      -10.27       0.000      0.5000E-01   0.000    
     855  0.5441      0.6364E-03 SPRIN         11   0.0%   39.72      0.5000E-03   0.000      -10.28       0.000      0.5000E-01   0.000    
     856  0.5448      0.6364E-03 SPRIN         11   0.0%   39.70      0.5000E-03   0.000      -10.29       0.000      0.5000E-01   0.000    
     857  0.5454      0.6364E-03 SPRIN         11   0.0%   39.69      0.5000E-03   0.000      -10.31       0.000      0.5000E-01   0.000    
     858  0.5460      0.6364E-03 SPRIN         11   0.0%   39.68      0.5000E-03   0.000      -10.32       0.000      0.5000E-01   0.000    
     859  0.5467      0.6364E-03 SPRIN         11   0.0%   39.67      0.5000E-03   0.000      -10.33       0.000      0.5000E-01   0.000    
     860  0.5473      0.6364E-03 SPRIN         11   0.0%   39.66      0.5000E-03   0.000      -10.34       0.000      0.5000E-01   0.000    
     861  0.5479      0.6364E-03 SPRIN         11   0.0%   39.65      0.5000E-03   0.000      -10.35       0.000      0.5000E-01   0.000    
     862  0.5486      0.6364E-03 SPRIN         11   0.0%   39.64      0.5000E-03   0.000      -10.36       0.000      0.5000E-01   0.000    
     863  0.5492      0.6364E-03 SPRIN         11   0.0%   39.63      0.5000E-03   0.000      -10.37       0.000      0.5000E-01   0.000    
     864  0.5498      0.6364E-03 SPRIN         11   0.0%   39.61      0.5000E-03   0.000      -10.39       0.000      0.5000E-01   0.000    
     865  0.5505      0.6364E-03 SPRIN         11   0.0%   39.60      0.5000E-03   0.000      -10.40       0.000      0.5000E-01   0.000    
     866  0.5511      0.6364E-03 SPRIN         11   0.0%   39.59      0.5000E-03   0.000      -10.41       0.000      0.5000E-01   0.000    
     867  0.5518      0.6364E-03 SPRIN         11   0.0%   39.58      0.5000E-03   0.000      -10.42       0.000      0.5000E-01   0.000    
     868  0.5524      0.6364E-03 SPRIN         11   0.0%   39.57      0.5000E-03   0.000      -10.43       0.000      0.5000E-01   0.000    
     869  0.5530      0.6364E-03 SPRIN         11   0.0%   39.56      0.5000E-03   0.000      -10.44       0.000      0.5000E-01   0.000    
     870  0.5537      0.6364E-03 SPRIN         11   0.0%   39.55      0.5000E-03   0.000      -10.45       0.000      0.5000E-01   0.000    
     871  0.5543      0.6364E-03 SPRIN         11   0.0%   39.53      0.5000E-03   0.000      -10.46       0.000      0.5000E-01   0.000    
     872  0.5549      0.6364E-03 SPRIN         11   0.0%   39.52      0.5000E-03   0.000      -10.48       0.000      0.5000E-01   0.000    
     873  0.5556      0.6364E-03 SPRIN         11   0.0%   39.51      0.5000E-03   0.000      -10.49       0.000      0.5000E-01   0.000    
     874  0.5562      0.6364E-03 SPRIN         11   0.0%   39.50      0.5000E-03   0.000      -10.50       0.000      0.5000E-01   0.000    
     875  0.5568      0.6364E-03 SPRIN         11   0.0%   39.49      0.5000E-03   0.000      -10.51       0.000      0.5000E-01   0.000    
     876  0.5575      0.6364E-03 SPRIN         11   0.0%   39.48      0.5000E-03   0.000      -10.52       0.000      0.5000E-01   0.000    
     877  0.5581      0.6364E-03 SPRIN         11   0.0%   39.47      0.5000E-03   0.000      -10.53       0.000      0.5000E-01   0.000    
     878  0.5588      0.6364E-03 SPRIN         11   0.0%   39.46      0.5000E-03   0.000      -10.54       0.000      0.5000E-01   0.000    
     879  0.5594      0.6364E-03 SPRIN         11   0.0%   39.44      0.5000E-03   0.000      -10.56       0.000      0.5000E-01   0.000    
   CYCLE    TIME      TIME-STEP  ELEMENT          ERROR  I-ENERGY    K-ENERGY T  K-ENERGY R  EXT-WORK     MAS.ERR     TOTAL MASS  MASS ADDED
     880  0.5600      0.6364E-03 SPRIN         11   0.0%   39.43      0.5000E-03   0.000      -10.57       0.000      0.5000E-01   0.000    
     881  0.5607      0.6364E-03 SPRIN         11   0.0%   39.42      0.5000E-03   0.000      -10.58       0.000      0.5000E-01   0.000    
     882  0.5613      0.6364E-03 SPRIN         11   0.0%   39.41      0.5000E-03   0.000      -10.59       0.000      0.5000E-01   0.000    
     883  0.5619      0.6364E-03 SPRIN         11   0.0%   39.40      0.5000E-03   0.000      -10.60       0.000      0.5000E-01   0.000    
     884  0.5626      0.6364E-03 SPRIN         11   0.0%   39.39      0.5000E-03   0.000      -10.61       0.000      0.5000E-01   0.000    
     885  0.5632      0.6364E-03 SPRIN         11   0.0%   39.38      0.5000E-03   0.000      -10.62       0.000      0.5000E-01   0.000    
     886  0.5638      0.6364E-03 SPRIN         11   0.0%   39.37      0.5000E-03   0.000      -10.63       0.000      0.5000E-01   0.000    
     887  0.5645      0.6364E-03 SPRIN         11   0.0%   39.35      0.5000E-03   0.000      -10.65       0.000      0.5000E-01   0.000    
     888  0.5651      0.6364E-03 SPRIN         11   0.0%   39.34      0.5000E-03   0.000      -10.66       0.000      0.5000E-01   0.000    
     889  0.5658      0.6364E-03 SPRIN         11   0.0%   39.33      0.5000E-03   0.000      -10.67       0.000      0.5000E-01   0.000    
     890  0.5664      0.6364E-03 SPRIN         11   0.0%   39.32      0.5000E-03   0.000      -10.68       0.000      0.5000E-01   0.000    
     891  0.5670      0.6364E-03 SPRIN         11   0.0%   39.31      0.5000E-03   0.000      -10.69       0.000      0.5000E-01   0.000    
     892  0.5677      0.6364E-03 SPRIN         11   0.0%   39.30      0.5000E-03   0.000      -10.70       0.000      0.5000E-01   0.000    
     893  0.5683      0.6364E-03 SPRIN         11   0.0%   39.29      0.5000E-03   0.000      -10.71       0.000      0.5000E-01   0.000    
     894  0.5689      0.6364E-03 SPRIN         11   0.0%   39.27      0.5000E-03   0.000      -10.72       0.000      0.5000E-01   0.000    
     895  0.5696      0.6364E-03 SPRIN         11   0.0%   39.26      0.5000E-03   0.000      -10.74       0.000      0.5000E-01   0.000    
     896  0.5702      0.6364E-03 SPRIN         11   0.0%   39.25      0.5000E-03   0.000      -10.75       0.000      0.5000E-01   0.000    
     897  0.5708      0.6364E-03 SPRIN         11   0.0%   39.24      0.5000E-03   0.000      -10.76       0.000      0.5000E-01   0.000    
     898  0.5715      0.6364E-03 SPRIN         11   0.0%   39.23      0.5000E-03   0.000      -10.77       0.000      0.5000E-01   0.000    
     899  0.5721      0.6364E-03 SPRIN         11   0.0%   39.22      0.5000E-03   0.000      -10.78       0.000      0.5000E-01   0.000    
     900  0.5728      0.6364E-03 SPRIN         11   0.0%   39.21      0.5000E-03   0.000      -10.79       0.000      0.5000E-01   0.000    
     901  0.5734      0.6364E-03 SPRIN         11   0.0%   39.20      0.5000E-03   0.000      -10.80       0.000      0.5000E-01   0.000    
     902  0.5740      0.6364E-03 SPRIN         11   0.0%   39.18      0.5000E-03   0.000      -10.81       0.000      0.5000E-01   0.000    
     903  0.5747      0.6364E-03 SPRIN         11   0.0%   39.17      0.5000E-03   0.000      -10.83       0.000      0.5000E-01   0.000    
     904  0.5753      0.6364E-03 SPRIN         11   0.0%   39.16      0.5000E-03   0.000      -10.84       0.000      0.5000E-01   0.000    
     905  0.5759      0.6364E-03 SPRIN         11   0.0%   39.15      0.5000E-03   0.000      -10.85       0.000      0.5000E-01   0.000    
     906  0.5766      0.6364E-03 SPRIN         11   0.0%   39.14      0.5000E-03   0.000      -10.86       0.000      0.5000E-01   0.000    
     907  0.5772      0.6364E-03 SPRIN         11   0.0%   39.13      0.5000E-03   0.000      -10.87       0.000      0.5000E-01   0.000    
     908  0.5778      0.6364E-03 SPRIN         11   0.0%   39.12      0.5000E-03   0.000      -10.88       0.000      0.5000E-01   0.000    
     909  0.5785      0.6364E-03 SPRIN         11   0.0%   39.11      0.5000E-03   0.000      -10.89       0.000      0.5000E-01   0.000    
     910  0.5791      0.6364E-03 SPRIN         11   0.0%   39.09      0.5000E-03   0.000      -10.90       0.000      0.5000E-01   0.000    
     911  0.5798      0.6364E-03 SPRIN         11   0.0%   39.08      0.5000E-03   0.000      -10.92       0.000      0.5000E-01   0.000    
     912  0.5804      0.6364E-03 SPRIN         11   0.0%   39.07      0.5000E-03   0.000      -10.93       0.000      0.5000E-01   0.000    
     913  0.5810      0.6364E-03 SPRIN         11   0.0%   39.06      0.5000E-03   0.000      -10.94       0.000      0.5000E-01   0.000    
     914  0.5817      0.6364E-03 SPRIN         11   0.0%   39.05      0.5000E-03   0.000      -10.95       0.000      0.5000E-01   0.000    
     915  0.5823      0.6364E-03 SPRIN         11   0.0%   39.04      0.5000E-03   0.000      -10.96       0.000      0.5000E-01   0.000    
     916  0.5829      0.6364E-03 SPRIN         11   0.0%   39.03      0.5000E-03   0.000      -10.97       0.000      0.5000E-01   0.000    
     917  0.5836      0.6364E-03 SPRIN         11   0.0%   39.02      0.5000E-03   0.000      -10.98       0.000      0.5000E-01   0.000    
     918  0.5842      0.6364E-03 SPRIN         11   0.0%   39.00      0.5000E-03   0.000      -10.99       0.000      0.5000E-01   0.000    
     919  0.5848      0.6364E-03 SPRIN         11   0.0%   38.99      0.5000E-03   0.000      -11.01       0.000      0.5000E-01   0.000    
     920  0.5855      0.6364E-03 SPRIN         11   0.0%   38.98      0.5000E-03   0.000      -11.02       0.000      0.5000E-01   0.000    
     921  0.5861      0.6364E-03 SPRIN         11   0.0%   38.97      0.5000E-03   0.000      -11.03       0.000      0.5000E-01   0.000    
     922  0.5868      0.6364E-03 SPRIN         11   0.0%   38.96      0.5000E-03   0.000      -11.04       0.000      0.5000E-01   0.000    
     923  0.5874      0.6364E-03 SPRIN         11   0.0%   38.95      0.5000E-03   0.000      -11.05       0.000      0.5000E-01   0.000    
     924  0.5880      0.6364E-03 SPRIN         11   0.0%   38.94      0.5000E-03   0.000      -11.06       0.000      0.5000E-01   0.000    
     925  0.5887      0.6364E-03 SPRIN         11   0.0%   38.93      0.5000E-03   0.000      -11.07       0.000      0.5000E-01   0.000    
     926  0.5893      0.6364E-03 SPRIN         11   0.0%   38.91      0.5000E-03   0.000      -11.08       0.000      0.5000E-01   0.000    
     927  0.5899      0.6364E-03 SPRIN         11   0.0%   38.90      0.5000E-03   0.000      -11.10       0.000      0.5000E-01   0.000    
     928  0.5906      0.6364E-03 SPRIN         11   0.0%   38.89      0.5000E-03   0.000      -11.11       0.000      0.5000E-01   0.000    
     929  0.5912      0.6364E-03 SPRIN         11   0.0%   38.88      0.5000E-03   0.000      -11.12       0.000      0.5000E-01   0.000    
     930  0.5918      0.6364E-03 SPRIN         11   0.0%   38.87      0.5000E-03   0.000      -11.13       0.000      0.5000E-01   0.000    
     931  0.5925      0.6364E-03 SPRIN         11   0.0%   38.86      0.5000E-03   0.000      -11.14       0.000      0.5000E-01   0.000    
     932  0.5931      0.6364E-03 SPRIN         11   0.0%   38.85      0.5000E-03   0.000      -11.15       0.000      0.5000E-01   0.000    
     933  0.5938      0.6364E-03 SPRIN         11   0.0%   38.84      0.5000E-03   0.000      -11.16       0.000      0.5000E-01   0.000    
     934  0.5944      0.6364E-03 SPRIN         11   0.0%   38.83      0.5000E-03   0.000      -11.17       0.000      0.5000E-01   0.000    
   CYCLE    TIME      TIME-STEP  ELEMENT          ERROR  I-ENERGY    K-ENERGY T  K-ENERGY R  EXT-WORK     MAS.ERR     TOTAL MASS  MASS ADDED
     935  0.5950      0.6364E-03 SPRIN         11   0.0%   38.81      0.5000E-03   0.000      -11.19       0.000      0.5000E-01   0.000    
     936  0.5957      0.6364E-03 SPRIN         11   0.0%   38.80      0.5000E-03   0.000      -11.20       0.000      0.5000E-01   0.000    
     937  0.5963      0.6364E-03 SPRIN         11   0.0%   38.79      0.5000E-03   0.000      -11.21       0.000      0.5000E-01   0.000    
     938  0.5969      0.6364E-03 SPRIN         11   0.0%   38.78      0.5000E-03   0.000      -11.22       0.000      0.5000E-01   0.000    
     939  0.5976      0.6364E-03 SPRIN         11   0.0%   38.77      0.5000E-03   0.000      -11.23       0.000      0.5000E-01   0.000    
     940  0.5982      0.6364E-03 SPRIN         11  -0.0%   38.76      0.5000E-03   0.000      -11.24       0.000      0.5000E-01   0.000    
     941  0.5988      0.6364E-03 SPRIN         11  -0.0%   38.75      0.5000E-03   0.000      -11.25       0.000      0.5000E-01   0.000    
     942  0.5995      0.6364E-03 SPRIN         11  -0.0%   38.74      0.5000E-03   0.000      -11.26       0.000      0.5000E-01   0.000    
     943  0.6001      0.6364E-03 SPRIN         11   0.0%   38.72      0.5000E-03   0.000      -11.28       0.000      0.5000E-01   0.000    
     ANIMATION FILE: SPR_PRE_2FLAGA004 WRITTEN
     944  0.6008      0.6364E-03 SPRIN         11   0.0%   38.71      0.5000E-03   0.000      -11.29       0.000      0.5000E-01   0.000    
     945  0.6014      0.6364E-03 SPRIN         11   0.0%   38.70      0.5000E-03   0.000      -11.30       0.000      0.5000E-01   0.000    
     946  0.6020      0.6364E-03 SPRIN         11   0.0%   38.69      0.5000E-03   0.000      -11.31       0.000      0.5000E-01   0.000    
     947  0.6027      0.6364E-03 SPRIN         11   0.0%   38.68      0.5000E-03   0.000      -11.32       0.000      0.5000E-01   0.000    
     948  0.6033      0.6364E-03 SPRIN         11   0.0%   38.67      0.5000E-03   0.000      -11.33       0.000      0.5000E-01   0.000    
     949  0.6039      0.6364E-03 SPRIN         11   0.0%   38.66      0.5000E-03   0.000      -11.34       0.000      0.5000E-01   0.000    
     950  0.6046      0.6364E-03 SPRIN         11   0.0%   38.65      0.5000E-03   0.000      -11.35       0.000      0.5000E-01   0.000    
     951  0.6052      0.6364E-03 SPRIN         11   0.0%   38.63      0.5000E-03   0.000      -11.36       0.000      0.5000E-01   0.000    
     952  0.6058      0.6364E-03 SPRIN         11   0.0%   38.62      0.5000E-03   0.000      -11.38       0.000      0.5000E-01   0.000    
     953  0.6065      0.6364E-03 SPRIN         11   0.0%   38.61      0.5000E-03   0.000      -11.39       0.000      0.5000E-01   0.000    
     954  0.6071      0.6364E-03 SPRIN         11   0.0%   38.60      0.5000E-03   0.000      -11.40       0.000      0.5000E-01   0.000    
     955  0.6078      0.6364E-03 SPRIN         11   0.0%   38.59      0.5000E-03   0.000      -11.41       0.000      0.5000E-01   0.000    
     956  0.6084      0.6364E-03 SPRIN         11   0.0%   38.58      0.5000E-03   0.000      -11.42       0.000      0.5000E-01   0.000    
     957  0.6090      0.6364E-03 SPRIN         11   0.0%   38.57      0.5000E-03   0.000      -11.43       0.000      0.5000E-01   0.000    
     958  0.6097      0.6364E-03 SPRIN         11   0.0%   38.56      0.5000E-03   0.000      -11.44       0.000      0.5000E-01   0.000    
     959  0.6103      0.6364E-03 SPRIN         11   0.0%   38.55      0.5000E-03   0.000      -11.45       0.000      0.5000E-01   0.000    
     960  0.6109      0.6364E-03 SPRIN         11   0.0%   38.53      0.5000E-03   0.000      -11.47       0.000      0.5000E-01   0.000    
     961  0.6116      0.6364E-03 SPRIN         11   0.0%   38.52      0.5000E-03   0.000      -11.48       0.000      0.5000E-01   0.000    
     962  0.6122      0.6364E-03 SPRIN         11   0.0%   38.51      0.5000E-03   0.000      -11.49       0.000      0.5000E-01   0.000    
     963  0.6128      0.6364E-03 SPRIN         11   0.0%   38.50      0.5000E-03   0.000      -11.50       0.000      0.5000E-01   0.000    
     964  0.6135      0.6364E-03 SPRIN         11   0.0%   38.49      0.5000E-03   0.000      -11.51       0.000      0.5000E-01   0.000    
     965  0.6141      0.6364E-03 SPRIN         11   0.0%   38.48      0.5000E-03   0.000      -11.52       0.000      0.5000E-01   0.000    
     966  0.6148      0.6364E-03 SPRIN         11   0.0%   38.47      0.5000E-03   0.000      -11.53       0.000      0.5000E-01   0.000    
     967  0.6154      0.6364E-03 SPRIN         11   0.0%   38.46      0.5000E-03   0.000      -11.54       0.000      0.5000E-01   0.000    
     968  0.6160      0.6364E-03 SPRIN         11   0.0%   38.44      0.5000E-03   0.000      -11.55       0.000      0.5000E-01   0.000    
     969  0.6167      0.6364E-03 SPRIN         11   0.0%   38.43      0.5000E-03   0.000      -11.57       0.000      0.5000E-01   0.000    
     970  0.6173      0.6364E-03 SPRIN         11   0.0%   38.42      0.5000E-03   0.000      -11.58       0.000      0.5000E-01   0.000    
     971  0.6179      0.6364E-03 SPRIN         11   0.0%   38.41      0.5000E-03   0.000      -11.59       0.000      0.5000E-01   0.000    
     972  0.6186      0.6364E-03 SPRIN         11   0.0%   38.40      0.5000E-03   0.000      -11.60       0.000      0.5000E-01   0.000    
     973  0.6192      0.6364E-03 SPRIN         11   0.0%   38.39      0.5000E-03   0.000      -11.61       0.000      0.5000E-01   0.000    
     974  0.6198      0.6364E-03 SPRIN         11   0.0%   38.38      0.5000E-03   0.000      -11.62       0.000      0.5000E-01   0.000    
     975  0.6205      0.6364E-03 SPRIN         11   0.0%   38.37      0.5000E-03   0.000      -11.63       0.000      0.5000E-01   0.000    
     976  0.6211      0.6364E-03 SPRIN         11  -0.0%   38.36      0.5000E-03   0.000      -11.64       0.000      0.5000E-01   0.000    
     977  0.6218      0.6364E-03 SPRIN         11   0.0%   38.34      0.5000E-03   0.000      -11.66       0.000      0.5000E-01   0.000    
     978  0.6224      0.6364E-03 SPRIN         11   0.0%   38.33      0.5000E-03   0.000      -11.67       0.000      0.5000E-01   0.000    
     979  0.6230      0.6364E-03 SPRIN         11   0.0%   38.32      0.5000E-03   0.000      -11.68       0.000      0.5000E-01   0.000    
     980  0.6237      0.6364E-03 SPRIN         11   0.0%   38.31      0.5000E-03   0.000      -11.69       0.000      0.5000E-01   0.000    
     981  0.6243      0.6364E-03 SPRIN         11   0.0%   38.30      0.5000E-03   0.000      -11.70       0.000      0.5000E-01   0.000    
     982  0.6249      0.6364E-03 SPRIN         11   0.0%   38.29      0.5000E-03   0.000      -11.71       0.000      0.5000E-01   0.000    
     983  0.6256      0.6364E-03 SPRIN         11   0.0%   38.28      0.5000E-03   0.000      -11.72       0.000      0.5000E-01   0.000    
     984  0.6262      0.6364E-03 SPRIN         11   0.0%   38.27      0.5000E-03   0.000      -11.73       0.000      0.5000E-01   0.000    
     985  0.6269      0.6364E-03 SPRIN         11   0.0%   38.26      0.5000E-03   0.000      -11.74       0.000      0.5000E-01   0.000    
     986  0.6275      0.6364E-03 SPRIN         11   0.0%   38.24      0.5000E-03   0.000      -11.76       0.000      0.5000E-01   0.000    
     987  0.6281      0.6364E-03 SPRIN         11   0.0%   38.23      0.5000E-03   0.000      -11.77       0.000      0.5000E-01   0.000    
     988  0.6288      0.6364E-03 SPRIN         11   0.0%   38.22      0.5000E-03   0.000      -11.78       0.000      0.5000E-01   0.000    
     989  0.6294      0.6364E-03 SPRIN         11   0.0%   38.21      0.5000E-03   0.000      -11.79       0.000      0.5000E-01   0.000    
   CYCLE    TIME      TIME-STEP  ELEMENT          ERROR  I-ENERGY    K-ENERGY T  K-ENERGY R  EXT-WORK     MAS.ERR     TOTAL MASS  MASS ADDED
     990  0.6300      0.6364E-03 SPRIN         11   0.0%   38.20      0.5000E-03   0.000      -11.80       0.000      0.5000E-01   0.000    
     991  0.6307      0.6364E-03 SPRIN         11   0.0%   38.19      0.5000E-03   0.000      -11.81       0.000      0.5000E-01   0.000    
     992  0.6313      0.6364E-03 SPRIN         11   0.0%   38.18      0.5000E-03   0.000      -11.82       0.000      0.5000E-01   0.000    
     993  0.6319      0.6364E-03 SPRIN         11   0.0%   38.17      0.5000E-03   0.000      -11.83       0.000      0.5000E-01   0.000    
     994  0.6326      0.6364E-03 SPRIN         11   0.0%   38.16      0.5000E-03   0.000      -11.84       0.000      0.5000E-01   0.000    
     995  0.6332      0.6364E-03 SPRIN         11   0.0%   38.14      0.5000E-03   0.000      -11.86       0.000      0.5000E-01   0.000    
     996  0.6339      0.6364E-03 SPRIN         11   0.0%   38.13      0.5000E-03   0.000      -11.87       0.000      0.5000E-01   0.000    
     997  0.6345      0.6364E-03 SPRIN         11   0.0%   38.12      0.5000E-03   0.000      -11.88       0.000      0.5000E-01   0.000    
     998  0.6351      0.6364E-03 SPRIN         11   0.0%   38.11      0.5000E-03   0.000      -11.89       0.000      0.5000E-01   0.000    
     999  0.6358      0.6364E-03 SPRIN         11   0.0%   38.10      0.5000E-03   0.000      -11.90       0.000      0.5000E-01   0.000    
    1000  0.6364      0.6364E-03 SPRIN         11   0.0%   38.09      0.5000E-03   0.000      -11.91       0.000      0.5000E-01   0.000    
    1001  0.6370      0.6364E-03 SPRIN         11   0.0%   38.08      0.5000E-03   0.000      -11.92       0.000      0.5000E-01   0.000    
    1002  0.6377      0.6364E-03 SPRIN         11   0.0%   38.07      0.5000E-03   0.000      -11.93       0.000      0.5000E-01   0.000    
    1003  0.6383      0.6364E-03 SPRIN         11   0.0%   38.06      0.5000E-03   0.000      -11.94       0.000      0.5000E-01   0.000    
    1004  0.6389      0.6364E-03 SPRIN         11   0.0%   38.04      0.5000E-03   0.000      -11.96       0.000      0.5000E-01   0.000    
    1005  0.6396      0.6364E-03 SPRIN         11   0.0%   38.03      0.5000E-03   0.000      -11.97       0.000      0.5000E-01   0.000    
    1006  0.6402      0.6364E-03 SPRIN         11   0.0%   38.02      0.5000E-03   0.000      -11.98       0.000      0.5000E-01   0.000    
    1007  0.6409      0.6364E-03 SPRIN         11   0.0%   38.01      0.5000E-03   0.000      -11.99       0.000      0.5000E-01   0.000    
    1008  0.6415      0.6364E-03 SPRIN         11   0.0%   38.00      0.5000E-03   0.000      -12.00       0.000      0.5000E-01   0.000    
    1009  0.6421      0.6364E-03 SPRIN         11   0.0%   37.99      0.5000E-03   0.000      -12.01       0.000      0.5000E-01   0.000    
    1010  0.6428      0.6364E-03 SPRIN         11   0.0%   37.98      0.5000E-03   0.000      -12.02       0.000      0.5000E-01   0.000    
    1011  0.6434      0.6364E-03 SPRIN         11   0.0%   37.97      0.5000E-03   0.000      -12.03       0.000      0.5000E-01   0.000    
    1012  0.6440      0.6364E-03 SPRIN         11   0.0%   37.96      0.5000E-03   0.000      -12.04       0.000      0.5000E-01   0.000    
    1013  0.6447      0.6364E-03 SPRIN         11   0.0%   37.94      0.5000E-03   0.000      -12.06       0.000      0.5000E-01   0.000    
    1014  0.6453      0.6364E-03 SPRIN         11   0.0%   37.93      0.5000E-03   0.000      -12.07       0.000      0.5000E-01   0.000    
    1015  0.6459      0.6364E-03 SPRIN         11   0.0%   37.92      0.5000E-03   0.000      -12.08       0.000      0.5000E-01   0.000    
    1016  0.6466      0.6364E-03 SPRIN         11   0.0%   37.91      0.5000E-03   0.000      -12.09       0.000      0.5000E-01   0.000    
    1017  0.6472      0.6364E-03 SPRIN         11   0.0%   37.90      0.5000E-03   0.000      -12.10       0.000      0.5000E-01   0.000    
    1018  0.6479      0.6364E-03 SPRIN         11   0.0%   37.89      0.5000E-03   0.000      -12.11       0.000      0.5000E-01   0.000    
    1019  0.6485      0.6364E-03 SPRIN         11   0.0%   37.88      0.5000E-03   0.000      -12.12       0.000      0.5000E-01   0.000    
    1020  0.6491      0.6364E-03 SPRIN         11   0.0%   37.87      0.5000E-03   0.000      -12.13       0.000      0.5000E-01   0.000    
    1021  0.6498      0.6364E-03 SPRIN         11   0.0%   37.86      0.5000E-03   0.000      -12.14       0.000      0.5000E-01   0.000    
    1022  0.6504      0.6364E-03 SPRIN         11   0.0%   37.84      0.5000E-03   0.000      -12.16       0.000      0.5000E-01   0.000    
    1023  0.6510      0.6364E-03 SPRIN         11   0.0%   37.83      0.5000E-03   0.000      -12.17       0.000      0.5000E-01   0.000    
    1024  0.6517      0.6364E-03 SPRIN         11   0.0%   37.82      0.5000E-03   0.000      -12.18       0.000      0.5000E-01   0.000    
    1025  0.6523      0.6364E-03 SPRIN         11   0.0%   37.81      0.5000E-03   0.000      -12.19       0.000      0.5000E-01   0.000    
    1026  0.6529      0.6364E-03 SPRIN         11   0.0%   37.80      0.5000E-03   0.000      -12.20       0.000      0.5000E-01   0.000    
    1027  0.6536      0.6364E-03 SPRIN         11   0.0%   37.79      0.5000E-03   0.000      -12.21       0.000      0.5000E-01   0.000    
    1028  0.6542      0.6364E-03 SPRIN         11   0.0%   37.78      0.5000E-03   0.000      -12.22       0.000      0.5000E-01   0.000    
    1029  0.6549      0.6364E-03 SPRIN         11   0.0%   37.77      0.5000E-03   0.000      -12.23       0.000      0.5000E-01   0.000    
    1030  0.6555      0.6364E-03 SPRIN         11   0.0%   37.76      0.5000E-03   0.000      -12.24       0.000      0.5000E-01   0.000    
    1031  0.6561      0.6364E-03 SPRIN         11   0.0%   37.74      0.5000E-03   0.000      -12.25       0.000      0.5000E-01   0.000    
    1032  0.6568      0.6364E-03 SPRIN         11   0.0%   37.73      0.5000E-03   0.000      -12.27       0.000      0.5000E-01   0.000    
    1033  0.6574      0.6364E-03 SPRIN         11   0.0%   37.72      0.5000E-03   0.000      -12.28       0.000      0.5000E-01   0.000    
    1034  0.6580      0.6364E-03 SPRIN         11   0.0%   37.71      0.5000E-03   0.000      -12.29       0.000      0.5000E-01   0.000    
    1035  0.6587      0.6364E-03 SPRIN         11   0.0%   37.70      0.5000E-03   0.000      -12.30       0.000      0.5000E-01   0.000    
    1036  0.6593      0.6364E-03 SPRIN         11   0.0%   37.69      0.5000E-03   0.000      -12.31       0.000      0.5000E-01   0.000    
    1037  0.6599      0.6364E-03 SPRIN         11   0.0%   37.68      0.5000E-03   0.000      -12.32       0.000      0.5000E-01   0.000    
    1038  0.6606      0.6364E-03 SPRIN         11   0.0%   37.67      0.5000E-03   0.000      -12.33       0.000      0.5000E-01   0.000    
    1039  0.6612      0.6364E-03 SPRIN         11   0.0%   37.66      0.5000E-03   0.000      -12.34       0.000      0.5000E-01   0.000    
    1040  0.6619      0.6364E-03 SPRIN         11   0.0%   37.65      0.5000E-03   0.000      -12.35       0.000      0.5000E-01   0.000    
    1041  0.6625      0.6364E-03 SPRIN         11   0.0%   37.63      0.5000E-03   0.000      -12.37       0.000      0.5000E-01   0.000    
    1042  0.6631      0.6364E-03 SPRIN         11   0.0%   37.62      0.5000E-03   0.000      -12.38       0.000      0.5000E-01   0.000    
    1043  0.6638      0.6364E-03 SPRIN         11   0.0%   37.61      0.5000E-03   0.000      -12.39       0.000      0.5000E-01   0.000    
    1044  0.6644      0.6364E-03 SPRIN         11   0.0%   37.60      0.5000E-03   0.000      -12.40       0.000      0.5000E-01   0.000    
   CYCLE    TIME      TIME-STEP  ELEMENT          ERROR  I-ENERGY    K-ENERGY T  K-ENERGY R  EXT-WORK     MAS.ERR     TOTAL MASS  MASS ADDED
    1045  0.6650      0.6364E-03 SPRIN         11   0.0%   37.59      0.5000E-03   0.000      -12.41       0.000      0.5000E-01   0.000    
    1046  0.6657      0.6364E-03 SPRIN         11  -0.0%   37.58      0.5000E-03   0.000      -12.42       0.000      0.5000E-01   0.000    
    1047  0.6663      0.6364E-03 SPRIN         11   0.0%   37.57      0.5000E-03   0.000      -12.43       0.000      0.5000E-01   0.000    
    1048  0.6669      0.6364E-03 SPRIN         11  -0.0%   37.56      0.5000E-03   0.000      -12.44       0.000      0.5000E-01   0.000    
    1049  0.6676      0.6364E-03 SPRIN         11   0.0%   37.55      0.5000E-03   0.000      -12.45       0.000      0.5000E-01   0.000    
    1050  0.6682      0.6364E-03 SPRIN         11   0.0%   37.54      0.5000E-03   0.000      -12.46       0.000      0.5000E-01   0.000    
    1051  0.6689      0.6364E-03 SPRIN         11   0.0%   37.52      0.5000E-03   0.000      -12.48       0.000      0.5000E-01   0.000    
    1052  0.6695      0.6364E-03 SPRIN         11   0.0%   37.51      0.5000E-03   0.000      -12.49       0.000      0.5000E-01   0.000    
    1053  0.6701      0.6364E-03 SPRIN         11   0.0%   37.50      0.5000E-03   0.000      -12.50       0.000      0.5000E-01   0.000    
    1054  0.6708      0.6364E-03 SPRIN         11   0.0%   37.49      0.5000E-03   0.000      -12.51       0.000      0.5000E-01   0.000    
    1055  0.6714      0.6364E-03 SPRIN         11   0.0%   37.48      0.5000E-03   0.000      -12.52       0.000      0.5000E-01   0.000    
    1056  0.6720      0.6364E-03 SPRIN         11   0.0%   37.47      0.5000E-03   0.000      -12.53       0.000      0.5000E-01   0.000    
    1057  0.6727      0.6364E-03 SPRIN         11   0.0%   37.46      0.5000E-03   0.000      -12.54       0.000      0.5000E-01   0.000    
    1058  0.6733      0.6364E-03 SPRIN         11   0.0%   37.45      0.5000E-03   0.000      -12.55       0.000      0.5000E-01   0.000    
    1059  0.6739      0.6364E-03 SPRIN         11   0.0%   37.44      0.5000E-03   0.000      -12.56       0.000      0.5000E-01   0.000    
    1060  0.6746      0.6364E-03 SPRIN         11   0.0%   37.42      0.5000E-03   0.000      -12.57       0.000      0.5000E-01   0.000    
    1061  0.6752      0.6364E-03 SPRIN         11   0.0%   37.41      0.5000E-03   0.000      -12.59       0.000      0.5000E-01   0.000    
    1062  0.6759      0.6364E-03 SPRIN         11   0.0%   37.40      0.5000E-03   0.000      -12.60       0.000      0.5000E-01   0.000    
    1063  0.6765      0.6364E-03 SPRIN         11   0.0%   37.39      0.5000E-03   0.000      -12.61       0.000      0.5000E-01   0.000    
    1064  0.6771      0.6364E-03 SPRIN         11   0.0%   37.38      0.5000E-03   0.000      -12.62       0.000      0.5000E-01   0.000    
    1065  0.6778      0.6364E-03 SPRIN         11   0.0%   37.37      0.5000E-03   0.000      -12.63       0.000      0.5000E-01   0.000    
    1066  0.6784      0.6364E-03 SPRIN         11   0.0%   37.36      0.5000E-03   0.000      -12.64       0.000      0.5000E-01   0.000    
    1067  0.6790      0.6364E-03 SPRIN         11   0.0%   37.35      0.5000E-03   0.000      -12.65       0.000      0.5000E-01   0.000    
    1068  0.6797      0.6364E-03 SPRIN         11   0.0%   37.34      0.5000E-03   0.000      -12.66       0.000      0.5000E-01   0.000    
    1069  0.6803      0.6364E-03 SPRIN         11   0.0%   37.33      0.5000E-03   0.000      -12.67       0.000      0.5000E-01   0.000    
    1070  0.6809      0.6364E-03 SPRIN         11   0.0%   37.31      0.5000E-03   0.000      -12.68       0.000      0.5000E-01   0.000    
    1071  0.6816      0.6364E-03 SPRIN         11   0.0%   37.30      0.5000E-03   0.000      -12.70       0.000      0.5000E-01   0.000    
    1072  0.6822      0.6364E-03 SPRIN         11   0.0%   37.29      0.5000E-03   0.000      -12.71       0.000      0.5000E-01   0.000    
    1073  0.6829      0.6364E-03 SPRIN         11   0.0%   37.28      0.5000E-03   0.000      -12.72       0.000      0.5000E-01   0.000    
    1074  0.6835      0.6364E-03 SPRIN         11   0.0%   37.27      0.5000E-03   0.000      -12.73       0.000      0.5000E-01   0.000    
    1075  0.6841      0.6364E-03 SPRIN         11   0.0%   37.26      0.5000E-03   0.000      -12.74       0.000      0.5000E-01   0.000    
    1076  0.6848      0.6364E-03 SPRIN         11   0.0%   37.25      0.5000E-03   0.000      -12.75       0.000      0.5000E-01   0.000    
    1077  0.6854      0.6364E-03 SPRIN         11   0.0%   37.24      0.5000E-03   0.000      -12.76       0.000      0.5000E-01   0.000    
    1078  0.6860      0.6364E-03 SPRIN         11   0.0%   37.23      0.5000E-03   0.000      -12.77       0.000      0.5000E-01   0.000    
    1079  0.6867      0.6364E-03 SPRIN         11   0.0%   37.22      0.5000E-03   0.000      -12.78       0.000      0.5000E-01   0.000    
    1080  0.6873      0.6364E-03 SPRIN         11   0.0%   37.20      0.5000E-03   0.000      -12.79       0.000      0.5000E-01   0.000    
    1081  0.6879      0.6364E-03 SPRIN         11  -0.0%   37.19      0.5000E-03   0.000      -12.81       0.000      0.5000E-01   0.000    
    1082  0.6886      0.6364E-03 SPRIN         11   0.0%   37.18      0.5000E-03   0.000      -12.82       0.000      0.5000E-01   0.000    
    1083  0.6892      0.6364E-03 SPRIN         11  -0.0%   37.17      0.5000E-03   0.000      -12.83       0.000      0.5000E-01   0.000    
    1084  0.6899      0.6364E-03 SPRIN         11   0.0%   37.16      0.5000E-03   0.000      -12.84       0.000      0.5000E-01   0.000    
    1085  0.6905      0.6364E-03 SPRIN         11   0.0%   37.15      0.5000E-03   0.000      -12.85       0.000      0.5000E-01   0.000    
    1086  0.6911      0.6364E-03 SPRIN         11   0.0%   37.14      0.5000E-03   0.000      -12.86       0.000      0.5000E-01   0.000    
    1087  0.6918      0.6364E-03 SPRIN         11   0.0%   37.13      0.5000E-03   0.000      -12.87       0.000      0.5000E-01   0.000    
    1088  0.6924      0.6364E-03 SPRIN         11   0.0%   37.12      0.5000E-03   0.000      -12.88       0.000      0.5000E-01   0.000    
    1089  0.6930      0.6364E-03 SPRIN         11   0.0%   37.11      0.5000E-03   0.000      -12.89       0.000      0.5000E-01   0.000    
    1090  0.6937      0.6364E-03 SPRIN         11   0.0%   37.10      0.5000E-03   0.000      -12.90       0.000      0.5000E-01   0.000    
    1091  0.6943      0.6364E-03 SPRIN         11   0.0%   37.08      0.5000E-03   0.000      -12.92       0.000      0.5000E-01   0.000    
    1092  0.6949      0.6364E-03 SPRIN         11   0.0%   37.07      0.5000E-03   0.000      -12.93       0.000      0.5000E-01   0.000    
    1093  0.6956      0.6364E-03 SPRIN         11   0.0%   37.06      0.5000E-03   0.000      -12.94       0.000      0.5000E-01   0.000    
    1094  0.6962      0.6364E-03 SPRIN         11   0.0%   37.05      0.5000E-03   0.000      -12.95       0.000      0.5000E-01   0.000    
    1095  0.6969      0.6364E-03 SPRIN         11   0.0%   37.04      0.5000E-03   0.000      -12.96       0.000      0.5000E-01   0.000    
    1096  0.6975      0.6364E-03 SPRIN         11   0.0%   37.03      0.5000E-03   0.000      -12.97       0.000      0.5000E-01   0.000    
    1097  0.6981      0.6364E-03 SPRIN         11   0.0%   37.02      0.5000E-03   0.000      -12.98       0.000      0.5000E-01   0.000    
    1098  0.6988      0.6364E-03 SPRIN         11   0.0%   37.01      0.5000E-03   0.000      -12.99       0.000      0.5000E-01   0.000    
    1099  0.6994      0.6364E-03 SPRIN         11   0.0%   37.00      0.5000E-03   0.000      -13.00       0.000      0.5000E-01   0.000    
   CYCLE    TIME      TIME-STEP  ELEMENT          ERROR  I-ENERGY    K-ENERGY T  K-ENERGY R  EXT-WORK     MAS.ERR     TOTAL MASS  MASS ADDED
    1100  0.7000      0.6364E-03 SPRIN         11   0.0%   36.99      0.5000E-03   0.000      -13.01       0.000      0.5000E-01   0.000    
    1101  0.7007      0.6364E-03 SPRIN         11   0.0%   36.97      0.5000E-03   0.000      -13.02       0.000      0.5000E-01   0.000    
    1102  0.7013      0.6364E-03 SPRIN         11   0.0%   36.96      0.5000E-03   0.000      -13.04       0.000      0.5000E-01   0.000    
    1103  0.7019      0.6364E-03 SPRIN         11   0.0%   36.95      0.5000E-03   0.000      -13.05       0.000      0.5000E-01   0.000    
    1104  0.7026      0.6364E-03 SPRIN         11   0.0%   36.94      0.5000E-03   0.000      -13.06       0.000      0.5000E-01   0.000    
    1105  0.7032      0.6364E-03 SPRIN         11   0.0%   36.93      0.5000E-03   0.000      -13.07       0.000      0.5000E-01   0.000    
    1106  0.7039      0.6364E-03 SPRIN         11   0.0%   36.92      0.5000E-03   0.000      -13.08       0.000      0.5000E-01   0.000    
    1107  0.7045      0.6364E-03 SPRIN         11   0.0%   36.91      0.5000E-03   0.000      -13.09       0.000      0.5000E-01   0.000    
    1108  0.7051      0.6364E-03 SPRIN         11   0.0%   36.90      0.5000E-03   0.000      -13.10       0.000      0.5000E-01   0.000    
    1109  0.7058      0.6364E-03 SPRIN         11   0.0%   36.89      0.5000E-03   0.000      -13.11       0.000      0.5000E-01   0.000    
    1110  0.7064      0.6364E-03 SPRIN         11   0.0%   36.88      0.5000E-03   0.000      -13.12       0.000      0.5000E-01   0.000    
    1111  0.7070      0.6364E-03 SPRIN         11   0.0%   36.87      0.5000E-03   0.000      -13.13       0.000      0.5000E-01   0.000    
    1112  0.7077      0.6364E-03 SPRIN         11   0.0%   36.85      0.5000E-03   0.000      -13.14       0.000      0.5000E-01   0.000    
    1113  0.7083      0.6364E-03 SPRIN         11   0.0%   36.84      0.5000E-03   0.000      -13.16       0.000      0.5000E-01   0.000    
    1114  0.7089      0.6364E-03 SPRIN         11   0.0%   36.83      0.5000E-03   0.000      -13.17       0.000      0.5000E-01   0.000    
    1115  0.7096      0.6364E-03 SPRIN         11   0.0%   36.82      0.5000E-03   0.000      -13.18       0.000      0.5000E-01   0.000    
    1116  0.7102      0.6364E-03 SPRIN         11   0.0%   36.81      0.5000E-03   0.000      -13.19       0.000      0.5000E-01   0.000    
    1117  0.7109      0.6364E-03 SPRIN         11   0.0%   36.80      0.5000E-03   0.000      -13.20       0.000      0.5000E-01   0.000    
    1118  0.7115      0.6364E-03 SPRIN         11   0.0%   36.79      0.5000E-03   0.000      -13.21       0.000      0.5000E-01   0.000    
    1119  0.7121      0.6364E-03 SPRIN         11   0.0%   36.78      0.5000E-03   0.000      -13.22       0.000      0.5000E-01   0.000    
    1120  0.7128      0.6364E-03 SPRIN         11   0.0%   36.77      0.5000E-03   0.000      -13.23       0.000      0.5000E-01   0.000    
    1121  0.7134      0.6364E-03 SPRIN         11   0.0%   36.76      0.5000E-03   0.000      -13.24       0.000      0.5000E-01   0.000    
    1122  0.7140      0.6364E-03 SPRIN         11   0.0%   36.75      0.5000E-03   0.000      -13.25       0.000      0.5000E-01   0.000    
    1123  0.7147      0.6364E-03 SPRIN         11   0.0%   36.73      0.5000E-03   0.000      -13.27       0.000      0.5000E-01   0.000    
    1124  0.7153      0.6364E-03 SPRIN         11   0.0%   36.72      0.5000E-03   0.000      -13.28       0.000      0.5000E-01   0.000    
    1125  0.7159      0.6364E-03 SPRIN         11   0.0%   36.71      0.5000E-03   0.000      -13.29       0.000      0.5000E-01   0.000    
    1126  0.7166      0.6364E-03 SPRIN         11   0.0%   36.70      0.5000E-03   0.000      -13.30       0.000      0.5000E-01   0.000    
    1127  0.7172      0.6364E-03 SPRIN         11   0.0%   36.69      0.5000E-03   0.000      -13.31       0.000      0.5000E-01   0.000    
    1128  0.7179      0.6364E-03 SPRIN         11   0.0%   36.68      0.5000E-03   0.000      -13.32       0.000      0.5000E-01   0.000    
    1129  0.7185      0.6364E-03 SPRIN         11   0.0%   36.67      0.5000E-03   0.000      -13.33       0.000      0.5000E-01   0.000    
    1130  0.7191      0.6364E-03 SPRIN         11   0.0%   36.66      0.5000E-03   0.000      -13.34       0.000      0.5000E-01   0.000    
    1131  0.7198      0.6364E-03 SPRIN         11   0.0%   36.65      0.5000E-03   0.000      -13.35       0.000      0.5000E-01   0.000    
    1132  0.7204      0.6364E-03 SPRIN         11   0.0%   36.64      0.5000E-03   0.000      -13.36       0.000      0.5000E-01   0.000    
    1133  0.7210      0.6364E-03 SPRIN         11   0.0%   36.63      0.5000E-03   0.000      -13.37       0.000      0.5000E-01   0.000    
    1134  0.7217      0.6364E-03 SPRIN         11   0.0%   36.61      0.5000E-03   0.000      -13.38       0.000      0.5000E-01   0.000    
    1135  0.7223      0.6364E-03 SPRIN         11   0.0%   36.60      0.5000E-03   0.000      -13.40       0.000      0.5000E-01   0.000    
    1136  0.7229      0.6364E-03 SPRIN         11   0.0%   36.59      0.5000E-03   0.000      -13.41       0.000      0.5000E-01   0.000    
    1137  0.7236      0.6364E-03 SPRIN         11   0.0%   36.58      0.5000E-03   0.000      -13.42       0.000      0.5000E-01   0.000    
    1138  0.7242      0.6364E-03 SPRIN         11   0.0%   36.57      0.5000E-03   0.000      -13.43       0.000      0.5000E-01   0.000    
    1139  0.7249      0.6364E-03 SPRIN         11   0.0%   36.56      0.5000E-03   0.000      -13.44       0.000      0.5000E-01   0.000    
    1140  0.7255      0.6364E-03 SPRIN         11   0.0%   36.55      0.5000E-03   0.000      -13.45       0.000      0.5000E-01   0.000    
    1141  0.7261      0.6364E-03 SPRIN         11   0.0%   36.54      0.5000E-03   0.000      -13.46       0.000      0.5000E-01   0.000    
    1142  0.7268      0.6364E-03 SPRIN         11   0.0%   36.53      0.5000E-03   0.000      -13.47       0.000      0.5000E-01   0.000    
    1143  0.7274      0.6364E-03 SPRIN         11   0.0%   36.52      0.5000E-03   0.000      -13.48       0.000      0.5000E-01   0.000    
    1144  0.7280      0.6364E-03 SPRIN         11   0.0%   36.51      0.5000E-03   0.000      -13.49       0.000      0.5000E-01   0.000    
    1145  0.7287      0.6364E-03 SPRIN         11   0.0%   36.49      0.5000E-03   0.000      -13.50       0.000      0.5000E-01   0.000    
    1146  0.7293      0.6364E-03 SPRIN         11   0.0%   36.48      0.5000E-03   0.000      -13.52       0.000      0.5000E-01   0.000    
    1147  0.7299      0.6364E-03 SPRIN         11   0.0%   36.47      0.5000E-03   0.000      -13.53       0.000      0.5000E-01   0.000    
    1148  0.7306      0.6364E-03 SPRIN         11   0.0%   36.46      0.5000E-03   0.000      -13.54       0.000      0.5000E-01   0.000    
    1149  0.7312      0.6364E-03 SPRIN         11   0.0%   36.45      0.5000E-03   0.000      -13.55       0.000      0.5000E-01   0.000    
    1150  0.7319      0.6364E-03 SPRIN         11   0.0%   36.44      0.5000E-03   0.000      -13.56       0.000      0.5000E-01   0.000    
    1151  0.7325      0.6364E-03 SPRIN         11   0.0%   36.43      0.5000E-03   0.000      -13.57       0.000      0.5000E-01   0.000    
    1152  0.7331      0.6364E-03 SPRIN         11   0.0%   36.42      0.5000E-03   0.000      -13.58       0.000      0.5000E-01   0.000    
    1153  0.7338      0.6364E-03 SPRIN         11  -0.0%   36.41      0.5000E-03   0.000      -13.59       0.000      0.5000E-01   0.000    
    1154  0.7344      0.6364E-03 SPRIN         11   0.0%   36.40      0.5000E-03   0.000      -13.60       0.000      0.5000E-01   0.000    
   CYCLE    TIME      TIME-STEP  ELEMENT          ERROR  I-ENERGY    K-ENERGY T  K-ENERGY R  EXT-WORK     MAS.ERR     TOTAL MASS  MASS ADDED
    1155  0.7350      0.6364E-03 SPRIN         11   0.0%   36.39      0.5000E-03   0.000      -13.61       0.000      0.5000E-01   0.000    
    1156  0.7357      0.6364E-03 SPRIN         11   0.0%   36.38      0.5000E-03   0.000      -13.62       0.000      0.5000E-01   0.000    
    1157  0.7363      0.6364E-03 SPRIN         11   0.0%   36.36      0.5000E-03   0.000      -13.64       0.000      0.5000E-01   0.000    
    1158  0.7369      0.6364E-03 SPRIN         11   0.0%   36.35      0.5000E-03   0.000      -13.65       0.000      0.5000E-01   0.000    
    1159  0.7376      0.6364E-03 SPRIN         11   0.0%   36.34      0.5000E-03   0.000      -13.66       0.000      0.5000E-01   0.000    
    1160  0.7382      0.6364E-03 SPRIN         11   0.0%   36.33      0.5000E-03   0.000      -13.67       0.000      0.5000E-01   0.000    
    1161  0.7389      0.6364E-03 SPRIN         11   0.0%   36.32      0.5000E-03   0.000      -13.68       0.000      0.5000E-01   0.000    
    1162  0.7395      0.6364E-03 SPRIN         11   0.0%   36.31      0.5000E-03   0.000      -13.69       0.000      0.5000E-01   0.000    
    1163  0.7401      0.6364E-03 SPRIN         11   0.0%   36.30      0.5000E-03   0.000      -13.70       0.000      0.5000E-01   0.000    
    1164  0.7408      0.6364E-03 SPRIN         11   0.0%   36.29      0.5000E-03   0.000      -13.71       0.000      0.5000E-01   0.000    
    1165  0.7414      0.6364E-03 SPRIN         11   0.0%   36.28      0.5000E-03   0.000      -13.72       0.000      0.5000E-01   0.000    
    1166  0.7420      0.6364E-03 SPRIN         11   0.0%   36.27      0.5000E-03   0.000      -13.73       0.000      0.5000E-01   0.000    
    1167  0.7427      0.6364E-03 SPRIN         11   0.0%   36.26      0.5000E-03   0.000      -13.74       0.000      0.5000E-01   0.000    
    1168  0.7433      0.6364E-03 SPRIN         11   0.0%   36.25      0.5000E-03   0.000      -13.75       0.000      0.5000E-01   0.000    
    1169  0.7439      0.6364E-03 SPRIN         11   0.0%   36.23      0.5000E-03   0.000      -13.77       0.000      0.5000E-01   0.000    
    1170  0.7446      0.6364E-03 SPRIN         11  -0.0%   36.22      0.5000E-03   0.000      -13.78       0.000      0.5000E-01   0.000    
    1171  0.7452      0.6364E-03 SPRIN         11  -0.0%   36.21      0.5000E-03   0.000      -13.79       0.000      0.5000E-01   0.000    
    1172  0.7459      0.6364E-03 SPRIN         11  -0.0%   36.20      0.5000E-03   0.000      -13.80       0.000      0.5000E-01   0.000    
    1173  0.7465      0.6364E-03 SPRIN         11  -0.0%   36.19      0.5000E-03   0.000      -13.81       0.000      0.5000E-01   0.000    
    1174  0.7471      0.6364E-03 SPRIN         11  -0.0%   36.18      0.5000E-03   0.000      -13.82       0.000      0.5000E-01   0.000    
    1175  0.7478      0.6364E-03 SPRIN         11   0.0%   36.17      0.5000E-03   0.000      -13.83       0.000      0.5000E-01   0.000    
    1176  0.7484      0.6364E-03 SPRIN         11  -0.0%   36.16      0.5000E-03   0.000      -13.84       0.000      0.5000E-01   0.000    
    1177  0.7490      0.6364E-03 SPRIN         11   0.0%   36.15      0.5000E-03   0.000      -13.85       0.000      0.5000E-01   0.000    
    1178  0.7497      0.6364E-03 SPRIN         11   0.0%   36.14      0.5000E-03   0.000      -13.86       0.000      0.5000E-01   0.000    
    1179  0.7503      0.6364E-03 SPRIN         11   0.0%   36.13      0.5000E-03   0.000      -13.87       0.000      0.5000E-01   0.000    
    1180  0.7509      0.6364E-03 SPRIN         11   0.0%   36.12      0.5000E-03   0.000      -13.88       0.000      0.5000E-01   0.000    
    1181  0.7516      0.6364E-03 SPRIN         11   0.0%   36.10      0.5000E-03   0.000      -13.90       0.000      0.5000E-01   0.000    
    1182  0.7522      0.6364E-03 SPRIN         11   0.0%   36.09      0.5000E-03   0.000      -13.91       0.000      0.5000E-01   0.000    
    1183  0.7529      0.6364E-03 SPRIN         11   0.0%   36.08      0.5000E-03   0.000      -13.92       0.000      0.5000E-01   0.000    
    1184  0.7535      0.6364E-03 SPRIN         11   0.0%   36.07      0.5000E-03   0.000      -13.93       0.000      0.5000E-01   0.000    
    1185  0.7541      0.6364E-03 SPRIN         11   0.0%   36.06      0.5000E-03   0.000      -13.94       0.000      0.5000E-01   0.000    
    1186  0.7548      0.6364E-03 SPRIN         11   0.0%   36.05      0.5000E-03   0.000      -13.95       0.000      0.5000E-01   0.000    
    1187  0.7554      0.6364E-03 SPRIN         11  -0.0%   36.04      0.5000E-03   0.000      -13.96       0.000      0.5000E-01   0.000    
    1188  0.7560      0.6364E-03 SPRIN         11  -0.0%   36.03      0.5000E-03   0.000      -13.97       0.000      0.5000E-01   0.000    
    1189  0.7567      0.6364E-03 SPRIN         11  -0.0%   36.02      0.5000E-03   0.000      -13.98       0.000      0.5000E-01   0.000    
    1190  0.7573      0.6364E-03 SPRIN         11  -0.0%   36.01      0.5000E-03   0.000      -13.99       0.000      0.5000E-01   0.000    
    1191  0.7579      0.6364E-03 SPRIN         11  -0.0%   36.00      0.5000E-03   0.000      -14.00       0.000      0.5000E-01   0.000    
    1192  0.7586      0.6364E-03 SPRIN         11   0.0%   35.99      0.5000E-03   0.000      -14.01       0.000      0.5000E-01   0.000    
    1193  0.7592      0.6364E-03 SPRIN         11  -0.0%   35.97      0.5000E-03   0.000      -14.02       0.000      0.5000E-01   0.000    
    1194  0.7599      0.6364E-03 SPRIN         11   0.0%   35.96      0.5000E-03   0.000      -14.04       0.000      0.5000E-01   0.000    
    1195  0.7605      0.6364E-03 SPRIN         11   0.0%   35.95      0.5000E-03   0.000      -14.05       0.000      0.5000E-01   0.000    
    1196  0.7611      0.6364E-03 SPRIN         11   0.0%   35.94      0.5000E-03   0.000      -14.06       0.000      0.5000E-01   0.000    
    1197  0.7618      0.6364E-03 SPRIN         11   0.0%   35.93      0.5000E-03   0.000      -14.07       0.000      0.5000E-01   0.000    
    1198  0.7624      0.6364E-03 SPRIN         11   0.0%   35.92      0.5000E-03   0.000      -14.08       0.000      0.5000E-01   0.000    
    1199  0.7630      0.6364E-03 SPRIN         11   0.0%   35.91      0.5000E-03   0.000      -14.09       0.000      0.5000E-01   0.000    
    1200  0.7637      0.6364E-03 SPRIN         11   0.0%   35.90      0.5000E-03   0.000      -14.10       0.000      0.5000E-01   0.000    
    1201  0.7643      0.6364E-03 SPRIN         11   0.0%   35.89      0.5000E-03   0.000      -14.11       0.000      0.5000E-01   0.000    
    1202  0.7649      0.6364E-03 SPRIN         11   0.0%   35.88      0.5000E-03   0.000      -14.12       0.000      0.5000E-01   0.000    
    1203  0.7656      0.6364E-03 SPRIN         11   0.0%   35.87      0.5000E-03   0.000      -14.13       0.000      0.5000E-01   0.000    
    1204  0.7662      0.6364E-03 SPRIN         11   0.0%   35.86      0.5000E-03   0.000      -14.14       0.000      0.5000E-01   0.000    
    1205  0.7669      0.6364E-03 SPRIN         11   0.0%   35.85      0.5000E-03   0.000      -14.15       0.000      0.5000E-01   0.000    
    1206  0.7675      0.6364E-03 SPRIN         11   0.0%   35.83      0.5000E-03   0.000      -14.16       0.000      0.5000E-01   0.000    
    1207  0.7681      0.6364E-03 SPRIN         11   0.0%   35.82      0.5000E-03   0.000      -14.18       0.000      0.5000E-01   0.000    
    1208  0.7688      0.6364E-03 SPRIN         11   0.0%   35.81      0.5000E-03   0.000      -14.19       0.000      0.5000E-01   0.000    
    1209  0.7694      0.6364E-03 SPRIN         11   0.0%   35.80      0.5000E-03   0.000      -14.20       0.000      0.5000E-01   0.000    
   CYCLE    TIME      TIME-STEP  ELEMENT          ERROR  I-ENERGY    K-ENERGY T  K-ENERGY R  EXT-WORK     MAS.ERR     TOTAL MASS  MASS ADDED
    1210  0.7700      0.6364E-03 SPRIN         11   0.0%   35.79      0.5000E-03   0.000      -14.21       0.000      0.5000E-01   0.000    
    1211  0.7707      0.6364E-03 SPRIN         11   0.0%   35.78      0.5000E-03   0.000      -14.22       0.000      0.5000E-01   0.000    
    1212  0.7713      0.6364E-03 SPRIN         11   0.0%   35.77      0.5000E-03   0.000      -14.23       0.000      0.5000E-01   0.000    
    1213  0.7719      0.6364E-03 SPRIN         11   0.0%   35.76      0.5000E-03   0.000      -14.24       0.000      0.5000E-01   0.000    
    1214  0.7726      0.6364E-03 SPRIN         11   0.0%   35.75      0.5000E-03   0.000      -14.25       0.000      0.5000E-01   0.000    
    1215  0.7732      0.6364E-03 SPRIN         11   0.0%   35.74      0.5000E-03   0.000      -14.26       0.000      0.5000E-01   0.000    
    1216  0.7739      0.6364E-03 SPRIN         11   0.0%   35.73      0.5000E-03   0.000      -14.27       0.000      0.5000E-01   0.000    
    1217  0.7745      0.6364E-03 SPRIN         11   0.0%   35.72      0.5000E-03   0.000      -14.28       0.000      0.5000E-01   0.000    
    1218  0.7751      0.6364E-03 SPRIN         11   0.0%   35.71      0.5000E-03   0.000      -14.29       0.000      0.5000E-01   0.000    
    1219  0.7758      0.6364E-03 SPRIN         11   0.0%   35.69      0.5000E-03   0.000      -14.30       0.000      0.5000E-01   0.000    
    1220  0.7764      0.6364E-03 SPRIN         11   0.0%   35.68      0.5000E-03   0.000      -14.32       0.000      0.5000E-01   0.000    
    1221  0.7770      0.6364E-03 SPRIN         11   0.0%   35.67      0.5000E-03   0.000      -14.33       0.000      0.5000E-01   0.000    
    1222  0.7777      0.6364E-03 SPRIN         11   0.0%   35.66      0.5000E-03   0.000      -14.34       0.000      0.5000E-01   0.000    
    1223  0.7783      0.6364E-03 SPRIN         11   0.0%   35.65      0.5000E-03   0.000      -14.35       0.000      0.5000E-01   0.000    
    1224  0.7789      0.6364E-03 SPRIN         11   0.0%   35.64      0.5000E-03   0.000      -14.36       0.000      0.5000E-01   0.000    
    1225  0.7796      0.6364E-03 SPRIN         11  -0.0%   35.63      0.5000E-03   0.000      -14.37       0.000      0.5000E-01   0.000    
    1226  0.7802      0.6364E-03 SPRIN         11   0.0%   35.62      0.5000E-03   0.000      -14.38       0.000      0.5000E-01   0.000    
    1227  0.7809      0.6364E-03 SPRIN         11   0.0%   35.61      0.5000E-03   0.000      -14.39       0.000      0.5000E-01   0.000    
    1228  0.7815      0.6364E-03 SPRIN         11   0.0%   35.60      0.5000E-03   0.000      -14.40       0.000      0.5000E-01   0.000    
    1229  0.7821      0.6364E-03 SPRIN         11   0.0%   35.59      0.5000E-03   0.000      -14.41       0.000      0.5000E-01   0.000    
    1230  0.7828      0.6364E-03 SPRIN         11   0.0%   35.58      0.5000E-03   0.000      -14.42       0.000      0.5000E-01   0.000    
    1231  0.7834      0.6364E-03 SPRIN         11   0.0%   35.57      0.5000E-03   0.000      -14.43       0.000      0.5000E-01   0.000    
    1232  0.7840      0.6364E-03 SPRIN         11   0.0%   35.56      0.5000E-03   0.000      -14.44       0.000      0.5000E-01   0.000    
    1233  0.7847      0.6364E-03 SPRIN         11   0.0%   35.54      0.5000E-03   0.000      -14.46       0.000      0.5000E-01   0.000    
    1234  0.7853      0.6364E-03 SPRIN         11   0.0%   35.53      0.5000E-03   0.000      -14.47       0.000      0.5000E-01   0.000    
    1235  0.7859      0.6364E-03 SPRIN         11   0.0%   35.52      0.5000E-03   0.000      -14.48       0.000      0.5000E-01   0.000    
    1236  0.7866      0.6364E-03 SPRIN         11   0.0%   35.51      0.5000E-03   0.000      -14.49       0.000      0.5000E-01   0.000    
    1237  0.7872      0.6364E-03 SPRIN         11   0.0%   35.50      0.5000E-03   0.000      -14.50       0.000      0.5000E-01   0.000    
    1238  0.7879      0.6364E-03 SPRIN         11   0.0%   35.49      0.5000E-03   0.000      -14.51       0.000      0.5000E-01   0.000    
    1239  0.7885      0.6364E-03 SPRIN         11   0.0%   35.48      0.5000E-03   0.000      -14.52       0.000      0.5000E-01   0.000    
    1240  0.7891      0.6364E-03 SPRIN         11   0.0%   35.47      0.5000E-03   0.000      -14.53       0.000      0.5000E-01   0.000    
    1241  0.7898      0.6364E-03 SPRIN         11   0.0%   35.46      0.5000E-03   0.000      -14.54       0.000      0.5000E-01   0.000    
    1242  0.7904      0.6364E-03 SPRIN         11   0.0%   35.45      0.5000E-03   0.000      -14.55       0.000      0.5000E-01   0.000    
    1243  0.7910      0.6364E-03 SPRIN         11   0.0%   35.44      0.5000E-03   0.000      -14.56       0.000      0.5000E-01   0.000    
    1244  0.7917      0.6364E-03 SPRIN         11   0.0%   35.43      0.5000E-03   0.000      -14.57       0.000      0.5000E-01   0.000    
    1245  0.7923      0.6364E-03 SPRIN         11   0.0%   35.42      0.5000E-03   0.000      -14.58       0.000      0.5000E-01   0.000    
    1246  0.7929      0.6364E-03 SPRIN         11   0.0%   35.40      0.5000E-03   0.000      -14.59       0.000      0.5000E-01   0.000    
    1247  0.7936      0.6364E-03 SPRIN         11   0.0%   35.39      0.5000E-03   0.000      -14.61       0.000      0.5000E-01   0.000    
    1248  0.7942      0.6364E-03 SPRIN         11   0.0%   35.38      0.5000E-03   0.000      -14.62       0.000      0.5000E-01   0.000    
    1249  0.7949      0.6364E-03 SPRIN         11   0.0%   35.37      0.5000E-03   0.000      -14.63       0.000      0.5000E-01   0.000    
    1250  0.7955      0.6364E-03 SPRIN         11   0.0%   35.36      0.5000E-03   0.000      -14.64       0.000      0.5000E-01   0.000    
    1251  0.7961      0.6364E-03 SPRIN         11   0.0%   35.35      0.5000E-03   0.000      -14.65       0.000      0.5000E-01   0.000    
    1252  0.7968      0.6364E-03 SPRIN         11   0.0%   35.34      0.5000E-03   0.000      -14.66       0.000      0.5000E-01   0.000    
    1253  0.7974      0.6364E-03 SPRIN         11   0.0%   35.33      0.5000E-03   0.000      -14.67       0.000      0.5000E-01   0.000    
    1254  0.7980      0.6364E-03 SPRIN         11   0.0%   35.32      0.5000E-03   0.000      -14.68       0.000      0.5000E-01   0.000    
    1255  0.7987      0.6364E-03 SPRIN         11   0.0%   35.31      0.5000E-03   0.000      -14.69       0.000      0.5000E-01   0.000    
    1256  0.7993      0.6364E-03 SPRIN         11   0.0%   35.30      0.5000E-03   0.000      -14.70       0.000      0.5000E-01   0.000    
    1257  0.7999      0.6364E-03 SPRIN         11   0.0%   35.29      0.5000E-03   0.000      -14.71       0.000      0.5000E-01   0.000    
    1258  0.8006      0.6364E-03 SPRIN         11   0.0%   35.28      0.5000E-03   0.000      -14.72       0.000      0.5000E-01   0.000    
     ANIMATION FILE: SPR_PRE_2FLAGA005 WRITTEN
    1259  0.8012      0.6364E-03 SPRIN         11   0.0%   35.27      0.5000E-03   0.000      -14.73       0.000      0.5000E-01   0.000    
    1260  0.8019      0.6364E-03 SPRIN         11   0.0%   35.26      0.5000E-03   0.000      -14.74       0.000      0.5000E-01   0.000    
    1261  0.8025      0.6364E-03 SPRIN         11   0.0%   35.24      0.5000E-03   0.000      -14.76       0.000      0.5000E-01   0.000    
    1262  0.8031      0.6364E-03 SPRIN         11   0.0%   35.23      0.5000E-03   0.000      -14.77       0.000      0.5000E-01   0.000    
    1263  0.8038      0.6364E-03 SPRIN         11   0.0%   35.22      0.5000E-03   0.000      -14.78       0.000      0.5000E-01   0.000    
    1264  0.8044      0.6364E-03 SPRIN         11   0.0%   35.21      0.5000E-03   0.000      -14.79       0.000      0.5000E-01   0.000    
   CYCLE    TIME      TIME-STEP  ELEMENT          ERROR  I-ENERGY    K-ENERGY T  K-ENERGY R  EXT-WORK     MAS.ERR     TOTAL MASS  MASS ADDED
    1265  0.8050      0.6364E-03 SPRIN         11   0.0%   35.20      0.5000E-03   0.000      -14.80       0.000      0.5000E-01   0.000    
    1266  0.8057      0.6364E-03 SPRIN         11   0.0%   35.19      0.5000E-03   0.000      -14.81       0.000      0.5000E-01   0.000    
    1267  0.8063      0.6364E-03 SPRIN         11   0.0%   35.18      0.5000E-03   0.000      -14.82       0.000      0.5000E-01   0.000    
    1268  0.8070      0.6364E-03 SPRIN         11   0.0%   35.17      0.5000E-03   0.000      -14.83       0.000      0.5000E-01   0.000    
    1269  0.8076      0.6364E-03 SPRIN         11   0.0%   35.16      0.5000E-03   0.000      -14.84       0.000      0.5000E-01   0.000    
    1270  0.8082      0.6364E-03 SPRIN         11   0.0%   35.15      0.5000E-03   0.000      -14.85       0.000      0.5000E-01   0.000    
    1271  0.8089      0.6364E-03 SPRIN         11   0.0%   35.14      0.5000E-03   0.000      -14.86       0.000      0.5000E-01   0.000    
    1272  0.8095      0.6364E-03 SPRIN         11   0.0%   35.13      0.5000E-03   0.000      -14.87       0.000      0.5000E-01   0.000    
    1273  0.8101      0.6364E-03 SPRIN         11   0.0%   35.12      0.5000E-03   0.000      -14.88       0.000      0.5000E-01   0.000    
    1274  0.8108      0.6364E-03 SPRIN         11   0.0%   35.11      0.5000E-03   0.000      -14.89       0.000      0.5000E-01   0.000    
    1275  0.8114      0.6364E-03 SPRIN         11   0.0%   35.10      0.5000E-03   0.000      -14.90       0.000      0.5000E-01   0.000    
    1276  0.8120      0.6364E-03 SPRIN         11   0.0%   35.08      0.5000E-03   0.000      -14.92       0.000      0.5000E-01   0.000    
    1277  0.8127      0.6364E-03 SPRIN         11   0.0%   35.07      0.5000E-03   0.000      -14.93       0.000      0.5000E-01   0.000    
    1278  0.8133      0.6364E-03 SPRIN         11  -0.0%   35.06      0.5000E-03   0.000      -14.94       0.000      0.5000E-01   0.000    
    1279  0.8140      0.6364E-03 SPRIN         11   0.0%   35.05      0.5000E-03   0.000      -14.95       0.000      0.5000E-01   0.000    
    1280  0.8146      0.6364E-03 SPRIN         11  -0.0%   35.04      0.5000E-03   0.000      -14.96       0.000      0.5000E-01   0.000    
    1281  0.8152      0.6364E-03 SPRIN         11   0.0%   35.03      0.5000E-03   0.000      -14.97       0.000      0.5000E-01   0.000    
    1282  0.8159      0.6364E-03 SPRIN         11   0.0%   35.02      0.5000E-03   0.000      -14.98       0.000      0.5000E-01   0.000    
    1283  0.8165      0.6364E-03 SPRIN         11   0.0%   35.01      0.5000E-03   0.000      -14.99       0.000      0.5000E-01   0.000    
    1284  0.8171      0.6364E-03 SPRIN         11   0.0%   35.00      0.5000E-03   0.000      -15.00       0.000      0.5000E-01   0.000    
    1285  0.8178      0.6364E-03 SPRIN         11   0.0%   34.99      0.5000E-03   0.000      -15.01       0.000      0.5000E-01   0.000    
    1286  0.8184      0.6364E-03 SPRIN         11   0.0%   34.98      0.5000E-03   0.000      -15.02       0.000      0.5000E-01   0.000    
    1287  0.8190      0.6364E-03 SPRIN         11   0.0%   34.97      0.5000E-03   0.000      -15.03       0.000      0.5000E-01   0.000    
    1288  0.8197      0.6364E-03 SPRIN         11   0.0%   34.96      0.5000E-03   0.000      -15.04       0.000      0.5000E-01   0.000    
    1289  0.8203      0.6364E-03 SPRIN         11   0.0%   34.95      0.5000E-03   0.000      -15.05       0.000      0.5000E-01   0.000    
    1290  0.8210      0.6364E-03 SPRIN         11   0.0%   34.94      0.5000E-03   0.000      -15.06       0.000      0.5000E-01   0.000    
    1291  0.8216      0.6364E-03 SPRIN         11   0.0%   34.92      0.5000E-03   0.000      -15.07       0.000      0.5000E-01   0.000    
    1292  0.8222      0.6364E-03 SPRIN         11   0.0%   34.91      0.5000E-03   0.000      -15.09       0.000      0.5000E-01   0.000    
    1293  0.8229      0.6364E-03 SPRIN         11   0.0%   34.90      0.5000E-03   0.000      -15.10       0.000      0.5000E-01   0.000    
    1294  0.8235      0.6364E-03 SPRIN         11   0.0%   34.89      0.5000E-03   0.000      -15.11       0.000      0.5000E-01   0.000    
    1295  0.8241      0.6364E-03 SPRIN         11   0.0%   34.88      0.5000E-03   0.000      -15.12       0.000      0.5000E-01   0.000    
    1296  0.8248      0.6364E-03 SPRIN         11  -0.0%   34.87      0.5000E-03   0.000      -15.13       0.000      0.5000E-01   0.000    
    1297  0.8254      0.6364E-03 SPRIN         11   0.0%   34.86      0.5000E-03   0.000      -15.14       0.000      0.5000E-01   0.000    
    1298  0.8260      0.6364E-03 SPRIN         11  -0.0%   34.85      0.5000E-03   0.000      -15.15       0.000      0.5000E-01   0.000    
    1299  0.8267      0.6364E-03 SPRIN         11   0.0%   34.84      0.5000E-03   0.000      -15.16       0.000      0.5000E-01   0.000    
    1300  0.8273      0.6364E-03 SPRIN         11  -0.0%   34.83      0.5000E-03   0.000      -15.17       0.000      0.5000E-01   0.000    
    1301  0.8280      0.6364E-03 SPRIN         11   0.0%   34.82      0.5000E-03   0.000      -15.18       0.000      0.5000E-01   0.000    
    1302  0.8286      0.6364E-03 SPRIN         11  -0.0%   34.81      0.5000E-03   0.000      -15.19       0.000      0.5000E-01   0.000    
    1303  0.8292      0.6364E-03 SPRIN         11   0.0%   34.80      0.5000E-03   0.000      -15.20       0.000      0.5000E-01   0.000    
    1304  0.8299      0.6364E-03 SPRIN         11   0.0%   34.79      0.5000E-03   0.000      -15.21       0.000      0.5000E-01   0.000    
    1305  0.8305      0.6364E-03 SPRIN         11   0.0%   34.78      0.5000E-03   0.000      -15.22       0.000      0.5000E-01   0.000    
    1306  0.8311      0.6364E-03 SPRIN         11   0.0%   34.77      0.5000E-03   0.000      -15.23       0.000      0.5000E-01   0.000    
    1307  0.8318      0.6364E-03 SPRIN         11   0.0%   34.75      0.5000E-03   0.000      -15.24       0.000      0.5000E-01   0.000    
    1308  0.8324      0.6364E-03 SPRIN         11   0.0%   34.74      0.5000E-03   0.000      -15.26       0.000      0.5000E-01   0.000    
    1309  0.8330      0.6364E-03 SPRIN         11   0.0%   34.73      0.5000E-03   0.000      -15.27       0.000      0.5000E-01   0.000    
    1310  0.8337      0.6364E-03 SPRIN         11   0.0%   34.72      0.5000E-03   0.000      -15.28       0.000      0.5000E-01   0.000    
    1311  0.8343      0.6364E-03 SPRIN         11   0.0%   34.71      0.5000E-03   0.000      -15.29       0.000      0.5000E-01   0.000    
    1312  0.8350      0.6364E-03 SPRIN         11  -0.0%   34.70      0.5000E-03   0.000      -15.30       0.000      0.5000E-01   0.000    
    1313  0.8356      0.6364E-03 SPRIN         11  -0.0%   34.69      0.5000E-03   0.000      -15.31       0.000      0.5000E-01   0.000    
    1314  0.8362      0.6364E-03 SPRIN         11  -0.0%   34.68      0.5000E-03   0.000      -15.32       0.000      0.5000E-01   0.000    
    1315  0.8369      0.6364E-03 SPRIN         11  -0.0%   34.67      0.5000E-03   0.000      -15.33       0.000      0.5000E-01   0.000    
    1316  0.8375      0.6364E-03 SPRIN         11  -0.0%   34.66      0.5000E-03   0.000      -15.34       0.000      0.5000E-01   0.000    
    1317  0.8381      0.6364E-03 SPRIN         11   0.0%   34.65      0.5000E-03   0.000      -15.35       0.000      0.5000E-01   0.000    
    1318  0.8388      0.6364E-03 SPRIN         11  -0.0%   34.64      0.5000E-03   0.000      -15.36       0.000      0.5000E-01   0.000    
    1319  0.8394      0.6364E-03 SPRIN         11   0.0%   34.63      0.5000E-03   0.000      -15.37       0.000      0.5000E-01   0.000    
   CYCLE    TIME      TIME-STEP  ELEMENT          ERROR  I-ENERGY    K-ENERGY T  K-ENERGY R  EXT-WORK     MAS.ERR     TOTAL MASS  MASS ADDED
    1320  0.8400      0.6364E-03 SPRIN         11   0.0%   34.62      0.5000E-03   0.000      -15.38       0.000      0.5000E-01   0.000    
    1321  0.8407      0.6364E-03 SPRIN         11   0.0%   34.61      0.5000E-03   0.000      -15.39       0.000      0.5000E-01   0.000    
    1322  0.8413      0.6364E-03 SPRIN         11   0.0%   34.60      0.5000E-03   0.000      -15.40       0.000      0.5000E-01   0.000    
    1323  0.8420      0.6364E-03 SPRIN         11   0.0%   34.59      0.5000E-03   0.000      -15.41       0.000      0.5000E-01   0.000    
    1324  0.8426      0.6364E-03 SPRIN         11   0.0%   34.57      0.5000E-03   0.000      -15.42       0.000      0.5000E-01   0.000    
    1325  0.8432      0.6364E-03 SPRIN         11   0.0%   34.56      0.5000E-03   0.000      -15.44       0.000      0.5000E-01   0.000    
    1326  0.8439      0.6364E-03 SPRIN         11   0.0%   34.55      0.5000E-03   0.000      -15.45       0.000      0.5000E-01   0.000    
    1327  0.8445      0.6364E-03 SPRIN         11   0.0%   34.54      0.5000E-03   0.000      -15.46       0.000      0.5000E-01   0.000    
    1328  0.8451      0.6364E-03 SPRIN         11   0.0%   34.53      0.5000E-03   0.000      -15.47       0.000      0.5000E-01   0.000    
    1329  0.8458      0.6364E-03 SPRIN         11   0.0%   34.52      0.5000E-03   0.000      -15.48       0.000      0.5000E-01   0.000    
    1330  0.8464      0.6364E-03 SPRIN         11   0.0%   34.51      0.5000E-03   0.000      -15.49       0.000      0.5000E-01   0.000    
    1331  0.8470      0.6364E-03 SPRIN         11   0.0%   34.50      0.5000E-03   0.000      -15.50       0.000      0.5000E-01   0.000    
    1332  0.8477      0.6364E-03 SPRIN         11   0.0%   34.49      0.5000E-03   0.000      -15.51       0.000      0.5000E-01   0.000    
    1333  0.8483      0.6364E-03 SPRIN         11   0.0%   34.48      0.5000E-03   0.000      -15.52       0.000      0.5000E-01   0.000    
    1334  0.8490      0.6364E-03 SPRIN         11   0.0%   34.47      0.5000E-03   0.000      -15.53       0.000      0.5000E-01   0.000    
    1335  0.8496      0.6364E-03 SPRIN         11   0.0%   34.46      0.5000E-03   0.000      -15.54       0.000      0.5000E-01   0.000    
    1336  0.8502      0.6364E-03 SPRIN         11   0.0%   34.45      0.5000E-03   0.000      -15.55       0.000      0.5000E-01   0.000    
    1337  0.8509      0.6364E-03 SPRIN         11   0.0%   34.44      0.5000E-03   0.000      -15.56       0.000      0.5000E-01   0.000    
    1338  0.8515      0.6364E-03 SPRIN         11   0.0%   34.43      0.5000E-03   0.000      -15.57       0.000      0.5000E-01   0.000    
    1339  0.8521      0.6364E-03 SPRIN         11   0.0%   34.42      0.5000E-03   0.000      -15.58       0.000      0.5000E-01   0.000    
    1340  0.8528      0.6364E-03 SPRIN         11   0.0%   34.41      0.5000E-03   0.000      -15.59       0.000      0.5000E-01   0.000    
    1341  0.8534      0.6364E-03 SPRIN         11   0.0%   34.39      0.5000E-03   0.000      -15.60       0.000      0.5000E-01   0.000    
    1342  0.8540      0.6364E-03 SPRIN         11   0.0%   34.38      0.5000E-03   0.000      -15.62       0.000      0.5000E-01   0.000    
    1343  0.8547      0.6364E-03 SPRIN         11   0.0%   34.37      0.5000E-03   0.000      -15.63       0.000      0.5000E-01   0.000    
    1344  0.8553      0.6364E-03 SPRIN         11   0.0%   34.36      0.5000E-03   0.000      -15.64       0.000      0.5000E-01   0.000    
    1345  0.8560      0.6364E-03 SPRIN         11   0.0%   34.35      0.5000E-03   0.000      -15.65       0.000      0.5000E-01   0.000    
    1346  0.8566      0.6364E-03 SPRIN         11   0.0%   34.34      0.5000E-03   0.000      -15.66       0.000      0.5000E-01   0.000    
    1347  0.8572      0.6364E-03 SPRIN         11   0.0%   34.33      0.5000E-03   0.000      -15.67       0.000      0.5000E-01   0.000    
    1348  0.8579      0.6364E-03 SPRIN         11   0.0%   34.32      0.5000E-03   0.000      -15.68       0.000      0.5000E-01   0.000    
    1349  0.8585      0.6364E-03 SPRIN         11   0.0%   34.31      0.5000E-03   0.000      -15.69       0.000      0.5000E-01   0.000    
    1350  0.8591      0.6364E-03 SPRIN         11  -0.0%   34.30      0.5000E-03   0.000      -15.70       0.000      0.5000E-01   0.000    
    1351  0.8598      0.6364E-03 SPRIN         11   0.0%   34.29      0.5000E-03   0.000      -15.71       0.000      0.5000E-01   0.000    
    1352  0.8604      0.6364E-03 SPRIN         11   0.0%   34.28      0.5000E-03   0.000      -15.72       0.000      0.5000E-01   0.000    
    1353  0.8610      0.6364E-03 SPRIN         11   0.0%   34.27      0.5000E-03   0.000      -15.73       0.000      0.5000E-01   0.000    
    1354  0.8617      0.6364E-03 SPRIN         11   0.0%   34.26      0.5000E-03   0.000      -15.74       0.000      0.5000E-01   0.000    
    1355  0.8623      0.6364E-03 SPRIN         11   0.0%   34.25      0.5000E-03   0.000      -15.75       0.000      0.5000E-01   0.000    
    1356  0.8630      0.6364E-03 SPRIN         11   0.0%   34.24      0.5000E-03   0.000      -15.76       0.000      0.5000E-01   0.000    
    1357  0.8636      0.6364E-03 SPRIN         11   0.0%   34.23      0.5000E-03   0.000      -15.77       0.000      0.5000E-01   0.000    
    1358  0.8642      0.6364E-03 SPRIN         11   0.0%   34.22      0.5000E-03   0.000      -15.78       0.000      0.5000E-01   0.000    
    1359  0.8649      0.6364E-03 SPRIN         11   0.0%   34.21      0.5000E-03   0.000      -15.79       0.000      0.5000E-01   0.000    
    1360  0.8655      0.6364E-03 SPRIN         11   0.0%   34.19      0.5000E-03   0.000      -15.80       0.000      0.5000E-01   0.000    
    1361  0.8661      0.6364E-03 SPRIN         11   0.0%   34.18      0.5000E-03   0.000      -15.82       0.000      0.5000E-01   0.000    
    1362  0.8668      0.6364E-03 SPRIN         11   0.0%   34.17      0.5000E-03   0.000      -15.83       0.000      0.5000E-01   0.000    
    1363  0.8674      0.6364E-03 SPRIN         11   0.0%   34.16      0.5000E-03   0.000      -15.84       0.000      0.5000E-01   0.000    
    1364  0.8680      0.6364E-03 SPRIN         11   0.0%   34.15      0.5000E-03   0.000      -15.85       0.000      0.5000E-01   0.000    
    1365  0.8687      0.6364E-03 SPRIN         11   0.0%   34.14      0.5000E-03   0.000      -15.86       0.000      0.5000E-01   0.000    
    1366  0.8693      0.6364E-03 SPRIN         11   0.0%   34.13      0.5000E-03   0.000      -15.87       0.000      0.5000E-01   0.000    
    1367  0.8700      0.6364E-03 SPRIN         11   0.0%   34.12      0.5000E-03   0.000      -15.88       0.000      0.5000E-01   0.000    
    1368  0.8706      0.6364E-03 SPRIN         11   0.0%   34.11      0.5000E-03   0.000      -15.89       0.000      0.5000E-01   0.000    
    1369  0.8712      0.6364E-03 SPRIN         11   0.0%   34.10      0.5000E-03   0.000      -15.90       0.000      0.5000E-01   0.000    
    1370  0.8719      0.6364E-03 SPRIN         11   0.0%   34.09      0.5000E-03   0.000      -15.91       0.000      0.5000E-01   0.000    
    1371  0.8725      0.6364E-03 SPRIN         11   0.0%   34.08      0.5000E-03   0.000      -15.92       0.000      0.5000E-01   0.000    
    1372  0.8731      0.6364E-03 SPRIN         11   0.0%   34.07      0.5000E-03   0.000      -15.93       0.000      0.5000E-01   0.000    
    1373  0.8738      0.6364E-03 SPRIN         11   0.0%   34.06      0.5000E-03   0.000      -15.94       0.000      0.5000E-01   0.000    
    1374  0.8744      0.6364E-03 SPRIN         11   0.0%   34.05      0.5000E-03   0.000      -15.95       0.000      0.5000E-01   0.000    
   CYCLE    TIME      TIME-STEP  ELEMENT          ERROR  I-ENERGY    K-ENERGY T  K-ENERGY R  EXT-WORK     MAS.ERR     TOTAL MASS  MASS ADDED
    1375  0.8750      0.6364E-03 SPRIN         11   0.0%   34.04      0.5000E-03   0.000      -15.96       0.000      0.5000E-01   0.000    
    1376  0.8757      0.6364E-03 SPRIN         11   0.0%   34.03      0.5000E-03   0.000      -15.97       0.000      0.5000E-01   0.000    
    1377  0.8763      0.6364E-03 SPRIN         11   0.0%   34.02      0.5000E-03   0.000      -15.98       0.000      0.5000E-01   0.000    
    1378  0.8770      0.6364E-03 SPRIN         11   0.0%   34.01      0.5000E-03   0.000      -15.99       0.000      0.5000E-01   0.000    
    1379  0.8776      0.6364E-03 SPRIN         11   0.0%   33.99      0.5000E-03   0.000      -16.00       0.000      0.5000E-01   0.000    
    1380  0.8782      0.6364E-03 SPRIN         11   0.0%   33.98      0.5000E-03   0.000      -16.02       0.000      0.5000E-01   0.000    
    1381  0.8789      0.6364E-03 SPRIN         11   0.0%   33.97      0.5000E-03   0.000      -16.03       0.000      0.5000E-01   0.000    
    1382  0.8795      0.6364E-03 SPRIN         11   0.0%   33.96      0.5000E-03   0.000      -16.04       0.000      0.5000E-01   0.000    
    1383  0.8801      0.6364E-03 SPRIN         11  -0.0%   33.95      0.5000E-03   0.000      -16.05       0.000      0.5000E-01   0.000    
    1384  0.8808      0.6364E-03 SPRIN         11  -0.0%   33.94      0.5000E-03   0.000      -16.06       0.000      0.5000E-01   0.000    
    1385  0.8814      0.6364E-03 SPRIN         11  -0.0%   33.93      0.5000E-03   0.000      -16.07       0.000      0.5000E-01   0.000    
    1386  0.8820      0.6364E-03 SPRIN         11  -0.0%   33.92      0.5000E-03   0.000      -16.08       0.000      0.5000E-01   0.000    
    1387  0.8827      0.6364E-03 SPRIN         11  -0.0%   33.91      0.5000E-03   0.000      -16.09       0.000      0.5000E-01   0.000    
    1388  0.8833      0.6364E-03 SPRIN         11  -0.0%   33.90      0.5000E-03   0.000      -16.10       0.000      0.5000E-01   0.000    
    1389  0.8840      0.6364E-03 SPRIN         11  -0.0%   33.89      0.5000E-03   0.000      -16.11       0.000      0.5000E-01   0.000    
    1390  0.8846      0.6364E-03 SPRIN         11  -0.0%   33.88      0.5000E-03   0.000      -16.12       0.000      0.5000E-01   0.000    
    1391  0.8852      0.6364E-03 SPRIN         11  -0.0%   33.87      0.5000E-03   0.000      -16.13       0.000      0.5000E-01   0.000    
    1392  0.8859      0.6364E-03 SPRIN         11   0.0%   33.86      0.5000E-03   0.000      -16.14       0.000      0.5000E-01   0.000    
    1393  0.8865      0.6364E-03 SPRIN         11   0.0%   33.85      0.5000E-03   0.000      -16.15       0.000      0.5000E-01   0.000    
    1394  0.8871      0.6364E-03 SPRIN         11   0.0%   33.84      0.5000E-03   0.000      -16.16       0.000      0.5000E-01   0.000    
    1395  0.8878      0.6364E-03 SPRIN         11   0.0%   33.83      0.5000E-03   0.000      -16.17       0.000      0.5000E-01   0.000    
    1396  0.8884      0.6364E-03 SPRIN         11   0.0%   33.82      0.5000E-03   0.000      -16.18       0.000      0.5000E-01   0.000    
    1397  0.8890      0.6364E-03 SPRIN         11   0.0%   33.81      0.5000E-03   0.000      -16.19       0.000      0.5000E-01   0.000    
    1398  0.8897      0.6364E-03 SPRIN         11   0.0%   33.80      0.5000E-03   0.000      -16.20       0.000      0.5000E-01   0.000    
    1399  0.8903      0.6364E-03 SPRIN         11   0.0%   33.79      0.5000E-03   0.000      -16.21       0.000      0.5000E-01   0.000    
    1400  0.8910      0.6364E-03 SPRIN         11  -0.0%   33.77      0.5000E-03   0.000      -16.22       0.000      0.5000E-01   0.000    
    1401  0.8916      0.6364E-03 SPRIN         11  -0.0%   33.76      0.5000E-03   0.000      -16.24       0.000      0.5000E-01   0.000    
    1402  0.8922      0.6364E-03 SPRIN         11  -0.0%   33.75      0.5000E-03   0.000      -16.25       0.000      0.5000E-01   0.000    
    1403  0.8929      0.6364E-03 SPRIN         11  -0.0%   33.74      0.5000E-03   0.000      -16.26       0.000      0.5000E-01   0.000    
    1404  0.8935      0.6364E-03 SPRIN         11  -0.0%   33.73      0.5000E-03   0.000      -16.27       0.000      0.5000E-01   0.000    
    1405  0.8941      0.6364E-03 SPRIN         11  -0.0%   33.72      0.5000E-03   0.000      -16.28       0.000      0.5000E-01   0.000    
    1406  0.8948      0.6364E-03 SPRIN         11  -0.0%   33.71      0.5000E-03   0.000      -16.29       0.000      0.5000E-01   0.000    
    1407  0.8954      0.6364E-03 SPRIN         11  -0.0%   33.70      0.5000E-03   0.000      -16.30       0.000      0.5000E-01   0.000    
    1408  0.8960      0.6364E-03 SPRIN         11  -0.0%   33.69      0.5000E-03   0.000      -16.31       0.000      0.5000E-01   0.000    
    1409  0.8967      0.6364E-03 SPRIN         11  -0.0%   33.68      0.5000E-03   0.000      -16.32       0.000      0.5000E-01   0.000    
    1410  0.8973      0.6364E-03 SPRIN         11  -0.0%   33.67      0.5000E-03   0.000      -16.33       0.000      0.5000E-01   0.000    
    1411  0.8980      0.6364E-03 SPRIN         11   0.0%   33.66      0.5000E-03   0.000      -16.34       0.000      0.5000E-01   0.000    
    1412  0.8986      0.6364E-03 SPRIN         11   0.0%   33.65      0.5000E-03   0.000      -16.35       0.000      0.5000E-01   0.000    
    1413  0.8992      0.6364E-03 SPRIN         11   0.0%   33.64      0.5000E-03   0.000      -16.36       0.000      0.5000E-01   0.000    
    1414  0.8999      0.6364E-03 SPRIN         11   0.0%   33.63      0.5000E-03   0.000      -16.37       0.000      0.5000E-01   0.000    
    1415  0.9005      0.6364E-03 SPRIN         11   0.0%   33.62      0.5000E-03   0.000      -16.38       0.000      0.5000E-01   0.000    
    1416  0.9011      0.6364E-03 SPRIN         11  -0.0%   33.61      0.5000E-03   0.000      -16.39       0.000      0.5000E-01   0.000    
    1417  0.9018      0.6364E-03 SPRIN         11  -0.0%   33.60      0.5000E-03   0.000      -16.40       0.000      0.5000E-01   0.000    
    1418  0.9024      0.6364E-03 SPRIN         11  -0.0%   33.59      0.5000E-03   0.000      -16.41       0.000      0.5000E-01   0.000    
    1419  0.9030      0.6364E-03 SPRIN         11  -0.0%   33.58      0.5000E-03   0.000      -16.42       0.000      0.5000E-01   0.000    
    1420  0.9037      0.6364E-03 SPRIN         11  -0.0%   33.57      0.5000E-03   0.000      -16.43       0.000      0.5000E-01   0.000    
    1421  0.9043      0.6364E-03 SPRIN         11  -0.0%   33.56      0.5000E-03   0.000      -16.44       0.000      0.5000E-01   0.000    
    1422  0.9050      0.6364E-03 SPRIN         11  -0.0%   33.55      0.5000E-03   0.000      -16.45       0.000      0.5000E-01   0.000    
    1423  0.9056      0.6364E-03 SPRIN         11  -0.0%   33.53      0.5000E-03   0.000      -16.46       0.000      0.5000E-01   0.000    
    1424  0.9062      0.6364E-03 SPRIN         11  -0.0%   33.52      0.5000E-03   0.000      -16.48       0.000      0.5000E-01   0.000    
    1425  0.9069      0.6364E-03 SPRIN         11  -0.0%   33.51      0.5000E-03   0.000      -16.49       0.000      0.5000E-01   0.000    
    1426  0.9075      0.6364E-03 SPRIN         11  -0.0%   33.50      0.5000E-03   0.000      -16.50       0.000      0.5000E-01   0.000    
    1427  0.9081      0.6364E-03 SPRIN         11  -0.0%   33.49      0.5000E-03   0.000      -16.51       0.000      0.5000E-01   0.000    
    1428  0.9088      0.6364E-03 SPRIN         11  -0.0%   33.48      0.5000E-03   0.000      -16.52       0.000      0.5000E-01   0.000    
    1429  0.9094      0.6364E-03 SPRIN         11  -0.0%   33.47      0.5000E-03   0.000      -16.53       0.000      0.5000E-01   0.000    
   CYCLE    TIME      TIME-STEP  ELEMENT          ERROR  I-ENERGY    K-ENERGY T  K-ENERGY R  EXT-WORK     MAS.ERR     TOTAL MASS  MASS ADDED
    1430  0.9100      0.6364E-03 SPRIN         11  -0.0%   33.46      0.5000E-03   0.000      -16.54       0.000      0.5000E-01   0.000    
    1431  0.9107      0.6364E-03 SPRIN         11   0.0%   33.45      0.5000E-03   0.000      -16.55       0.000      0.5000E-01   0.000    
    1432  0.9113      0.6364E-03 SPRIN         11  -0.0%   33.44      0.5000E-03   0.000      -16.56       0.000      0.5000E-01   0.000    
    1433  0.9120      0.6364E-03 SPRIN         11  -0.0%   33.43      0.5000E-03   0.000      -16.57       0.000      0.5000E-01   0.000    
    1434  0.9126      0.6364E-03 SPRIN         11  -0.0%   33.42      0.5000E-03   0.000      -16.58       0.000      0.5000E-01   0.000    
    1435  0.9132      0.6364E-03 SPRIN         11  -0.0%   33.41      0.5000E-03   0.000      -16.59       0.000      0.5000E-01   0.000    
    1436  0.9139      0.6364E-03 SPRIN         11  -0.0%   33.40      0.5000E-03   0.000      -16.60       0.000      0.5000E-01   0.000    
    1437  0.9145      0.6364E-03 SPRIN         11  -0.0%   33.39      0.5000E-03   0.000      -16.61       0.000      0.5000E-01   0.000    
    1438  0.9151      0.6364E-03 SPRIN         11  -0.0%   33.38      0.5000E-03   0.000      -16.62       0.000      0.5000E-01   0.000    
    1439  0.9158      0.6364E-03 SPRIN         11  -0.0%   33.37      0.5000E-03   0.000      -16.63       0.000      0.5000E-01   0.000    
    1440  0.9164      0.6364E-03 SPRIN         11  -0.0%   33.36      0.5000E-03   0.000      -16.64       0.000      0.5000E-01   0.000    
    1441  0.9170      0.6364E-03 SPRIN         11  -0.0%   33.35      0.5000E-03   0.000      -16.65       0.000      0.5000E-01   0.000    
    1442  0.9177      0.6364E-03 SPRIN         11  -0.0%   33.34      0.5000E-03   0.000      -16.66       0.000      0.5000E-01   0.000    
    1443  0.9183      0.6364E-03 SPRIN         11  -0.0%   33.33      0.5000E-03   0.000      -16.67       0.000      0.5000E-01   0.000    
    1444  0.9190      0.6364E-03 SPRIN         11  -0.0%   33.32      0.5000E-03   0.000      -16.68       0.000      0.5000E-01   0.000    
    1445  0.9196      0.6364E-03 SPRIN         11  -0.0%   33.31      0.5000E-03   0.000      -16.69       0.000      0.5000E-01   0.000    
    1446  0.9202      0.6364E-03 SPRIN         11  -0.0%   33.30      0.5000E-03   0.000      -16.70       0.000      0.5000E-01   0.000    
    1447  0.9209      0.6364E-03 SPRIN         11  -0.0%   33.29      0.5000E-03   0.000      -16.71       0.000      0.5000E-01   0.000    
    1448  0.9215      0.6364E-03 SPRIN         11  -0.0%   33.27      0.5000E-03   0.000      -16.72       0.000      0.5000E-01   0.000    
    1449  0.9221      0.6364E-03 SPRIN         11   0.0%   33.26      0.5000E-03   0.000      -16.74       0.000      0.5000E-01   0.000    
    1450  0.9228      0.6364E-03 SPRIN         11   0.0%   33.25      0.5000E-03   0.000      -16.75       0.000      0.5000E-01   0.000    
    1451  0.9234      0.6364E-03 SPRIN         11   0.0%   33.24      0.5000E-03   0.000      -16.76       0.000      0.5000E-01   0.000    
    1452  0.9240      0.6364E-03 SPRIN         11   0.0%   33.23      0.5000E-03   0.000      -16.77       0.000      0.5000E-01   0.000    
    1453  0.9247      0.6364E-03 SPRIN         11  -0.0%   33.22      0.5000E-03   0.000      -16.78       0.000      0.5000E-01   0.000    
    1454  0.9253      0.6364E-03 SPRIN         11  -0.0%   33.21      0.5000E-03   0.000      -16.79       0.000      0.5000E-01   0.000    
    1455  0.9260      0.6364E-03 SPRIN         11  -0.0%   33.20      0.5000E-03   0.000      -16.80       0.000      0.5000E-01   0.000    
    1456  0.9266      0.6364E-03 SPRIN         11  -0.0%   33.19      0.5000E-03   0.000      -16.81       0.000      0.5000E-01   0.000    
    1457  0.9272      0.6364E-03 SPRIN         11  -0.0%   33.18      0.5000E-03   0.000      -16.82       0.000      0.5000E-01   0.000    
    1458  0.9279      0.6364E-03 SPRIN         11  -0.0%   33.17      0.5000E-03   0.000      -16.83       0.000      0.5000E-01   0.000    
    1459  0.9285      0.6364E-03 SPRIN         11  -0.0%   33.16      0.5000E-03   0.000      -16.84       0.000      0.5000E-01   0.000    
    1460  0.9291      0.6364E-03 SPRIN         11  -0.0%   33.15      0.5000E-03   0.000      -16.85       0.000      0.5000E-01   0.000    
    1461  0.9298      0.6364E-03 SPRIN         11  -0.0%   33.14      0.5000E-03   0.000      -16.86       0.000      0.5000E-01   0.000    
    1462  0.9304      0.6364E-03 SPRIN         11   0.0%   33.13      0.5000E-03   0.000      -16.87       0.000      0.5000E-01   0.000    
    1463  0.9310      0.6364E-03 SPRIN         11   0.0%   33.12      0.5000E-03   0.000      -16.88       0.000      0.5000E-01   0.000    
    1464  0.9317      0.6364E-03 SPRIN         11   0.0%   33.11      0.5000E-03   0.000      -16.89       0.000      0.5000E-01   0.000    
    1465  0.9323      0.6364E-03 SPRIN         11   0.0%   33.10      0.5000E-03   0.000      -16.90       0.000      0.5000E-01   0.000    
    1466  0.9330      0.6364E-03 SPRIN         11   0.0%   33.09      0.5000E-03   0.000      -16.91       0.000      0.5000E-01   0.000    
    1467  0.9336      0.6364E-03 SPRIN         11   0.0%   33.08      0.5000E-03   0.000      -16.92       0.000      0.5000E-01   0.000    
    1468  0.9342      0.6364E-03 SPRIN         11   0.0%   33.07      0.5000E-03   0.000      -16.93       0.000      0.5000E-01   0.000    
    1469  0.9349      0.6364E-03 SPRIN         11   0.0%   33.06      0.5000E-03   0.000      -16.94       0.000      0.5000E-01   0.000    
    1470  0.9355      0.6364E-03 SPRIN         11   0.0%   33.05      0.5000E-03   0.000      -16.95       0.000      0.5000E-01   0.000    
    1471  0.9361      0.6364E-03 SPRIN         11   0.0%   33.04      0.5000E-03   0.000      -16.96       0.000      0.5000E-01   0.000    
    1472  0.9368      0.6364E-03 SPRIN         11   0.0%   33.03      0.5000E-03   0.000      -16.97       0.000      0.5000E-01   0.000    
    1473  0.9374      0.6364E-03 SPRIN         11   0.0%   33.02      0.5000E-03   0.000      -16.98       0.000      0.5000E-01   0.000    
    1474  0.9380      0.6364E-03 SPRIN         11  -0.0%   33.01      0.5000E-03   0.000      -16.99       0.000      0.5000E-01   0.000    
    1475  0.9387      0.6364E-03 SPRIN         11  -0.0%   32.99      0.5000E-03   0.000      -17.00       0.000      0.5000E-01   0.000    
    1476  0.9393      0.6364E-03 SPRIN         11  -0.0%   32.98      0.5000E-03   0.000      -17.01       0.000      0.5000E-01   0.000    
    1477  0.9400      0.6364E-03 SPRIN         11   0.0%   32.97      0.5000E-03   0.000      -17.03       0.000      0.5000E-01   0.000    
    1478  0.9406      0.6364E-03 SPRIN         11  -0.0%   32.96      0.5000E-03   0.000      -17.04       0.000      0.5000E-01   0.000    
    1479  0.9412      0.6364E-03 SPRIN         11   0.0%   32.95      0.5000E-03   0.000      -17.05       0.000      0.5000E-01   0.000    
    1480  0.9419      0.6364E-03 SPRIN         11  -0.0%   32.94      0.5000E-03   0.000      -17.06       0.000      0.5000E-01   0.000    
    1481  0.9425      0.6364E-03 SPRIN         11   0.0%   32.93      0.5000E-03   0.000      -17.07       0.000      0.5000E-01   0.000    
    1482  0.9431      0.6364E-03 SPRIN         11   0.0%   32.92      0.5000E-03   0.000      -17.08       0.000      0.5000E-01   0.000    
    1483  0.9438      0.6364E-03 SPRIN         11   0.0%   32.91      0.5000E-03   0.000      -17.09       0.000      0.5000E-01   0.000    
    1484  0.9444      0.6364E-03 SPRIN         11   0.0%   32.90      0.5000E-03   0.000      -17.10       0.000      0.5000E-01   0.000    
   CYCLE    TIME      TIME-STEP  ELEMENT          ERROR  I-ENERGY    K-ENERGY T  K-ENERGY R  EXT-WORK     MAS.ERR     TOTAL MASS  MASS ADDED
    1485  0.9450      0.6364E-03 SPRIN         11   0.0%   32.89      0.5000E-03   0.000      -17.11       0.000      0.5000E-01   0.000    
    1486  0.9457      0.6364E-03 SPRIN         11   0.0%   32.88      0.5000E-03   0.000      -17.12       0.000      0.5000E-01   0.000    
    1487  0.9463      0.6364E-03 SPRIN         11   0.0%   32.87      0.5000E-03   0.000      -17.13       0.000      0.5000E-01   0.000    
    1488  0.9470      0.6364E-03 SPRIN         11   0.0%   32.86      0.5000E-03   0.000      -17.14       0.000      0.5000E-01   0.000    
    1489  0.9476      0.6364E-03 SPRIN         11   0.0%   32.85      0.5000E-03   0.000      -17.15       0.000      0.5000E-01   0.000    
    1490  0.9482      0.6364E-03 SPRIN         11  -0.0%   32.84      0.5000E-03   0.000      -17.16       0.000      0.5000E-01   0.000    
    1491  0.9489      0.6364E-03 SPRIN         11  -0.0%   32.83      0.5000E-03   0.000      -17.17       0.000      0.5000E-01   0.000    
    1492  0.9495      0.6364E-03 SPRIN         11  -0.0%   32.82      0.5000E-03   0.000      -17.18       0.000      0.5000E-01   0.000    
    1493  0.9501      0.6364E-03 SPRIN         11  -0.0%   32.81      0.5000E-03   0.000      -17.19       0.000      0.5000E-01   0.000    
    1494  0.9508      0.6364E-03 SPRIN         11  -0.0%   32.80      0.5000E-03   0.000      -17.20       0.000      0.5000E-01   0.000    
    1495  0.9514      0.6364E-03 SPRIN         11  -0.0%   32.79      0.5000E-03   0.000      -17.21       0.000      0.5000E-01   0.000    
    1496  0.9520      0.6364E-03 SPRIN         11  -0.0%   32.78      0.5000E-03   0.000      -17.22       0.000      0.5000E-01   0.000    
    1497  0.9527      0.6364E-03 SPRIN         11   0.0%   32.77      0.5000E-03   0.000      -17.23       0.000      0.5000E-01   0.000    
    1498  0.9533      0.6364E-03 SPRIN         11   0.0%   32.76      0.5000E-03   0.000      -17.24       0.000      0.5000E-01   0.000    
    1499  0.9540      0.6364E-03 SPRIN         11   0.0%   32.75      0.5000E-03   0.000      -17.25       0.000      0.5000E-01   0.000    
    1500  0.9546      0.6364E-03 SPRIN         11   0.0%   32.74      0.5000E-03   0.000      -17.26       0.000      0.5000E-01   0.000    
    1501  0.9552      0.6364E-03 SPRIN         11   0.0%   32.73      0.5000E-03   0.000      -17.27       0.000      0.5000E-01   0.000    
    1502  0.9559      0.6364E-03 SPRIN         11   0.0%   32.72      0.5000E-03   0.000      -17.28       0.000      0.5000E-01   0.000    
    1503  0.9565      0.6364E-03 SPRIN         11   0.0%   32.71      0.5000E-03   0.000      -17.29       0.000      0.5000E-01   0.000    
    1504  0.9571      0.6364E-03 SPRIN         11   0.0%   32.70      0.5000E-03   0.000      -17.30       0.000      0.5000E-01   0.000    
    1505  0.9578      0.6364E-03 SPRIN         11   0.0%   32.69      0.5000E-03   0.000      -17.31       0.000      0.5000E-01   0.000    
    1506  0.9584      0.6364E-03 SPRIN         11   0.0%   32.68      0.5000E-03   0.000      -17.32       0.000      0.5000E-01   0.000    
    1507  0.9590      0.6364E-03 SPRIN         11   0.0%   32.66      0.5000E-03   0.000      -17.33       0.000      0.5000E-01   0.000    
    1508  0.9597      0.6364E-03 SPRIN         11   0.0%   32.65      0.5000E-03   0.000      -17.34       0.000      0.5000E-01   0.000    
    1509  0.9603      0.6364E-03 SPRIN         11   0.0%   32.64      0.5000E-03   0.000      -17.36       0.000      0.5000E-01   0.000    
    1510  0.9610      0.6364E-03 SPRIN         11  -0.0%   32.63      0.5000E-03   0.000      -17.37       0.000      0.5000E-01   0.000    
    1511  0.9616      0.6364E-03 SPRIN         11   0.0%   32.62      0.5000E-03   0.000      -17.38       0.000      0.5000E-01   0.000    
    1512  0.9622      0.6364E-03 SPRIN         11   0.0%   32.61      0.5000E-03   0.000      -17.39       0.000      0.5000E-01   0.000    
    1513  0.9629      0.6364E-03 SPRIN         11   0.0%   32.60      0.5000E-03   0.000      -17.40       0.000      0.5000E-01   0.000    
    1514  0.9635      0.6364E-03 SPRIN         11   0.0%   32.59      0.5000E-03   0.000      -17.41       0.000      0.5000E-01   0.000    
    1515  0.9641      0.6364E-03 SPRIN         11   0.0%   32.58      0.5000E-03   0.000      -17.42       0.000      0.5000E-01   0.000    
    1516  0.9648      0.6364E-03 SPRIN         11   0.0%   32.57      0.5000E-03   0.000      -17.43       0.000      0.5000E-01   0.000    
    1517  0.9654      0.6364E-03 SPRIN         11   0.0%   32.56      0.5000E-03   0.000      -17.44       0.000      0.5000E-01   0.000    
    1518  0.9660      0.6364E-03 SPRIN         11   0.0%   32.55      0.5000E-03   0.000      -17.45       0.000      0.5000E-01   0.000    
    1519  0.9667      0.6364E-03 SPRIN         11   0.0%   32.54      0.5000E-03   0.000      -17.46       0.000      0.5000E-01   0.000    
    1520  0.9673      0.6364E-03 SPRIN         11   0.0%   32.53      0.5000E-03   0.000      -17.47       0.000      0.5000E-01   0.000    
    1521  0.9680      0.6364E-03 SPRIN         11   0.0%   32.52      0.5000E-03   0.000      -17.48       0.000      0.5000E-01   0.000    
    1522  0.9686      0.6364E-03 SPRIN         11   0.0%   32.51      0.5000E-03   0.000      -17.49       0.000      0.5000E-01   0.000    
    1523  0.9692      0.6364E-03 SPRIN         11   0.0%   32.50      0.5000E-03   0.000      -17.50       0.000      0.5000E-01   0.000    
    1524  0.9699      0.6364E-03 SPRIN         11   0.0%   32.49      0.5000E-03   0.000      -17.51       0.000      0.5000E-01   0.000    
    1525  0.9705      0.6364E-03 SPRIN         11   0.0%   32.48      0.5000E-03   0.000      -17.52       0.000      0.5000E-01   0.000    
    1526  0.9711      0.6364E-03 SPRIN         11   0.0%   32.47      0.5000E-03   0.000      -17.53       0.000      0.5000E-01   0.000    
    1527  0.9718      0.6364E-03 SPRIN         11   0.0%   32.46      0.5000E-03   0.000      -17.54       0.000      0.5000E-01   0.000    
    1528  0.9724      0.6364E-03 SPRIN         11   0.0%   32.45      0.5000E-03   0.000      -17.55       0.000      0.5000E-01   0.000    
    1529  0.9730      0.6364E-03 SPRIN         11   0.0%   32.44      0.5000E-03   0.000      -17.56       0.000      0.5000E-01   0.000    
    1530  0.9737      0.6364E-03 SPRIN         11   0.0%   32.43      0.5000E-03   0.000      -17.57       0.000      0.5000E-01   0.000    
    1531  0.9743      0.6364E-03 SPRIN         11   0.0%   32.42      0.5000E-03   0.000      -17.58       0.000      0.5000E-01   0.000    
    1532  0.9750      0.6364E-03 SPRIN         11   0.0%   32.41      0.5000E-03   0.000      -17.59       0.000      0.5000E-01   0.000    
    1533  0.9756      0.6364E-03 SPRIN         11   0.0%   32.40      0.5000E-03   0.000      -17.60       0.000      0.5000E-01   0.000    
    1534  0.9762      0.6364E-03 SPRIN         11   0.0%   32.39      0.5000E-03   0.000      -17.61       0.000      0.5000E-01   0.000    
    1535  0.9769      0.6364E-03 SPRIN         11   0.0%   32.38      0.5000E-03   0.000      -17.62       0.000      0.5000E-01   0.000    
    1536  0.9775      0.6364E-03 SPRIN         11   0.0%   32.37      0.5000E-03   0.000      -17.63       0.000      0.5000E-01   0.000    
    1537  0.9781      0.6364E-03 SPRIN         11   0.0%   32.36      0.5000E-03   0.000      -17.64       0.000      0.5000E-01   0.000    
    1538  0.9788      0.6364E-03 SPRIN         11   0.0%   32.35      0.5000E-03   0.000      -17.65       0.000      0.5000E-01   0.000    
    1539  0.9794      0.6364E-03 SPRIN         11   0.0%   32.34      0.5000E-03   0.000      -17.66       0.000      0.5000E-01   0.000    
   CYCLE    TIME      TIME-STEP  ELEMENT          ERROR  I-ENERGY    K-ENERGY T  K-ENERGY R  EXT-WORK     MAS.ERR     TOTAL MASS  MASS ADDED
    1540  0.9800      0.6364E-03 SPRIN         11   0.0%   32.33      0.5000E-03   0.000      -17.67       0.000      0.5000E-01   0.000    
    1541  0.9807      0.6364E-03 SPRIN         11   0.0%   32.32      0.5000E-03   0.000      -17.68       0.000      0.5000E-01   0.000    
    1542  0.9813      0.6364E-03 SPRIN         11   0.0%   32.31      0.5000E-03   0.000      -17.69       0.000      0.5000E-01   0.000    
    1543  0.9820      0.6364E-03 SPRIN         11   0.0%   32.30      0.5000E-03   0.000      -17.70       0.000      0.5000E-01   0.000    
    1544  0.9826      0.6364E-03 SPRIN         11   0.0%   32.29      0.5000E-03   0.000      -17.71       0.000      0.5000E-01   0.000    
    1545  0.9832      0.6364E-03 SPRIN         11  -0.0%   32.28      0.5000E-03   0.000      -17.72       0.000      0.5000E-01   0.000    
    1546  0.9839      0.6364E-03 SPRIN         11  -0.0%   32.26      0.5000E-03   0.000      -17.73       0.000      0.5000E-01   0.000    
    1547  0.9845      0.6364E-03 SPRIN         11  -0.0%   32.25      0.5000E-03   0.000      -17.74       0.000      0.5000E-01   0.000    
    1548  0.9851      0.6364E-03 SPRIN         11  -0.0%   32.24      0.5000E-03   0.000      -17.75       0.000      0.5000E-01   0.000    
    1549  0.9858      0.6364E-03 SPRIN         11  -0.0%   32.23      0.5000E-03   0.000      -17.77       0.000      0.5000E-01   0.000    
    1550  0.9864      0.6364E-03 SPRIN         11  -0.0%   32.22      0.5000E-03   0.000      -17.78       0.000      0.5000E-01   0.000    
    1551  0.9871      0.6364E-03 SPRIN         11  -0.0%   32.21      0.5000E-03   0.000      -17.79       0.000      0.5000E-01   0.000    
    1552  0.9877      0.6364E-03 SPRIN         11   0.0%   32.20      0.5000E-03   0.000      -17.80       0.000      0.5000E-01   0.000    
    1553  0.9883      0.6364E-03 SPRIN         11   0.0%   32.19      0.5000E-03   0.000      -17.81       0.000      0.5000E-01   0.000    
    1554  0.9890      0.6364E-03 SPRIN         11   0.0%   32.18      0.5000E-03   0.000      -17.82       0.000      0.5000E-01   0.000    
    1555  0.9896      0.6364E-03 SPRIN         11   0.0%   32.17      0.5000E-03   0.000      -17.83       0.000      0.5000E-01   0.000    
    1556  0.9902      0.6364E-03 SPRIN         11   0.0%   32.16      0.5000E-03   0.000      -17.84       0.000      0.5000E-01   0.000    
    1557  0.9909      0.6364E-03 SPRIN         11   0.0%   32.15      0.5000E-03   0.000      -17.85       0.000      0.5000E-01   0.000    
    1558  0.9915      0.6364E-03 SPRIN         11   0.0%   32.14      0.5000E-03   0.000      -17.86       0.000      0.5000E-01   0.000    
    1559  0.9921      0.6364E-03 SPRIN         11   0.0%   32.13      0.5000E-03   0.000      -17.87       0.000      0.5000E-01   0.000    
    1560  0.9928      0.6364E-03 SPRIN         11   0.0%   32.12      0.5000E-03   0.000      -17.88       0.000      0.5000E-01   0.000    
    1561  0.9934      0.6364E-03 SPRIN         11  -0.0%   32.11      0.5000E-03   0.000      -17.89       0.000      0.5000E-01   0.000    
    1562  0.9941      0.6364E-03 SPRIN         11  -0.0%   32.10      0.5000E-03   0.000      -17.90       0.000      0.5000E-01   0.000    
    1563  0.9947      0.6364E-03 SPRIN         11  -0.0%   32.09      0.5000E-03   0.000      -17.91       0.000      0.5000E-01   0.000    
    1564  0.9953      0.6364E-03 SPRIN         11  -0.0%   32.08      0.5000E-03   0.000      -17.92       0.000      0.5000E-01   0.000    
    1565  0.9960      0.6364E-03 SPRIN         11  -0.0%   32.07      0.5000E-03   0.000      -17.93       0.000      0.5000E-01   0.000    
    1566  0.9966      0.6364E-03 SPRIN         11  -0.0%   32.06      0.5000E-03   0.000      -17.94       0.000      0.5000E-01   0.000    
    1567  0.9972      0.6364E-03 SPRIN         11  -0.0%   32.05      0.5000E-03   0.000      -17.95       0.000      0.5000E-01   0.000    
    1568  0.9979      0.6364E-03 SPRIN         11  -0.0%   32.04      0.5000E-03   0.000      -17.96       0.000      0.5000E-01   0.000    
    1569  0.9985      0.6364E-03 SPRIN         11  -0.0%   32.03      0.5000E-03   0.000      -17.97       0.000      0.5000E-01   0.000    
    1570  0.9991      0.6364E-03 SPRIN         11   0.0%   32.02      0.5000E-03   0.000      -17.98       0.000      0.5000E-01   0.000    
    1571  0.9998      0.6364E-03 SPRIN         11  -0.0%   32.01      0.1757E-03   0.000      -17.99       0.000      0.5000E-01   0.000    
    1572   1.000      0.6364E-03 SPRIN         11  -0.0%   32.01      0.5191E-06   0.000      -17.99       0.000      0.5000E-01   0.000    
     ANIMATION FILE: SPR_PRE_2FLAGA006 WRITTEN
    1573   1.001      0.6364E-03 SPRIN         11  -0.0%   32.01      0.3125E-04   0.000      -17.99       0.000      0.5000E-01   0.000    
    1574   1.002      0.6364E-03 SPRIN         11  -0.0%   32.01      0.3125E-04   0.000      -17.99       0.000      0.5000E-01   0.000    
    1575   1.002      0.6364E-03 SPRIN         11  -0.0%   32.02      0.3125E-04   0.000      -17.98       0.000      0.5000E-01   0.000    
    1576   1.003      0.6364E-03 SPRIN         11  -0.0%   32.02      0.3125E-04   0.000      -17.98       0.000      0.5000E-01   0.000    
    1577   1.004      0.6364E-03 SPRIN         11   0.0%   32.02      0.3125E-04   0.000      -17.98       0.000      0.5000E-01   0.000    
    1578   1.004      0.6364E-03 SPRIN         11   0.0%   32.03      0.3125E-04   0.000      -17.97       0.000      0.5000E-01   0.000    
    1579   1.005      0.6364E-03 SPRIN         11   0.0%   32.03      0.3125E-04   0.000      -17.97       0.000      0.5000E-01   0.000    
    1580   1.006      0.6364E-03 SPRIN         11   0.0%   32.03      0.3125E-04   0.000      -17.97       0.000      0.5000E-01   0.000    
    1581   1.006      0.6364E-03 SPRIN         11   0.0%   32.04      0.3125E-04   0.000      -17.96       0.000      0.5000E-01   0.000    
    1582   1.007      0.6364E-03 SPRIN         11   0.0%   32.04      0.3125E-04   0.000      -17.96       0.000      0.5000E-01   0.000    
    1583   1.007      0.6364E-03 SPRIN         11   0.0%   32.04      0.3125E-04   0.000      -17.96       0.000      0.5000E-01   0.000    
    1584   1.008      0.6364E-03 SPRIN         11   0.0%   32.05      0.3125E-04   0.000      -17.95       0.000      0.5000E-01   0.000    
    1585   1.009      0.6364E-03 SPRIN         11   0.0%   32.05      0.3125E-04   0.000      -17.95       0.000      0.5000E-01   0.000    
    1586   1.009      0.6364E-03 SPRIN         11   0.0%   32.05      0.3125E-04   0.000      -17.95       0.000      0.5000E-01   0.000    
    1587   1.010      0.6364E-03 SPRIN         11   0.0%   32.06      0.3125E-04   0.000      -17.94       0.000      0.5000E-01   0.000    
    1588   1.011      0.6364E-03 SPRIN         11   0.0%   32.06      0.3125E-04   0.000      -17.94       0.000      0.5000E-01   0.000    
    1589   1.011      0.6364E-03 SPRIN         11   0.0%   32.07      0.3125E-04   0.000      -17.93       0.000      0.5000E-01   0.000    
    1590   1.012      0.6364E-03 SPRIN         11   0.0%   32.07      0.3125E-04   0.000      -17.93       0.000      0.5000E-01   0.000    
    1591   1.013      0.6364E-03 SPRIN         11   0.0%   32.07      0.3125E-04   0.000      -17.93       0.000      0.5000E-01   0.000    
    1592   1.013      0.6364E-03 SPRIN         11   0.0%   32.08      0.3125E-04   0.000      -17.92       0.000      0.5000E-01   0.000    
    1593   1.014      0.6364E-03 SPRIN         11   0.0%   32.08      0.3125E-04   0.000      -17.92       0.000      0.5000E-01   0.000    
    1594   1.014      0.6364E-03 SPRIN         11   0.0%   32.09      0.3125E-04   0.000      -17.91       0.000      0.5000E-01   0.000    
   CYCLE    TIME      TIME-STEP  ELEMENT          ERROR  I-ENERGY    K-ENERGY T  K-ENERGY R  EXT-WORK     MAS.ERR     TOTAL MASS  MASS ADDED
    1595   1.015      0.6364E-03 SPRIN         11   0.0%   32.09      0.3125E-04   0.000      -17.91       0.000      0.5000E-01   0.000    
    1596   1.016      0.6364E-03 SPRIN         11   0.0%   32.10      0.3125E-04   0.000      -17.90       0.000      0.5000E-01   0.000    
    1597   1.016      0.6364E-03 SPRIN         11   0.0%   32.10      0.3125E-04   0.000      -17.90       0.000      0.5000E-01   0.000    
    1598   1.017      0.6364E-03 SPRIN         11   0.0%   32.11      0.3125E-04   0.000      -17.89       0.000      0.5000E-01   0.000    
    1599   1.018      0.6364E-03 SPRIN         11   0.0%   32.11      0.3125E-04   0.000      -17.89       0.000      0.5000E-01   0.000    
    1600   1.018      0.6364E-03 SPRIN         11   0.0%   32.12      0.3125E-04   0.000      -17.88       0.000      0.5000E-01   0.000    
    1601   1.019      0.6364E-03 SPRIN         11   0.0%   32.12      0.3125E-04   0.000      -17.88       0.000      0.5000E-01   0.000    
    1602   1.020      0.6364E-03 SPRIN         11   0.0%   32.13      0.3125E-04   0.000      -17.87       0.000      0.5000E-01   0.000    
    1603   1.020      0.6364E-03 SPRIN         11   0.0%   32.14      0.3125E-04   0.000      -17.86       0.000      0.5000E-01   0.000    
    1604   1.021      0.6364E-03 SPRIN         11   0.0%   32.14      0.3125E-04   0.000      -17.86       0.000      0.5000E-01   0.000    
    1605   1.021      0.6364E-03 SPRIN         11   0.0%   32.15      0.3125E-04   0.000      -17.85       0.000      0.5000E-01   0.000    
    1606   1.022      0.6364E-03 SPRIN         11   0.0%   32.15      0.3125E-04   0.000      -17.85       0.000      0.5000E-01   0.000    
    1607   1.023      0.6364E-03 SPRIN         11   0.0%   32.16      0.3125E-04   0.000      -17.84       0.000      0.5000E-01   0.000    
    1608   1.023      0.6364E-03 SPRIN         11   0.0%   32.17      0.3125E-04   0.000      -17.83       0.000      0.5000E-01   0.000    
    1609   1.024      0.6364E-03 SPRIN         11   0.0%   32.17      0.3125E-04   0.000      -17.83       0.000      0.5000E-01   0.000    
    1610   1.025      0.6364E-03 SPRIN         11   0.0%   32.18      0.3125E-04   0.000      -17.82       0.000      0.5000E-01   0.000    
    1611   1.025      0.6364E-03 SPRIN         11   0.0%   32.18      0.3125E-04   0.000      -17.82       0.000      0.5000E-01   0.000    
    1612   1.026      0.6364E-03 SPRIN         11   0.0%   32.19      0.3125E-04   0.000      -17.81       0.000      0.5000E-01   0.000    
    1613   1.027      0.6364E-03 SPRIN         11   0.0%   32.20      0.3125E-04   0.000      -17.80       0.000      0.5000E-01   0.000    
    1614   1.027      0.6364E-03 SPRIN         11   0.0%   32.20      0.3125E-04   0.000      -17.80       0.000      0.5000E-01   0.000    
    1615   1.028      0.6364E-03 SPRIN         11   0.0%   32.21      0.3125E-04   0.000      -17.79       0.000      0.5000E-01   0.000    
    1616   1.028      0.6364E-03 SPRIN         11   0.0%   32.22      0.3125E-04   0.000      -17.78       0.000      0.5000E-01   0.000    
    1617   1.029      0.6364E-03 SPRIN         11   0.0%   32.23      0.3125E-04   0.000      -17.77       0.000      0.5000E-01   0.000    
    1618   1.030      0.6364E-03 SPRIN         11   0.0%   32.23      0.3125E-04   0.000      -17.77       0.000      0.5000E-01   0.000    
    1619   1.030      0.6364E-03 SPRIN         11   0.0%   32.24      0.3125E-04   0.000      -17.76       0.000      0.5000E-01   0.000    
    1620   1.031      0.6364E-03 SPRIN         11   0.0%   32.25      0.3125E-04   0.000      -17.75       0.000      0.5000E-01   0.000    
    1621   1.032      0.6364E-03 SPRIN         11   0.0%   32.25      0.3125E-04   0.000      -17.75       0.000      0.5000E-01   0.000    
    1622   1.032      0.6364E-03 SPRIN         11  -0.0%   32.26      0.3125E-04   0.000      -17.74       0.000      0.5000E-01   0.000    
    1623   1.033      0.6364E-03 SPRIN         11  -0.0%   32.27      0.3125E-04   0.000      -17.73       0.000      0.5000E-01   0.000    
    1624   1.034      0.6364E-03 SPRIN         11  -0.0%   32.28      0.3125E-04   0.000      -17.72       0.000      0.5000E-01   0.000    
    1625   1.034      0.6364E-03 SPRIN         11  -0.0%   32.29      0.3125E-04   0.000      -17.71       0.000      0.5000E-01   0.000    
    1626   1.035      0.6364E-03 SPRIN         11  -0.0%   32.29      0.3125E-04   0.000      -17.71       0.000      0.5000E-01   0.000    
    1627   1.035      0.6364E-03 SPRIN         11  -0.0%   32.30      0.3125E-04   0.000      -17.70       0.000      0.5000E-01   0.000    
    1628   1.036      0.6364E-03 SPRIN         11  -0.0%   32.31      0.3125E-04   0.000      -17.69       0.000      0.5000E-01   0.000    
    1629   1.037      0.6364E-03 SPRIN         11  -0.0%   32.32      0.3125E-04   0.000      -17.68       0.000      0.5000E-01   0.000    
    1630   1.037      0.6364E-03 SPRIN         11  -0.0%   32.33      0.3125E-04   0.000      -17.67       0.000      0.5000E-01   0.000    
    1631   1.038      0.6364E-03 SPRIN         11  -0.0%   32.33      0.3125E-04   0.000      -17.67       0.000      0.5000E-01   0.000    
    1632   1.039      0.6364E-03 SPRIN         11  -0.0%   32.34      0.3125E-04   0.000      -17.66       0.000      0.5000E-01   0.000    
    1633   1.039      0.6364E-03 SPRIN         11  -0.0%   32.35      0.3125E-04   0.000      -17.65       0.000      0.5000E-01   0.000    
    1634   1.040      0.6364E-03 SPRIN         11  -0.0%   32.36      0.3125E-04   0.000      -17.64       0.000      0.5000E-01   0.000    
    1635   1.041      0.6364E-03 SPRIN         11  -0.0%   32.37      0.3125E-04   0.000      -17.63       0.000      0.5000E-01   0.000    
    1636   1.041      0.6364E-03 SPRIN         11  -0.0%   32.38      0.3125E-04   0.000      -17.62       0.000      0.5000E-01   0.000    
    1637   1.042      0.6364E-03 SPRIN         11  -0.0%   32.39      0.3125E-04   0.000      -17.61       0.000      0.5000E-01   0.000    
    1638   1.042      0.6364E-03 SPRIN         11  -0.0%   32.40      0.3125E-04   0.000      -17.60       0.000      0.5000E-01   0.000    
    1639   1.043      0.6364E-03 SPRIN         11  -0.0%   32.41      0.3125E-04   0.000      -17.59       0.000      0.5000E-01   0.000    
    1640   1.044      0.6364E-03 SPRIN         11  -0.0%   32.42      0.3125E-04   0.000      -17.58       0.000      0.5000E-01   0.000    
    1641   1.044      0.6364E-03 SPRIN         11  -0.0%   32.42      0.3125E-04   0.000      -17.58       0.000      0.5000E-01   0.000    
    1642   1.045      0.6364E-03 SPRIN         11  -0.0%   32.43      0.3125E-04   0.000      -17.57       0.000      0.5000E-01   0.000    
    1643   1.046      0.6364E-03 SPRIN         11  -0.0%   32.44      0.3125E-04   0.000      -17.56       0.000      0.5000E-01   0.000    
    1644   1.046      0.6364E-03 SPRIN         11  -0.0%   32.45      0.3125E-04   0.000      -17.55       0.000      0.5000E-01   0.000    
    1645   1.047      0.6364E-03 SPRIN         11  -0.0%   32.46      0.3125E-04   0.000      -17.54       0.000      0.5000E-01   0.000    
    1646   1.048      0.6364E-03 SPRIN         11  -0.0%   32.47      0.3125E-04   0.000      -17.53       0.000      0.5000E-01   0.000    
    1647   1.048      0.6364E-03 SPRIN         11  -0.0%   32.48      0.3125E-04   0.000      -17.52       0.000      0.5000E-01   0.000    
    1648   1.049      0.6364E-03 SPRIN         11  -0.0%   32.49      0.3125E-04   0.000      -17.51       0.000      0.5000E-01   0.000    
    1649   1.049      0.6364E-03 SPRIN         11  -0.0%   32.50      0.3125E-04   0.000      -17.50       0.000      0.5000E-01   0.000    
   CYCLE    TIME      TIME-STEP  ELEMENT          ERROR  I-ENERGY    K-ENERGY T  K-ENERGY R  EXT-WORK     MAS.ERR     TOTAL MASS  MASS ADDED
    1650   1.050      0.6364E-03 SPRIN         11  -0.0%   32.51      0.3125E-04   0.000      -17.49       0.000      0.5000E-01   0.000    
    1651   1.051      0.6364E-03 SPRIN         11  -0.0%   32.53      0.3125E-04   0.000      -17.47       0.000      0.5000E-01   0.000    
    1652   1.051      0.6364E-03 SPRIN         11  -0.0%   32.54      0.3125E-04   0.000      -17.46       0.000      0.5000E-01   0.000    
    1653   1.052      0.6364E-03 SPRIN         11  -0.0%   32.55      0.3125E-04   0.000      -17.45       0.000      0.5000E-01   0.000    
    1654   1.053      0.6364E-03 SPRIN         11  -0.0%   32.56      0.3125E-04   0.000      -17.44       0.000      0.5000E-01   0.000    
    1655   1.053      0.6364E-03 SPRIN         11  -0.0%   32.57      0.3125E-04   0.000      -17.43       0.000      0.5000E-01   0.000    
    1656   1.054      0.6364E-03 SPRIN         11  -0.0%   32.58      0.3125E-04   0.000      -17.42       0.000      0.5000E-01   0.000    
    1657   1.055      0.6364E-03 SPRIN         11  -0.0%   32.59      0.3125E-04   0.000      -17.41       0.000      0.5000E-01   0.000    
    1658   1.055      0.6364E-03 SPRIN         11  -0.0%   32.60      0.3125E-04   0.000      -17.40       0.000      0.5000E-01   0.000    
    1659   1.056      0.6364E-03 SPRIN         11  -0.0%   32.61      0.3125E-04   0.000      -17.39       0.000      0.5000E-01   0.000    
    1660   1.056      0.6364E-03 SPRIN         11  -0.0%   32.62      0.3125E-04   0.000      -17.38       0.000      0.5000E-01   0.000    
    1661   1.057      0.6364E-03 SPRIN         11  -0.0%   32.64      0.3125E-04   0.000      -17.36       0.000      0.5000E-01   0.000    
    1662   1.058      0.6364E-03 SPRIN         11  -0.0%   32.65      0.3125E-04   0.000      -17.35       0.000      0.5000E-01   0.000    
    1663   1.058      0.6364E-03 SPRIN         11  -0.0%   32.66      0.3125E-04   0.000      -17.34       0.000      0.5000E-01   0.000    
    1664   1.059      0.6364E-03 SPRIN         11  -0.0%   32.67      0.3125E-04   0.000      -17.33       0.000      0.5000E-01   0.000    
    1665   1.060      0.6364E-03 SPRIN         11  -0.0%   32.68      0.3125E-04   0.000      -17.32       0.000      0.5000E-01   0.000    
    1666   1.060      0.6364E-03 SPRIN         11  -0.0%   32.69      0.3125E-04   0.000      -17.31       0.000      0.5000E-01   0.000    
    1667   1.061      0.6364E-03 SPRIN         11  -0.0%   32.71      0.3125E-04   0.000      -17.29       0.000      0.5000E-01   0.000    
    1668   1.062      0.6364E-03 SPRIN         11  -0.0%   32.72      0.3125E-04   0.000      -17.28       0.000      0.5000E-01   0.000    
    1669   1.062      0.6364E-03 SPRIN         11  -0.0%   32.73      0.3125E-04   0.000      -17.27       0.000      0.5000E-01   0.000    
    1670   1.063      0.6364E-03 SPRIN         11  -0.0%   32.74      0.3125E-04   0.000      -17.26       0.000      0.5000E-01   0.000    
    1671   1.063      0.6364E-03 SPRIN         11  -0.0%   32.76      0.3125E-04   0.000      -17.24       0.000      0.5000E-01   0.000    
    1672   1.064      0.6364E-03 SPRIN         11  -0.0%   32.77      0.3125E-04   0.000      -17.23       0.000      0.5000E-01   0.000    
    1673   1.065      0.6364E-03 SPRIN         11  -0.0%   32.78      0.3125E-04   0.000      -17.22       0.000      0.5000E-01   0.000    
    1674   1.065      0.6364E-03 SPRIN         11  -0.0%   32.79      0.3125E-04   0.000      -17.21       0.000      0.5000E-01   0.000    
    1675   1.066      0.6364E-03 SPRIN         11  -0.0%   32.81      0.3125E-04   0.000      -17.19       0.000      0.5000E-01   0.000    
    1676   1.067      0.6364E-03 SPRIN         11  -0.0%   32.82      0.3125E-04   0.000      -17.18       0.000      0.5000E-01   0.000    
    1677   1.067      0.6364E-03 SPRIN         11   0.0%   32.83      0.3125E-04   0.000      -17.17       0.000      0.5000E-01   0.000    
    1678   1.068      0.6364E-03 SPRIN         11   0.0%   32.85      0.3125E-04   0.000      -17.15       0.000      0.5000E-01   0.000    
    1679   1.069      0.6364E-03 SPRIN         11   0.0%   32.86      0.3125E-04   0.000      -17.14       0.000      0.5000E-01   0.000    
    1680   1.069      0.6364E-03 SPRIN         11   0.0%   32.87      0.3125E-04   0.000      -17.13       0.000      0.5000E-01   0.000    
    1681   1.070      0.6364E-03 SPRIN         11   0.0%   32.89      0.3125E-04   0.000      -17.11       0.000      0.5000E-01   0.000    
    1682   1.070      0.6364E-03 SPRIN         11   0.0%   32.90      0.3125E-04   0.000      -17.10       0.000      0.5000E-01   0.000    
    1683   1.071      0.6364E-03 SPRIN         11   0.0%   32.91      0.3125E-04   0.000      -17.09       0.000      0.5000E-01   0.000    
    1684   1.072      0.6364E-03 SPRIN         11   0.0%   32.93      0.3125E-04   0.000      -17.07       0.000      0.5000E-01   0.000    
    1685   1.072      0.6364E-03 SPRIN         11   0.0%   32.94      0.3125E-04   0.000      -17.06       0.000      0.5000E-01   0.000    
    1686   1.073      0.6364E-03 SPRIN         11   0.0%   32.96      0.3125E-04   0.000      -17.04       0.000      0.5000E-01   0.000    
    1687   1.074      0.6364E-03 SPRIN         11   0.0%   32.97      0.3125E-04   0.000      -17.03       0.000      0.5000E-01   0.000    
    1688   1.074      0.6364E-03 SPRIN         11   0.0%   32.98      0.3125E-04   0.000      -17.02       0.000      0.5000E-01   0.000    
    1689   1.075      0.6364E-03 SPRIN         11   0.0%   33.00      0.3125E-04   0.000      -17.00       0.000      0.5000E-01   0.000    
    1690   1.076      0.6364E-03 SPRIN         11   0.0%   33.01      0.3125E-04   0.000      -16.99       0.000      0.5000E-01   0.000    
    1691   1.076      0.6364E-03 SPRIN         11   0.0%   33.03      0.3125E-04   0.000      -16.97       0.000      0.5000E-01   0.000    
    1692   1.077      0.6364E-03 SPRIN         11   0.0%   33.04      0.3125E-04   0.000      -16.96       0.000      0.5000E-01   0.000    
    1693   1.077      0.6364E-03 SPRIN         11   0.0%   33.06      0.3125E-04   0.000      -16.94       0.000      0.5000E-01   0.000    
    1694   1.078      0.6364E-03 SPRIN         11   0.0%   33.07      0.3125E-04   0.000      -16.93       0.000      0.5000E-01   0.000    
    1695   1.079      0.6364E-03 SPRIN         11   0.0%   33.09      0.3125E-04   0.000      -16.91       0.000      0.5000E-01   0.000    
    1696   1.079      0.6364E-03 SPRIN         11   0.0%   33.10      0.3125E-04   0.000      -16.90       0.000      0.5000E-01   0.000    
    1697   1.080      0.6364E-03 SPRIN         11   0.0%   33.12      0.3125E-04   0.000      -16.88       0.000      0.5000E-01   0.000    
    1698   1.081      0.6364E-03 SPRIN         11   0.0%   33.13      0.3125E-04   0.000      -16.87       0.000      0.5000E-01   0.000    
    1699   1.081      0.6364E-03 SPRIN         11   0.0%   33.15      0.3125E-04   0.000      -16.85       0.000      0.5000E-01   0.000    
    1700   1.082      0.6364E-03 SPRIN         11   0.0%   33.16      0.3125E-04   0.000      -16.84       0.000      0.5000E-01   0.000    
    1701   1.083      0.6364E-03 SPRIN         11   0.0%   33.18      0.3125E-04   0.000      -16.82       0.000      0.5000E-01   0.000    
    1702   1.083      0.6364E-03 SPRIN         11   0.0%   33.19      0.3125E-04   0.000      -16.81       0.000      0.5000E-01   0.000    
    1703   1.084      0.6364E-03 SPRIN         11   0.0%   33.21      0.3125E-04   0.000      -16.79       0.000      0.5000E-01   0.000    
    1704   1.084      0.6364E-03 SPRIN         11   0.0%   33.23      0.3125E-04   0.000      -16.77       0.000      0.5000E-01   0.000    
   CYCLE    TIME      TIME-STEP  ELEMENT          ERROR  I-ENERGY    K-ENERGY T  K-ENERGY R  EXT-WORK     MAS.ERR     TOTAL MASS  MASS ADDED
    1705   1.085      0.6364E-03 SPRIN         11   0.0%   33.24      0.3125E-04   0.000      -16.76       0.000      0.5000E-01   0.000    
    1706   1.086      0.6364E-03 SPRIN         11   0.0%   33.26      0.3125E-04   0.000      -16.74       0.000      0.5000E-01   0.000    
    1707   1.086      0.6364E-03 SPRIN         11   0.0%   33.27      0.3125E-04   0.000      -16.73       0.000      0.5000E-01   0.000    
    1708   1.087      0.6364E-03 SPRIN         11   0.0%   33.29      0.3125E-04   0.000      -16.71       0.000      0.5000E-01   0.000    
    1709   1.088      0.6364E-03 SPRIN         11   0.0%   33.31      0.3125E-04   0.000      -16.69       0.000      0.5000E-01   0.000    
    1710   1.088      0.6364E-03 SPRIN         11   0.0%   33.32      0.3125E-04   0.000      -16.68       0.000      0.5000E-01   0.000    
    1711   1.089      0.6364E-03 SPRIN         11   0.0%   33.34      0.3125E-04   0.000      -16.66       0.000      0.5000E-01   0.000    
    1712   1.090      0.6364E-03 SPRIN         11   0.0%   33.36      0.3125E-04   0.000      -16.64       0.000      0.5000E-01   0.000    
    1713   1.090      0.6364E-03 SPRIN         11   0.0%   33.37      0.3125E-04   0.000      -16.63       0.000      0.5000E-01   0.000    
    1714   1.091      0.6364E-03 SPRIN         11   0.0%   33.39      0.3125E-04   0.000      -16.61       0.000      0.5000E-01   0.000    
    1715   1.091      0.6364E-03 SPRIN         11   0.0%   33.41      0.3125E-04   0.000      -16.59       0.000      0.5000E-01   0.000    
    1716   1.092      0.6364E-03 SPRIN         11   0.0%   33.42      0.3125E-04   0.000      -16.58       0.000      0.5000E-01   0.000    
    1717   1.093      0.6364E-03 SPRIN         11   0.0%   33.44      0.3125E-04   0.000      -16.56       0.000      0.5000E-01   0.000    
    1718   1.093      0.6364E-03 SPRIN         11   0.0%   33.46      0.3125E-04   0.000      -16.54       0.000      0.5000E-01   0.000    
    1719   1.094      0.6364E-03 SPRIN         11   0.0%   33.48      0.3125E-04   0.000      -16.52       0.000      0.5000E-01   0.000    
    1720   1.095      0.6364E-03 SPRIN         11   0.0%   33.49      0.3125E-04   0.000      -16.51       0.000      0.5000E-01   0.000    
    1721   1.095      0.6364E-03 SPRIN         11   0.0%   33.51      0.3125E-04   0.000      -16.49       0.000      0.5000E-01   0.000    
    1722   1.096      0.6364E-03 SPRIN         11   0.0%   33.53      0.3125E-04   0.000      -16.47       0.000      0.5000E-01   0.000    
    1723   1.097      0.6364E-03 SPRIN         11   0.0%   33.55      0.3125E-04   0.000      -16.45       0.000      0.5000E-01   0.000    
    1724   1.097      0.6364E-03 SPRIN         11   0.0%   33.56      0.3125E-04   0.000      -16.44       0.000      0.5000E-01   0.000    
    1725   1.098      0.6364E-03 SPRIN         11   0.0%   33.58      0.3125E-04   0.000      -16.42       0.000      0.5000E-01   0.000    
    1726   1.098      0.6364E-03 SPRIN         11   0.0%   33.60      0.3125E-04   0.000      -16.40       0.000      0.5000E-01   0.000    
    1727   1.099      0.6364E-03 SPRIN         11   0.0%   33.62      0.3125E-04   0.000      -16.38       0.000      0.5000E-01   0.000    
    1728   1.100      0.6364E-03 SPRIN         11   0.0%   33.64      0.3125E-04   0.000      -16.36       0.000      0.5000E-01   0.000    
    1729   1.100      0.6364E-03 SPRIN         11   0.0%   33.66      0.3125E-04   0.000      -16.34       0.000      0.5000E-01   0.000    
    1730   1.101      0.6364E-03 SPRIN         11   0.0%   33.67      0.3125E-04   0.000      -16.33       0.000      0.5000E-01   0.000    
    1731   1.102      0.6364E-03 SPRIN         11   0.0%   33.69      0.3125E-04   0.000      -16.31       0.000      0.5000E-01   0.000    
    1732   1.102      0.6364E-03 SPRIN         11   0.0%   33.71      0.3125E-04   0.000      -16.29       0.000      0.5000E-01   0.000    
    1733   1.103      0.6364E-03 SPRIN         11   0.0%   33.73      0.3125E-04   0.000      -16.27       0.000      0.5000E-01   0.000    
    1734   1.104      0.6364E-03 SPRIN         11   0.0%   33.75      0.3125E-04   0.000      -16.25       0.000      0.5000E-01   0.000    
    1735   1.104      0.6364E-03 SPRIN         11   0.0%   33.77      0.3125E-04   0.000      -16.23       0.000      0.5000E-01   0.000    
    1736   1.105      0.6364E-03 SPRIN         11   0.0%   33.79      0.3125E-04   0.000      -16.21       0.000      0.5000E-01   0.000    
    1737   1.105      0.6364E-03 SPRIN         11   0.0%   33.81      0.3125E-04   0.000      -16.19       0.000      0.5000E-01   0.000    
    1738   1.106      0.6364E-03 SPRIN         11   0.0%   33.83      0.3125E-04   0.000      -16.17       0.000      0.5000E-01   0.000    
    1739   1.107      0.6364E-03 SPRIN         11   0.0%   33.85      0.3125E-04   0.000      -16.15       0.000      0.5000E-01   0.000    
    1740   1.107      0.6364E-03 SPRIN         11   0.0%   33.86      0.3125E-04   0.000      -16.14       0.000      0.5000E-01   0.000    
    1741   1.108      0.6364E-03 SPRIN         11   0.0%   33.88      0.3125E-04   0.000      -16.12       0.000      0.5000E-01   0.000    
    1742   1.109      0.6364E-03 SPRIN         11   0.0%   33.90      0.3125E-04   0.000      -16.10       0.000      0.5000E-01   0.000    
    1743   1.109      0.6364E-03 SPRIN         11   0.0%   33.92      0.3125E-04   0.000      -16.08       0.000      0.5000E-01   0.000    
    1744   1.110      0.6364E-03 SPRIN         11   0.0%   33.94      0.3125E-04   0.000      -16.06       0.000      0.5000E-01   0.000    
    1745   1.111      0.6364E-03 SPRIN         11   0.0%   33.96      0.3125E-04   0.000      -16.04       0.000      0.5000E-01   0.000    
    1746   1.111      0.6364E-03 SPRIN         11   0.0%   33.98      0.3125E-04   0.000      -16.02       0.000      0.5000E-01   0.000    
    1747   1.112      0.6364E-03 SPRIN         11   0.0%   34.00      0.3125E-04   0.000      -16.00       0.000      0.5000E-01   0.000    
    1748   1.112      0.6364E-03 SPRIN         11   0.0%   34.02      0.3125E-04   0.000      -15.98       0.000      0.5000E-01   0.000    
    1749   1.113      0.6364E-03 SPRIN         11   0.0%   34.04      0.3125E-04   0.000      -15.96       0.000      0.5000E-01   0.000    
    1750   1.114      0.6364E-03 SPRIN         11   0.0%   34.07      0.3125E-04   0.000      -15.93       0.000      0.5000E-01   0.000    
    1751   1.114      0.6364E-03 SPRIN         11   0.0%   34.09      0.3125E-04   0.000      -15.91       0.000      0.5000E-01   0.000    
    1752   1.115      0.6364E-03 SPRIN         11   0.0%   34.11      0.3125E-04   0.000      -15.89       0.000      0.5000E-01   0.000    
    1753   1.116      0.6364E-03 SPRIN         11   0.0%   34.13      0.3125E-04   0.000      -15.87       0.000      0.5000E-01   0.000    
    1754   1.116      0.6364E-03 SPRIN         11   0.0%   34.15      0.3125E-04   0.000      -15.85       0.000      0.5000E-01   0.000    
    1755   1.117      0.6364E-03 SPRIN         11   0.0%   34.17      0.3125E-04   0.000      -15.83       0.000      0.5000E-01   0.000    
    1756   1.118      0.6364E-03 SPRIN         11   0.0%   34.19      0.3125E-04   0.000      -15.81       0.000      0.5000E-01   0.000    
    1757   1.118      0.6364E-03 SPRIN         11   0.0%   34.21      0.3125E-04   0.000      -15.79       0.000      0.5000E-01   0.000    
    1758   1.119      0.6364E-03 SPRIN         11   0.0%   34.23      0.3125E-04   0.000      -15.77       0.000      0.5000E-01   0.000    
    1759   1.119      0.6364E-03 SPRIN         11   0.0%   34.25      0.3125E-04   0.000      -15.75       0.000      0.5000E-01   0.000    
   CYCLE    TIME      TIME-STEP  ELEMENT          ERROR  I-ENERGY    K-ENERGY T  K-ENERGY R  EXT-WORK     MAS.ERR     TOTAL MASS  MASS ADDED
    1760   1.120      0.6364E-03 SPRIN         11   0.0%   34.28      0.3125E-04   0.000      -15.72       0.000      0.5000E-01   0.000    
    1761   1.121      0.6364E-03 SPRIN         11   0.0%   34.30      0.3125E-04   0.000      -15.70       0.000      0.5000E-01   0.000    
    1762   1.121      0.6364E-03 SPRIN         11   0.0%   34.32      0.3125E-04   0.000      -15.68       0.000      0.5000E-01   0.000    
    1763   1.122      0.6364E-03 SPRIN         11   0.0%   34.34      0.3125E-04   0.000      -15.66       0.000      0.5000E-01   0.000    
    1764   1.123      0.6364E-03 SPRIN         11   0.0%   34.36      0.3125E-04   0.000      -15.64       0.000      0.5000E-01   0.000    
    1765   1.123      0.6364E-03 SPRIN         11   0.0%   34.39      0.3125E-04   0.000      -15.61       0.000      0.5000E-01   0.000    
    1766   1.124      0.6364E-03 SPRIN         11   0.0%   34.41      0.3125E-04   0.000      -15.59       0.000      0.5000E-01   0.000    
    1767   1.125      0.6364E-03 SPRIN         11  -0.0%   34.43      0.3125E-04   0.000      -15.57       0.000      0.5000E-01   0.000    
    1768   1.125      0.6364E-03 SPRIN         11  -0.0%   34.45      0.3125E-04   0.000      -15.55       0.000      0.5000E-01   0.000    
    1769   1.126      0.6364E-03 SPRIN         11  -0.0%   34.47      0.3125E-04   0.000      -15.53       0.000      0.5000E-01   0.000    
    1770   1.126      0.6364E-03 SPRIN         11  -0.0%   34.50      0.3125E-04   0.000      -15.50       0.000      0.5000E-01   0.000    
    1771   1.127      0.6364E-03 SPRIN         11   0.0%   34.52      0.3125E-04   0.000      -15.48       0.000      0.5000E-01   0.000    
    1772   1.128      0.6364E-03 SPRIN         11   0.0%   34.54      0.3125E-04   0.000      -15.46       0.000      0.5000E-01   0.000    
    1773   1.128      0.6364E-03 SPRIN         11   0.0%   34.56      0.3125E-04   0.000      -15.43       0.000      0.5000E-01   0.000    
    1774   1.129      0.6364E-03 SPRIN         11   0.0%   34.59      0.3125E-04   0.000      -15.41       0.000      0.5000E-01   0.000    
    1775   1.130      0.6364E-03 SPRIN         11   0.0%   34.61      0.3125E-04   0.000      -15.39       0.000      0.5000E-01   0.000    
    1776   1.130      0.6364E-03 SPRIN         11   0.0%   34.63      0.3125E-04   0.000      -15.37       0.000      0.5000E-01   0.000    
    1777   1.131      0.6364E-03 SPRIN         11   0.0%   34.66      0.3125E-04   0.000      -15.34       0.000      0.5000E-01   0.000    
    1778   1.132      0.6364E-03 SPRIN         11   0.0%   34.68      0.3125E-04   0.000      -15.32       0.000      0.5000E-01   0.000    
    1779   1.132      0.6364E-03 SPRIN         11   0.0%   34.70      0.3125E-04   0.000      -15.30       0.000      0.5000E-01   0.000    
    1780   1.133      0.6364E-03 SPRIN         11   0.0%   34.73      0.3125E-04   0.000      -15.27       0.000      0.5000E-01   0.000    
    1781   1.133      0.6364E-03 SPRIN         11   0.0%   34.75      0.3125E-04   0.000      -15.25       0.000      0.5000E-01   0.000    
    1782   1.134      0.6364E-03 SPRIN         11   0.0%   34.78      0.3125E-04   0.000      -15.22       0.000      0.5000E-01   0.000    
    1783   1.135      0.6364E-03 SPRIN         11   0.0%   34.80      0.3125E-04   0.000      -15.20       0.000      0.5000E-01   0.000    
    1784   1.135      0.6364E-03 SPRIN         11   0.0%   34.82      0.3125E-04   0.000      -15.18       0.000      0.5000E-01   0.000    
    1785   1.136      0.6364E-03 SPRIN         11   0.0%   34.85      0.3125E-04   0.000      -15.15       0.000      0.5000E-01   0.000    
    1786   1.137      0.6364E-03 SPRIN         11   0.0%   34.87      0.3125E-04   0.000      -15.13       0.000      0.5000E-01   0.000    
    1787   1.137      0.6364E-03 SPRIN         11   0.0%   34.90      0.3125E-04   0.000      -15.10       0.000      0.5000E-01   0.000    
    1788   1.138      0.6364E-03 SPRIN         11   0.0%   34.92      0.3125E-04   0.000      -15.08       0.000      0.5000E-01   0.000    
    1789   1.139      0.6364E-03 SPRIN         11   0.0%   34.94      0.3125E-04   0.000      -15.06       0.000      0.5000E-01   0.000    
    1790   1.139      0.6364E-03 SPRIN         11   0.0%   34.97      0.3125E-04   0.000      -15.03       0.000      0.5000E-01   0.000    
    1791   1.140      0.6364E-03 SPRIN         11   0.0%   34.99      0.3125E-04   0.000      -15.01       0.000      0.5000E-01   0.000    
    1792   1.140      0.6364E-03 SPRIN         11   0.0%   35.02      0.3125E-04   0.000      -14.98       0.000      0.5000E-01   0.000    
    1793   1.141      0.6364E-03 SPRIN         11   0.0%   35.04      0.3125E-04   0.000      -14.96       0.000      0.5000E-01   0.000    
    1794   1.142      0.6364E-03 SPRIN         11   0.0%   35.07      0.3125E-04   0.000      -14.93       0.000      0.5000E-01   0.000    
    1795   1.142      0.6364E-03 SPRIN         11   0.0%   35.09      0.3125E-04   0.000      -14.91       0.000      0.5000E-01   0.000    
    1796   1.143      0.6364E-03 SPRIN         11   0.0%   35.12      0.3125E-04   0.000      -14.88       0.000      0.5000E-01   0.000    
    1797   1.144      0.6364E-03 SPRIN         11   0.0%   35.14      0.3125E-04   0.000      -14.86       0.000      0.5000E-01   0.000    
    1798   1.144      0.6364E-03 SPRIN         11   0.0%   35.17      0.3125E-04   0.000      -14.83       0.000      0.5000E-01   0.000    
    1799   1.145      0.6364E-03 SPRIN         11   0.0%   35.19      0.3125E-04   0.000      -14.81       0.000      0.5000E-01   0.000    
    1800   1.146      0.6364E-03 SPRIN         11   0.0%   35.22      0.3125E-04   0.000      -14.78       0.000      0.5000E-01   0.000    
    1801   1.146      0.6364E-03 SPRIN         11   0.0%   35.25      0.3125E-04   0.000      -14.75       0.000      0.5000E-01   0.000    
    1802   1.147      0.6364E-03 SPRIN         11   0.0%   35.27      0.3125E-04   0.000      -14.73       0.000      0.5000E-01   0.000    
    1803   1.147      0.6364E-03 SPRIN         11   0.0%   35.30      0.3125E-04   0.000      -14.70       0.000      0.5000E-01   0.000    
    1804   1.148      0.6364E-03 SPRIN         11   0.0%   35.32      0.3125E-04   0.000      -14.68       0.000      0.5000E-01   0.000    
    1805   1.149      0.6364E-03 SPRIN         11   0.0%   35.35      0.3125E-04   0.000      -14.65       0.000      0.5000E-01   0.000    
    1806   1.149      0.6364E-03 SPRIN         11   0.0%   35.38      0.3125E-04   0.000      -14.62       0.000      0.5000E-01   0.000    
    1807   1.150      0.6364E-03 SPRIN         11   0.0%   35.40      0.3125E-04   0.000      -14.60       0.000      0.5000E-01   0.000    
    1808   1.151      0.6364E-03 SPRIN         11   0.0%   35.43      0.3125E-04   0.000      -14.57       0.000      0.5000E-01   0.000    
    1809   1.151      0.6364E-03 SPRIN         11   0.0%   35.45      0.3125E-04   0.000      -14.55       0.000      0.5000E-01   0.000    
    1810   1.152      0.6364E-03 SPRIN         11   0.0%   35.48      0.3125E-04   0.000      -14.52       0.000      0.5000E-01   0.000    
    1811   1.153      0.6364E-03 SPRIN         11   0.0%   35.51      0.3125E-04   0.000      -14.49       0.000      0.5000E-01   0.000    
    1812   1.153      0.6364E-03 SPRIN         11   0.0%   35.53      0.3125E-04   0.000      -14.46       0.000      0.5000E-01   0.000    
    1813   1.154      0.6364E-03 SPRIN         11   0.0%   35.56      0.3125E-04   0.000      -14.44       0.000      0.5000E-01   0.000    
    1814   1.154      0.6364E-03 SPRIN         11   0.0%   35.59      0.3125E-04   0.000      -14.41       0.000      0.5000E-01   0.000    
   CYCLE    TIME      TIME-STEP  ELEMENT          ERROR  I-ENERGY    K-ENERGY T  K-ENERGY R  EXT-WORK     MAS.ERR     TOTAL MASS  MASS ADDED
    1815   1.155      0.6364E-03 SPRIN         11   0.0%   35.62      0.3125E-04   0.000      -14.38       0.000      0.5000E-01   0.000    
    1816   1.156      0.6364E-03 SPRIN         11   0.0%   35.64      0.3125E-04   0.000      -14.36       0.000      0.5000E-01   0.000    
    1817   1.156      0.6364E-03 SPRIN         11   0.0%   35.67      0.3125E-04   0.000      -14.33       0.000      0.5000E-01   0.000    
    1818   1.157      0.6364E-03 SPRIN         11   0.0%   35.70      0.3125E-04   0.000      -14.30       0.000      0.5000E-01   0.000    
    1819   1.158      0.6364E-03 SPRIN         11   0.0%   35.73      0.3125E-04   0.000      -14.27       0.000      0.5000E-01   0.000    
    1820   1.158      0.6364E-03 SPRIN         11   0.0%   35.75      0.3125E-04   0.000      -14.25       0.000      0.5000E-01   0.000    
    1821   1.159      0.6364E-03 SPRIN         11   0.0%   35.78      0.3125E-04   0.000      -14.22       0.000      0.5000E-01   0.000    
    1822   1.160      0.6364E-03 SPRIN         11   0.0%   35.81      0.3125E-04   0.000      -14.19       0.000      0.5000E-01   0.000    
    1823   1.160      0.6364E-03 SPRIN         11   0.0%   35.84      0.3125E-04   0.000      -14.16       0.000      0.5000E-01   0.000    
    1824   1.161      0.6364E-03 SPRIN         11   0.0%   35.86      0.3125E-04   0.000      -14.14       0.000      0.5000E-01   0.000    
    1825   1.161      0.6364E-03 SPRIN         11   0.0%   35.89      0.3125E-04   0.000      -14.11       0.000      0.5000E-01   0.000    
    1826   1.162      0.6364E-03 SPRIN         11   0.0%   35.92      0.3125E-04   0.000      -14.08       0.000      0.5000E-01   0.000    
    1827   1.163      0.6364E-03 SPRIN         11   0.0%   35.95      0.3125E-04   0.000      -14.05       0.000      0.5000E-01   0.000    
    1828   1.163      0.6364E-03 SPRIN         11   0.0%   35.98      0.3125E-04   0.000      -14.02       0.000      0.5000E-01   0.000    
    1829   1.164      0.6364E-03 SPRIN         11   0.0%   36.01      0.3125E-04   0.000      -13.99       0.000      0.5000E-01   0.000    
    1830   1.165      0.6364E-03 SPRIN         11   0.0%   36.03      0.3125E-04   0.000      -13.97       0.000      0.5000E-01   0.000    
    1831   1.165      0.6364E-03 SPRIN         11   0.0%   36.06      0.3125E-04   0.000      -13.94       0.000      0.5000E-01   0.000    
    1832   1.166      0.6364E-03 SPRIN         11   0.0%   36.09      0.3125E-04   0.000      -13.91       0.000      0.5000E-01   0.000    
    1833   1.167      0.6364E-03 SPRIN         11   0.0%   36.12      0.3125E-04   0.000      -13.88       0.000      0.5000E-01   0.000    
    1834   1.167      0.6364E-03 SPRIN         11   0.0%   36.15      0.3125E-04   0.000      -13.85       0.000      0.5000E-01   0.000    
    1835   1.168      0.6364E-03 SPRIN         11   0.0%   36.18      0.3125E-04   0.000      -13.82       0.000      0.5000E-01   0.000    
    1836   1.168      0.6364E-03 SPRIN         11   0.0%   36.21      0.3125E-04   0.000      -13.79       0.000      0.5000E-01   0.000    
    1837   1.169      0.6364E-03 SPRIN         11   0.0%   36.24      0.3125E-04   0.000      -13.76       0.000      0.5000E-01   0.000    
    1838   1.170      0.6364E-03 SPRIN         11   0.0%   36.27      0.3125E-04   0.000      -13.73       0.000      0.5000E-01   0.000    
    1839   1.170      0.6364E-03 SPRIN         11   0.0%   36.30      0.3125E-04   0.000      -13.70       0.000      0.5000E-01   0.000    
    1840   1.171      0.6364E-03 SPRIN         11   0.0%   36.33      0.3125E-04   0.000      -13.67       0.000      0.5000E-01   0.000    
    1841   1.172      0.6364E-03 SPRIN         11   0.0%   36.36      0.3125E-04   0.000      -13.64       0.000      0.5000E-01   0.000    
    1842   1.172      0.6364E-03 SPRIN         11   0.0%   36.39      0.3125E-04   0.000      -13.61       0.000      0.5000E-01   0.000    
    1843   1.173      0.6364E-03 SPRIN         11   0.0%   36.42      0.3125E-04   0.000      -13.58       0.000      0.5000E-01   0.000    
    1844   1.174      0.6364E-03 SPRIN         11   0.0%   36.45      0.3125E-04   0.000      -13.55       0.000      0.5000E-01   0.000    
    1845   1.174      0.6364E-03 SPRIN         11   0.0%   36.48      0.3125E-04   0.000      -13.52       0.000      0.5000E-01   0.000    
    1846   1.175      0.6364E-03 SPRIN         11   0.0%   36.51      0.3125E-04   0.000      -13.49       0.000      0.5000E-01   0.000    
    1847   1.175      0.6364E-03 SPRIN         11   0.0%   36.54      0.3125E-04   0.000      -13.46       0.000      0.5000E-01   0.000    
    1848   1.176      0.6364E-03 SPRIN         11   0.0%   36.57      0.3125E-04   0.000      -13.43       0.000      0.5000E-01   0.000    
    1849   1.177      0.6364E-03 SPRIN         11   0.0%   36.60      0.3125E-04   0.000      -13.40       0.000      0.5000E-01   0.000    
    1850   1.177      0.6364E-03 SPRIN         11   0.0%   36.63      0.3125E-04   0.000      -13.37       0.000      0.5000E-01   0.000    
    1851   1.178      0.6364E-03 SPRIN         11   0.0%   36.66      0.3125E-04   0.000      -13.34       0.000      0.5000E-01   0.000    
    1852   1.179      0.6364E-03 SPRIN         11   0.0%   36.69      0.3125E-04   0.000      -13.31       0.000      0.5000E-01   0.000    
    1853   1.179      0.6364E-03 SPRIN         11   0.0%   36.72      0.3125E-04   0.000      -13.28       0.000      0.5000E-01   0.000    
    1854   1.180      0.6364E-03 SPRIN         11   0.0%   36.75      0.3125E-04   0.000      -13.25       0.000      0.5000E-01   0.000    
    1855   1.181      0.6364E-03 SPRIN         11   0.0%   36.78      0.3125E-04   0.000      -13.22       0.000      0.5000E-01   0.000    
    1856   1.181      0.6364E-03 SPRIN         11   0.0%   36.81      0.3125E-04   0.000      -13.19       0.000      0.5000E-01   0.000    
    1857   1.182      0.6364E-03 SPRIN         11   0.0%   36.85      0.3125E-04   0.000      -13.15       0.000      0.5000E-01   0.000    
    1858   1.182      0.6364E-03 SPRIN         11   0.0%   36.88      0.3125E-04   0.000      -13.12       0.000      0.5000E-01   0.000    
    1859   1.183      0.6364E-03 SPRIN         11   0.0%   36.91      0.3125E-04   0.000      -13.09       0.000      0.5000E-01   0.000    
    1860   1.184      0.6364E-03 SPRIN         11   0.0%   36.94      0.3125E-04   0.000      -13.06       0.000      0.5000E-01   0.000    
    1861   1.184      0.6364E-03 SPRIN         11   0.0%   36.97      0.3125E-04   0.000      -13.03       0.000      0.5000E-01   0.000    
    1862   1.185      0.6364E-03 SPRIN         11   0.0%   37.00      0.3125E-04   0.000      -13.00       0.000      0.5000E-01   0.000    
    1863   1.186      0.6364E-03 SPRIN         11   0.0%   37.04      0.3125E-04   0.000      -12.96       0.000      0.5000E-01   0.000    
    1864   1.186      0.6364E-03 SPRIN         11   0.0%   37.07      0.3125E-04   0.000      -12.93       0.000      0.5000E-01   0.000    
    1865   1.187      0.6364E-03 SPRIN         11   0.0%   37.10      0.3125E-04   0.000      -12.90       0.000      0.5000E-01   0.000    
    1866   1.188      0.6364E-03 SPRIN         11   0.0%   37.13      0.3125E-04   0.000      -12.87       0.000      0.5000E-01   0.000    
    1867   1.188      0.6364E-03 SPRIN         11   0.0%   37.16      0.3125E-04   0.000      -12.84       0.000      0.5000E-01   0.000    
    1868   1.189      0.6364E-03 SPRIN         11   0.0%   37.20      0.3125E-04   0.000      -12.80       0.000      0.5000E-01   0.000    
    1869   1.189      0.6364E-03 SPRIN         11   0.0%   37.23      0.3125E-04   0.000      -12.77       0.000      0.5000E-01   0.000    
   CYCLE    TIME      TIME-STEP  ELEMENT          ERROR  I-ENERGY    K-ENERGY T  K-ENERGY R  EXT-WORK     MAS.ERR     TOTAL MASS  MASS ADDED
    1870   1.190      0.6364E-03 SPRIN         11   0.0%   37.26      0.3125E-04   0.000      -12.74       0.000      0.5000E-01   0.000    
    1871   1.191      0.6364E-03 SPRIN         11   0.0%   37.30      0.3125E-04   0.000      -12.70       0.000      0.5000E-01   0.000    
    1872   1.191      0.6364E-03 SPRIN         11   0.0%   37.33      0.3125E-04   0.000      -12.67       0.000      0.5000E-01   0.000    
    1873   1.192      0.6364E-03 SPRIN         11   0.0%   37.36      0.3125E-04   0.000      -12.64       0.000      0.5000E-01   0.000    
    1874   1.193      0.6364E-03 SPRIN         11   0.0%   37.39      0.3125E-04   0.000      -12.61       0.000      0.5000E-01   0.000    
    1875   1.193      0.6364E-03 SPRIN         11   0.0%   37.43      0.3125E-04   0.000      -12.57       0.000      0.5000E-01   0.000    
    1876   1.194      0.6364E-03 SPRIN         11   0.0%   37.46      0.3125E-04   0.000      -12.54       0.000      0.5000E-01   0.000    
    1877   1.195      0.6364E-03 SPRIN         11   0.0%   37.49      0.3125E-04   0.000      -12.51       0.000      0.5000E-01   0.000    
    1878   1.195      0.6364E-03 SPRIN         11   0.0%   37.53      0.3125E-04   0.000      -12.47       0.000      0.5000E-01   0.000    
    1879   1.196      0.6364E-03 SPRIN         11   0.0%   37.56      0.3125E-04   0.000      -12.44       0.000      0.5000E-01   0.000    
    1880   1.196      0.6364E-03 SPRIN         11   0.0%   37.59      0.3125E-04   0.000      -12.41       0.000      0.5000E-01   0.000    
    1881   1.197      0.6364E-03 SPRIN         11   0.0%   37.63      0.3125E-04   0.000      -12.37       0.000      0.5000E-01   0.000    
    1882   1.198      0.6364E-03 SPRIN         11   0.0%   37.66      0.3125E-04   0.000      -12.34       0.000      0.5000E-01   0.000    
    1883   1.198      0.6364E-03 SPRIN         11   0.0%   37.70      0.3125E-04   0.000      -12.30       0.000      0.5000E-01   0.000    
    1884   1.199      0.6364E-03 SPRIN         11   0.0%   37.73      0.3125E-04   0.000      -12.27       0.000      0.5000E-01   0.000    
    1885   1.200      0.6364E-03 SPRIN         11   0.0%   37.76      0.3125E-04   0.000      -12.24       0.000      0.5000E-01   0.000    
    1886   1.200      0.6364E-03 SPRIN         11   0.0%   37.80      0.3125E-04   0.000      -12.20       0.000      0.5000E-01   0.000    
     ANIMATION FILE: SPR_PRE_2FLAGA007 WRITTEN
    1887   1.201      0.6364E-03 SPRIN         11   0.0%   37.83      0.3125E-04   0.000      -12.17       0.000      0.5000E-01   0.000    
    1888   1.202      0.6364E-03 SPRIN         11   0.0%   37.87      0.3125E-04   0.000      -12.13       0.000      0.5000E-01   0.000    
    1889   1.202      0.6364E-03 SPRIN         11   0.0%   37.90      0.3125E-04   0.000      -12.10       0.000      0.5000E-01   0.000    
    1890   1.203      0.6364E-03 SPRIN         11   0.0%   37.94      0.3125E-04   0.000      -12.06       0.000      0.5000E-01   0.000    
    1891   1.203      0.6364E-03 SPRIN         11   0.0%   37.97      0.3125E-04   0.000      -12.03       0.000      0.5000E-01   0.000    
    1892   1.204      0.6364E-03 SPRIN         11   0.0%   38.01      0.3125E-04   0.000      -11.99       0.000      0.5000E-01   0.000    
    1893   1.205      0.6364E-03 SPRIN         11   0.0%   38.04      0.3125E-04   0.000      -11.96       0.000      0.5000E-01   0.000    
    1894   1.205      0.6364E-03 SPRIN         11   0.0%   38.08      0.3125E-04   0.000      -11.92       0.000      0.5000E-01   0.000    
    1895   1.206      0.6364E-03 SPRIN         11   0.0%   38.11      0.3125E-04   0.000      -11.89       0.000      0.5000E-01   0.000    
    1896   1.207      0.6364E-03 SPRIN         11   0.0%   38.15      0.3125E-04   0.000      -11.85       0.000      0.5000E-01   0.000    
    1897   1.207      0.6364E-03 SPRIN         11   0.0%   38.18      0.3125E-04   0.000      -11.82       0.000      0.5000E-01   0.000    
    1898   1.208      0.6364E-03 SPRIN         11   0.0%   38.22      0.3125E-04   0.000      -11.78       0.000      0.5000E-01   0.000    
    1899   1.209      0.6364E-03 SPRIN         11   0.0%   38.25      0.3125E-04   0.000      -11.75       0.000      0.5000E-01   0.000    
    1900   1.209      0.6364E-03 SPRIN         11   0.0%   38.29      0.3125E-04   0.000      -11.71       0.000      0.5000E-01   0.000    
    1901   1.210      0.6364E-03 SPRIN         11   0.0%   38.33      0.3125E-04   0.000      -11.67       0.000      0.5000E-01   0.000    
    1902   1.210      0.6364E-03 SPRIN         11   0.0%   38.36      0.3125E-04   0.000      -11.64       0.000      0.5000E-01   0.000    
    1903   1.211      0.6364E-03 SPRIN         11   0.0%   38.40      0.3125E-04   0.000      -11.60       0.000      0.5000E-01   0.000    
    1904   1.212      0.6364E-03 SPRIN         11   0.0%   38.43      0.3125E-04   0.000      -11.57       0.000      0.5000E-01   0.000    
    1905   1.212      0.6364E-03 SPRIN         11   0.0%   38.47      0.3125E-04   0.000      -11.53       0.000      0.5000E-01   0.000    
    1906   1.213      0.6364E-03 SPRIN         11   0.0%   38.51      0.3125E-04   0.000      -11.49       0.000      0.5000E-01   0.000    
    1907   1.214      0.6364E-03 SPRIN         11   0.0%   38.54      0.3125E-04   0.000      -11.46       0.000      0.5000E-01   0.000    
    1908   1.214      0.6364E-03 SPRIN         11   0.0%   38.58      0.3125E-04   0.000      -11.42       0.000      0.5000E-01   0.000    
    1909   1.215      0.6364E-03 SPRIN         11   0.0%   38.62      0.3125E-04   0.000      -11.38       0.000      0.5000E-01   0.000    
    1910   1.216      0.6364E-03 SPRIN         11   0.0%   38.65      0.3125E-04   0.000      -11.35       0.000      0.5000E-01   0.000    
    1911   1.216      0.6364E-03 SPRIN         11   0.0%   38.69      0.3125E-04   0.000      -11.31       0.000      0.5000E-01   0.000    
    1912   1.217      0.6364E-03 SPRIN         11   0.0%   38.73      0.3125E-04   0.000      -11.27       0.000      0.5000E-01   0.000    
    1913   1.217      0.6364E-03 SPRIN         11   0.0%   38.76      0.3125E-04   0.000      -11.24       0.000      0.5000E-01   0.000    
    1914   1.218      0.6364E-03 SPRIN         11   0.0%   38.80      0.3125E-04   0.000      -11.20       0.000      0.5000E-01   0.000    
    1915   1.219      0.6364E-03 SPRIN         11   0.0%   38.84      0.3125E-04   0.000      -11.16       0.000      0.5000E-01   0.000    
    1916   1.219      0.6364E-03 SPRIN         11   0.0%   38.87      0.3125E-04   0.000      -11.13       0.000      0.5000E-01   0.000    
    1917   1.220      0.6364E-03 SPRIN         11   0.0%   38.91      0.3125E-04   0.000      -11.09       0.000      0.5000E-01   0.000    
    1918   1.221      0.6364E-03 SPRIN         11   0.0%   38.95      0.3125E-04   0.000      -11.05       0.000      0.5000E-01   0.000    
    1919   1.221      0.6364E-03 SPRIN         11   0.0%   38.99      0.3125E-04   0.000      -11.01       0.000      0.5000E-01   0.000    
    1920   1.222      0.6364E-03 SPRIN         11   0.0%   39.02      0.3125E-04   0.000      -10.98       0.000      0.5000E-01   0.000    
    1921   1.223      0.6364E-03 SPRIN         11   0.0%   39.06      0.3125E-04   0.000      -10.94       0.000      0.5000E-01   0.000    
    1922   1.223      0.6364E-03 SPRIN         11   0.0%   39.10      0.3125E-04   0.000      -10.90       0.000      0.5000E-01   0.000    
    1923   1.224      0.6364E-03 SPRIN         11   0.0%   39.14      0.3125E-04   0.000      -10.86       0.000      0.5000E-01   0.000    
    1924   1.224      0.6364E-03 SPRIN         11   0.0%   39.18      0.3125E-04   0.000      -10.82       0.000      0.5000E-01   0.000    
   CYCLE    TIME      TIME-STEP  ELEMENT          ERROR  I-ENERGY    K-ENERGY T  K-ENERGY R  EXT-WORK     MAS.ERR     TOTAL MASS  MASS ADDED
    1925   1.225      0.6364E-03 SPRIN         11   0.0%   39.21      0.3125E-04   0.000      -10.79       0.000      0.5000E-01   0.000    
    1926   1.226      0.6364E-03 SPRIN         11   0.0%   39.25      0.3125E-04   0.000      -10.75       0.000      0.5000E-01   0.000    
    1927   1.226      0.6364E-03 SPRIN         11   0.0%   39.29      0.3125E-04   0.000      -10.71       0.000      0.5000E-01   0.000    
    1928   1.227      0.6364E-03 SPRIN         11   0.0%   39.33      0.3125E-04   0.000      -10.67       0.000      0.5000E-01   0.000    
    1929   1.228      0.6364E-03 SPRIN         11   0.0%   39.37      0.3125E-04   0.000      -10.63       0.000      0.5000E-01   0.000    
    1930   1.228      0.6364E-03 SPRIN         11   0.0%   39.41      0.3125E-04   0.000      -10.59       0.000      0.5000E-01   0.000    
    1931   1.229      0.6364E-03 SPRIN         11   0.0%   39.45      0.3125E-04   0.000      -10.55       0.000      0.5000E-01   0.000    
    1932   1.230      0.6364E-03 SPRIN         11   0.0%   39.49      0.3125E-04   0.000      -10.51       0.000      0.5000E-01   0.000    
    1933   1.230      0.6364E-03 SPRIN         11   0.0%   39.52      0.3125E-04   0.000      -10.48       0.000      0.5000E-01   0.000    
    1934   1.231      0.6364E-03 SPRIN         11   0.0%   39.56      0.3125E-04   0.000      -10.44       0.000      0.5000E-01   0.000    
    1935   1.231      0.6364E-03 SPRIN         11   0.0%   39.60      0.3125E-04   0.000      -10.40       0.000      0.5000E-01   0.000    
    1936   1.232      0.6364E-03 SPRIN         11   0.0%   39.64      0.3125E-04   0.000      -10.36       0.000      0.5000E-01   0.000    
    1937   1.233      0.6364E-03 SPRIN         11   0.0%   39.68      0.3125E-04   0.000      -10.32       0.000      0.5000E-01   0.000    
    1938   1.233      0.6364E-03 SPRIN         11   0.0%   39.72      0.3125E-04   0.000      -10.28       0.000      0.5000E-01   0.000    
    1939   1.234      0.6364E-03 SPRIN         11   0.0%   39.76      0.3125E-04   0.000      -10.24       0.000      0.5000E-01   0.000    
    1940   1.235      0.6364E-03 SPRIN         11   0.0%   39.80      0.3125E-04   0.000      -10.20       0.000      0.5000E-01   0.000    
    1941   1.235      0.6364E-03 SPRIN         11   0.0%   39.84      0.3125E-04   0.000      -10.16       0.000      0.5000E-01   0.000    
    1942   1.236      0.6364E-03 SPRIN         11   0.0%   39.88      0.3125E-04   0.000      -10.12       0.000      0.5000E-01   0.000    
    1943   1.237      0.6364E-03 SPRIN         11   0.0%   39.92      0.3125E-04   0.000      -10.08       0.000      0.5000E-01   0.000    
    1944   1.237      0.6364E-03 SPRIN         11   0.0%   39.96      0.3125E-04   0.000      -10.04       0.000      0.5000E-01   0.000    
    1945   1.238      0.6364E-03 SPRIN         11   0.0%   40.00      0.3125E-04   0.000      -9.999       0.000      0.5000E-01   0.000    
    1946   1.238      0.6364E-03 SPRIN         11   0.0%   40.04      0.3125E-04   0.000      -9.959       0.000      0.5000E-01   0.000    
    1947   1.239      0.6364E-03 SPRIN         11   0.0%   40.08      0.3125E-04   0.000      -9.918       0.000      0.5000E-01   0.000    
    1948   1.240      0.6364E-03 SPRIN         11   0.0%   40.12      0.3125E-04   0.000      -9.878       0.000      0.5000E-01   0.000    
    1949   1.240      0.6364E-03 SPRIN         11   0.0%   40.16      0.3125E-04   0.000      -9.837       0.000      0.5000E-01   0.000    
    1950   1.241      0.6364E-03 SPRIN         11   0.0%   40.20      0.3125E-04   0.000      -9.796       0.000      0.5000E-01   0.000    
    1951   1.242      0.6364E-03 SPRIN         11   0.0%   40.24      0.3125E-04   0.000      -9.755       0.000      0.5000E-01   0.000    
    1952   1.242      0.6364E-03 SPRIN         11   0.0%   40.29      0.3125E-04   0.000      -9.714       0.000      0.5000E-01   0.000    
    1953   1.243      0.6364E-03 SPRIN         11   0.0%   40.33      0.3125E-04   0.000      -9.673       0.000      0.5000E-01   0.000    
    1954   1.244      0.6364E-03 SPRIN         11   0.0%   40.37      0.3125E-04   0.000      -9.632       0.000      0.5000E-01   0.000    
    1955   1.244      0.6364E-03 SPRIN         11   0.0%   40.41      0.3125E-04   0.000      -9.591       0.000      0.5000E-01   0.000    
    1956   1.245      0.6364E-03 SPRIN         11   0.0%   40.45      0.3125E-04   0.000      -9.549       0.000      0.5000E-01   0.000    
    1957   1.245      0.6364E-03 SPRIN         11   0.0%   40.49      0.3125E-04   0.000      -9.508       0.000      0.5000E-01   0.000    
    1958   1.246      0.6364E-03 SPRIN         11   0.0%   40.53      0.3125E-04   0.000      -9.466       0.000      0.5000E-01   0.000    
    1959   1.247      0.6364E-03 SPRIN         11   0.0%   40.58      0.3125E-04   0.000      -9.425       0.000      0.5000E-01   0.000    
    1960   1.247      0.6364E-03 SPRIN         11   0.0%   40.62      0.3125E-04   0.000      -9.383       0.000      0.5000E-01   0.000    
    1961   1.248      0.6364E-03 SPRIN         11   0.0%   40.66      0.3125E-04   0.000      -9.341       0.000      0.5000E-01   0.000    
    1962   1.249      0.6364E-03 SPRIN         11   0.0%   40.70      0.3125E-04   0.000      -9.299       0.000      0.5000E-01   0.000    
    1963   1.249      0.6364E-03 SPRIN         11   0.0%   40.74      0.3125E-04   0.000      -9.257       0.000      0.5000E-01   0.000    
    1964   1.250      0.6364E-03 SPRIN         11   0.0%   40.79      0.3125E-04   0.000      -9.215       0.000      0.5000E-01   0.000    
    1965   1.251      0.6364E-03 SPRIN         11   0.0%   40.83      0.3125E-04   0.000      -9.173       0.000      0.5000E-01   0.000    
    1966   1.251      0.6364E-03 SPRIN         11   0.0%   40.87      0.3125E-04   0.000      -9.130       0.000      0.5000E-01   0.000    
    1967   1.252      0.6364E-03 SPRIN         11   0.0%   40.91      0.3125E-04   0.000      -9.088       0.000      0.5000E-01   0.000    
    1968   1.252      0.6364E-03 SPRIN         11   0.0%   40.95      0.3125E-04   0.000      -9.045       0.000      0.5000E-01   0.000    
    1969   1.253      0.6364E-03 SPRIN         11   0.0%   41.00      0.3125E-04   0.000      -9.002       0.000      0.5000E-01   0.000    
    1970   1.254      0.6364E-03 SPRIN         11   0.0%   41.04      0.3125E-04   0.000      -8.960       0.000      0.5000E-01   0.000    
    1971   1.254      0.6364E-03 SPRIN         11   0.0%   41.08      0.3125E-04   0.000      -8.917       0.000      0.5000E-01   0.000    
    1972   1.255      0.6364E-03 SPRIN         11   0.0%   41.13      0.3125E-04   0.000      -8.874       0.000      0.5000E-01   0.000    
    1973   1.256      0.6364E-03 SPRIN         11   0.0%   41.17      0.3125E-04   0.000      -8.831       0.000      0.5000E-01   0.000    
    1974   1.256      0.6364E-03 SPRIN         11   0.0%   41.21      0.3125E-04   0.000      -8.787       0.000      0.5000E-01   0.000    
    1975   1.257      0.6364E-03 SPRIN         11   0.0%   41.26      0.3125E-04   0.000      -8.744       0.000      0.5000E-01   0.000    
    1976   1.258      0.6364E-03 SPRIN         11   0.0%   41.30      0.3125E-04   0.000      -8.701       0.000      0.5000E-01   0.000    
    1977   1.258      0.6364E-03 SPRIN         11   0.0%   41.34      0.3125E-04   0.000      -8.657       0.000      0.5000E-01   0.000    
    1978   1.259      0.6364E-03 SPRIN         11   0.0%   41.39      0.3125E-04   0.000      -8.614       0.000      0.5000E-01   0.000    
    1979   1.259      0.6364E-03 SPRIN         11   0.0%   41.43      0.3125E-04   0.000      -8.570       0.000      0.5000E-01   0.000    
   CYCLE    TIME      TIME-STEP  ELEMENT          ERROR  I-ENERGY    K-ENERGY T  K-ENERGY R  EXT-WORK     MAS.ERR     TOTAL MASS  MASS ADDED
    1980   1.260      0.6364E-03 SPRIN         11   0.0%   41.47      0.3125E-04   0.000      -8.526       0.000      0.5000E-01   0.000    
    1981   1.261      0.6364E-03 SPRIN         11   0.0%   41.52      0.3125E-04   0.000      -8.482       0.000      0.5000E-01   0.000    
    1982   1.261      0.6364E-03 SPRIN         11   0.0%   41.56      0.3125E-04   0.000      -8.438       0.000      0.5000E-01   0.000    
    1983   1.262      0.6364E-03 SPRIN         11   0.0%   41.61      0.3125E-04   0.000      -8.394       0.000      0.5000E-01   0.000    
    1984   1.263      0.6364E-03 SPRIN         11   0.0%   41.65      0.3125E-04   0.000      -8.350       0.000      0.5000E-01   0.000    
    1985   1.263      0.6364E-03 SPRIN         11   0.0%   41.69      0.3125E-04   0.000      -8.306       0.000      0.5000E-01   0.000    
    1986   1.264      0.6364E-03 SPRIN         11   0.0%   41.74      0.3125E-04   0.000      -8.261       0.000      0.5000E-01   0.000    
    1987   1.265      0.6364E-03 SPRIN         11   0.0%   41.78      0.3125E-04   0.000      -8.217       0.000      0.5000E-01   0.000    
    1988   1.265      0.6364E-03 SPRIN         11   0.0%   41.83      0.3125E-04   0.000      -8.172       0.000      0.5000E-01   0.000    
    1989   1.266      0.6364E-03 SPRIN         11  -0.0%   41.87      0.3125E-04   0.000      -8.127       0.000      0.5000E-01   0.000    
    1990   1.266      0.6364E-03 SPRIN         11   0.0%   41.92      0.3125E-04   0.000      -8.082       0.000      0.5000E-01   0.000    
    1991   1.267      0.6364E-03 SPRIN         11   0.0%   41.96      0.3125E-04   0.000      -8.038       0.000      0.5000E-01   0.000    
    1992   1.268      0.6364E-03 SPRIN         11   0.0%   42.01      0.3125E-04   0.000      -7.993       0.000      0.5000E-01   0.000    
    1993   1.268      0.6364E-03 SPRIN         11   0.0%   42.05      0.3125E-04   0.000      -7.947       0.000      0.5000E-01   0.000    
    1994   1.269      0.6364E-03 SPRIN         11   0.0%   42.10      0.3125E-04   0.000      -7.902       0.000      0.5000E-01   0.000    
    1995   1.270      0.6364E-03 SPRIN         11   0.0%   42.14      0.3125E-04   0.000      -7.857       0.000      0.5000E-01   0.000    
    1996   1.270      0.6364E-03 SPRIN         11   0.0%   42.19      0.3125E-04   0.000      -7.811       0.000      0.5000E-01   0.000    
    1997   1.271      0.6364E-03 SPRIN         11   0.0%   42.23      0.3125E-04   0.000      -7.766       0.000      0.5000E-01   0.000    
    1998   1.272      0.6364E-03 SPRIN         11   0.0%   42.28      0.3125E-04   0.000      -7.720       0.000      0.5000E-01   0.000    
    1999   1.272      0.6364E-03 SPRIN         11   0.0%   42.33      0.3125E-04   0.000      -7.675       0.000      0.5000E-01   0.000    
    2000   1.273      0.6364E-03 SPRIN         11   0.0%   42.37      0.3125E-04   0.000      -7.629       0.000      0.5000E-01   0.000    
    2001   1.273      0.6364E-03 SPRIN         11   0.0%   42.42      0.3125E-04   0.000      -7.583       0.000      0.5000E-01   0.000    
    2002   1.274      0.6364E-03 SPRIN         11   0.0%   42.46      0.3125E-04   0.000      -7.537       0.000      0.5000E-01   0.000    
    2003   1.275      0.6364E-03 SPRIN         11   0.0%   42.51      0.3125E-04   0.000      -7.491       0.000      0.5000E-01   0.000    
    2004   1.275      0.6364E-03 SPRIN         11   0.0%   42.56      0.3125E-04   0.000      -7.444       0.000      0.5000E-01   0.000    
    2005   1.276      0.6364E-03 SPRIN         11   0.0%   42.60      0.3125E-04   0.000      -7.398       0.000      0.5000E-01   0.000    
    2006   1.277      0.6364E-03 SPRIN         11   0.0%   42.65      0.3125E-04   0.000      -7.352       0.000      0.5000E-01   0.000    
    2007   1.277      0.6364E-03 SPRIN         11   0.0%   42.69      0.3125E-04   0.000      -7.305       0.000      0.5000E-01   0.000    
    2008   1.278      0.6364E-03 SPRIN         11   0.0%   42.74      0.3125E-04   0.000      -7.258       0.000      0.5000E-01   0.000    
    2009   1.279      0.6364E-03 SPRIN         11   0.0%   42.79      0.3125E-04   0.000      -7.212       0.000      0.5000E-01   0.000    
    2010   1.279      0.6364E-03 SPRIN         11   0.0%   42.84      0.3125E-04   0.000      -7.165       0.000      0.5000E-01   0.000    
    2011   1.280      0.6364E-03 SPRIN         11   0.0%   42.88      0.3125E-04   0.000      -7.118       0.000      0.5000E-01   0.000    
    2012   1.280      0.6364E-03 SPRIN         11   0.0%   42.93      0.3125E-04   0.000      -7.071       0.000      0.5000E-01   0.000    
    2013   1.281      0.6364E-03 SPRIN         11   0.0%   42.98      0.3125E-04   0.000      -7.024       0.000      0.5000E-01   0.000    
    2014   1.282      0.6364E-03 SPRIN         11   0.0%   43.02      0.3125E-04   0.000      -6.976       0.000      0.5000E-01   0.000    
    2015   1.282      0.6364E-03 SPRIN         11   0.0%   43.07      0.3125E-04   0.000      -6.929       0.000      0.5000E-01   0.000    
    2016   1.283      0.6364E-03 SPRIN         11   0.0%   43.12      0.3125E-04   0.000      -6.882       0.000      0.5000E-01   0.000    
    2017   1.284      0.6364E-03 SPRIN         11   0.0%   43.17      0.3125E-04   0.000      -6.834       0.000      0.5000E-01   0.000    
    2018   1.284      0.6364E-03 SPRIN         11   0.0%   43.21      0.3125E-04   0.000      -6.786       0.000      0.5000E-01   0.000    
    2019   1.285      0.6364E-03 SPRIN         11   0.0%   43.26      0.3125E-04   0.000      -6.739       0.000      0.5000E-01   0.000    
    2020   1.286      0.6364E-03 SPRIN         11   0.0%   43.31      0.3125E-04   0.000      -6.691       0.000      0.5000E-01   0.000    
    2021   1.286      0.6364E-03 SPRIN         11   0.0%   43.36      0.3125E-04   0.000      -6.643       0.000      0.5000E-01   0.000    
    2022   1.287      0.6364E-03 SPRIN         11   0.0%   43.41      0.3125E-04   0.000      -6.595       0.000      0.5000E-01   0.000    
    2023   1.287      0.6364E-03 SPRIN         11   0.0%   43.45      0.3125E-04   0.000      -6.547       0.000      0.5000E-01   0.000    
    2024   1.288      0.6364E-03 SPRIN         11   0.0%   43.50      0.3125E-04   0.000      -6.498       0.000      0.5000E-01   0.000    
    2025   1.289      0.6364E-03 SPRIN         11   0.0%   43.55      0.3125E-04   0.000      -6.450       0.000      0.5000E-01   0.000    
    2026   1.289      0.6364E-03 SPRIN         11   0.0%   43.60      0.3125E-04   0.000      -6.402       0.000      0.5000E-01   0.000    
    2027   1.290      0.6364E-03 SPRIN         11   0.0%   43.65      0.3125E-04   0.000      -6.353       0.000      0.5000E-01   0.000    
    2028   1.291      0.6364E-03 SPRIN         11   0.0%   43.70      0.3125E-04   0.000      -6.304       0.000      0.5000E-01   0.000    
    2029   1.291      0.6364E-03 SPRIN         11   0.0%   43.74      0.3125E-04   0.000      -6.256       0.000      0.5000E-01   0.000    
    2030   1.292      0.6364E-03 SPRIN         11   0.0%   43.79      0.3125E-04   0.000      -6.207       0.000      0.5000E-01   0.000    
    2031   1.293      0.6364E-03 SPRIN         11   0.0%   43.84      0.3125E-04   0.000      -6.158       0.000      0.5000E-01   0.000    
    2032   1.293      0.6364E-03 SPRIN         11   0.0%   43.89      0.3125E-04   0.000      -6.109       0.000      0.5000E-01   0.000    
    2033   1.294      0.6364E-03 SPRIN         11   0.0%   43.94      0.3125E-04   0.000      -6.060       0.000      0.5000E-01   0.000    
    2034   1.294      0.6364E-03 SPRIN         11   0.0%   43.99      0.3125E-04   0.000      -6.010       0.000      0.5000E-01   0.000    
   CYCLE    TIME      TIME-STEP  ELEMENT          ERROR  I-ENERGY    K-ENERGY T  K-ENERGY R  EXT-WORK     MAS.ERR     TOTAL MASS  MASS ADDED
    2035   1.295      0.6364E-03 SPRIN         11   0.0%   44.04      0.3125E-04   0.000      -5.961       0.000      0.5000E-01   0.000    
    2036   1.296      0.6364E-03 SPRIN         11   0.0%   44.09      0.3125E-04   0.000      -5.911       0.000      0.5000E-01   0.000    
    2037   1.296      0.6364E-03 SPRIN         11   0.0%   44.14      0.3125E-04   0.000      -5.862       0.000      0.5000E-01   0.000    
    2038   1.297      0.6364E-03 SPRIN         11   0.0%   44.19      0.3125E-04   0.000      -5.812       0.000      0.5000E-01   0.000    
    2039   1.298      0.6364E-03 SPRIN         11   0.0%   44.24      0.3125E-04   0.000      -5.762       0.000      0.5000E-01   0.000    
    2040   1.298      0.6364E-03 SPRIN         11   0.0%   44.29      0.3125E-04   0.000      -5.712       0.000      0.5000E-01   0.000    
    2041   1.299      0.6364E-03 SPRIN         11   0.0%   44.34      0.3125E-04   0.000      -5.663       0.000      0.5000E-01   0.000    
    2042   1.300      0.6364E-03 SPRIN         11   0.0%   44.39      0.3125E-04   0.000      -5.612       0.000      0.5000E-01   0.000    
    2043   1.300      0.6364E-03 SPRIN         11   0.0%   44.44      0.3125E-04   0.000      -5.562       0.000      0.5000E-01   0.000    
    2044   1.301      0.6364E-03 SPRIN         11   0.0%   44.49      0.3125E-04   0.000      -5.512       0.000      0.5000E-01   0.000    
    2045   1.301      0.6364E-03 SPRIN         11   0.0%   44.54      0.3125E-04   0.000      -5.462       0.000      0.5000E-01   0.000    
    2046   1.302      0.6364E-03 SPRIN         11   0.0%   44.59      0.3125E-04   0.000      -5.411       0.000      0.5000E-01   0.000    
    2047   1.303      0.6364E-03 SPRIN         11   0.0%   44.64      0.3125E-04   0.000      -5.360       0.000      0.5000E-01   0.000    
    2048   1.303      0.6364E-03 SPRIN         11   0.0%   44.69      0.3125E-04   0.000      -5.310       0.000      0.5000E-01   0.000    
    2049   1.304      0.6364E-03 SPRIN         11   0.0%   44.74      0.3125E-04   0.000      -5.259       0.000      0.5000E-01   0.000    
    2050   1.305      0.6364E-03 SPRIN         11   0.0%   44.79      0.3125E-04   0.000      -5.208       0.000      0.5000E-01   0.000    
    2051   1.305      0.6364E-03 SPRIN         11   0.0%   44.84      0.3125E-04   0.000      -5.157       0.000      0.5000E-01   0.000    
    2052   1.306      0.6364E-03 SPRIN         11   0.0%   44.89      0.3125E-04   0.000      -5.106       0.000      0.5000E-01   0.000    
    2053   1.307      0.6364E-03 SPRIN         11   0.0%   44.95      0.3125E-04   0.000      -5.055       0.000      0.5000E-01   0.000    
    2054   1.307      0.6364E-03 SPRIN         11   0.0%   45.00      0.3125E-04   0.000      -5.004       0.000      0.5000E-01   0.000    
    2055   1.308      0.6364E-03 SPRIN         11   0.0%   45.05      0.3125E-04   0.000      -4.952       0.000      0.5000E-01   0.000    
    2056   1.308      0.6364E-03 SPRIN         11   0.0%   45.10      0.3125E-04   0.000      -4.901       0.000      0.5000E-01   0.000    
    2057   1.309      0.6364E-03 SPRIN         11   0.0%   45.15      0.3125E-04   0.000      -4.849       0.000      0.5000E-01   0.000    
    2058   1.310      0.6364E-03 SPRIN         11   0.0%   45.20      0.3125E-04   0.000      -4.797       0.000      0.5000E-01   0.000    
    2059   1.310      0.6364E-03 SPRIN         11   0.0%   45.25      0.3125E-04   0.000      -4.746       0.000      0.5000E-01   0.000    
    2060   1.311      0.6364E-03 SPRIN         11   0.0%   45.31      0.3125E-04   0.000      -4.694       0.000      0.5000E-01   0.000    
    2061   1.312      0.6364E-03 SPRIN         11   0.0%   45.36      0.3125E-04   0.000      -4.642       0.000      0.5000E-01   0.000    
    2062   1.312      0.6364E-03 SPRIN         11   0.0%   45.41      0.3125E-04   0.000      -4.590       0.000      0.5000E-01   0.000    
    2063   1.313      0.6364E-03 SPRIN         11   0.0%   45.46      0.3125E-04   0.000      -4.537       0.000      0.5000E-01   0.000    
    2064   1.314      0.6364E-03 SPRIN         11   0.0%   45.51      0.3125E-04   0.000      -4.485       0.000      0.5000E-01   0.000    
    2065   1.314      0.6364E-03 SPRIN         11   0.0%   45.57      0.3125E-04   0.000      -4.433       0.000      0.5000E-01   0.000    
    2066   1.315      0.6364E-03 SPRIN         11   0.0%   45.62      0.3125E-04   0.000      -4.380       0.000      0.5000E-01   0.000    
    2067   1.315      0.6364E-03 SPRIN         11   0.0%   45.67      0.3125E-04   0.000      -4.327       0.000      0.5000E-01   0.000    
    2068   1.316      0.6364E-03 SPRIN         11   0.0%   45.73      0.3125E-04   0.000      -4.275       0.000      0.5000E-01   0.000    
    2069   1.317      0.6364E-03 SPRIN         11   0.0%   45.78      0.3125E-04   0.000      -4.222       0.000      0.5000E-01   0.000    
    2070   1.317      0.6364E-03 SPRIN         11   0.0%   45.83      0.3125E-04   0.000      -4.169       0.000      0.5000E-01   0.000    
    2071   1.318      0.6364E-03 SPRIN         11   0.0%   45.88      0.3125E-04   0.000      -4.116       0.000      0.5000E-01   0.000    
    2072   1.319      0.6364E-03 SPRIN         11   0.0%   45.94      0.3125E-04   0.000      -4.063       0.000      0.5000E-01   0.000    
    2073   1.319      0.6364E-03 SPRIN         11   0.0%   45.99      0.3125E-04   0.000      -4.010       0.000      0.5000E-01   0.000    
    2074   1.320      0.6364E-03 SPRIN         11   0.0%   46.04      0.3125E-04   0.000      -3.956       0.000      0.5000E-01   0.000    
    2075   1.321      0.6364E-03 SPRIN         11   0.0%   46.10      0.3125E-04   0.000      -3.903       0.000      0.5000E-01   0.000    
    2076   1.321      0.6364E-03 SPRIN         11   0.0%   46.15      0.3125E-04   0.000      -3.849       0.000      0.5000E-01   0.000    
    2077   1.322      0.6364E-03 SPRIN         11   0.0%   46.20      0.3125E-04   0.000      -3.796       0.000      0.5000E-01   0.000    
    2078   1.322      0.6364E-03 SPRIN         11   0.0%   46.26      0.3125E-04   0.000      -3.742       0.000      0.5000E-01   0.000    
    2079   1.323      0.6364E-03 SPRIN         11   0.0%   46.31      0.3125E-04   0.000      -3.688       0.000      0.5000E-01   0.000    
    2080   1.324      0.6364E-03 SPRIN         11   0.0%   46.37      0.3125E-04   0.000      -3.634       0.000      0.5000E-01   0.000    
    2081   1.324      0.6364E-03 SPRIN         11   0.0%   46.42      0.3125E-04   0.000      -3.580       0.000      0.5000E-01   0.000    
    2082   1.325      0.6364E-03 SPRIN         11   0.0%   46.47      0.3125E-04   0.000      -3.526       0.000      0.5000E-01   0.000    
    2083   1.326      0.6364E-03 SPRIN         11   0.0%   46.53      0.3125E-04   0.000      -3.472       0.000      0.5000E-01   0.000    
    2084   1.326      0.6364E-03 SPRIN         11   0.0%   46.58      0.3125E-04   0.000      -3.418       0.000      0.5000E-01   0.000    
    2085   1.327      0.6364E-03 SPRIN         11   0.0%   46.64      0.3125E-04   0.000      -3.363       0.000      0.5000E-01   0.000    
    2086   1.328      0.6364E-03 SPRIN         11   0.0%   46.69      0.3125E-04   0.000      -3.309       0.000      0.5000E-01   0.000    
    2087   1.328      0.6364E-03 SPRIN         11   0.0%   46.75      0.3125E-04   0.000      -3.254       0.000      0.5000E-01   0.000    
    2088   1.329      0.6364E-03 SPRIN         11   0.0%   46.80      0.3125E-04   0.000      -3.199       0.000      0.5000E-01   0.000    
    2089   1.329      0.6364E-03 SPRIN         11   0.0%   46.86      0.3125E-04   0.000      -3.144       0.000      0.5000E-01   0.000    
   CYCLE    TIME      TIME-STEP  ELEMENT          ERROR  I-ENERGY    K-ENERGY T  K-ENERGY R  EXT-WORK     MAS.ERR     TOTAL MASS  MASS ADDED
    2090   1.330      0.6364E-03 SPRIN         11   0.0%   46.91      0.3125E-04   0.000      -3.089       0.000      0.5000E-01   0.000    
    2091   1.331      0.6364E-03 SPRIN         11   0.0%   46.97      0.3125E-04   0.000      -3.034       0.000      0.5000E-01   0.000    
    2092   1.331      0.6364E-03 SPRIN         11   0.0%   47.02      0.3125E-04   0.000      -2.979       0.000      0.5000E-01   0.000    
    2093   1.332      0.6364E-03 SPRIN         11   0.0%   47.08      0.3125E-04   0.000      -2.924       0.000      0.5000E-01   0.000    
    2094   1.333      0.6364E-03 SPRIN         11   0.0%   47.13      0.3125E-04   0.000      -2.869       0.000      0.5000E-01   0.000    
    2095   1.333      0.6364E-03 SPRIN         11   0.0%   47.19      0.3125E-04   0.000      -2.813       0.000      0.5000E-01   0.000    
    2096   1.334      0.6364E-03 SPRIN         11   0.0%   47.24      0.3125E-04   0.000      -2.758       0.000      0.5000E-01   0.000    
    2097   1.335      0.6364E-03 SPRIN         11   0.0%   47.30      0.3125E-04   0.000      -2.702       0.000      0.5000E-01   0.000    
    2098   1.335      0.6364E-03 SPRIN         11   0.0%   47.35      0.3125E-04   0.000      -2.646       0.000      0.5000E-01   0.000    
    2099   1.336      0.6364E-03 SPRIN         11   0.0%   47.41      0.3125E-04   0.000      -2.590       0.000      0.5000E-01   0.000    
    2100   1.336      0.6364E-03 SPRIN         11   0.0%   47.47      0.3125E-04   0.000      -2.534       0.000      0.5000E-01   0.000    
    2101   1.337      0.6364E-03 SPRIN         11   0.0%   47.52      0.3125E-04   0.000      -2.478       0.000      0.5000E-01   0.000    
    2102   1.338      0.6364E-03 SPRIN         11   0.0%   47.58      0.3125E-04   0.000      -2.422       0.000      0.5000E-01   0.000    
    2103   1.338      0.6364E-03 SPRIN         11   0.0%   47.63      0.3125E-04   0.000      -2.366       0.000      0.5000E-01   0.000    
    2104   1.339      0.6364E-03 SPRIN         11   0.0%   47.69      0.3125E-04   0.000      -2.310       0.000      0.5000E-01   0.000    
    2105   1.340      0.6364E-03 SPRIN         11   0.0%   47.75      0.3125E-04   0.000      -2.253       0.000      0.5000E-01   0.000    
    2106   1.340      0.6364E-03 SPRIN         11   0.0%   47.80      0.3125E-04   0.000      -2.197       0.000      0.5000E-01   0.000    
    2107   1.341      0.6364E-03 SPRIN         11   0.0%   47.86      0.3125E-04   0.000      -2.140       0.000      0.5000E-01   0.000    
    2108   1.342      0.6364E-03 SPRIN         11   0.0%   47.92      0.3125E-04   0.000      -2.083       0.000      0.5000E-01   0.000    
    2109   1.342      0.6364E-03 SPRIN         11   0.0%   47.97      0.3125E-04   0.000      -2.026       0.000      0.5000E-01   0.000    
    2110   1.343      0.6364E-03 SPRIN         11   0.0%   48.03      0.3125E-04   0.000      -1.969       0.000      0.5000E-01   0.000    
    2111   1.343      0.6364E-03 SPRIN         11   0.0%   48.09      0.3125E-04   0.000      -1.912       0.000      0.5000E-01   0.000    
    2112   1.344      0.6364E-03 SPRIN         11   0.0%   48.14      0.3125E-04   0.000      -1.855       0.000      0.5000E-01   0.000    
    2113   1.345      0.6364E-03 SPRIN         11   0.0%   48.20      0.3125E-04   0.000      -1.798       0.000      0.5000E-01   0.000    
    2114   1.345      0.6364E-03 SPRIN         11   0.0%   48.26      0.3125E-04   0.000      -1.740       0.000      0.5000E-01   0.000    
    2115   1.346      0.6364E-03 SPRIN         11   0.0%   48.32      0.3125E-04   0.000      -1.683       0.000      0.5000E-01   0.000    
    2116   1.347      0.6364E-03 SPRIN         11   0.0%   48.37      0.3125E-04   0.000      -1.625       0.000      0.5000E-01   0.000    
    2117   1.347      0.6364E-03 SPRIN         11   0.0%   48.43      0.3125E-04   0.000      -1.568       0.000      0.5000E-01   0.000    
    2118   1.348      0.6364E-03 SPRIN         11   0.0%   48.49      0.3125E-04   0.000      -1.510       0.000      0.5000E-01   0.000    
    2119   1.349      0.6364E-03 SPRIN         11   0.0%   48.55      0.3125E-04   0.000      -1.452       0.000      0.5000E-01   0.000    
    2120   1.349      0.6364E-03 SPRIN         11   0.0%   48.61      0.3125E-04   0.000      -1.394       0.000      0.5000E-01   0.000    
    2121   1.350      0.6364E-03 SPRIN         11   0.0%   48.66      0.3125E-04   0.000      -1.336       0.000      0.5000E-01   0.000    
    2122   1.350      0.6364E-03 SPRIN         11   0.0%   48.72      0.3125E-04   0.000      -1.278       0.000      0.5000E-01   0.000    
    2123   1.351      0.6364E-03 SPRIN         11   0.0%   48.78      0.3125E-04   0.000      -1.219       0.000      0.5000E-01   0.000    
    2124   1.352      0.6364E-03 SPRIN         11   0.0%   48.84      0.3125E-04   0.000      -1.161       0.000      0.5000E-01   0.000    
    2125   1.352      0.6364E-03 SPRIN         11   0.0%   48.90      0.3125E-04   0.000      -1.103       0.000      0.5000E-01   0.000    
    2126   1.353      0.6364E-03 SPRIN         11   0.0%   48.96      0.3125E-04   0.000      -1.044       0.000      0.5000E-01   0.000    
    2127   1.354      0.6364E-03 SPRIN         11   0.0%   49.01      0.3125E-04   0.000     -0.9853       0.000      0.5000E-01   0.000    
    2128   1.354      0.6364E-03 SPRIN         11   0.0%   49.07      0.3125E-04   0.000     -0.9266       0.000      0.5000E-01   0.000    
    2129   1.355      0.6364E-03 SPRIN         11   0.0%   49.13      0.3125E-04   0.000     -0.8677       0.000      0.5000E-01   0.000    
    2130   1.356      0.6364E-03 SPRIN         11   0.0%   49.19      0.3125E-04   0.000     -0.8087       0.000      0.5000E-01   0.000    
    2131   1.356      0.6364E-03 SPRIN         11   0.0%   49.25      0.3125E-04   0.000     -0.7496       0.000      0.5000E-01   0.000    
    2132   1.357      0.6364E-03 SPRIN         11   0.0%   49.31      0.3125E-04   0.000     -0.6904       0.000      0.5000E-01   0.000    
    2133   1.357      0.6364E-03 SPRIN         11   0.0%   49.37      0.3125E-04   0.000     -0.6311       0.000      0.5000E-01   0.000    
    2134   1.358      0.6364E-03 SPRIN         11   0.0%   49.43      0.3125E-04   0.000     -0.5717       0.000      0.5000E-01   0.000    
    2135   1.359      0.6364E-03 SPRIN         11   0.0%   49.49      0.3125E-04   0.000     -0.5122       0.000      0.5000E-01   0.000    
    2136   1.359      0.6364E-03 SPRIN         11   0.0%   49.55      0.3125E-04   0.000     -0.4526       0.000      0.5000E-01   0.000    
    2137   1.360      0.6364E-03 SPRIN         11   0.0%   49.61      0.3125E-04   0.000     -0.3929       0.000      0.5000E-01   0.000    
    2138   1.361      0.6364E-03 SPRIN         11   0.0%   49.67      0.3125E-04   0.000     -0.3331       0.000      0.5000E-01   0.000    
    2139   1.361      0.6364E-03 SPRIN         11   0.0%   49.73      0.3125E-04   0.000     -0.2732       0.000      0.5000E-01   0.000    
    2140   1.362      0.6364E-03 SPRIN         11   0.0%   49.79      0.3125E-04   0.000     -0.2132       0.000      0.5000E-01   0.000    
    2141   1.363      0.6364E-03 SPRIN         11   0.0%   49.85      0.3125E-04   0.000     -0.1531       0.000      0.5000E-01   0.000    
    2142   1.363      0.6364E-03 SPRIN         11   0.0%   49.91      0.3125E-04   0.000     -0.9286E-01   0.000      0.5000E-01   0.000    
    2143   1.364      0.6364E-03 SPRIN         11   0.0%   49.97      0.3125E-04   0.000     -0.3256E-01   0.000      0.5000E-01   0.000    
    2144   1.364      0.6364E-03 SPRIN         11   0.0%   50.03      0.3125E-04   0.000      0.2785E-01   0.000      0.5000E-01   0.000    
   CYCLE    TIME      TIME-STEP  ELEMENT          ERROR  I-ENERGY    K-ENERGY T  K-ENERGY R  EXT-WORK     MAS.ERR     TOTAL MASS  MASS ADDED
    2145   1.365      0.6364E-03 SPRIN         11   0.0%   50.09      0.3125E-04   0.000      0.8837E-01   0.000      0.5000E-01   0.000    
    2146   1.366      0.6364E-03 SPRIN         11   0.0%   50.15      0.3125E-04   0.000      0.1490       0.000      0.5000E-01   0.000    
    2147   1.366      0.6364E-03 SPRIN         11   0.0%   50.21      0.3125E-04   0.000      0.2097       0.000      0.5000E-01   0.000    
    2148   1.367      0.6364E-03 SPRIN         11   0.0%   50.27      0.3125E-04   0.000      0.2705       0.000      0.5000E-01   0.000    
    2149   1.368      0.6364E-03 SPRIN         11   0.0%   50.33      0.3125E-04   0.000      0.3314       0.000      0.5000E-01   0.000    
    2150   1.368      0.6364E-03 SPRIN         11   0.0%   50.39      0.3125E-04   0.000      0.3924       0.000      0.5000E-01   0.000    
    2151   1.369      0.6364E-03 SPRIN         11   0.0%   50.45      0.3125E-04   0.000      0.4536       0.000      0.5000E-01   0.000    
    2152   1.370      0.6364E-03 SPRIN         11   0.0%   50.51      0.3125E-04   0.000      0.5148       0.000      0.5000E-01   0.000    
    2153   1.370      0.6364E-03 SPRIN         11   0.0%   50.58      0.3125E-04   0.000      0.5761       0.000      0.5000E-01   0.000    
    2154   1.371      0.6364E-03 SPRIN         11   0.0%   50.64      0.3125E-04   0.000      0.6375       0.000      0.5000E-01   0.000    
    2155   1.371      0.6364E-03 SPRIN         11   0.0%   50.70      0.3125E-04   0.000      0.6990       0.000      0.5000E-01   0.000    
    2156   1.372      0.6364E-03 SPRIN         11   0.0%   50.76      0.3125E-04   0.000      0.7607       0.000      0.5000E-01   0.000    
    2157   1.373      0.6364E-03 SPRIN         11   0.0%   50.82      0.3125E-04   0.000      0.8224       0.000      0.5000E-01   0.000    
    2158   1.373      0.6364E-03 SPRIN         11   0.0%   50.88      0.3125E-04   0.000      0.8842       0.000      0.5000E-01   0.000    
    2159   1.374      0.6364E-03 SPRIN         11   0.0%   50.95      0.3125E-04   0.000      0.9462       0.000      0.5000E-01   0.000    
    2160   1.375      0.6364E-03 SPRIN         11   0.0%   51.01      0.3125E-04   0.000       1.008       0.000      0.5000E-01   0.000    
    2161   1.375      0.6364E-03 SPRIN         11   0.0%   51.07      0.3125E-04   0.000       1.070       0.000      0.5000E-01   0.000    
    2162   1.376      0.6364E-03 SPRIN         11   0.0%   51.13      0.3125E-04   0.000       1.133       0.000      0.5000E-01   0.000    
    2163   1.377      0.6364E-03 SPRIN         11   0.0%   51.19      0.3125E-04   0.000       1.195       0.000      0.5000E-01   0.000    
    2164   1.377      0.6364E-03 SPRIN         11   0.0%   51.26      0.3125E-04   0.000       1.257       0.000      0.5000E-01   0.000    
    2165   1.378      0.6364E-03 SPRIN         11   0.0%   51.32      0.3125E-04   0.000       1.320       0.000      0.5000E-01   0.000    
    2166   1.378      0.6364E-03 SPRIN         11   0.0%   51.38      0.3125E-04   0.000       1.382       0.000      0.5000E-01   0.000    
    2167   1.379      0.6364E-03 SPRIN         11   0.0%   51.45      0.3125E-04   0.000       1.445       0.000      0.5000E-01   0.000    
    2168   1.380      0.6364E-03 SPRIN         11   0.0%   51.51      0.3125E-04   0.000       1.508       0.000      0.5000E-01   0.000    
    2169   1.380      0.6364E-03 SPRIN         11   0.0%   51.57      0.3125E-04   0.000       1.571       0.000      0.5000E-01   0.000    
    2170   1.381      0.6364E-03 SPRIN         11   0.0%   51.63      0.3125E-04   0.000       1.634       0.000      0.5000E-01   0.000    
    2171   1.382      0.6364E-03 SPRIN         11   0.0%   51.70      0.3125E-04   0.000       1.697       0.000      0.5000E-01   0.000    
    2172   1.382      0.6364E-03 SPRIN         11   0.0%   51.76      0.3125E-04   0.000       1.760       0.000      0.5000E-01   0.000    
    2173   1.383      0.6364E-03 SPRIN         11   0.0%   51.82      0.3125E-04   0.000       1.824       0.000      0.5000E-01   0.000    
    2174   1.384      0.6364E-03 SPRIN         11   0.0%   51.89      0.3125E-04   0.000       1.887       0.000      0.5000E-01   0.000    
    2175   1.384      0.6364E-03 SPRIN         11   0.0%   51.95      0.3125E-04   0.000       1.951       0.000      0.5000E-01   0.000    
    2176   1.385      0.6364E-03 SPRIN         11   0.0%   52.01      0.3125E-04   0.000       2.014       0.000      0.5000E-01   0.000    
    2177   1.385      0.6364E-03 SPRIN         11   0.0%   52.08      0.3125E-04   0.000       2.078       0.000      0.5000E-01   0.000    
    2178   1.386      0.6364E-03 SPRIN         11   0.0%   52.14      0.3125E-04   0.000       2.142       0.000      0.5000E-01   0.000    
    2179   1.387      0.6364E-03 SPRIN         11   0.0%   52.21      0.3125E-04   0.000       2.206       0.000      0.5000E-01   0.000    
    2180   1.387      0.6364E-03 SPRIN         11   0.0%   52.27      0.3125E-04   0.000       2.270       0.000      0.5000E-01   0.000    
    2181   1.388      0.6364E-03 SPRIN         11   0.0%   52.33      0.3125E-04   0.000       2.334       0.000      0.5000E-01   0.000    
    2182   1.389      0.6364E-03 SPRIN         11   0.0%   52.40      0.3125E-04   0.000       2.398       0.000      0.5000E-01   0.000    
    2183   1.389      0.6364E-03 SPRIN         11   0.0%   52.46      0.3125E-04   0.000       2.463       0.000      0.5000E-01   0.000    
    2184   1.390      0.6364E-03 SPRIN         11   0.0%   52.53      0.3125E-04   0.000       2.527       0.000      0.5000E-01   0.000    
    2185   1.391      0.6364E-03 SPRIN         11   0.0%   52.59      0.3125E-04   0.000       2.592       0.000      0.5000E-01   0.000    
    2186   1.391      0.6364E-03 SPRIN         11   0.0%   52.66      0.3125E-04   0.000       2.657       0.000      0.5000E-01   0.000    
    2187   1.392      0.6364E-03 SPRIN         11   0.0%   52.72      0.3125E-04   0.000       2.721       0.000      0.5000E-01   0.000    
    2188   1.392      0.6364E-03 SPRIN         11   0.0%   52.79      0.3125E-04   0.000       2.786       0.000      0.5000E-01   0.000    
    2189   1.393      0.6364E-03 SPRIN         11   0.0%   52.85      0.3125E-04   0.000       2.851       0.000      0.5000E-01   0.000    
    2190   1.394      0.6364E-03 SPRIN         11   0.0%   52.92      0.3125E-04   0.000       2.916       0.000      0.5000E-01   0.000    
    2191   1.394      0.6364E-03 SPRIN         11   0.0%   52.98      0.3125E-04   0.000       2.981       0.000      0.5000E-01   0.000    
    2192   1.395      0.6364E-03 SPRIN         11   0.0%   53.05      0.3125E-04   0.000       3.047       0.000      0.5000E-01   0.000    
    2193   1.396      0.6364E-03 SPRIN         11   0.0%   53.11      0.3125E-04   0.000       3.112       0.000      0.5000E-01   0.000    
    2194   1.396      0.6364E-03 SPRIN         11   0.0%   53.18      0.3125E-04   0.000       3.177       0.000      0.5000E-01   0.000    
    2195   1.397      0.6364E-03 SPRIN         11   0.0%   53.24      0.3125E-04   0.000       3.243       0.000      0.5000E-01   0.000    
    2196   1.398      0.6364E-03 SPRIN         11   0.0%   53.31      0.3125E-04   0.000       3.309       0.000      0.5000E-01   0.000    
    2197   1.398      0.6364E-03 SPRIN         11   0.0%   53.37      0.3125E-04   0.000       3.374       0.000      0.5000E-01   0.000    
    2198   1.399      0.6364E-03 SPRIN         11   0.0%   53.44      0.3125E-04   0.000       3.440       0.000      0.5000E-01   0.000    
    2199   1.399      0.6364E-03 SPRIN         11   0.0%   53.51      0.3125E-04   0.000       3.506       0.000      0.5000E-01   0.000    
   CYCLE    TIME      TIME-STEP  ELEMENT          ERROR  I-ENERGY    K-ENERGY T  K-ENERGY R  EXT-WORK     MAS.ERR     TOTAL MASS  MASS ADDED
    2200   1.400      0.6364E-03 SPRIN         11   0.0%   53.57      0.3125E-04   0.000       3.572       0.000      0.5000E-01   0.000    
     ANIMATION FILE: SPR_PRE_2FLAGA008 WRITTEN
    2201   1.401      0.6364E-03 SPRIN         11   0.0%   53.64      0.3125E-04   0.000       3.639       0.000      0.5000E-01   0.000    
    2202   1.401      0.6364E-03 SPRIN         11   0.0%   53.70      0.3125E-04   0.000       3.705       0.000      0.5000E-01   0.000    
    2203   1.402      0.6364E-03 SPRIN         11   0.0%   53.77      0.3125E-04   0.000       3.771       0.000      0.5000E-01   0.000    
    2204   1.403      0.6364E-03 SPRIN         11   0.0%   53.84      0.3125E-04   0.000       3.838       0.000      0.5000E-01   0.000    
    2205   1.403      0.6364E-03 SPRIN         11   0.0%   53.90      0.3125E-04   0.000       3.904       0.000      0.5000E-01   0.000    
    2206   1.404      0.6364E-03 SPRIN         11   0.0%   53.97      0.3125E-04   0.000       3.971       0.000      0.5000E-01   0.000    
    2207   1.405      0.6364E-03 SPRIN         11   0.0%   54.04      0.3125E-04   0.000       4.038       0.000      0.5000E-01   0.000    
    2208   1.405      0.6364E-03 SPRIN         11   0.0%   54.10      0.3125E-04   0.000       4.105       0.000      0.5000E-01   0.000    
    2209   1.406      0.6364E-03 SPRIN         11   0.0%   54.17      0.3125E-04   0.000       4.172       0.000      0.5000E-01   0.000    
    2210   1.406      0.6364E-03 SPRIN         11   0.0%   54.24      0.3125E-04   0.000       4.239       0.000      0.5000E-01   0.000    
    2211   1.407      0.6364E-03 SPRIN         11   0.0%   54.31      0.3125E-04   0.000       4.306       0.000      0.5000E-01   0.000    
    2212   1.408      0.6364E-03 SPRIN         11   0.0%   54.37      0.3125E-04   0.000       4.373       0.000      0.5000E-01   0.000    
    2213   1.408      0.6364E-03 SPRIN         11   0.0%   54.44      0.3125E-04   0.000       4.441       0.000      0.5000E-01   0.000    
    2214   1.409      0.6364E-03 SPRIN         11   0.0%   54.51      0.3125E-04   0.000       4.508       0.000      0.5000E-01   0.000    
    2215   1.410      0.6364E-03 SPRIN         11   0.0%   54.58      0.3125E-04   0.000       4.576       0.000      0.5000E-01   0.000    
    2216   1.410      0.6364E-03 SPRIN         11   0.0%   54.64      0.3125E-04   0.000       4.643       0.000      0.5000E-01   0.000    
    2217   1.411      0.6364E-03 SPRIN         11   0.0%   54.71      0.3125E-04   0.000       4.711       0.000      0.5000E-01   0.000    
    2218   1.412      0.6364E-03 SPRIN         11   0.0%   54.78      0.3125E-04   0.000       4.779       0.000      0.5000E-01   0.000    
    2219   1.412      0.6364E-03 SPRIN         11   0.0%   54.85      0.3125E-04   0.000       4.847       0.000      0.5000E-01   0.000    
    2220   1.413      0.6364E-03 SPRIN         11   0.0%   54.92      0.3125E-04   0.000       4.915       0.000      0.5000E-01   0.000    
    2221   1.413      0.6364E-03 SPRIN         11   0.0%   54.98      0.3125E-04   0.000       4.983       0.000      0.5000E-01   0.000    
    2222   1.414      0.6364E-03 SPRIN         11   0.0%   55.05      0.3125E-04   0.000       5.052       0.000      0.5000E-01   0.000    
    2223   1.415      0.6364E-03 SPRIN         11   0.0%   55.12      0.3125E-04   0.000       5.120       0.000      0.5000E-01   0.000    
    2224   1.415      0.6364E-03 SPRIN         11   0.0%   55.19      0.3125E-04   0.000       5.189       0.000      0.5000E-01   0.000    
    2225   1.416      0.6364E-03 SPRIN         11   0.0%   55.26      0.3125E-04   0.000       5.257       0.000      0.5000E-01   0.000    
    2226   1.417      0.6364E-03 SPRIN         11   0.0%   55.33      0.3125E-04   0.000       5.326       0.000      0.5000E-01   0.000    
    2227   1.417      0.6364E-03 SPRIN         11   0.0%   55.39      0.3125E-04   0.000       5.395       0.000      0.5000E-01   0.000    
    2228   1.418      0.6364E-03 SPRIN         11   0.0%   55.46      0.3125E-04   0.000       5.464       0.000      0.5000E-01   0.000    
    2229   1.419      0.6364E-03 SPRIN         11   0.0%   55.53      0.3125E-04   0.000       5.533       0.000      0.5000E-01   0.000    
    2230   1.419      0.6364E-03 SPRIN         11   0.0%   55.60      0.3125E-04   0.000       5.602       0.000      0.5000E-01   0.000    
    2231   1.420      0.6364E-03 SPRIN         11   0.0%   55.67      0.3125E-04   0.000       5.671       0.000      0.5000E-01   0.000    
    2232   1.420      0.6364E-03 SPRIN         11   0.0%   55.74      0.3125E-04   0.000       5.740       0.000      0.5000E-01   0.000    
    2233   1.421      0.6364E-03 SPRIN         11   0.0%   55.81      0.3125E-04   0.000       5.810       0.000      0.5000E-01   0.000    
    2234   1.422      0.6364E-03 SPRIN         11   0.0%   55.88      0.3125E-04   0.000       5.879       0.000      0.5000E-01   0.000    
    2235   1.422      0.6364E-03 SPRIN         11   0.0%   55.95      0.3125E-04   0.000       5.949       0.000      0.5000E-01   0.000    
    2236   1.423      0.6364E-03 SPRIN         11   0.0%   56.02      0.3125E-04   0.000       6.019       0.000      0.5000E-01   0.000    
    2237   1.424      0.6364E-03 SPRIN         11   0.0%   56.09      0.3125E-04   0.000       6.089       0.000      0.5000E-01   0.000    
    2238   1.424      0.6364E-03 SPRIN         11   0.0%   56.16      0.3125E-04   0.000       6.158       0.000      0.5000E-01   0.000    
    2239   1.425      0.6364E-03 SPRIN         11   0.0%   56.23      0.3125E-04   0.000       6.229       0.000      0.5000E-01   0.000    
    2240   1.426      0.6364E-03 SPRIN         11   0.0%   56.30      0.3125E-04   0.000       6.299       0.000      0.5000E-01   0.000    
    2241   1.426      0.6364E-03 SPRIN         11   0.0%   56.37      0.3125E-04   0.000       6.369       0.000      0.5000E-01   0.000    
    2242   1.427      0.6364E-03 SPRIN         11   0.0%   56.44      0.3125E-04   0.000       6.439       0.000      0.5000E-01   0.000    
    2243   1.427      0.6364E-03 SPRIN         11   0.0%   56.51      0.3125E-04   0.000       6.510       0.000      0.5000E-01   0.000    
    2244   1.428      0.6364E-03 SPRIN         11   0.0%   56.58      0.3125E-04   0.000       6.580       0.000      0.5000E-01   0.000    
    2245   1.429      0.6364E-03 SPRIN         11   0.0%   56.65      0.3125E-04   0.000       6.651       0.000      0.5000E-01   0.000    
    2246   1.429      0.6364E-03 SPRIN         11   0.0%   56.72      0.3125E-04   0.000       6.722       0.000      0.5000E-01   0.000    
    2247   1.430      0.6364E-03 SPRIN         11   0.0%   56.79      0.3125E-04   0.000       6.792       0.000      0.5000E-01   0.000    
    2248   1.431      0.6364E-03 SPRIN         11   0.0%   56.86      0.3125E-04   0.000       6.863       0.000      0.5000E-01   0.000    
    2249   1.431      0.6364E-03 SPRIN         11   0.0%   56.93      0.3125E-04   0.000       6.934       0.000      0.5000E-01   0.000    
    2250   1.432      0.6364E-03 SPRIN         11   0.0%   57.01      0.3125E-04   0.000       7.006       0.000      0.5000E-01   0.000    
    2251   1.433      0.6364E-03 SPRIN         11   0.0%   57.08      0.3125E-04   0.000       7.077       0.000      0.5000E-01   0.000    
    2252   1.433      0.6364E-03 SPRIN         11   0.0%   57.15      0.3125E-04   0.000       7.148       0.000      0.5000E-01   0.000    
    2253   1.434      0.6364E-03 SPRIN         11   0.0%   57.22      0.3125E-04   0.000       7.220       0.000      0.5000E-01   0.000    
    2254   1.434      0.6364E-03 SPRIN         11   0.0%   57.29      0.3125E-04   0.000       7.291       0.000      0.5000E-01   0.000    
   CYCLE    TIME      TIME-STEP  ELEMENT          ERROR  I-ENERGY    K-ENERGY T  K-ENERGY R  EXT-WORK     MAS.ERR     TOTAL MASS  MASS ADDED
    2255   1.435      0.6364E-03 SPRIN         11   0.0%   57.36      0.3125E-04   0.000       7.363       0.000      0.5000E-01   0.000    
    2256   1.436      0.6364E-03 SPRIN         11   0.0%   57.43      0.3125E-04   0.000       7.434       0.000      0.5000E-01   0.000    
    2257   1.436      0.6364E-03 SPRIN         11   0.0%   57.51      0.3125E-04   0.000       7.506       0.000      0.5000E-01   0.000    
    2258   1.437      0.6364E-03 SPRIN         11   0.0%   57.58      0.3125E-04   0.000       7.578       0.000      0.5000E-01   0.000    
    2259   1.438      0.6364E-03 SPRIN         11   0.0%   57.65      0.3125E-04   0.000       7.650       0.000      0.5000E-01   0.000    
    2260   1.438      0.6364E-03 SPRIN         11   0.0%   57.72      0.3125E-04   0.000       7.722       0.000      0.5000E-01   0.000    
    2261   1.439      0.6364E-03 SPRIN         11   0.0%   57.79      0.3125E-04   0.000       7.795       0.000      0.5000E-01   0.000    
    2262   1.440      0.6364E-03 SPRIN         11   0.0%   57.87      0.3125E-04   0.000       7.867       0.000      0.5000E-01   0.000    
    2263   1.440      0.6364E-03 SPRIN         11   0.0%   57.94      0.3125E-04   0.000       7.940       0.000      0.5000E-01   0.000    
    2264   1.441      0.6364E-03 SPRIN         11   0.0%   58.01      0.3125E-04   0.000       8.012       0.000      0.5000E-01   0.000    
    2265   1.441      0.6364E-03 SPRIN         11   0.0%   58.08      0.3125E-04   0.000       8.085       0.000      0.5000E-01   0.000    
    2266   1.442      0.6364E-03 SPRIN         11   0.0%   58.16      0.3125E-04   0.000       8.158       0.000      0.5000E-01   0.000    
    2267   1.443      0.6364E-03 SPRIN         11   0.0%   58.23      0.3125E-04   0.000       8.230       0.000      0.5000E-01   0.000    
    2268   1.443      0.6364E-03 SPRIN         11   0.0%   58.30      0.3125E-04   0.000       8.303       0.000      0.5000E-01   0.000    
    2269   1.444      0.6364E-03 SPRIN         11   0.0%   58.38      0.3125E-04   0.000       8.376       0.000      0.5000E-01   0.000    
    2270   1.445      0.6364E-03 SPRIN         11   0.0%   58.45      0.3125E-04   0.000       8.450       0.000      0.5000E-01   0.000    
    2271   1.445      0.6364E-03 SPRIN         11   0.0%   58.52      0.3125E-04   0.000       8.523       0.000      0.5000E-01   0.000    
    2272   1.446      0.6364E-03 SPRIN         11   0.0%   58.60      0.3125E-04   0.000       8.596       0.000      0.5000E-01   0.000    
    2273   1.447      0.6364E-03 SPRIN         11   0.0%   58.67      0.3125E-04   0.000       8.670       0.000      0.5000E-01   0.000    
    2274   1.447      0.6364E-03 SPRIN         11   0.0%   58.74      0.3125E-04   0.000       8.743       0.000      0.5000E-01   0.000    
    2275   1.448      0.6364E-03 SPRIN         11   0.0%   58.82      0.3125E-04   0.000       8.817       0.000      0.5000E-01   0.000    
    2276   1.448      0.6364E-03 SPRIN         11   0.0%   58.89      0.3125E-04   0.000       8.891       0.000      0.5000E-01   0.000    
    2277   1.449      0.6364E-03 SPRIN         11   0.0%   58.96      0.3125E-04   0.000       8.965       0.000      0.5000E-01   0.000    
    2278   1.450      0.6364E-03 SPRIN         11   0.0%   59.04      0.3125E-04   0.000       9.039       0.000      0.5000E-01   0.000    
    2279   1.450      0.6364E-03 SPRIN         11   0.0%   59.11      0.3125E-04   0.000       9.113       0.000      0.5000E-01   0.000    
    2280   1.451      0.6364E-03 SPRIN         11   0.0%   59.19      0.3125E-04   0.000       9.187       0.000      0.5000E-01   0.000    
    2281   1.452      0.6364E-03 SPRIN         11   0.0%   59.26      0.3125E-04   0.000       9.261       0.000      0.5000E-01   0.000    
    2282   1.452      0.6364E-03 SPRIN         11   0.0%   59.34      0.3125E-04   0.000       9.336       0.000      0.5000E-01   0.000    
    2283   1.453      0.6364E-03 SPRIN         11   0.0%   59.41      0.3125E-04   0.000       9.410       0.000      0.5000E-01   0.000    
    2284   1.454      0.6364E-03 SPRIN         11   0.0%   59.48      0.3125E-04   0.000       9.485       0.000      0.5000E-01   0.000    
    2285   1.454      0.6364E-03 SPRIN         11   0.0%   59.56      0.3125E-04   0.000       9.559       0.000      0.5000E-01   0.000    
    2286   1.455      0.6364E-03 SPRIN         11   0.0%   59.63      0.3125E-04   0.000       9.634       0.000      0.5000E-01   0.000    
    2287   1.455      0.6364E-03 SPRIN         11   0.0%   59.71      0.3125E-04   0.000       9.709       0.000      0.5000E-01   0.000    
    2288   1.456      0.6364E-03 SPRIN         11   0.0%   59.78      0.3125E-04   0.000       9.784       0.000      0.5000E-01   0.000    
    2289   1.457      0.6364E-03 SPRIN         11   0.0%   59.86      0.3125E-04   0.000       9.859       0.000      0.5000E-01   0.000    
    2290   1.457      0.6364E-03 SPRIN         11   0.0%   59.93      0.3125E-04   0.000       9.934       0.000      0.5000E-01   0.000    
    2291   1.458      0.6364E-03 SPRIN         11   0.0%   60.01      0.3125E-04   0.000       10.01       0.000      0.5000E-01   0.000    
    2292   1.459      0.6364E-03 SPRIN         11   0.0%   60.08      0.3125E-04   0.000       10.08       0.000      0.5000E-01   0.000    
    2293   1.459      0.6364E-03 SPRIN         11   0.0%   60.16      0.3125E-04   0.000       10.16       0.000      0.5000E-01   0.000    
    2294   1.460      0.6364E-03 SPRIN         11   0.0%   60.24      0.3125E-04   0.000       10.24       0.000      0.5000E-01   0.000    
    2295   1.461      0.6364E-03 SPRIN         11   0.0%   60.31      0.3125E-04   0.000       10.31       0.000      0.5000E-01   0.000    
    2296   1.461      0.6364E-03 SPRIN         11   0.0%   60.39      0.3125E-04   0.000       10.39       0.000      0.5000E-01   0.000    
    2297   1.462      0.6364E-03 SPRIN         11   0.0%   60.46      0.3125E-04   0.000       10.46       0.000      0.5000E-01   0.000    
    2298   1.462      0.6364E-03 SPRIN         11   0.0%   60.54      0.3125E-04   0.000       10.54       0.000      0.5000E-01   0.000    
    2299   1.463      0.6364E-03 SPRIN         11   0.0%   60.62      0.3125E-04   0.000       10.62       0.000      0.5000E-01   0.000    
    2300   1.464      0.6364E-03 SPRIN         11   0.0%   60.69      0.3125E-04   0.000       10.69       0.000      0.5000E-01   0.000    
    2301   1.464      0.6364E-03 SPRIN         11   0.0%   60.77      0.3125E-04   0.000       10.77       0.000      0.5000E-01   0.000    
    2302   1.465      0.6364E-03 SPRIN         11   0.0%   60.84      0.3125E-04   0.000       10.84       0.000      0.5000E-01   0.000    
    2303   1.466      0.6364E-03 SPRIN         11   0.0%   60.92      0.3125E-04   0.000       10.92       0.000      0.5000E-01   0.000    
    2304   1.466      0.6364E-03 SPRIN         11   0.0%   61.00      0.3125E-04   0.000       11.00       0.000      0.5000E-01   0.000    
    2305   1.467      0.6364E-03 SPRIN         11   0.0%   61.07      0.3125E-04   0.000       11.07       0.000      0.5000E-01   0.000    
    2306   1.468      0.6364E-03 SPRIN         11   0.0%   61.15      0.3125E-04   0.000       11.15       0.000      0.5000E-01   0.000    
    2307   1.468      0.6364E-03 SPRIN         11   0.0%   61.23      0.3125E-04   0.000       11.23       0.000      0.5000E-01   0.000    
    2308   1.469      0.6364E-03 SPRIN         11   0.0%   61.30      0.3125E-04   0.000       11.31       0.000      0.5000E-01   0.000    
    2309   1.469      0.6364E-03 SPRIN         11   0.0%   61.38      0.3125E-04   0.000       11.38       0.000      0.5000E-01   0.000    
   CYCLE    TIME      TIME-STEP  ELEMENT          ERROR  I-ENERGY    K-ENERGY T  K-ENERGY R  EXT-WORK     MAS.ERR     TOTAL MASS  MASS ADDED
    2310   1.470      0.6364E-03 SPRIN         11   0.0%   61.46      0.3125E-04   0.000       11.46       0.000      0.5000E-01   0.000    
    2311   1.471      0.6364E-03 SPRIN         11   0.0%   61.54      0.3125E-04   0.000       11.54       0.000      0.5000E-01   0.000    
    2312   1.471      0.6364E-03 SPRIN         11   0.0%   61.61      0.3125E-04   0.000       11.61       0.000      0.5000E-01   0.000    
    2313   1.472      0.6364E-03 SPRIN         11   0.0%   61.69      0.3125E-04   0.000       11.69       0.000      0.5000E-01   0.000    
    2314   1.473      0.6364E-03 SPRIN         11   0.0%   61.77      0.3125E-04   0.000       11.77       0.000      0.5000E-01   0.000    
    2315   1.473      0.6364E-03 SPRIN         11   0.0%   61.85      0.3125E-04   0.000       11.85       0.000      0.5000E-01   0.000    
    2316   1.474      0.6364E-03 SPRIN         11   0.0%   61.92      0.3125E-04   0.000       11.92       0.000      0.5000E-01   0.000    
    2317   1.475      0.6364E-03 SPRIN         11   0.0%   62.00      0.3125E-04   0.000       12.00       0.000      0.5000E-01   0.000    
    2318   1.475      0.6364E-03 SPRIN         11   0.0%   62.08      0.3125E-04   0.000       12.08       0.000      0.5000E-01   0.000    
    2319   1.476      0.6364E-03 SPRIN         11   0.0%   62.16      0.3125E-04   0.000       12.16       0.000      0.5000E-01   0.000    
    2320   1.476      0.6364E-03 SPRIN         11   0.0%   62.24      0.3125E-04   0.000       12.24       0.000      0.5000E-01   0.000    
    2321   1.477      0.6364E-03 SPRIN         11   0.0%   62.32      0.3125E-04   0.000       12.32       0.000      0.5000E-01   0.000    
    2322   1.478      0.6364E-03 SPRIN         11   0.0%   62.39      0.3125E-04   0.000       12.39       0.000      0.5000E-01   0.000    
    2323   1.478      0.6364E-03 SPRIN         11   0.0%   62.47      0.3125E-04   0.000       12.47       0.000      0.5000E-01   0.000    
    2324   1.479      0.6364E-03 SPRIN         11   0.0%   62.55      0.3125E-04   0.000       12.55       0.000      0.5000E-01   0.000    
    2325   1.480      0.6364E-03 SPRIN         11   0.0%   62.63      0.3125E-04   0.000       12.63       0.000      0.5000E-01   0.000    
    2326   1.480      0.6364E-03 SPRIN         11   0.0%   62.71      0.3125E-04   0.000       12.71       0.000      0.5000E-01   0.000    
    2327   1.481      0.6364E-03 SPRIN         11   0.0%   62.79      0.3125E-04   0.000       12.79       0.000      0.5000E-01   0.000    
    2328   1.482      0.6364E-03 SPRIN         11   0.0%   62.87      0.3125E-04   0.000       12.87       0.000      0.5000E-01   0.000    
    2329   1.482      0.6364E-03 SPRIN         11   0.0%   62.95      0.3125E-04   0.000       12.95       0.000      0.5000E-01   0.000    
    2330   1.483      0.6364E-03 SPRIN         11   0.0%   63.02      0.3125E-04   0.000       13.02       0.000      0.5000E-01   0.000    
    2331   1.483      0.6364E-03 SPRIN         11   0.0%   63.10      0.3125E-04   0.000       13.10       0.000      0.5000E-01   0.000    
    2332   1.484      0.6364E-03 SPRIN         11   0.0%   63.18      0.3125E-04   0.000       13.18       0.000      0.5000E-01   0.000    
    2333   1.485      0.6364E-03 SPRIN         11   0.0%   63.26      0.3125E-04   0.000       13.26       0.000      0.5000E-01   0.000    
    2334   1.485      0.6364E-03 SPRIN         11   0.0%   63.34      0.3125E-04   0.000       13.34       0.000      0.5000E-01   0.000    
    2335   1.486      0.6364E-03 SPRIN         11   0.0%   63.42      0.3125E-04   0.000       13.42       0.000      0.5000E-01   0.000    
    2336   1.487      0.6364E-03 SPRIN         11   0.0%   63.50      0.3125E-04   0.000       13.50       0.000      0.5000E-01   0.000    
    2337   1.487      0.6364E-03 SPRIN         11   0.0%   63.58      0.3125E-04   0.000       13.58       0.000      0.5000E-01   0.000    
    2338   1.488      0.6364E-03 SPRIN         11   0.0%   63.66      0.3125E-04   0.000       13.66       0.000      0.5000E-01   0.000    
    2339   1.489      0.6364E-03 SPRIN         11   0.0%   63.74      0.3125E-04   0.000       13.74       0.000      0.5000E-01   0.000    
    2340   1.489      0.6364E-03 SPRIN         11   0.0%   63.82      0.3125E-04   0.000       13.82       0.000      0.5000E-01   0.000    
    2341   1.490      0.6364E-03 SPRIN         11   0.0%   63.90      0.3125E-04   0.000       13.90       0.000      0.5000E-01   0.000    
    2342   1.490      0.6364E-03 SPRIN         11   0.0%   63.98      0.3125E-04   0.000       13.98       0.000      0.5000E-01   0.000    
    2343   1.491      0.6364E-03 SPRIN         11   0.0%   64.06      0.3125E-04   0.000       14.06       0.000      0.5000E-01   0.000    
    2344   1.492      0.6364E-03 SPRIN         11   0.0%   64.14      0.3125E-04   0.000       14.14       0.000      0.5000E-01   0.000    
    2345   1.492      0.6364E-03 SPRIN         11   0.0%   64.23      0.3125E-04   0.000       14.23       0.000      0.5000E-01   0.000    
    2346   1.493      0.6364E-03 SPRIN         11   0.0%   64.31      0.3125E-04   0.000       14.31       0.000      0.5000E-01   0.000    
    2347   1.494      0.6364E-03 SPRIN         11   0.0%   64.39      0.3125E-04   0.000       14.39       0.000      0.5000E-01   0.000    
    2348   1.494      0.6364E-03 SPRIN         11   0.0%   64.47      0.3125E-04   0.000       14.47       0.000      0.5000E-01   0.000    
    2349   1.495      0.6364E-03 SPRIN         11   0.0%   64.55      0.3125E-04   0.000       14.55       0.000      0.5000E-01   0.000    
    2350   1.496      0.6364E-03 SPRIN         11   0.0%   64.63      0.3125E-04   0.000       14.63       0.000      0.5000E-01   0.000    
    2351   1.496      0.6364E-03 SPRIN         11   0.0%   64.71      0.3125E-04   0.000       14.71       0.000      0.5000E-01   0.000    
    2352   1.497      0.6364E-03 SPRIN         11   0.0%   64.79      0.3125E-04   0.000       14.79       0.000      0.5000E-01   0.000    
    2353   1.497      0.6364E-03 SPRIN         11   0.0%   64.88      0.3125E-04   0.000       14.88       0.000      0.5000E-01   0.000    
    2354   1.498      0.6364E-03 SPRIN         11   0.0%   64.96      0.3125E-04   0.000       14.96       0.000      0.5000E-01   0.000    
    2355   1.499      0.6364E-03 SPRIN         11   0.0%   65.04      0.3125E-04   0.000       15.04       0.000      0.5000E-01   0.000    
    2356   1.499      0.6364E-03 SPRIN         11   0.0%   65.12      0.3125E-04   0.000       15.12       0.000      0.5000E-01   0.000    
    2357   1.500      0.6364E-03 SPRIN         11   0.0%   65.20      0.3125E-04   0.000       15.20       0.000      0.5000E-01   0.000    
    2358   1.501      0.6364E-03 SPRIN         11   0.0%   65.28      0.3125E-04   0.000       15.28       0.000      0.5000E-01   0.000    
    2359   1.501      0.6364E-03 SPRIN         11   0.0%   65.37      0.3125E-04   0.000       15.37       0.000      0.5000E-01   0.000    
    2360   1.502      0.6364E-03 SPRIN         11   0.0%   65.45      0.3125E-04   0.000       15.45       0.000      0.5000E-01   0.000    
    2361   1.503      0.6364E-03 SPRIN         11   0.0%   65.53      0.3125E-04   0.000       15.53       0.000      0.5000E-01   0.000    
    2362   1.503      0.6364E-03 SPRIN         11   0.0%   65.61      0.3125E-04   0.000       15.61       0.000      0.5000E-01   0.000    
    2363   1.504      0.6364E-03 SPRIN         11   0.0%   65.70      0.3125E-04   0.000       15.70       0.000      0.5000E-01   0.000    
    2364   1.504      0.6364E-03 SPRIN         11   0.0%   65.78      0.3125E-04   0.000       15.78       0.000      0.5000E-01   0.000    
   CYCLE    TIME      TIME-STEP  ELEMENT          ERROR  I-ENERGY    K-ENERGY T  K-ENERGY R  EXT-WORK     MAS.ERR     TOTAL MASS  MASS ADDED
    2365   1.505      0.6364E-03 SPRIN         11   0.0%   65.86      0.3125E-04   0.000       15.86       0.000      0.5000E-01   0.000    
    2366   1.506      0.6364E-03 SPRIN         11   0.0%   65.95      0.3125E-04   0.000       15.95       0.000      0.5000E-01   0.000    
    2367   1.506      0.6364E-03 SPRIN         11   0.0%   66.03      0.3125E-04   0.000       16.03       0.000      0.5000E-01   0.000    
    2368   1.507      0.6364E-03 SPRIN         11   0.0%   66.11      0.3125E-04   0.000       16.11       0.000      0.5000E-01   0.000    
    2369   1.508      0.6364E-03 SPRIN         11   0.0%   66.19      0.3125E-04   0.000       16.19       0.000      0.5000E-01   0.000    
    2370   1.508      0.6364E-03 SPRIN         11   0.0%   66.28      0.3125E-04   0.000       16.28       0.000      0.5000E-01   0.000    
    2371   1.509      0.6364E-03 SPRIN         11   0.0%   66.36      0.3125E-04   0.000       16.36       0.000      0.5000E-01   0.000    
    2372   1.510      0.6364E-03 SPRIN         11   0.0%   66.44      0.3125E-04   0.000       16.44       0.000      0.5000E-01   0.000    
    2373   1.510      0.6364E-03 SPRIN         11   0.0%   66.53      0.3125E-04   0.000       16.53       0.000      0.5000E-01   0.000    
    2374   1.511      0.6364E-03 SPRIN         11   0.0%   66.61      0.3125E-04   0.000       16.61       0.000      0.5000E-01   0.000    
    2375   1.511      0.6364E-03 SPRIN         11   0.0%   66.70      0.3125E-04   0.000       16.70       0.000      0.5000E-01   0.000    
    2376   1.512      0.6364E-03 SPRIN         11   0.0%   66.78      0.3125E-04   0.000       16.78       0.000      0.5000E-01   0.000    
    2377   1.513      0.6364E-03 SPRIN         11   0.0%   66.86      0.3125E-04   0.000       16.86       0.000      0.5000E-01   0.000    
    2378   1.513      0.6364E-03 SPRIN         11   0.0%   66.95      0.3125E-04   0.000       16.95       0.000      0.5000E-01   0.000    
    2379   1.514      0.6364E-03 SPRIN         11   0.0%   67.03      0.3125E-04   0.000       17.03       0.000      0.5000E-01   0.000    
    2380   1.515      0.6364E-03 SPRIN         11   0.0%   67.12      0.3125E-04   0.000       17.12       0.000      0.5000E-01   0.000    
    2381   1.515      0.6364E-03 SPRIN         11   0.0%   67.20      0.3125E-04   0.000       17.20       0.000      0.5000E-01   0.000    
    2382   1.516      0.6364E-03 SPRIN         11   0.0%   67.29      0.3125E-04   0.000       17.29       0.000      0.5000E-01   0.000    
    2383   1.517      0.6364E-03 SPRIN         11   0.0%   67.37      0.3125E-04   0.000       17.37       0.000      0.5000E-01   0.000    
    2384   1.517      0.6364E-03 SPRIN         11   0.0%   67.45      0.3125E-04   0.000       17.45       0.000      0.5000E-01   0.000    
    2385   1.518      0.6364E-03 SPRIN         11   0.0%   67.54      0.3125E-04   0.000       17.54       0.000      0.5000E-01   0.000    
    2386   1.518      0.6364E-03 SPRIN         11   0.0%   67.62      0.3125E-04   0.000       17.62       0.000      0.5000E-01   0.000    
    2387   1.519      0.6364E-03 SPRIN         11   0.0%   67.71      0.3125E-04   0.000       17.71       0.000      0.5000E-01   0.000    
    2388   1.520      0.6364E-03 SPRIN         11   0.0%   67.79      0.3125E-04   0.000       17.79       0.000      0.5000E-01   0.000    
    2389   1.520      0.6364E-03 SPRIN         11   0.0%   67.88      0.3125E-04   0.000       17.88       0.000      0.5000E-01   0.000    
    2390   1.521      0.6364E-03 SPRIN         11   0.0%   67.96      0.3125E-04   0.000       17.96       0.000      0.5000E-01   0.000    
    2391   1.522      0.6364E-03 SPRIN         11   0.0%   68.05      0.3125E-04   0.000       18.05       0.000      0.5000E-01   0.000    
    2392   1.522      0.6364E-03 SPRIN         11   0.0%   68.14      0.3125E-04   0.000       18.14       0.000      0.5000E-01   0.000    
    2393   1.523      0.6364E-03 SPRIN         11   0.0%   68.22      0.3125E-04   0.000       18.22       0.000      0.5000E-01   0.000    
    2394   1.524      0.6364E-03 SPRIN         11   0.0%   68.31      0.3125E-04   0.000       18.31       0.000      0.5000E-01   0.000    
    2395   1.524      0.6364E-03 SPRIN         11   0.0%   68.39      0.3125E-04   0.000       18.39       0.000      0.5000E-01   0.000    
    2396   1.525      0.6364E-03 SPRIN         11   0.0%   68.48      0.3125E-04   0.000       18.48       0.000      0.5000E-01   0.000    
    2397   1.525      0.6364E-03 SPRIN         11   0.0%   68.56      0.3125E-04   0.000       18.56       0.000      0.5000E-01   0.000    
    2398   1.526      0.6364E-03 SPRIN         11   0.0%   68.65      0.3125E-04   0.000       18.65       0.000      0.5000E-01   0.000    
    2399   1.527      0.6364E-03 SPRIN         11   0.0%   68.74      0.3125E-04   0.000       18.74       0.000      0.5000E-01   0.000    
    2400   1.527      0.6364E-03 SPRIN         11   0.0%   68.82      0.3125E-04   0.000       18.82       0.000      0.5000E-01   0.000    
    2401   1.528      0.6364E-03 SPRIN         11   0.0%   68.91      0.3125E-04   0.000       18.91       0.000      0.5000E-01   0.000    
    2402   1.529      0.6364E-03 SPRIN         11   0.0%   69.00      0.3125E-04   0.000       19.00       0.000      0.5000E-01   0.000    
    2403   1.529      0.6364E-03 SPRIN         11   0.0%   69.08      0.3125E-04   0.000       19.08       0.000      0.5000E-01   0.000    
    2404   1.530      0.6364E-03 SPRIN         11   0.0%   69.17      0.3125E-04   0.000       19.17       0.000      0.5000E-01   0.000    
    2405   1.531      0.6364E-03 SPRIN         11   0.0%   69.26      0.3125E-04   0.000       19.26       0.000      0.5000E-01   0.000    
    2406   1.531      0.6364E-03 SPRIN         11   0.0%   69.34      0.3125E-04   0.000       19.34       0.000      0.5000E-01   0.000    
    2407   1.532      0.6364E-03 SPRIN         11   0.0%   69.43      0.3125E-04   0.000       19.43       0.000      0.5000E-01   0.000    
    2408   1.532      0.6364E-03 SPRIN         11   0.0%   69.52      0.3125E-04   0.000       19.52       0.000      0.5000E-01   0.000    
    2409   1.533      0.6364E-03 SPRIN         11   0.0%   69.61      0.3125E-04   0.000       19.61       0.000      0.5000E-01   0.000    
    2410   1.534      0.6364E-03 SPRIN         11   0.0%   69.69      0.3125E-04   0.000       19.69       0.000      0.5000E-01   0.000    
    2411   1.534      0.6364E-03 SPRIN         11   0.0%   69.78      0.3125E-04   0.000       19.78       0.000      0.5000E-01   0.000    
    2412   1.535      0.6364E-03 SPRIN         11   0.0%   69.87      0.3125E-04   0.000       19.87       0.000      0.5000E-01   0.000    
    2413   1.536      0.6364E-03 SPRIN         11   0.0%   69.96      0.3125E-04   0.000       19.96       0.000      0.5000E-01   0.000    
    2414   1.536      0.6364E-03 SPRIN         11   0.0%   70.04      0.3125E-04   0.000       20.04       0.000      0.5000E-01   0.000    
    2415   1.537      0.6364E-03 SPRIN         11   0.0%   70.13      0.3125E-04   0.000       20.13       0.000      0.5000E-01   0.000    
    2416   1.538      0.6364E-03 SPRIN         11   0.0%   70.22      0.3125E-04   0.000       20.22       0.000      0.5000E-01   0.000    
    2417   1.538      0.6364E-03 SPRIN         11   0.0%   70.31      0.3125E-04   0.000       20.31       0.000      0.5000E-01   0.000    
    2418   1.539      0.6364E-03 SPRIN         11   0.0%   70.39      0.3125E-04   0.000       20.39       0.000      0.5000E-01   0.000    
    2419   1.539      0.6364E-03 SPRIN         11   0.0%   70.48      0.3125E-04   0.000       20.48       0.000      0.5000E-01   0.000    
   CYCLE    TIME      TIME-STEP  ELEMENT          ERROR  I-ENERGY    K-ENERGY T  K-ENERGY R  EXT-WORK     MAS.ERR     TOTAL MASS  MASS ADDED
    2420   1.540      0.6364E-03 SPRIN         11   0.0%   70.57      0.3125E-04   0.000       20.57       0.000      0.5000E-01   0.000    
    2421   1.541      0.6364E-03 SPRIN         11   0.0%   70.66      0.3125E-04   0.000       20.66       0.000      0.5000E-01   0.000    
    2422   1.541      0.6364E-03 SPRIN         11   0.0%   70.75      0.3125E-04   0.000       20.75       0.000      0.5000E-01   0.000    
    2423   1.542      0.6364E-03 SPRIN         11   0.0%   70.84      0.3125E-04   0.000       20.84       0.000      0.5000E-01   0.000    
    2424   1.543      0.6364E-03 SPRIN         11   0.0%   70.93      0.3125E-04   0.000       20.93       0.000      0.5000E-01   0.000    
    2425   1.543      0.6364E-03 SPRIN         11   0.0%   71.01      0.3125E-04   0.000       21.01       0.000      0.5000E-01   0.000    
    2426   1.544      0.6364E-03 SPRIN         11   0.0%   71.10      0.3125E-04   0.000       21.10       0.000      0.5000E-01   0.000    
    2427   1.545      0.6364E-03 SPRIN         11   0.0%   71.19      0.3125E-04   0.000       21.19       0.000      0.5000E-01   0.000    
    2428   1.545      0.6364E-03 SPRIN         11   0.0%   71.28      0.3125E-04   0.000       21.28       0.000      0.5000E-01   0.000    
    2429   1.546      0.6364E-03 SPRIN         11   0.0%   71.37      0.3125E-04   0.000       21.37       0.000      0.5000E-01   0.000    
    2430   1.546      0.6364E-03 SPRIN         11   0.0%   71.46      0.3125E-04   0.000       21.46       0.000      0.5000E-01   0.000    
    2431   1.547      0.6364E-03 SPRIN         11   0.0%   71.55      0.3125E-04   0.000       21.55       0.000      0.5000E-01   0.000    
    2432   1.548      0.6364E-03 SPRIN         11   0.0%   71.64      0.3125E-04   0.000       21.64       0.000      0.5000E-01   0.000    
    2433   1.548      0.6364E-03 SPRIN         11   0.0%   71.73      0.3125E-04   0.000       21.73       0.000      0.5000E-01   0.000    
    2434   1.549      0.6364E-03 SPRIN         11   0.0%   71.82      0.3125E-04   0.000       21.82       0.000      0.5000E-01   0.000    
    2435   1.550      0.6364E-03 SPRIN         11   0.0%   71.91      0.3125E-04   0.000       21.91       0.000      0.5000E-01   0.000    
    2436   1.550      0.6364E-03 SPRIN         11   0.0%   72.00      0.3125E-04   0.000       22.00       0.000      0.5000E-01   0.000    
    2437   1.551      0.6364E-03 SPRIN         11   0.0%   72.09      0.3125E-04   0.000       22.09       0.000      0.5000E-01   0.000    
    2438   1.552      0.6364E-03 SPRIN         11   0.0%   72.18      0.3125E-04   0.000       22.18       0.000      0.5000E-01   0.000    
    2439   1.552      0.6364E-03 SPRIN         11   0.0%   72.27      0.3125E-04   0.000       22.27       0.000      0.5000E-01   0.000    
    2440   1.553      0.6364E-03 SPRIN         11   0.0%   72.36      0.3125E-04   0.000       22.36       0.000      0.5000E-01   0.000    
    2441   1.553      0.6364E-03 SPRIN         11   0.0%   72.45      0.3125E-04   0.000       22.45       0.000      0.5000E-01   0.000    
    2442   1.554      0.6364E-03 SPRIN         11   0.0%   72.54      0.3125E-04   0.000       22.54       0.000      0.5000E-01   0.000    
    2443   1.555      0.6364E-03 SPRIN         11   0.0%   72.63      0.3125E-04   0.000       22.63       0.000      0.5000E-01   0.000    
    2444   1.555      0.6364E-03 SPRIN         11   0.0%   72.72      0.3125E-04   0.000       22.72       0.000      0.5000E-01   0.000    
    2445   1.556      0.6364E-03 SPRIN         11   0.0%   72.81      0.3125E-04   0.000       22.81       0.000      0.5000E-01   0.000    
    2446   1.557      0.6364E-03 SPRIN         11   0.0%   72.90      0.3125E-04   0.000       22.90       0.000      0.5000E-01   0.000    
    2447   1.557      0.6364E-03 SPRIN         11   0.0%   73.00      0.3125E-04   0.000       23.00       0.000      0.5000E-01   0.000    
    2448   1.558      0.6364E-03 SPRIN         11   0.0%   73.09      0.3125E-04   0.000       23.09       0.000      0.5000E-01   0.000    
    2449   1.559      0.6364E-03 SPRIN         11   0.0%   73.18      0.3125E-04   0.000       23.18       0.000      0.5000E-01   0.000    
    2450   1.559      0.6364E-03 SPRIN         11   0.0%   73.27      0.3125E-04   0.000       23.27       0.000      0.5000E-01   0.000    
    2451   1.560      0.6364E-03 SPRIN         11   0.0%   73.36      0.3125E-04   0.000       23.36       0.000      0.5000E-01   0.000    
    2452   1.560      0.6364E-03 SPRIN         11   0.0%   73.45      0.3125E-04   0.000       23.45       0.000      0.5000E-01   0.000    
    2453   1.561      0.6364E-03 SPRIN         11   0.0%   73.54      0.3125E-04   0.000       23.54       0.000      0.5000E-01   0.000    
    2454   1.562      0.6364E-03 SPRIN         11   0.0%   73.64      0.3125E-04   0.000       23.64       0.000      0.5000E-01   0.000    
    2455   1.562      0.6364E-03 SPRIN         11   0.0%   73.73      0.3125E-04   0.000       23.73       0.000      0.5000E-01   0.000    
    2456   1.563      0.6364E-03 SPRIN         11   0.0%   73.82      0.3125E-04   0.000       23.82       0.000      0.5000E-01   0.000    
    2457   1.564      0.6364E-03 SPRIN         11   0.0%   73.91      0.3125E-04   0.000       23.91       0.000      0.5000E-01   0.000    
    2458   1.564      0.6364E-03 SPRIN         11   0.0%   74.00      0.3125E-04   0.000       24.00       0.000      0.5000E-01   0.000    
    2459   1.565      0.6364E-03 SPRIN         11   0.0%   74.10      0.3125E-04   0.000       24.10       0.000      0.5000E-01   0.000    
    2460   1.566      0.6364E-03 SPRIN         11   0.0%   74.19      0.3125E-04   0.000       24.19       0.000      0.5000E-01   0.000    
    2461   1.566      0.6364E-03 SPRIN         11   0.0%   74.28      0.3125E-04   0.000       24.28       0.000      0.5000E-01   0.000    
    2462   1.567      0.6364E-03 SPRIN         11   0.0%   74.37      0.3125E-04   0.000       24.37       0.000      0.5000E-01   0.000    
    2463   1.567      0.6364E-03 SPRIN         11   0.0%   74.47      0.3125E-04   0.000       24.47       0.000      0.5000E-01   0.000    
    2464   1.568      0.6364E-03 SPRIN         11   0.0%   74.56      0.3125E-04   0.000       24.56       0.000      0.5000E-01   0.000    
    2465   1.569      0.6364E-03 SPRIN         11   0.0%   74.65      0.3125E-04   0.000       24.65       0.000      0.5000E-01   0.000    
    2466   1.569      0.6364E-03 SPRIN         11   0.0%   74.75      0.3125E-04   0.000       24.75       0.000      0.5000E-01   0.000    
    2467   1.570      0.6364E-03 SPRIN         11   0.0%   74.84      0.3125E-04   0.000       24.84       0.000      0.5000E-01   0.000    
    2468   1.571      0.6364E-03 SPRIN         11   0.0%   74.93      0.3125E-04   0.000       24.93       0.000      0.5000E-01   0.000    
    2469   1.571      0.6364E-03 SPRIN         11   0.0%   75.02      0.3125E-04   0.000       25.02       0.000      0.5000E-01   0.000    
    2470   1.572      0.6364E-03 SPRIN         11   0.0%   75.12      0.3125E-04   0.000       25.12       0.000      0.5000E-01   0.000    
    2471   1.573      0.6364E-03 SPRIN         11   0.0%   75.21      0.3125E-04   0.000       25.21       0.000      0.5000E-01   0.000    
    2472   1.573      0.6364E-03 SPRIN         11   0.0%   75.31      0.3125E-04   0.000       25.31       0.000      0.5000E-01   0.000    
    2473   1.574      0.6364E-03 SPRIN         11   0.0%   75.40      0.3125E-04   0.000       25.40       0.000      0.5000E-01   0.000    
    2474   1.574      0.6364E-03 SPRIN         11   0.0%   75.49      0.3125E-04   0.000       25.49       0.000      0.5000E-01   0.000    
   CYCLE    TIME      TIME-STEP  ELEMENT          ERROR  I-ENERGY    K-ENERGY T  K-ENERGY R  EXT-WORK     MAS.ERR     TOTAL MASS  MASS ADDED
    2475   1.575      0.6364E-03 SPRIN         11   0.0%   75.59      0.3125E-04   0.000       25.59       0.000      0.5000E-01   0.000    
    2476   1.576      0.6364E-03 SPRIN         11   0.0%   75.68      0.3125E-04   0.000       25.68       0.000      0.5000E-01   0.000    
    2477   1.576      0.6364E-03 SPRIN         11   0.0%   75.77      0.3125E-04   0.000       25.78       0.000      0.5000E-01   0.000    
    2478   1.577      0.6364E-03 SPRIN         11   0.0%   75.87      0.3125E-04   0.000       25.87       0.000      0.5000E-01   0.000    
    2479   1.578      0.6364E-03 SPRIN         11   0.0%   75.96      0.3125E-04   0.000       25.96       0.000      0.5000E-01   0.000    
    2480   1.578      0.6364E-03 SPRIN         11   0.0%   76.06      0.3125E-04   0.000       26.06       0.000      0.5000E-01   0.000    
    2481   1.579      0.6364E-03 SPRIN         11   0.0%   76.15      0.3125E-04   0.000       26.15       0.000      0.5000E-01   0.000    
    2482   1.580      0.6364E-03 SPRIN         11   0.0%   76.25      0.3125E-04   0.000       26.25       0.000      0.5000E-01   0.000    
    2483   1.580      0.6364E-03 SPRIN         11   0.0%   76.34      0.3125E-04   0.000       26.34       0.000      0.5000E-01   0.000    
    2484   1.581      0.6364E-03 SPRIN         11   0.0%   76.44      0.3125E-04   0.000       26.44       0.000      0.5000E-01   0.000    
    2485   1.581      0.6364E-03 SPRIN         11   0.0%   76.53      0.3125E-04   0.000       26.53       0.000      0.5000E-01   0.000    
    2486   1.582      0.6364E-03 SPRIN         11   0.0%   76.63      0.3125E-04   0.000       26.63       0.000      0.5000E-01   0.000    
    2487   1.583      0.6364E-03 SPRIN         11   0.0%   76.72      0.3125E-04   0.000       26.72       0.000      0.5000E-01   0.000    
    2488   1.583      0.6364E-03 SPRIN         11   0.0%   76.82      0.3125E-04   0.000       26.82       0.000      0.5000E-01   0.000    
    2489   1.584      0.6364E-03 SPRIN         11   0.0%   76.91      0.3125E-04   0.000       26.91       0.000      0.5000E-01   0.000    
    2490   1.585      0.6364E-03 SPRIN         11   0.0%   77.01      0.3125E-04   0.000       27.01       0.000      0.5000E-01   0.000    
    2491   1.585      0.6364E-03 SPRIN         11   0.0%   77.10      0.3125E-04   0.000       27.10       0.000      0.5000E-01   0.000    
    2492   1.586      0.6364E-03 SPRIN         11   0.0%   77.20      0.3125E-04   0.000       27.20       0.000      0.5000E-01   0.000    
    2493   1.587      0.6364E-03 SPRIN         11   0.0%   77.29      0.3125E-04   0.000       27.29       0.000      0.5000E-01   0.000    
    2494   1.587      0.6364E-03 SPRIN         11   0.0%   77.39      0.3125E-04   0.000       27.39       0.000      0.5000E-01   0.000    
    2495   1.588      0.6364E-03 SPRIN         11   0.0%   77.49      0.3125E-04   0.000       27.49       0.000      0.5000E-01   0.000    
    2496   1.588      0.6364E-03 SPRIN         11   0.0%   77.58      0.3125E-04   0.000       27.58       0.000      0.5000E-01   0.000    
    2497   1.589      0.6364E-03 SPRIN         11   0.0%   77.68      0.3125E-04   0.000       27.68       0.000      0.5000E-01   0.000    
    2498   1.590      0.6364E-03 SPRIN         11   0.0%   77.78      0.3125E-04   0.000       27.78       0.000      0.5000E-01   0.000    
    2499   1.590      0.6364E-03 SPRIN         11   0.0%   77.87      0.3125E-04   0.000       27.87       0.000      0.5000E-01   0.000    
    2500   1.591      0.6364E-03 SPRIN         11   0.0%   77.97      0.3125E-04   0.000       27.97       0.000      0.5000E-01   0.000    
    2501   1.592      0.6364E-03 SPRIN         11   0.0%   78.06      0.3125E-04   0.000       28.06       0.000      0.5000E-01   0.000    
    2502   1.592      0.6364E-03 SPRIN         11   0.0%   78.16      0.3125E-04   0.000       28.16       0.000      0.5000E-01   0.000    
    2503   1.593      0.6364E-03 SPRIN         11   0.0%   78.26      0.3125E-04   0.000       28.26       0.000      0.5000E-01   0.000    
    2504   1.594      0.6364E-03 SPRIN         11   0.0%   78.35      0.3125E-04   0.000       28.35       0.000      0.5000E-01   0.000    
    2505   1.594      0.6364E-03 SPRIN         11   0.0%   78.45      0.3125E-04   0.000       28.45       0.000      0.5000E-01   0.000    
    2506   1.595      0.6364E-03 SPRIN         11   0.0%   78.55      0.3125E-04   0.000       28.55       0.000      0.5000E-01   0.000    
    2507   1.595      0.6364E-03 SPRIN         11   0.0%   78.65      0.3125E-04   0.000       28.65       0.000      0.5000E-01   0.000    
    2508   1.596      0.6364E-03 SPRIN         11   0.0%   78.74      0.3125E-04   0.000       28.74       0.000      0.5000E-01   0.000    
    2509   1.597      0.6364E-03 SPRIN         11   0.0%   78.84      0.3125E-04   0.000       28.84       0.000      0.5000E-01   0.000    
    2510   1.597      0.6364E-03 SPRIN         11   0.0%   78.94      0.3125E-04   0.000       28.94       0.000      0.5000E-01   0.000    
    2511   1.598      0.6364E-03 SPRIN         11   0.0%   79.04      0.3125E-04   0.000       29.04       0.000      0.5000E-01   0.000    
    2512   1.599      0.6364E-03 SPRIN         11   0.0%   79.13      0.3125E-04   0.000       29.13       0.000      0.5000E-01   0.000    
    2513   1.599      0.6364E-03 SPRIN         11   0.0%   79.23      0.3125E-04   0.000       29.23       0.000      0.5000E-01   0.000    
    2514   1.600      0.6364E-03 SPRIN         11   0.0%   79.33      0.3125E-04   0.000       29.33       0.000      0.5000E-01   0.000    
    2515   1.601      0.6364E-03 SPRIN         11   0.0%   79.43      0.3125E-04   0.000       29.43       0.000      0.5000E-01   0.000    
     ANIMATION FILE: SPR_PRE_2FLAGA009 WRITTEN
    2516   1.601      0.6364E-03 SPRIN         11   0.0%   79.52      0.3125E-04   0.000       29.52       0.000      0.5000E-01   0.000    
    2517   1.602      0.6364E-03 SPRIN         11   0.0%   79.62      0.3125E-04   0.000       29.62       0.000      0.5000E-01   0.000    
    2518   1.602      0.6364E-03 SPRIN         11   0.0%   79.72      0.3125E-04   0.000       29.72       0.000      0.5000E-01   0.000    
    2519   1.603      0.6364E-03 SPRIN         11   0.0%   79.82      0.3125E-04   0.000       29.82       0.000      0.5000E-01   0.000    
    2520   1.604      0.6364E-03 SPRIN         11   0.0%   79.92      0.3125E-04   0.000       29.92       0.000      0.5000E-01   0.000    
    2521   1.604      0.6364E-03 SPRIN         11   0.0%   80.02      0.3125E-04   0.000       30.02       0.000      0.5000E-01   0.000    
    2522   1.605      0.6364E-03 SPRIN         11   0.0%   80.12      0.3125E-04   0.000       30.12       0.000      0.5000E-01   0.000    
    2523   1.606      0.6364E-03 SPRIN         11   0.0%   80.21      0.3125E-04   0.000       30.21       0.000      0.5000E-01   0.000    
    2524   1.606      0.6364E-03 SPRIN         11   0.0%   80.31      0.3125E-04   0.000       30.31       0.000      0.5000E-01   0.000    
    2525   1.607      0.6364E-03 SPRIN         11   0.0%   80.41      0.3125E-04   0.000       30.41       0.000      0.5000E-01   0.000    
    2526   1.608      0.6364E-03 SPRIN         11   0.0%   80.51      0.3125E-04   0.000       30.51       0.000      0.5000E-01   0.000    
    2527   1.608      0.6364E-03 SPRIN         11   0.0%   80.61      0.3125E-04   0.000       30.61       0.000      0.5000E-01   0.000    
    2528   1.609      0.6364E-03 SPRIN         11   0.0%   80.71      0.3125E-04   0.000       30.71       0.000      0.5000E-01   0.000    
    2529   1.609      0.6364E-03 SPRIN         11   0.0%   80.81      0.3125E-04   0.000       30.81       0.000      0.5000E-01   0.000    
   CYCLE    TIME      TIME-STEP  ELEMENT          ERROR  I-ENERGY    K-ENERGY T  K-ENERGY R  EXT-WORK     MAS.ERR     TOTAL MASS  MASS ADDED
    2530   1.610      0.6364E-03 SPRIN         11   0.0%   80.91      0.3125E-04   0.000       30.91       0.000      0.5000E-01   0.000    
    2531   1.611      0.6364E-03 SPRIN         11   0.0%   81.01      0.3125E-04   0.000       31.01       0.000      0.5000E-01   0.000    
    2532   1.611      0.6364E-03 SPRIN         11   0.0%   81.11      0.3125E-04   0.000       31.11       0.000      0.5000E-01   0.000    
    2533   1.612      0.6364E-03 SPRIN         11   0.0%   81.21      0.3125E-04   0.000       31.21       0.000      0.5000E-01   0.000    
    2534   1.613      0.6364E-03 SPRIN         11   0.0%   81.31      0.3125E-04   0.000       31.31       0.000      0.5000E-01   0.000    
    2535   1.613      0.6364E-03 SPRIN         11   0.0%   81.41      0.3125E-04   0.000       31.41       0.000      0.5000E-01   0.000    
    2536   1.614      0.6364E-03 SPRIN         11   0.0%   81.51      0.3125E-04   0.000       31.51       0.000      0.5000E-01   0.000    
    2537   1.615      0.6364E-03 SPRIN         11   0.0%   81.61      0.3125E-04   0.000       31.61       0.000      0.5000E-01   0.000    
    2538   1.615      0.6364E-03 SPRIN         11   0.0%   81.71      0.3125E-04   0.000       31.71       0.000      0.5000E-01   0.000    
    2539   1.616      0.6364E-03 SPRIN         11   0.0%   81.81      0.3125E-04   0.000       31.81       0.000      0.5000E-01   0.000    
    2540   1.616      0.6364E-03 SPRIN         11   0.0%   81.91      0.3125E-04   0.000       31.91       0.000      0.5000E-01   0.000    
    2541   1.617      0.6364E-03 SPRIN         11   0.0%   82.01      0.3125E-04   0.000       32.01       0.000      0.5000E-01   0.000    
    2542   1.618      0.6364E-03 SPRIN         11   0.0%   82.11      0.3125E-04   0.000       32.11       0.000      0.5000E-01   0.000    
    2543   1.618      0.6364E-03 SPRIN         11   0.0%   82.21      0.3125E-04   0.000       32.21       0.000      0.5000E-01   0.000    
    2544   1.619      0.6364E-03 SPRIN         11   0.0%   82.31      0.3125E-04   0.000       32.31       0.000      0.5000E-01   0.000    
    2545   1.620      0.6364E-03 SPRIN         11   0.0%   82.41      0.3125E-04   0.000       32.41       0.000      0.5000E-01   0.000    
    2546   1.620      0.6364E-03 SPRIN         11   0.0%   82.51      0.3125E-04   0.000       32.51       0.000      0.5000E-01   0.000    
    2547   1.621      0.6364E-03 SPRIN         11   0.0%   82.62      0.3125E-04   0.000       32.62       0.000      0.5000E-01   0.000    
    2548   1.622      0.6364E-03 SPRIN         11   0.0%   82.72      0.3125E-04   0.000       32.72       0.000      0.5000E-01   0.000    
    2549   1.622      0.6364E-03 SPRIN         11   0.0%   82.82      0.3125E-04   0.000       32.82       0.000      0.5000E-01   0.000    
    2550   1.623      0.6364E-03 SPRIN         11   0.0%   82.92      0.3125E-04   0.000       32.92       0.000      0.5000E-01   0.000    
    2551   1.623      0.6364E-03 SPRIN         11   0.0%   83.02      0.3125E-04   0.000       33.02       0.000      0.5000E-01   0.000    
    2552   1.624      0.6364E-03 SPRIN         11   0.0%   83.12      0.3125E-04   0.000       33.12       0.000      0.5000E-01   0.000    
    2553   1.625      0.6364E-03 SPRIN         11   0.0%   83.22      0.3125E-04   0.000       33.22       0.000      0.5000E-01   0.000    
    2554   1.625      0.6364E-03 SPRIN         11   0.0%   83.33      0.3125E-04   0.000       33.33       0.000      0.5000E-01   0.000    
    2555   1.626      0.6364E-03 SPRIN         11   0.0%   83.43      0.3125E-04   0.000       33.43       0.000      0.5000E-01   0.000    
    2556   1.627      0.6364E-03 SPRIN         11   0.0%   83.53      0.3125E-04   0.000       33.53       0.000      0.5000E-01   0.000    
    2557   1.627      0.6364E-03 SPRIN         11   0.0%   83.63      0.3125E-04   0.000       33.63       0.000      0.5000E-01   0.000    
    2558   1.628      0.6364E-03 SPRIN         11   0.0%   83.74      0.3125E-04   0.000       33.74       0.000      0.5000E-01   0.000    
    2559   1.629      0.6364E-03 SPRIN         11   0.0%   83.84      0.3125E-04   0.000       33.84       0.000      0.5000E-01   0.000    
    2560   1.629      0.6364E-03 SPRIN         11   0.0%   83.94      0.3125E-04   0.000       33.94       0.000      0.5000E-01   0.000    
    2561   1.630      0.6364E-03 SPRIN         11   0.0%   84.04      0.3125E-04   0.000       34.04       0.000      0.5000E-01   0.000    
    2562   1.630      0.6364E-03 SPRIN         11   0.0%   84.15      0.3125E-04   0.000       34.15       0.000      0.5000E-01   0.000    
    2563   1.631      0.6364E-03 SPRIN         11   0.0%   84.25      0.3125E-04   0.000       34.25       0.000      0.5000E-01   0.000    
    2564   1.632      0.6364E-03 SPRIN         11   0.0%   84.35      0.3125E-04   0.000       34.35       0.000      0.5000E-01   0.000    
    2565   1.632      0.6364E-03 SPRIN         11   0.0%   84.45      0.3125E-04   0.000       34.45       0.000      0.5000E-01   0.000    
    2566   1.633      0.6364E-03 SPRIN         11   0.0%   84.56      0.3125E-04   0.000       34.56       0.000      0.5000E-01   0.000    
    2567   1.634      0.6364E-03 SPRIN         11   0.0%   84.66      0.3125E-04   0.000       34.66       0.000      0.5000E-01   0.000    
    2568   1.634      0.6364E-03 SPRIN         11   0.0%   84.76      0.3125E-04   0.000       34.76       0.000      0.5000E-01   0.000    
    2569   1.635      0.6364E-03 SPRIN         11   0.0%   84.87      0.3125E-04   0.000       34.87       0.000      0.5000E-01   0.000    
    2570   1.636      0.6364E-03 SPRIN         11   0.0%   84.97      0.3125E-04   0.000       34.97       0.000      0.5000E-01   0.000    
    2571   1.636      0.6364E-03 SPRIN         11   0.0%   85.07      0.3125E-04   0.000       35.07       0.000      0.5000E-01   0.000    
    2572   1.637      0.6364E-03 SPRIN         11   0.0%   85.18      0.3125E-04   0.000       35.18       0.000      0.5000E-01   0.000    
    2573   1.637      0.6364E-03 SPRIN         11   0.0%   85.28      0.3125E-04   0.000       35.28       0.000      0.5000E-01   0.000    
    2574   1.638      0.6364E-03 SPRIN         11   0.0%   85.39      0.3125E-04   0.000       35.39       0.000      0.5000E-01   0.000    
    2575   1.639      0.6364E-03 SPRIN         11   0.0%   85.49      0.3125E-04   0.000       35.49       0.000      0.5000E-01   0.000    
    2576   1.639      0.6364E-03 SPRIN         11   0.0%   85.59      0.3125E-04   0.000       35.59       0.000      0.5000E-01   0.000    
    2577   1.640      0.6364E-03 SPRIN         11   0.0%   85.70      0.3125E-04   0.000       35.70       0.000      0.5000E-01   0.000    
    2578   1.641      0.6364E-03 SPRIN         11   0.0%   85.80      0.3125E-04   0.000       35.80       0.000      0.5000E-01   0.000    
    2579   1.641      0.6364E-03 SPRIN         11   0.0%   85.91      0.3125E-04   0.000       35.91       0.000      0.5000E-01   0.000    
    2580   1.642      0.6364E-03 SPRIN         11   0.0%   86.01      0.3125E-04   0.000       36.01       0.000      0.5000E-01   0.000    
    2581   1.643      0.6364E-03 SPRIN         11   0.0%   86.12      0.3125E-04   0.000       36.12       0.000      0.5000E-01   0.000    
    2582   1.643      0.6364E-03 SPRIN         11   0.0%   86.22      0.3125E-04   0.000       36.22       0.000      0.5000E-01   0.000    
    2583   1.644      0.6364E-03 SPRIN         11   0.0%   86.33      0.3125E-04   0.000       36.33       0.000      0.5000E-01   0.000    
    2584   1.644      0.6364E-03 SPRIN         11   0.0%   86.43      0.3125E-04   0.000       36.43       0.000      0.5000E-01   0.000    
   CYCLE    TIME      TIME-STEP  ELEMENT          ERROR  I-ENERGY    K-ENERGY T  K-ENERGY R  EXT-WORK     MAS.ERR     TOTAL MASS  MASS ADDED
    2585   1.645      0.6364E-03 SPRIN         11   0.0%   86.54      0.3125E-04   0.000       36.54       0.000      0.5000E-01   0.000    
    2586   1.646      0.6364E-03 SPRIN         11   0.0%   86.64      0.3125E-04   0.000       36.64       0.000      0.5000E-01   0.000    
    2587   1.646      0.6364E-03 SPRIN         11   0.0%   86.75      0.3125E-04   0.000       36.75       0.000      0.5000E-01   0.000    
    2588   1.647      0.6364E-03 SPRIN         11   0.0%   86.85      0.3125E-04   0.000       36.85       0.000      0.5000E-01   0.000    
    2589   1.648      0.6364E-03 SPRIN         11   0.0%   86.96      0.3125E-04   0.000       36.96       0.000      0.5000E-01   0.000    
    2590   1.648      0.6364E-03 SPRIN         11   0.0%   87.06      0.3125E-04   0.000       37.06       0.000      0.5000E-01   0.000    
    2591   1.649      0.6364E-03 SPRIN         11   0.0%   87.17      0.3125E-04   0.000       37.17       0.000      0.5000E-01   0.000    
    2592   1.650      0.6364E-03 SPRIN         11   0.0%   87.27      0.3125E-04   0.000       37.27       0.000      0.5000E-01   0.000    
    2593   1.650      0.6364E-03 SPRIN         11   0.0%   87.38      0.3125E-04   0.000       37.38       0.000      0.5000E-01   0.000    
    2594   1.651      0.6364E-03 SPRIN         11   0.0%   87.49      0.3125E-04   0.000       37.49       0.000      0.5000E-01   0.000    
    2595   1.651      0.6364E-03 SPRIN         11   0.0%   87.59      0.3125E-04   0.000       37.59       0.000      0.5000E-01   0.000    
    2596   1.652      0.6364E-03 SPRIN         11   0.0%   87.70      0.3125E-04   0.000       37.70       0.000      0.5000E-01   0.000    
    2597   1.653      0.6364E-03 SPRIN         11   0.0%   87.81      0.3125E-04   0.000       37.81       0.000      0.5000E-01   0.000    
    2598   1.653      0.6364E-03 SPRIN         11   0.0%   87.91      0.3125E-04   0.000       37.91       0.000      0.5000E-01   0.000    
    2599   1.654      0.6364E-03 SPRIN         11   0.0%   88.02      0.3125E-04   0.000       38.02       0.000      0.5000E-01   0.000    
    2600   1.655      0.6364E-03 SPRIN         11   0.0%   88.12      0.3125E-04   0.000       38.12       0.000      0.5000E-01   0.000    
    2601   1.655      0.6364E-03 SPRIN         11   0.0%   88.23      0.3125E-04   0.000       38.23       0.000      0.5000E-01   0.000    
    2602   1.656      0.6364E-03 SPRIN         11   0.0%   88.34      0.3125E-04   0.000       38.34       0.000      0.5000E-01   0.000    
    2603   1.657      0.6364E-03 SPRIN         11   0.0%   88.44      0.3125E-04   0.000       38.45       0.000      0.5000E-01   0.000    
    2604   1.657      0.6364E-03 SPRIN         11   0.0%   88.55      0.3125E-04   0.000       38.55       0.000      0.5000E-01   0.000    
    2605   1.658      0.6364E-03 SPRIN         11   0.0%   88.66      0.3125E-04   0.000       38.66       0.000      0.5000E-01   0.000    
    2606   1.658      0.6364E-03 SPRIN         11   0.0%   88.77      0.3125E-04   0.000       38.77       0.000      0.5000E-01   0.000    
    2607   1.659      0.6364E-03 SPRIN         11   0.0%   88.87      0.3125E-04   0.000       38.87       0.000      0.5000E-01   0.000    
    2608   1.660      0.6364E-03 SPRIN         11   0.0%   88.98      0.3125E-04   0.000       38.98       0.000      0.5000E-01   0.000    
    2609   1.660      0.6364E-03 SPRIN         11   0.0%   89.09      0.3125E-04   0.000       39.09       0.000      0.5000E-01   0.000    
    2610   1.661      0.6364E-03 SPRIN         11   0.0%   89.20      0.3125E-04   0.000       39.20       0.000      0.5000E-01   0.000    
    2611   1.662      0.6364E-03 SPRIN         11   0.0%   89.30      0.3125E-04   0.000       39.30       0.000      0.5000E-01   0.000    
    2612   1.662      0.6364E-03 SPRIN         11   0.0%   89.41      0.3125E-04   0.000       39.41       0.000      0.5000E-01   0.000    
    2613   1.663      0.6364E-03 SPRIN         11   0.0%   89.52      0.3125E-04   0.000       39.52       0.000      0.5000E-01   0.000    
    2614   1.664      0.6364E-03 SPRIN         11   0.0%   89.63      0.3125E-04   0.000       39.63       0.000      0.5000E-01   0.000    
    2615   1.664      0.6364E-03 SPRIN         11   0.0%   89.74      0.3125E-04   0.000       39.74       0.000      0.5000E-01   0.000    
    2616   1.665      0.6364E-03 SPRIN         11   0.0%   89.84      0.3125E-04   0.000       39.84       0.000      0.5000E-01   0.000    
    2617   1.665      0.6364E-03 SPRIN         11   0.0%   89.95      0.3125E-04   0.000       39.95       0.000      0.5000E-01   0.000    
    2618   1.666      0.6364E-03 SPRIN         11   0.0%   90.06      0.3125E-04   0.000       40.06       0.000      0.5000E-01   0.000    
    2619   1.667      0.6364E-03 SPRIN         11   0.0%   90.17      0.3125E-04   0.000       40.17       0.000      0.5000E-01   0.000    
    2620   1.667      0.6364E-03 SPRIN         11   0.0%   90.28      0.3125E-04   0.000       40.28       0.000      0.5000E-01   0.000    
    2621   1.668      0.6364E-03 SPRIN         11   0.0%   90.39      0.3125E-04   0.000       40.39       0.000      0.5000E-01   0.000    
    2622   1.669      0.6364E-03 SPRIN         11   0.0%   90.50      0.3125E-04   0.000       40.50       0.000      0.5000E-01   0.000    
    2623   1.669      0.6364E-03 SPRIN         11   0.0%   90.60      0.3125E-04   0.000       40.60       0.000      0.5000E-01   0.000    
    2624   1.670      0.6364E-03 SPRIN         11   0.0%   90.71      0.3125E-04   0.000       40.71       0.000      0.5000E-01   0.000    
    2625   1.671      0.6364E-03 SPRIN         11   0.0%   90.82      0.3125E-04   0.000       40.82       0.000      0.5000E-01   0.000    
    2626   1.671      0.6364E-03 SPRIN         11   0.0%   90.93      0.3125E-04   0.000       40.93       0.000      0.5000E-01   0.000    
    2627   1.672      0.6364E-03 SPRIN         11   0.0%   91.04      0.3125E-04   0.000       41.04       0.000      0.5000E-01   0.000    
    2628   1.672      0.6364E-03 SPRIN         11   0.0%   91.15      0.3125E-04   0.000       41.15       0.000      0.5000E-01   0.000    
    2629   1.673      0.6364E-03 SPRIN         11   0.0%   91.26      0.3125E-04   0.000       41.26       0.000      0.5000E-01   0.000    
    2630   1.674      0.6364E-03 SPRIN         11   0.0%   91.37      0.3125E-04   0.000       41.37       0.000      0.5000E-01   0.000    
    2631   1.674      0.6364E-03 SPRIN         11   0.0%   91.48      0.3125E-04   0.000       41.48       0.000      0.5000E-01   0.000    
    2632   1.675      0.6364E-03 SPRIN         11   0.0%   91.59      0.3125E-04   0.000       41.59       0.000      0.5000E-01   0.000    
    2633   1.676      0.6364E-03 SPRIN         11   0.0%   91.70      0.3125E-04   0.000       41.70       0.000      0.5000E-01   0.000    
    2634   1.676      0.6364E-03 SPRIN         11   0.0%   91.81      0.3125E-04   0.000       41.81       0.000      0.5000E-01   0.000    
    2635   1.677      0.6364E-03 SPRIN         11   0.0%   91.92      0.3125E-04   0.000       41.92       0.000      0.5000E-01   0.000    
    2636   1.678      0.6364E-03 SPRIN         11   0.0%   92.03      0.3125E-04   0.000       42.03       0.000      0.5000E-01   0.000    
    2637   1.678      0.6364E-03 SPRIN         11   0.0%   92.14      0.3125E-04   0.000       42.14       0.000      0.5000E-01   0.000    
    2638   1.679      0.6364E-03 SPRIN         11   0.0%   92.25      0.3125E-04   0.000       42.25       0.000      0.5000E-01   0.000    
    2639   1.679      0.6364E-03 SPRIN         11   0.0%   92.36      0.3125E-04   0.000       42.36       0.000      0.5000E-01   0.000    
   CYCLE    TIME      TIME-STEP  ELEMENT          ERROR  I-ENERGY    K-ENERGY T  K-ENERGY R  EXT-WORK     MAS.ERR     TOTAL MASS  MASS ADDED
    2640   1.680      0.6364E-03 SPRIN         11   0.0%   92.47      0.3125E-04   0.000       42.47       0.000      0.5000E-01   0.000    
    2641   1.681      0.6364E-03 SPRIN         11   0.0%   92.58      0.3125E-04   0.000       42.58       0.000      0.5000E-01   0.000    
    2642   1.681      0.6364E-03 SPRIN         11   0.0%   92.69      0.3125E-04   0.000       42.69       0.000      0.5000E-01   0.000    
    2643   1.682      0.6364E-03 SPRIN         11   0.0%   92.80      0.3125E-04   0.000       42.80       0.000      0.5000E-01   0.000    
    2644   1.683      0.6364E-03 SPRIN         11   0.0%   92.91      0.3125E-04   0.000       42.91       0.000      0.5000E-01   0.000    
    2645   1.683      0.6364E-03 SPRIN         11   0.0%   93.03      0.3125E-04   0.000       43.03       0.000      0.5000E-01   0.000    
    2646   1.684      0.6364E-03 SPRIN         11   0.0%   93.14      0.3125E-04   0.000       43.14       0.000      0.5000E-01   0.000    
    2647   1.685      0.6364E-03 SPRIN         11   0.0%   93.25      0.3125E-04   0.000       43.25       0.000      0.5000E-01   0.000    
    2648   1.685      0.6364E-03 SPRIN         11   0.0%   93.36      0.3125E-04   0.000       43.36       0.000      0.5000E-01   0.000    
    2649   1.686      0.6364E-03 SPRIN         11   0.0%   93.47      0.3125E-04   0.000       43.47       0.000      0.5000E-01   0.000    
    2650   1.686      0.6364E-03 SPRIN         11   0.0%   93.58      0.3125E-04   0.000       43.58       0.000      0.5000E-01   0.000    
    2651   1.687      0.6364E-03 SPRIN         11   0.0%   93.69      0.3125E-04   0.000       43.69       0.000      0.5000E-01   0.000    
    2652   1.688      0.6364E-03 SPRIN         11   0.0%   93.81      0.3125E-04   0.000       43.81       0.000      0.5000E-01   0.000    
    2653   1.688      0.6364E-03 SPRIN         11   0.0%   93.92      0.3125E-04   0.000       43.92       0.000      0.5000E-01   0.000    
    2654   1.689      0.6364E-03 SPRIN         11   0.0%   94.03      0.3125E-04   0.000       44.03       0.000      0.5000E-01   0.000    
    2655   1.690      0.6364E-03 SPRIN         11   0.0%   94.14      0.3125E-04   0.000       44.14       0.000      0.5000E-01   0.000    
    2656   1.690      0.6364E-03 SPRIN         11   0.0%   94.25      0.3125E-04   0.000       44.25       0.000      0.5000E-01   0.000    
    2657   1.691      0.6364E-03 SPRIN         11   0.0%   94.37      0.3125E-04   0.000       44.37       0.000      0.5000E-01   0.000    
    2658   1.692      0.6364E-03 SPRIN         11   0.0%   94.48      0.3125E-04   0.000       44.48       0.000      0.5000E-01   0.000    
    2659   1.692      0.6364E-03 SPRIN         11   0.0%   94.59      0.3125E-04   0.000       44.59       0.000      0.5000E-01   0.000    
    2660   1.693      0.6364E-03 SPRIN         11   0.0%   94.70      0.3125E-04   0.000       44.70       0.000      0.5000E-01   0.000    
    2661   1.693      0.6364E-03 SPRIN         11   0.0%   94.82      0.3125E-04   0.000       44.82       0.000      0.5000E-01   0.000    
    2662   1.694      0.6364E-03 SPRIN         11   0.0%   94.93      0.3125E-04   0.000       44.93       0.000      0.5000E-01   0.000    
    2663   1.695      0.6364E-03 SPRIN         11   0.0%   95.04      0.3125E-04   0.000       45.04       0.000      0.5000E-01   0.000    
    2664   1.695      0.6364E-03 SPRIN         11   0.0%   95.16      0.3125E-04   0.000       45.16       0.000      0.5000E-01   0.000    
    2665   1.696      0.6364E-03 SPRIN         11   0.0%   95.27      0.3125E-04   0.000       45.27       0.000      0.5000E-01   0.000    
    2666   1.697      0.6364E-03 SPRIN         11   0.0%   95.38      0.3125E-04   0.000       45.38       0.000      0.5000E-01   0.000    
    2667   1.697      0.6364E-03 SPRIN         11   0.0%   95.50      0.3125E-04   0.000       45.50       0.000      0.5000E-01   0.000    
    2668   1.698      0.6364E-03 SPRIN         11   0.0%   95.61      0.3125E-04   0.000       45.61       0.000      0.5000E-01   0.000    
    2669   1.699      0.6364E-03 SPRIN         11   0.0%   95.72      0.3125E-04   0.000       45.72       0.000      0.5000E-01   0.000    
    2670   1.699      0.6364E-03 SPRIN         11   0.0%   95.84      0.3125E-04   0.000       45.84       0.000      0.5000E-01   0.000    
    2671   1.700      0.6364E-03 SPRIN         11   0.0%   95.95      0.3125E-04   0.000       45.95       0.000      0.5000E-01   0.000    
    2672   1.700      0.6364E-03 SPRIN         11   0.0%   96.06      0.3125E-04   0.000       46.06       0.000      0.5000E-01   0.000    
    2673   1.701      0.6364E-03 SPRIN         11   0.0%   96.18      0.3125E-04   0.000       46.18       0.000      0.5000E-01   0.000    
    2674   1.702      0.6364E-03 SPRIN         11   0.0%   96.29      0.3125E-04   0.000       46.29       0.000      0.5000E-01   0.000    
    2675   1.702      0.6364E-03 SPRIN         11   0.0%   96.41      0.3125E-04   0.000       46.41       0.000      0.5000E-01   0.000    
    2676   1.703      0.6364E-03 SPRIN         11   0.0%   96.52      0.3125E-04   0.000       46.52       0.000      0.5000E-01   0.000    
    2677   1.704      0.6364E-03 SPRIN         11   0.0%   96.64      0.3125E-04   0.000       46.64       0.000      0.5000E-01   0.000    
    2678   1.704      0.6364E-03 SPRIN         11   0.0%   96.75      0.3125E-04   0.000       46.75       0.000      0.5000E-01   0.000    
    2679   1.705      0.6364E-03 SPRIN         11   0.0%   96.86      0.3125E-04   0.000       46.86       0.000      0.5000E-01   0.000    
    2680   1.706      0.6364E-03 SPRIN         11   0.0%   96.98      0.3125E-04   0.000       46.98       0.000      0.5000E-01   0.000    
    2681   1.706      0.6364E-03 SPRIN         11   0.0%   97.09      0.3125E-04   0.000       47.09       0.000      0.5000E-01   0.000    
    2682   1.707      0.6364E-03 SPRIN         11   0.0%   97.21      0.3125E-04   0.000       47.21       0.000      0.5000E-01   0.000    
    2683   1.707      0.6364E-03 SPRIN         11   0.0%   97.32      0.3125E-04   0.000       47.32       0.000      0.5000E-01   0.000    
    2684   1.708      0.6364E-03 SPRIN         11   0.0%   97.44      0.3125E-04   0.000       47.44       0.000      0.5000E-01   0.000    
    2685   1.709      0.6364E-03 SPRIN         11   0.0%   97.55      0.3125E-04   0.000       47.55       0.000      0.5000E-01   0.000    
    2686   1.709      0.6364E-03 SPRIN         11   0.0%   97.67      0.3125E-04   0.000       47.67       0.000      0.5000E-01   0.000    
    2687   1.710      0.6364E-03 SPRIN         11   0.0%   97.78      0.3125E-04   0.000       47.78       0.000      0.5000E-01   0.000    
    2688   1.711      0.6364E-03 SPRIN         11   0.0%   97.90      0.3125E-04   0.000       47.90       0.000      0.5000E-01   0.000    
    2689   1.711      0.6364E-03 SPRIN         11   0.0%   98.02      0.3125E-04   0.000       48.02       0.000      0.5000E-01   0.000    
    2690   1.712      0.6364E-03 SPRIN         11   0.0%   98.13      0.3125E-04   0.000       48.13       0.000      0.5000E-01   0.000    
    2691   1.713      0.6364E-03 SPRIN         11   0.0%   98.25      0.3125E-04   0.000       48.25       0.000      0.5000E-01   0.000    
    2692   1.713      0.6364E-03 SPRIN         11   0.0%   98.36      0.3125E-04   0.000       48.36       0.000      0.5000E-01   0.000    
    2693   1.714      0.6364E-03 SPRIN         11   0.0%   98.48      0.3125E-04   0.000       48.48       0.000      0.5000E-01   0.000    
    2694   1.714      0.6364E-03 SPRIN         11   0.0%   98.60      0.3125E-04   0.000       48.60       0.000      0.5000E-01   0.000    
   CYCLE    TIME      TIME-STEP  ELEMENT          ERROR  I-ENERGY    K-ENERGY T  K-ENERGY R  EXT-WORK     MAS.ERR     TOTAL MASS  MASS ADDED
    2695   1.715      0.6364E-03 SPRIN         11   0.0%   98.71      0.3125E-04   0.000       48.71       0.000      0.5000E-01   0.000    
    2696   1.716      0.6364E-03 SPRIN         11   0.0%   98.83      0.3125E-04   0.000       48.83       0.000      0.5000E-01   0.000    
    2697   1.716      0.6364E-03 SPRIN         11   0.0%   98.94      0.3125E-04   0.000       48.94       0.000      0.5000E-01   0.000    
    2698   1.717      0.6364E-03 SPRIN         11   0.0%   99.06      0.3125E-04   0.000       49.06       0.000      0.5000E-01   0.000    
    2699   1.718      0.6364E-03 SPRIN         11   0.0%   99.18      0.3125E-04   0.000       49.18       0.000      0.5000E-01   0.000    
    2700   1.718      0.6364E-03 SPRIN         11   0.0%   99.29      0.3125E-04   0.000       49.29       0.000      0.5000E-01   0.000    
    2701   1.719      0.6364E-03 SPRIN         11   0.0%   99.41      0.3125E-04   0.000       49.41       0.000      0.5000E-01   0.000    
    2702   1.720      0.6364E-03 SPRIN         11   0.0%   99.53      0.3125E-04   0.000       49.53       0.000      0.5000E-01   0.000    
    2703   1.720      0.6364E-03 SPRIN         11   0.0%   99.64      0.3125E-04   0.000       49.64       0.000      0.5000E-01   0.000    
    2704   1.721      0.6364E-03 SPRIN         11   0.0%   99.76      0.3125E-04   0.000       49.76       0.000      0.5000E-01   0.000    
    2705   1.721      0.6364E-03 SPRIN         11   0.0%   99.88      0.3125E-04   0.000       49.88       0.000      0.5000E-01   0.000    
    2706   1.722      0.6364E-03 SPRIN         11   0.0%   100.0      0.3125E-04   0.000       50.00       0.000      0.5000E-01   0.000    
    2707   1.723      0.6364E-03 SPRIN         11   0.0%   100.1      0.3125E-04   0.000       50.11       0.000      0.5000E-01   0.000    
    2708   1.723      0.6364E-03 SPRIN         11   0.0%   100.2      0.3125E-04   0.000       50.23       0.000      0.5000E-01   0.000    
    2709   1.724      0.6364E-03 SPRIN         11   0.0%   100.3      0.3125E-04   0.000       50.35       0.000      0.5000E-01   0.000    
    2710   1.725      0.6364E-03 SPRIN         11   0.0%   100.5      0.3125E-04   0.000       50.47       0.000      0.5000E-01   0.000    
    2711   1.725      0.6364E-03 SPRIN         11   0.0%   100.6      0.3125E-04   0.000       50.58       0.000      0.5000E-01   0.000    
    2712   1.726      0.6364E-03 SPRIN         11   0.0%   100.7      0.3125E-04   0.000       50.70       0.000      0.5000E-01   0.000    
    2713   1.727      0.6364E-03 SPRIN         11   0.0%   100.8      0.3125E-04   0.000       50.82       0.000      0.5000E-01   0.000    
    2714   1.727      0.6364E-03 SPRIN         11   0.0%   100.9      0.3125E-04   0.000       50.94       0.000      0.5000E-01   0.000    
    2715   1.728      0.6364E-03 SPRIN         11   0.0%   101.1      0.3125E-04   0.000       51.06       0.000      0.5000E-01   0.000    
    2716   1.728      0.6364E-03 SPRIN         11   0.0%   101.2      0.3125E-04   0.000       51.18       0.000      0.5000E-01   0.000    
    2717   1.729      0.6364E-03 SPRIN         11   0.0%   101.3      0.3125E-04   0.000       51.29       0.000      0.5000E-01   0.000    
    2718   1.730      0.6364E-03 SPRIN         11   0.0%   101.4      0.3125E-04   0.000       51.41       0.000      0.5000E-01   0.000    
    2719   1.730      0.6364E-03 SPRIN         11   0.0%   101.5      0.3125E-04   0.000       51.53       0.000      0.5000E-01   0.000    
    2720   1.731      0.6364E-03 SPRIN         11   0.0%   101.6      0.3125E-04   0.000       51.65       0.000      0.5000E-01   0.000    
    2721   1.732      0.6364E-03 SPRIN         11   0.0%   101.8      0.3125E-04   0.000       51.77       0.000      0.5000E-01   0.000    
    2722   1.732      0.6364E-03 SPRIN         11   0.0%   101.9      0.3125E-04   0.000       51.89       0.000      0.5000E-01   0.000    
    2723   1.733      0.6364E-03 SPRIN         11   0.0%   102.0      0.3125E-04   0.000       52.01       0.000      0.5000E-01   0.000    
    2724   1.734      0.6364E-03 SPRIN         11   0.0%   102.1      0.3125E-04   0.000       52.13       0.000      0.5000E-01   0.000    
    2725   1.734      0.6364E-03 SPRIN         11   0.0%   102.2      0.3125E-04   0.000       52.24       0.000      0.5000E-01   0.000    
    2726   1.735      0.6364E-03 SPRIN         11   0.0%   102.4      0.3125E-04   0.000       52.36       0.000      0.5000E-01   0.000    
    2727   1.735      0.6364E-03 SPRIN         11   0.0%   102.5      0.3125E-04   0.000       52.48       0.000      0.5000E-01   0.000    
    2728   1.736      0.6364E-03 SPRIN         11   0.0%   102.6      0.3125E-04   0.000       52.60       0.000      0.5000E-01   0.000    
    2729   1.737      0.6364E-03 SPRIN         11   0.0%   102.7      0.3125E-04   0.000       52.72       0.000      0.5000E-01   0.000    
    2730   1.737      0.6364E-03 SPRIN         11   0.0%   102.8      0.3125E-04   0.000       52.84       0.000      0.5000E-01   0.000    
    2731   1.738      0.6364E-03 SPRIN         11   0.0%   103.0      0.3125E-04   0.000       52.96       0.000      0.5000E-01   0.000    
    2732   1.739      0.6364E-03 SPRIN         11   0.0%   103.1      0.3125E-04   0.000       53.08       0.000      0.5000E-01   0.000    
    2733   1.739      0.6364E-03 SPRIN         11   0.0%   103.2      0.3125E-04   0.000       53.20       0.000      0.5000E-01   0.000    
    2734   1.740      0.6364E-03 SPRIN         11   0.0%   103.3      0.3125E-04   0.000       53.32       0.000      0.5000E-01   0.000    
    2735   1.741      0.6364E-03 SPRIN         11   0.0%   103.4      0.3125E-04   0.000       53.44       0.000      0.5000E-01   0.000    
    2736   1.741      0.6364E-03 SPRIN         11   0.0%   103.6      0.3125E-04   0.000       53.56       0.000      0.5000E-01   0.000    
    2737   1.742      0.6364E-03 SPRIN         11   0.0%   103.7      0.3125E-04   0.000       53.68       0.000      0.5000E-01   0.000    
    2738   1.742      0.6364E-03 SPRIN         11   0.0%   103.8      0.3125E-04   0.000       53.80       0.000      0.5000E-01   0.000    
    2739   1.743      0.6364E-03 SPRIN         11   0.0%   103.9      0.3125E-04   0.000       53.92       0.000      0.5000E-01   0.000    
    2740   1.744      0.6364E-03 SPRIN         11   0.0%   104.0      0.3125E-04   0.000       54.05       0.000      0.5000E-01   0.000    
    2741   1.744      0.6364E-03 SPRIN         11   0.0%   104.2      0.3125E-04   0.000       54.17       0.000      0.5000E-01   0.000    
    2742   1.745      0.6364E-03 SPRIN         11   0.0%   104.3      0.3125E-04   0.000       54.29       0.000      0.5000E-01   0.000    
    2743   1.746      0.6364E-03 SPRIN         11   0.0%   104.4      0.3125E-04   0.000       54.41       0.000      0.5000E-01   0.000    
    2744   1.746      0.6364E-03 SPRIN         11   0.0%   104.5      0.3125E-04   0.000       54.53       0.000      0.5000E-01   0.000    
    2745   1.747      0.6364E-03 SPRIN         11   0.0%   104.7      0.3125E-04   0.000       54.65       0.000      0.5000E-01   0.000    
    2746   1.748      0.6364E-03 SPRIN         11   0.0%   104.8      0.3125E-04   0.000       54.77       0.000      0.5000E-01   0.000    
    2747   1.748      0.6364E-03 SPRIN         11   0.0%   104.9      0.3125E-04   0.000       54.89       0.000      0.5000E-01   0.000    
    2748   1.749      0.6364E-03 SPRIN         11   0.0%   105.0      0.3125E-04   0.000       55.01       0.000      0.5000E-01   0.000    
    2749   1.749      0.6364E-03 SPRIN         11   0.0%   105.1      0.3125E-04   0.000       55.14       0.000      0.5000E-01   0.000    
   CYCLE    TIME      TIME-STEP  ELEMENT          ERROR  I-ENERGY    K-ENERGY T  K-ENERGY R  EXT-WORK     MAS.ERR     TOTAL MASS  MASS ADDED
    2750   1.750      0.6364E-03 SPRIN         11   0.0%   105.3      0.3125E-04   0.000       55.26       0.000      0.5000E-01   0.000    
    2751   1.751      0.6364E-03 SPRIN         11   0.0%   105.4      0.3125E-04   0.000       55.38       0.000      0.5000E-01   0.000    
    2752   1.751      0.6364E-03 SPRIN         11   0.0%   105.5      0.3125E-04   0.000       55.50       0.000      0.5000E-01   0.000    
    2753   1.752      0.6364E-03 SPRIN         11   0.0%   105.6      0.3125E-04   0.000       55.62       0.000      0.5000E-01   0.000    
    2754   1.753      0.6364E-03 SPRIN         11   0.0%   105.7      0.3125E-04   0.000       55.75       0.000      0.5000E-01   0.000    
    2755   1.753      0.6364E-03 SPRIN         11   0.0%   105.9      0.3125E-04   0.000       55.87       0.000      0.5000E-01   0.000    
    2756   1.754      0.6364E-03 SPRIN         11   0.0%   106.0      0.3125E-04   0.000       55.99       0.000      0.5000E-01   0.000    
    2757   1.755      0.6364E-03 SPRIN         11   0.0%   106.1      0.3125E-04   0.000       56.11       0.000      0.5000E-01   0.000    
    2758   1.755      0.6364E-03 SPRIN         11   0.0%   106.2      0.3125E-04   0.000       56.24       0.000      0.5000E-01   0.000    
    2759   1.756      0.6364E-03 SPRIN         11   0.0%   106.4      0.3125E-04   0.000       56.36       0.000      0.5000E-01   0.000    
    2760   1.756      0.6364E-03 SPRIN         11   0.0%   106.5      0.3125E-04   0.000       56.48       0.000      0.5000E-01   0.000    
    2761   1.757      0.6364E-03 SPRIN         11   0.0%   106.6      0.3125E-04   0.000       56.60       0.000      0.5000E-01   0.000    
    2762   1.758      0.6364E-03 SPRIN         11   0.0%   106.7      0.3125E-04   0.000       56.73       0.000      0.5000E-01   0.000    
    2763   1.758      0.6364E-03 SPRIN         11   0.0%   106.9      0.3125E-04   0.000       56.85       0.000      0.5000E-01   0.000    
    2764   1.759      0.6364E-03 SPRIN         11   0.0%   107.0      0.3125E-04   0.000       56.97       0.000      0.5000E-01   0.000    
    2765   1.760      0.6364E-03 SPRIN         11   0.0%   107.1      0.3125E-04   0.000       57.10       0.000      0.5000E-01   0.000    
    2766   1.760      0.6364E-03 SPRIN         11   0.0%   107.2      0.3125E-04   0.000       57.22       0.000      0.5000E-01   0.000    
    2767   1.761      0.6364E-03 SPRIN         11   0.0%   107.3      0.3125E-04   0.000       57.34       0.000      0.5000E-01   0.000    
    2768   1.762      0.6364E-03 SPRIN         11   0.0%   107.5      0.3125E-04   0.000       57.47       0.000      0.5000E-01   0.000    
    2769   1.762      0.6364E-03 SPRIN         11   0.0%   107.6      0.3125E-04   0.000       57.59       0.000      0.5000E-01   0.000    
    2770   1.763      0.6364E-03 SPRIN         11   0.0%   107.7      0.3125E-04   0.000       57.71       0.000      0.5000E-01   0.000    
    2771   1.763      0.6364E-03 SPRIN         11   0.0%   107.8      0.3125E-04   0.000       57.84       0.000      0.5000E-01   0.000    
    2772   1.764      0.6364E-03 SPRIN         11   0.0%   108.0      0.3125E-04   0.000       57.96       0.000      0.5000E-01   0.000    
    2773   1.765      0.6364E-03 SPRIN         11   0.0%   108.1      0.3125E-04   0.000       58.09       0.000      0.5000E-01   0.000    
    2774   1.765      0.6364E-03 SPRIN         11   0.0%   108.2      0.3125E-04   0.000       58.21       0.000      0.5000E-01   0.000    
    2775   1.766      0.6364E-03 SPRIN         11   0.0%   108.3      0.3125E-04   0.000       58.34       0.000      0.5000E-01   0.000    
    2776   1.767      0.6364E-03 SPRIN         11   0.0%   108.5      0.3125E-04   0.000       58.46       0.000      0.5000E-01   0.000    
    2777   1.767      0.6364E-03 SPRIN         11   0.0%   108.6      0.3125E-04   0.000       58.58       0.000      0.5000E-01   0.000    
    2778   1.768      0.6364E-03 SPRIN         11   0.0%   108.7      0.3125E-04   0.000       58.71       0.000      0.5000E-01   0.000    
    2779   1.769      0.6364E-03 SPRIN         11   0.0%   108.8      0.3125E-04   0.000       58.83       0.000      0.5000E-01   0.000    
    2780   1.769      0.6364E-03 SPRIN         11   0.0%   109.0      0.3125E-04   0.000       58.96       0.000      0.5000E-01   0.000    
    2781   1.770      0.6364E-03 SPRIN         11   0.0%   109.1      0.3125E-04   0.000       59.08       0.000      0.5000E-01   0.000    
    2782   1.770      0.6364E-03 SPRIN         11   0.0%   109.2      0.3125E-04   0.000       59.21       0.000      0.5000E-01   0.000    
    2783   1.771      0.6364E-03 SPRIN         11   0.0%   109.3      0.3125E-04   0.000       59.33       0.000      0.5000E-01   0.000    
    2784   1.772      0.6364E-03 SPRIN         11   0.0%   109.5      0.3125E-04   0.000       59.46       0.000      0.5000E-01   0.000    
    2785   1.772      0.6364E-03 SPRIN         11   0.0%   109.6      0.3125E-04   0.000       59.58       0.000      0.5000E-01   0.000    
    2786   1.773      0.6364E-03 SPRIN         11   0.0%   109.7      0.3125E-04   0.000       59.71       0.000      0.5000E-01   0.000    
    2787   1.774      0.6364E-03 SPRIN         11   0.0%   109.8      0.3125E-04   0.000       59.83       0.000      0.5000E-01   0.000    
    2788   1.774      0.6364E-03 SPRIN         11   0.0%   110.0      0.3125E-04   0.000       59.96       0.000      0.5000E-01   0.000    
    2789   1.775      0.6364E-03 SPRIN         11   0.0%   110.1      0.3125E-04   0.000       60.09       0.000      0.5000E-01   0.000    
    2790   1.776      0.6364E-03 SPRIN         11   0.0%   110.2      0.3125E-04   0.000       60.21       0.000      0.5000E-01   0.000    
    2791   1.776      0.6364E-03 SPRIN         11   0.0%   110.3      0.3125E-04   0.000       60.34       0.000      0.5000E-01   0.000    
    2792   1.777      0.6364E-03 SPRIN         11   0.0%   110.5      0.3125E-04   0.000       60.46       0.000      0.5000E-01   0.000    
    2793   1.777      0.6364E-03 SPRIN         11   0.0%   110.6      0.3125E-04   0.000       60.59       0.000      0.5000E-01   0.000    
    2794   1.778      0.6364E-03 SPRIN         11   0.0%   110.7      0.3125E-04   0.000       60.72       0.000      0.5000E-01   0.000    
    2795   1.779      0.6364E-03 SPRIN         11   0.0%   110.8      0.3125E-04   0.000       60.84       0.000      0.5000E-01   0.000    
    2796   1.779      0.6364E-03 SPRIN         11   0.0%   111.0      0.3125E-04   0.000       60.97       0.000      0.5000E-01   0.000    
    2797   1.780      0.6364E-03 SPRIN         11   0.0%   111.1      0.3125E-04   0.000       61.10       0.000      0.5000E-01   0.000    
    2798   1.781      0.6364E-03 SPRIN         11   0.0%   111.2      0.3125E-04   0.000       61.22       0.000      0.5000E-01   0.000    
    2799   1.781      0.6364E-03 SPRIN         11   0.0%   111.3      0.3125E-04   0.000       61.35       0.000      0.5000E-01   0.000    
    2800   1.782      0.6364E-03 SPRIN         11   0.0%   111.5      0.3125E-04   0.000       61.48       0.000      0.5000E-01   0.000    
    2801   1.783      0.6364E-03 SPRIN         11   0.0%   111.6      0.3125E-04   0.000       61.60       0.000      0.5000E-01   0.000    
    2802   1.783      0.6364E-03 SPRIN         11   0.0%   111.7      0.3125E-04   0.000       61.73       0.000      0.5000E-01   0.000    
    2803   1.784      0.6364E-03 SPRIN         11   0.0%   111.9      0.3125E-04   0.000       61.86       0.000      0.5000E-01   0.000    
    2804   1.784      0.6364E-03 SPRIN         11   0.0%   112.0      0.3125E-04   0.000       61.98       0.000      0.5000E-01   0.000    
   CYCLE    TIME      TIME-STEP  ELEMENT          ERROR  I-ENERGY    K-ENERGY T  K-ENERGY R  EXT-WORK     MAS.ERR     TOTAL MASS  MASS ADDED
    2805   1.785      0.6364E-03 SPRIN         11   0.0%   112.1      0.3125E-04   0.000       62.11       0.000      0.5000E-01   0.000    
    2806   1.786      0.6364E-03 SPRIN         11   0.0%   112.2      0.3125E-04   0.000       62.24       0.000      0.5000E-01   0.000    
    2807   1.786      0.6364E-03 SPRIN         11   0.0%   112.4      0.3125E-04   0.000       62.37       0.000      0.5000E-01   0.000    
    2808   1.787      0.6364E-03 SPRIN         11   0.0%   112.5      0.3125E-04   0.000       62.49       0.000      0.5000E-01   0.000    
    2809   1.788      0.6364E-03 SPRIN         11   0.0%   112.6      0.3125E-04   0.000       62.62       0.000      0.5000E-01   0.000    
    2810   1.788      0.6364E-03 SPRIN         11   0.0%   112.7      0.3125E-04   0.000       62.75       0.000      0.5000E-01   0.000    
    2811   1.789      0.6364E-03 SPRIN         11   0.0%   112.9      0.3125E-04   0.000       62.88       0.000      0.5000E-01   0.000    
    2812   1.790      0.6364E-03 SPRIN         11   0.0%   113.0      0.3125E-04   0.000       63.01       0.000      0.5000E-01   0.000    
    2813   1.790      0.6364E-03 SPRIN         11   0.0%   113.1      0.3125E-04   0.000       63.13       0.000      0.5000E-01   0.000    
    2814   1.791      0.6364E-03 SPRIN         11   0.0%   113.3      0.3125E-04   0.000       63.26       0.000      0.5000E-01   0.000    
    2815   1.791      0.6364E-03 SPRIN         11   0.0%   113.4      0.3125E-04   0.000       63.39       0.000      0.5000E-01   0.000    
    2816   1.792      0.6364E-03 SPRIN         11   0.0%   113.5      0.3125E-04   0.000       63.52       0.000      0.5000E-01   0.000    
    2817   1.793      0.6364E-03 SPRIN         11   0.0%   113.6      0.3125E-04   0.000       63.65       0.000      0.5000E-01   0.000    
    2818   1.793      0.6364E-03 SPRIN         11   0.0%   113.8      0.3125E-04   0.000       63.78       0.000      0.5000E-01   0.000    
    2819   1.794      0.6364E-03 SPRIN         11   0.0%   113.9      0.3125E-04   0.000       63.90       0.000      0.5000E-01   0.000    
    2820   1.795      0.6364E-03 SPRIN         11   0.0%   114.0      0.3125E-04   0.000       64.03       0.000      0.5000E-01   0.000    
    2821   1.795      0.6364E-03 SPRIN         11   0.0%   114.2      0.3125E-04   0.000       64.16       0.000      0.5000E-01   0.000    
    2822   1.796      0.6364E-03 SPRIN         11   0.0%   114.3      0.3125E-04   0.000       64.29       0.000      0.5000E-01   0.000    
    2823   1.797      0.6364E-03 SPRIN         11   0.0%   114.4      0.3125E-04   0.000       64.42       0.000      0.5000E-01   0.000    
    2824   1.797      0.6364E-03 SPRIN         11   0.0%   114.6      0.3125E-04   0.000       64.55       0.000      0.5000E-01   0.000    
    2825   1.798      0.6364E-03 SPRIN         11   0.0%   114.7      0.3125E-04   0.000       64.68       0.000      0.5000E-01   0.000    
    2826   1.798      0.6364E-03 SPRIN         11   0.0%   114.8      0.3125E-04   0.000       64.81       0.000      0.5000E-01   0.000    
    2827   1.799      0.6364E-03 SPRIN         11   0.0%   114.9      0.3125E-04   0.000       64.94       0.000      0.5000E-01   0.000    
    2828   1.800      0.6364E-03 SPRIN         11   0.0%   115.1      0.3125E-04   0.000       65.07       0.000      0.5000E-01   0.000    
    2829   1.800      0.6364E-03 SPRIN         11   0.0%   115.2      0.3125E-04   0.000       65.20       0.000      0.5000E-01   0.000    
     ANIMATION FILE: SPR_PRE_2FLAGA010 WRITTEN
    2830   1.801      0.6364E-03 SPRIN         11   0.0%   115.3      0.3125E-04   0.000       65.33       0.000      0.5000E-01   0.000    
    2831   1.802      0.6364E-03 SPRIN         11   0.0%   115.5      0.3125E-04   0.000       65.46       0.000      0.5000E-01   0.000    
    2832   1.802      0.6364E-03 SPRIN         11   0.0%   115.6      0.3125E-04   0.000       65.59       0.000      0.5000E-01   0.000    
    2833   1.803      0.6364E-03 SPRIN         11   0.0%   115.7      0.3125E-04   0.000       65.72       0.000      0.5000E-01   0.000    
    2834   1.804      0.6364E-03 SPRIN         11   0.0%   115.8      0.3125E-04   0.000       65.85       0.000      0.5000E-01   0.000    
    2835   1.804      0.6364E-03 SPRIN         11   0.0%   116.0      0.3125E-04   0.000       65.98       0.000      0.5000E-01   0.000    
    2836   1.805      0.6364E-03 SPRIN         11   0.0%   116.1      0.3125E-04   0.000       66.11       0.000      0.5000E-01   0.000    
    2837   1.805      0.6364E-03 SPRIN         11   0.0%   116.2      0.3125E-04   0.000       66.24       0.000      0.5000E-01   0.000    
    2838   1.806      0.6364E-03 SPRIN         11   0.0%   116.4      0.3125E-04   0.000       66.37       0.000      0.5000E-01   0.000    
    2839   1.807      0.6364E-03 SPRIN         11   0.0%   116.5      0.3125E-04   0.000       66.50       0.000      0.5000E-01   0.000    
    2840   1.807      0.6364E-03 SPRIN         11   0.0%   116.6      0.3125E-04   0.000       66.63       0.000      0.5000E-01   0.000    
    2841   1.808      0.6364E-03 SPRIN         11   0.0%   116.8      0.3125E-04   0.000       66.76       0.000      0.5000E-01   0.000    
    2842   1.809      0.6364E-03 SPRIN         11   0.0%   116.9      0.3125E-04   0.000       66.89       0.000      0.5000E-01   0.000    
    2843   1.809      0.6364E-03 SPRIN         11   0.0%   117.0      0.3125E-04   0.000       67.03       0.000      0.5000E-01   0.000    
    2844   1.810      0.6364E-03 SPRIN         11   0.0%   117.2      0.3125E-04   0.000       67.16       0.000      0.5000E-01   0.000    
    2845   1.811      0.6364E-03 SPRIN         11   0.0%   117.3      0.3125E-04   0.000       67.29       0.000      0.5000E-01   0.000    
    2846   1.811      0.6364E-03 SPRIN         11   0.0%   117.4      0.3125E-04   0.000       67.42       0.000      0.5000E-01   0.000    
    2847   1.812      0.6364E-03 SPRIN         11   0.0%   117.6      0.3125E-04   0.000       67.55       0.000      0.5000E-01   0.000    
    2848   1.812      0.6364E-03 SPRIN         11   0.0%   117.7      0.3125E-04   0.000       67.68       0.000      0.5000E-01   0.000    
    2849   1.813      0.6364E-03 SPRIN         11   0.0%   117.8      0.3125E-04   0.000       67.81       0.000      0.5000E-01   0.000    
    2850   1.814      0.6364E-03 SPRIN         11   0.0%   117.9      0.3125E-04   0.000       67.95       0.000      0.5000E-01   0.000    
    2851   1.814      0.6364E-03 SPRIN         11   0.0%   118.1      0.3125E-04   0.000       68.08       0.000      0.5000E-01   0.000    
    2852   1.815      0.6364E-03 SPRIN         11   0.0%   118.2      0.3125E-04   0.000       68.21       0.000      0.5000E-01   0.000    
    2853   1.816      0.6364E-03 SPRIN         11   0.0%   118.3      0.3125E-04   0.000       68.34       0.000      0.5000E-01   0.000    
    2854   1.816      0.6364E-03 SPRIN         11   0.0%   118.5      0.3125E-04   0.000       68.47       0.000      0.5000E-01   0.000    
    2855   1.817      0.6364E-03 SPRIN         11   0.0%   118.6      0.3125E-04   0.000       68.61       0.000      0.5000E-01   0.000    
    2856   1.818      0.6364E-03 SPRIN         11   0.0%   118.7      0.3125E-04   0.000       68.74       0.000      0.5000E-01   0.000    
    2857   1.818      0.6364E-03 SPRIN         11   0.0%   118.9      0.3125E-04   0.000       68.87       0.000      0.5000E-01   0.000    
    2858   1.819      0.6364E-03 SPRIN         11   0.0%   119.0      0.3125E-04   0.000       69.01       0.000      0.5000E-01   0.000    
    2859   1.819      0.6364E-03 SPRIN         11   0.0%   119.1      0.3125E-04   0.000       69.14       0.000      0.5000E-01   0.000    
   CYCLE    TIME      TIME-STEP  ELEMENT          ERROR  I-ENERGY    K-ENERGY T  K-ENERGY R  EXT-WORK     MAS.ERR     TOTAL MASS  MASS ADDED
    2860   1.820      0.6364E-03 SPRIN         11   0.0%   119.3      0.3125E-04   0.000       69.27       0.000      0.5000E-01   0.000    
    2861   1.821      0.6364E-03 SPRIN         11   0.0%   119.4      0.3125E-04   0.000       69.40       0.000      0.5000E-01   0.000    
    2862   1.821      0.6364E-03 SPRIN         11   0.0%   119.5      0.3125E-04   0.000       69.54       0.000      0.5000E-01   0.000    
    2863   1.822      0.6364E-03 SPRIN         11   0.0%   119.7      0.3125E-04   0.000       69.67       0.000      0.5000E-01   0.000    
    2864   1.823      0.6364E-03 SPRIN         11   0.0%   119.8      0.3125E-04   0.000       69.80       0.000      0.5000E-01   0.000    
    2865   1.823      0.6364E-03 SPRIN         11   0.0%   119.9      0.3125E-04   0.000       69.94       0.000      0.5000E-01   0.000    
    2866   1.824      0.6364E-03 SPRIN         11   0.0%   120.1      0.3125E-04   0.000       70.07       0.000      0.5000E-01   0.000    
    2867   1.825      0.6364E-03 SPRIN         11   0.0%   120.2      0.3125E-04   0.000       70.20       0.000      0.5000E-01   0.000    
    2868   1.825      0.6364E-03 SPRIN         11   0.0%   120.3      0.3125E-04   0.000       70.34       0.000      0.5000E-01   0.000    
    2869   1.826      0.6364E-03 SPRIN         11   0.0%   120.5      0.3125E-04   0.000       70.47       0.000      0.5000E-01   0.000    
    2870   1.826      0.6364E-03 SPRIN         11   0.0%   120.6      0.3125E-04   0.000       70.61       0.000      0.5000E-01   0.000    
    2871   1.827      0.6364E-03 SPRIN         11   0.0%   120.7      0.3125E-04   0.000       70.74       0.000      0.5000E-01   0.000    
    2872   1.828      0.6364E-03 SPRIN         11   0.0%   120.9      0.3125E-04   0.000       70.87       0.000      0.5000E-01   0.000    
    2873   1.828      0.6364E-03 SPRIN         11   0.0%   121.0      0.3125E-04   0.000       71.01       0.000      0.5000E-01   0.000    
    2874   1.829      0.6364E-03 SPRIN         11   0.0%   121.1      0.3125E-04   0.000       71.14       0.000      0.5000E-01   0.000    
    2875   1.830      0.6364E-03 SPRIN         11   0.0%   121.3      0.3125E-04   0.000       71.28       0.000      0.5000E-01   0.000    
    2876   1.830      0.6364E-03 SPRIN         11   0.0%   121.4      0.3125E-04   0.000       71.41       0.000      0.5000E-01   0.000    
    2877   1.831      0.6364E-03 SPRIN         11   0.0%   121.5      0.3125E-04   0.000       71.55       0.000      0.5000E-01   0.000    
    2878   1.832      0.6364E-03 SPRIN         11   0.0%   121.7      0.3125E-04   0.000       71.68       0.000      0.5000E-01   0.000    
    2879   1.832      0.6364E-03 SPRIN         11   0.0%   121.8      0.3125E-04   0.000       71.82       0.000      0.5000E-01   0.000    
    2880   1.833      0.6364E-03 SPRIN         11   0.0%   122.0      0.3125E-04   0.000       71.95       0.000      0.5000E-01   0.000    
    2881   1.833      0.6364E-03 SPRIN         11   0.0%   122.1      0.3125E-04   0.000       72.09       0.000      0.5000E-01   0.000    
    2882   1.834      0.6364E-03 SPRIN         11   0.0%   122.2      0.3125E-04   0.000       72.22       0.000      0.5000E-01   0.000    
    2883   1.835      0.6364E-03 SPRIN         11   0.0%   122.4      0.3125E-04   0.000       72.36       0.000      0.5000E-01   0.000    
    2884   1.835      0.6364E-03 SPRIN         11   0.0%   122.5      0.3125E-04   0.000       72.49       0.000      0.5000E-01   0.000    
    2885   1.836      0.6364E-03 SPRIN         11   0.0%   122.6      0.3125E-04   0.000       72.63       0.000      0.5000E-01   0.000    
    2886   1.837      0.6364E-03 SPRIN         11   0.0%   122.8      0.3125E-04   0.000       72.76       0.000      0.5000E-01   0.000    
    2887   1.837      0.6364E-03 SPRIN         11   0.0%   122.9      0.3125E-04   0.000       72.90       0.000      0.5000E-01   0.000    
    2888   1.838      0.6364E-03 SPRIN         11   0.0%   123.0      0.3125E-04   0.000       73.03       0.000      0.5000E-01   0.000    
    2889   1.839      0.6364E-03 SPRIN         11   0.0%   123.2      0.3125E-04   0.000       73.17       0.000      0.5000E-01   0.000    
    2890   1.839      0.6364E-03 SPRIN         11   0.0%   123.3      0.3125E-04   0.000       73.31       0.000      0.5000E-01   0.000    
    2891   1.840      0.6364E-03 SPRIN         11   0.0%   123.4      0.3125E-04   0.000       73.44       0.000      0.5000E-01   0.000    
    2892   1.840      0.6364E-03 SPRIN         11   0.0%   123.6      0.3125E-04   0.000       73.58       0.000      0.5000E-01   0.000    
    2893   1.841      0.6364E-03 SPRIN         11   0.0%   123.7      0.3125E-04   0.000       73.71       0.000      0.5000E-01   0.000    
    2894   1.842      0.6364E-03 SPRIN         11   0.0%   123.8      0.3125E-04   0.000       73.85       0.000      0.5000E-01   0.000    
    2895   1.842      0.6364E-03 SPRIN         11   0.0%   124.0      0.3125E-04   0.000       73.99       0.000      0.5000E-01   0.000    
    2896   1.843      0.6364E-03 SPRIN         11   0.0%   124.1      0.3125E-04   0.000       74.12       0.000      0.5000E-01   0.000    
    2897   1.844      0.6364E-03 SPRIN         11   0.0%   124.3      0.3125E-04   0.000       74.26       0.000      0.5000E-01   0.000    
    2898   1.844      0.6364E-03 SPRIN         11   0.0%   124.4      0.3125E-04   0.000       74.40       0.000      0.5000E-01   0.000    
    2899   1.845      0.6364E-03 SPRIN         11   0.0%   124.5      0.3125E-04   0.000       74.53       0.000      0.5000E-01   0.000    
    2900   1.846      0.6364E-03 SPRIN         11   0.0%   124.7      0.3125E-04   0.000       74.67       0.000      0.5000E-01   0.000    
    2901   1.846      0.6364E-03 SPRIN         11   0.0%   124.8      0.3125E-04   0.000       74.81       0.000      0.5000E-01   0.000    
    2902   1.847      0.6364E-03 SPRIN         11   0.0%   124.9      0.3125E-04   0.000       74.94       0.000      0.5000E-01   0.000    
    2903   1.847      0.6364E-03 SPRIN         11   0.0%   125.1      0.3125E-04   0.000       75.08       0.000      0.5000E-01   0.000    
    2904   1.848      0.6364E-03 SPRIN         11   0.0%   125.2      0.3125E-04   0.000       75.22       0.000      0.5000E-01   0.000    
    2905   1.849      0.6364E-03 SPRIN         11   0.0%   125.4      0.3125E-04   0.000       75.36       0.000      0.5000E-01   0.000    
    2906   1.849      0.6364E-03 SPRIN         11   0.0%   125.5      0.3125E-04   0.000       75.49       0.000      0.5000E-01   0.000    
    2907   1.850      0.6364E-03 SPRIN         11   0.0%   125.6      0.3125E-04   0.000       75.63       0.000      0.5000E-01   0.000    
    2908   1.851      0.6364E-03 SPRIN         11   0.0%   125.8      0.3125E-04   0.000       75.77       0.000      0.5000E-01   0.000    
    2909   1.851      0.6364E-03 SPRIN         11   0.0%   125.9      0.3125E-04   0.000       75.91       0.000      0.5000E-01   0.000    
    2910   1.852      0.6364E-03 SPRIN         11   0.0%   126.0      0.3125E-04   0.000       76.05       0.000      0.5000E-01   0.000    
    2911   1.853      0.6364E-03 SPRIN         11   0.0%   126.2      0.3125E-04   0.000       76.18       0.000      0.5000E-01   0.000    
    2912   1.853      0.6364E-03 SPRIN         11   0.0%   126.3      0.3125E-04   0.000       76.32       0.000      0.5000E-01   0.000    
    2913   1.854      0.6364E-03 SPRIN         11   0.0%   126.5      0.3125E-04   0.000       76.46       0.000      0.5000E-01   0.000    
    2914   1.854      0.6364E-03 SPRIN         11   0.0%   126.6      0.3125E-04   0.000       76.60       0.000      0.5000E-01   0.000    
   CYCLE    TIME      TIME-STEP  ELEMENT          ERROR  I-ENERGY    K-ENERGY T  K-ENERGY R  EXT-WORK     MAS.ERR     TOTAL MASS  MASS ADDED
    2915   1.855      0.6364E-03 SPRIN         11   0.0%   126.7      0.3125E-04   0.000       76.74       0.000      0.5000E-01   0.000    
    2916   1.856      0.6364E-03 SPRIN         11   0.0%   126.9      0.3125E-04   0.000       76.88       0.000      0.5000E-01   0.000    
    2917   1.856      0.6364E-03 SPRIN         11   0.0%   127.0      0.3125E-04   0.000       77.01       0.000      0.5000E-01   0.000    
    2918   1.857      0.6364E-03 SPRIN         11   0.0%   127.2      0.3125E-04   0.000       77.15       0.000      0.5000E-01   0.000    
    2919   1.858      0.6364E-03 SPRIN         11   0.0%   127.3      0.3125E-04   0.000       77.29       0.000      0.5000E-01   0.000    
    2920   1.858      0.6364E-03 SPRIN         11   0.0%   127.4      0.3125E-04   0.000       77.43       0.000      0.5000E-01   0.000    
    2921   1.859      0.6364E-03 SPRIN         11   0.0%   127.6      0.3125E-04   0.000       77.57       0.000      0.5000E-01   0.000    
    2922   1.860      0.6364E-03 SPRIN         11   0.0%   127.7      0.3125E-04   0.000       77.71       0.000      0.5000E-01   0.000    
    2923   1.860      0.6364E-03 SPRIN         11   0.0%   127.8      0.3125E-04   0.000       77.85       0.000      0.5000E-01   0.000    
    2924   1.861      0.6364E-03 SPRIN         11   0.0%   128.0      0.3125E-04   0.000       77.99       0.000      0.5000E-01   0.000    
    2925   1.861      0.6364E-03 SPRIN         11   0.0%   128.1      0.3125E-04   0.000       78.13       0.000      0.5000E-01   0.000    
    2926   1.862      0.6364E-03 SPRIN         11   0.0%   128.3      0.3125E-04   0.000       78.27       0.000      0.5000E-01   0.000    
    2927   1.863      0.6364E-03 SPRIN         11   0.0%   128.4      0.3125E-04   0.000       78.41       0.000      0.5000E-01   0.000    
    2928   1.863      0.6364E-03 SPRIN         11   0.0%   128.5      0.3125E-04   0.000       78.55       0.000      0.5000E-01   0.000    
    2929   1.864      0.6364E-03 SPRIN         11   0.0%   128.7      0.3125E-04   0.000       78.69       0.000      0.5000E-01   0.000    
    2930   1.865      0.6364E-03 SPRIN         11   0.0%   128.8      0.3125E-04   0.000       78.83       0.000      0.5000E-01   0.000    
    2931   1.865      0.6364E-03 SPRIN         11   0.0%   129.0      0.3125E-04   0.000       78.97       0.000      0.5000E-01   0.000    
    2932   1.866      0.6364E-03 SPRIN         11   0.0%   129.1      0.3125E-04   0.000       79.11       0.000      0.5000E-01   0.000    
    2933   1.867      0.6364E-03 SPRIN         11   0.0%   129.2      0.3125E-04   0.000       79.25       0.000      0.5000E-01   0.000    
    2934   1.867      0.6364E-03 SPRIN         11   0.0%   129.4      0.3125E-04   0.000       79.39       0.000      0.5000E-01   0.000    
    2935   1.868      0.6364E-03 SPRIN         11   0.0%   129.5      0.3125E-04   0.000       79.53       0.000      0.5000E-01   0.000    
    2936   1.868      0.6364E-03 SPRIN         11   0.0%   129.7      0.3125E-04   0.000       79.67       0.000      0.5000E-01   0.000    
    2937   1.869      0.6364E-03 SPRIN         11   0.0%   129.8      0.3125E-04   0.000       79.81       0.000      0.5000E-01   0.000    
    2938   1.870      0.6364E-03 SPRIN         11   0.0%   129.9      0.3125E-04   0.000       79.95       0.000      0.5000E-01   0.000    
    2939   1.870      0.6364E-03 SPRIN         11   0.0%   130.1      0.3125E-04   0.000       80.09       0.000      0.5000E-01   0.000    
    2940   1.871      0.6364E-03 SPRIN         11   0.0%   130.2      0.3125E-04   0.000       80.23       0.000      0.5000E-01   0.000    
    2941   1.872      0.6364E-03 SPRIN         11   0.0%   130.4      0.3125E-04   0.000       80.37       0.000      0.5000E-01   0.000    
    2942   1.872      0.6364E-03 SPRIN         11   0.0%   130.5      0.3125E-04   0.000       80.51       0.000      0.5000E-01   0.000    
    2943   1.873      0.6364E-03 SPRIN         11   0.0%   130.7      0.3125E-04   0.000       80.65       0.000      0.5000E-01   0.000    
    2944   1.874      0.6364E-03 SPRIN         11   0.0%   130.8      0.3125E-04   0.000       80.80       0.000      0.5000E-01   0.000    
    2945   1.874      0.6364E-03 SPRIN         11   0.0%   130.9      0.3125E-04   0.000       80.94       0.000      0.5000E-01   0.000    
    2946   1.875      0.6364E-03 SPRIN         11   0.0%   131.1      0.3125E-04   0.000       81.08       0.000      0.5000E-01   0.000    
    2947   1.875      0.6364E-03 SPRIN         11   0.0%   131.2      0.3125E-04   0.000       81.22       0.000      0.5000E-01   0.000    
    2948   1.876      0.6364E-03 SPRIN         11   0.0%   131.4      0.3125E-04   0.000       81.36       0.000      0.5000E-01   0.000    
    2949   1.877      0.6364E-03 SPRIN         11   0.0%   131.5      0.3125E-04   0.000       81.50       0.000      0.5000E-01   0.000    
    2950   1.877      0.6364E-03 SPRIN         11   0.0%   131.6      0.3125E-04   0.000       81.65       0.000      0.5000E-01   0.000    
    2951   1.878      0.6364E-03 SPRIN         11   0.0%   131.8      0.3125E-04   0.000       81.79       0.000      0.5000E-01   0.000    
    2952   1.879      0.6364E-03 SPRIN         11   0.0%   131.9      0.3125E-04   0.000       81.93       0.000      0.5000E-01   0.000    
    2953   1.879      0.6364E-03 SPRIN         11   0.0%   132.1      0.3125E-04   0.000       82.07       0.000      0.5000E-01   0.000    
    2954   1.880      0.6364E-03 SPRIN         11   0.0%   132.2      0.3125E-04   0.000       82.22       0.000      0.5000E-01   0.000    
    2955   1.881      0.6364E-03 SPRIN         11   0.0%   132.4      0.3125E-04   0.000       82.36       0.000      0.5000E-01   0.000    
    2956   1.881      0.6364E-03 SPRIN         11   0.0%   132.5      0.3125E-04   0.000       82.50       0.000      0.5000E-01   0.000    
    2957   1.882      0.6364E-03 SPRIN         11   0.0%   132.6      0.3125E-04   0.000       82.64       0.000      0.5000E-01   0.000    
    2958   1.882      0.6364E-03 SPRIN         11   0.0%   132.8      0.3125E-04   0.000       82.79       0.000      0.5000E-01   0.000    
    2959   1.883      0.6364E-03 SPRIN         11   0.0%   132.9      0.3125E-04   0.000       82.93       0.000      0.5000E-01   0.000    
    2960   1.884      0.6364E-03 SPRIN         11   0.0%   133.1      0.3125E-04   0.000       83.07       0.000      0.5000E-01   0.000    
    2961   1.884      0.6364E-03 SPRIN         11   0.0%   133.2      0.3125E-04   0.000       83.22       0.000      0.5000E-01   0.000    
    2962   1.885      0.6364E-03 SPRIN         11   0.0%   133.4      0.3125E-04   0.000       83.36       0.000      0.5000E-01   0.000    
    2963   1.886      0.6364E-03 SPRIN         11   0.0%   133.5      0.3125E-04   0.000       83.50       0.000      0.5000E-01   0.000    
    2964   1.886      0.6364E-03 SPRIN         11   0.0%   133.6      0.3125E-04   0.000       83.65       0.000      0.5000E-01   0.000    
    2965   1.887      0.6364E-03 SPRIN         11   0.0%   133.8      0.3125E-04   0.000       83.79       0.000      0.5000E-01   0.000    
    2966   1.888      0.6364E-03 SPRIN         11   0.0%   133.9      0.3125E-04   0.000       83.93       0.000      0.5000E-01   0.000    
    2967   1.888      0.6364E-03 SPRIN         11   0.0%   134.1      0.3125E-04   0.000       84.08       0.000      0.5000E-01   0.000    
    2968   1.889      0.6364E-03 SPRIN         11   0.0%   134.2      0.3125E-04   0.000       84.22       0.000      0.5000E-01   0.000    
    2969   1.889      0.6364E-03 SPRIN         11   0.0%   134.4      0.3125E-04   0.000       84.36       0.000      0.5000E-01   0.000    
   CYCLE    TIME      TIME-STEP  ELEMENT          ERROR  I-ENERGY    K-ENERGY T  K-ENERGY R  EXT-WORK     MAS.ERR     TOTAL MASS  MASS ADDED
    2970   1.890      0.6364E-03 SPRIN         11   0.0%   134.5      0.3125E-04   0.000       84.51       0.000      0.5000E-01   0.000    
    2971   1.891      0.6364E-03 SPRIN         11   0.0%   134.7      0.3125E-04   0.000       84.65       0.000      0.5000E-01   0.000    
    2972   1.891      0.6364E-03 SPRIN         11   0.0%   134.8      0.3125E-04   0.000       84.80       0.000      0.5000E-01   0.000    
    2973   1.892      0.6364E-03 SPRIN         11   0.0%   134.9      0.3125E-04   0.000       84.94       0.000      0.5000E-01   0.000    
    2974   1.893      0.6364E-03 SPRIN         11   0.0%   135.1      0.3125E-04   0.000       85.09       0.000      0.5000E-01   0.000    
    2975   1.893      0.6364E-03 SPRIN         11   0.0%   135.2      0.3125E-04   0.000       85.23       0.000      0.5000E-01   0.000    
    2976   1.894      0.6364E-03 SPRIN         11   0.0%   135.4      0.3125E-04   0.000       85.37       0.000      0.5000E-01   0.000    
    2977   1.895      0.6364E-03 SPRIN         11   0.0%   135.5      0.3125E-04   0.000       85.52       0.000      0.5000E-01   0.000    
    2978   1.895      0.6364E-03 SPRIN         11   0.0%   135.7      0.3125E-04   0.000       85.66       0.000      0.5000E-01   0.000    
    2979   1.896      0.6364E-03 SPRIN         11   0.0%   135.8      0.3125E-04   0.000       85.81       0.000      0.5000E-01   0.000    
    2980   1.896      0.6364E-03 SPRIN         11   0.0%   136.0      0.3125E-04   0.000       85.95       0.000      0.5000E-01   0.000    
    2981   1.897      0.6364E-03 SPRIN         11   0.0%   136.1      0.3125E-04   0.000       86.10       0.000      0.5000E-01   0.000    
    2982   1.898      0.6364E-03 SPRIN         11   0.0%   136.2      0.3125E-04   0.000       86.24       0.000      0.5000E-01   0.000    
    2983   1.898      0.6364E-03 SPRIN         11   0.0%   136.4      0.3125E-04   0.000       86.39       0.000      0.5000E-01   0.000    
    2984   1.899      0.6364E-03 SPRIN         11   0.0%   136.5      0.3125E-04   0.000       86.54       0.000      0.5000E-01   0.000    
    2985   1.900      0.6364E-03 SPRIN         11   0.0%   136.7      0.3125E-04   0.000       86.68       0.000      0.5000E-01   0.000    
    2986   1.900      0.6364E-03 SPRIN         11   0.0%   136.8      0.3125E-04   0.000       86.83       0.000      0.5000E-01   0.000    
    2987   1.901      0.6364E-03 SPRIN         11   0.0%   137.0      0.3125E-04   0.000       86.97       0.000      0.5000E-01   0.000    
    2988   1.902      0.6364E-03 SPRIN         11   0.0%   137.1      0.3125E-04   0.000       87.12       0.000      0.5000E-01   0.000    
    2989   1.902      0.6364E-03 SPRIN         11   0.0%   137.3      0.3125E-04   0.000       87.26       0.000      0.5000E-01   0.000    
    2990   1.903      0.6364E-03 SPRIN         11   0.0%   137.4      0.3125E-04   0.000       87.41       0.000      0.5000E-01   0.000    
    2991   1.903      0.6364E-03 SPRIN         11   0.0%   137.6      0.3125E-04   0.000       87.56       0.000      0.5000E-01   0.000    
    2992   1.904      0.6364E-03 SPRIN         11   0.0%   137.7      0.3125E-04   0.000       87.70       0.000      0.5000E-01   0.000    
    2993   1.905      0.6364E-03 SPRIN         11   0.0%   137.8      0.3125E-04   0.000       87.85       0.000      0.5000E-01   0.000    
    2994   1.905      0.6364E-03 SPRIN         11   0.0%   138.0      0.3125E-04   0.000       88.00       0.000      0.5000E-01   0.000    
    2995   1.906      0.6364E-03 SPRIN         11   0.0%   138.1      0.3125E-04   0.000       88.14       0.000      0.5000E-01   0.000    
    2996   1.907      0.6364E-03 SPRIN         11   0.0%   138.3      0.3125E-04   0.000       88.29       0.000      0.5000E-01   0.000    
    2997   1.907      0.6364E-03 SPRIN         11   0.0%   138.4      0.3125E-04   0.000       88.44       0.000      0.5000E-01   0.000    
    2998   1.908      0.6364E-03 SPRIN         11   0.0%   138.6      0.3125E-04   0.000       88.58       0.000      0.5000E-01   0.000    
    2999   1.909      0.6364E-03 SPRIN         11   0.0%   138.7      0.3125E-04   0.000       88.73       0.000      0.5000E-01   0.000    
    3000   1.909      0.6364E-03 SPRIN         11   0.0%   138.9      0.3125E-04   0.000       88.88       0.000      0.5000E-01   0.000    
    3001   1.910      0.6364E-03 SPRIN         11   0.0%   139.0      0.3125E-04   0.000       89.02       0.000      0.5000E-01   0.000    
    3002   1.910      0.6364E-03 SPRIN         11   0.0%   139.2      0.3125E-04   0.000       89.17       0.000      0.5000E-01   0.000    
    3003   1.911      0.6364E-03 SPRIN         11   0.0%   139.3      0.3125E-04   0.000       89.32       0.000      0.5000E-01   0.000    
    3004   1.912      0.6364E-03 SPRIN         11   0.0%   139.5      0.3125E-04   0.000       89.47       0.000      0.5000E-01   0.000    
    3005   1.912      0.6364E-03 SPRIN         11   0.0%   139.6      0.3125E-04   0.000       89.61       0.000      0.5000E-01   0.000    
    3006   1.913      0.6364E-03 SPRIN         11   0.0%   139.8      0.3125E-04   0.000       89.76       0.000      0.5000E-01   0.000    
    3007   1.914      0.6364E-03 SPRIN         11   0.0%   139.9      0.3125E-04   0.000       89.91       0.000      0.5000E-01   0.000    
    3008   1.914      0.6364E-03 SPRIN         11   0.0%   140.1      0.3125E-04   0.000       90.06       0.000      0.5000E-01   0.000    
    3009   1.915      0.6364E-03 SPRIN         11   0.0%   140.2      0.3125E-04   0.000       90.21       0.000      0.5000E-01   0.000    
    3010   1.916      0.6364E-03 SPRIN         11   0.0%   140.4      0.3125E-04   0.000       90.35       0.000      0.5000E-01   0.000    
    3011   1.916      0.6364E-03 SPRIN         11   0.0%   140.5      0.3125E-04   0.000       90.50       0.000      0.5000E-01   0.000    
    3012   1.917      0.6364E-03 SPRIN         11   0.0%   140.6      0.3125E-04   0.000       90.65       0.000      0.5000E-01   0.000    
    3013   1.917      0.6364E-03 SPRIN         11   0.0%   140.8      0.3125E-04   0.000       90.80       0.000      0.5000E-01   0.000    
    3014   1.918      0.6364E-03 SPRIN         11   0.0%   140.9      0.3125E-04   0.000       90.95       0.000      0.5000E-01   0.000    
    3015   1.919      0.6364E-03 SPRIN         11   0.0%   141.1      0.3125E-04   0.000       91.10       0.000      0.5000E-01   0.000    
    3016   1.919      0.6364E-03 SPRIN         11   0.0%   141.2      0.3125E-04   0.000       91.24       0.000      0.5000E-01   0.000    
    3017   1.920      0.6364E-03 SPRIN         11   0.0%   141.4      0.3125E-04   0.000       91.39       0.000      0.5000E-01   0.000    
    3018   1.921      0.6364E-03 SPRIN         11   0.0%   141.5      0.3125E-04   0.000       91.54       0.000      0.5000E-01   0.000    
    3019   1.921      0.6364E-03 SPRIN         11   0.0%   141.7      0.3125E-04   0.000       91.69       0.000      0.5000E-01   0.000    
    3020   1.922      0.6364E-03 SPRIN         11   0.0%   141.8      0.3125E-04   0.000       91.84       0.000      0.5000E-01   0.000    
    3021   1.923      0.6364E-03 SPRIN         11   0.0%   142.0      0.3125E-04   0.000       91.99       0.000      0.5000E-01   0.000    
    3022   1.923      0.6364E-03 SPRIN         11   0.0%   142.1      0.3125E-04   0.000       92.14       0.000      0.5000E-01   0.000    
    3023   1.924      0.6364E-03 SPRIN         11   0.0%   142.3      0.3125E-04   0.000       92.29       0.000      0.5000E-01   0.000    
    3024   1.924      0.6364E-03 SPRIN         11   0.0%   142.4      0.3125E-04   0.000       92.44       0.000      0.5000E-01   0.000    
   CYCLE    TIME      TIME-STEP  ELEMENT          ERROR  I-ENERGY    K-ENERGY T  K-ENERGY R  EXT-WORK     MAS.ERR     TOTAL MASS  MASS ADDED
    3025   1.925      0.6364E-03 SPRIN         11   0.0%   142.6      0.3125E-04   0.000       92.59       0.000      0.5000E-01   0.000    
    3026   1.926      0.6364E-03 SPRIN         11   0.0%   142.7      0.3125E-04   0.000       92.74       0.000      0.5000E-01   0.000    
    3027   1.926      0.6364E-03 SPRIN         11   0.0%   142.9      0.3125E-04   0.000       92.89       0.000      0.5000E-01   0.000    
    3028   1.927      0.6364E-03 SPRIN         11   0.0%   143.0      0.3125E-04   0.000       93.04       0.000      0.5000E-01   0.000    
    3029   1.928      0.6364E-03 SPRIN         11   0.0%   143.2      0.3125E-04   0.000       93.19       0.000      0.5000E-01   0.000    
    3030   1.928      0.6364E-03 SPRIN         11   0.0%   143.3      0.3125E-04   0.000       93.34       0.000      0.5000E-01   0.000    
    3031   1.929      0.6364E-03 SPRIN         11   0.0%   143.5      0.3125E-04   0.000       93.49       0.000      0.5000E-01   0.000    
    3032   1.930      0.6364E-03 SPRIN         11   0.0%   143.6      0.3125E-04   0.000       93.64       0.000      0.5000E-01   0.000    
    3033   1.930      0.6364E-03 SPRIN         11   0.0%   143.8      0.3125E-04   0.000       93.79       0.000      0.5000E-01   0.000    
    3034   1.931      0.6364E-03 SPRIN         11   0.0%   143.9      0.3125E-04   0.000       93.94       0.000      0.5000E-01   0.000    
    3035   1.931      0.6364E-03 SPRIN         11   0.0%   144.1      0.3125E-04   0.000       94.09       0.000      0.5000E-01   0.000    
    3036   1.932      0.6364E-03 SPRIN         11   0.0%   144.2      0.3125E-04   0.000       94.24       0.000      0.5000E-01   0.000    
    3037   1.933      0.6364E-03 SPRIN         11   0.0%   144.4      0.3125E-04   0.000       94.39       0.000      0.5000E-01   0.000    
    3038   1.933      0.6364E-03 SPRIN         11   0.0%   144.5      0.3125E-04   0.000       94.54       0.000      0.5000E-01   0.000    
    3039   1.934      0.6364E-03 SPRIN         11   0.0%   144.7      0.3125E-04   0.000       94.69       0.000      0.5000E-01   0.000    
    3040   1.935      0.6364E-03 SPRIN         11   0.0%   144.8      0.3125E-04   0.000       94.84       0.000      0.5000E-01   0.000    
    3041   1.935      0.6364E-03 SPRIN         11   0.0%   145.0      0.3125E-04   0.000       94.99       0.000      0.5000E-01   0.000    
    3042   1.936      0.6364E-03 SPRIN         11   0.0%   145.1      0.3125E-04   0.000       95.15       0.000      0.5000E-01   0.000    
    3043   1.937      0.6364E-03 SPRIN         11   0.0%   145.3      0.3125E-04   0.000       95.30       0.000      0.5000E-01   0.000    
    3044   1.937      0.6364E-03 SPRIN         11   0.0%   145.4      0.3125E-04   0.000       95.45       0.000      0.5000E-01   0.000    
    3045   1.938      0.6364E-03 SPRIN         11   0.0%   145.6      0.3125E-04   0.000       95.60       0.000      0.5000E-01   0.000    
    3046   1.938      0.6364E-03 SPRIN         11   0.0%   145.8      0.3125E-04   0.000       95.75       0.000      0.5000E-01   0.000    
    3047   1.939      0.6364E-03 SPRIN         11   0.0%   145.9      0.3125E-04   0.000       95.90       0.000      0.5000E-01   0.000    
    3048   1.940      0.6364E-03 SPRIN         11   0.0%   146.1      0.3125E-04   0.000       96.06       0.000      0.5000E-01   0.000    
    3049   1.940      0.6364E-03 SPRIN         11   0.0%   146.2      0.3125E-04   0.000       96.21       0.000      0.5000E-01   0.000    
    3050   1.941      0.6364E-03 SPRIN         11   0.0%   146.4      0.3125E-04   0.000       96.36       0.000      0.5000E-01   0.000    
    3051   1.942      0.6364E-03 SPRIN         11   0.0%   146.5      0.3125E-04   0.000       96.51       0.000      0.5000E-01   0.000    
    3052   1.942      0.6364E-03 SPRIN         11   0.0%   146.7      0.3125E-04   0.000       96.66       0.000      0.5000E-01   0.000    
    3053   1.943      0.6364E-03 SPRIN         11   0.0%   146.8      0.3125E-04   0.000       96.82       0.000      0.5000E-01   0.000    
    3054   1.944      0.6364E-03 SPRIN         11   0.0%   147.0      0.3125E-04   0.000       96.97       0.000      0.5000E-01   0.000    
    3055   1.944      0.6364E-03 SPRIN         11   0.0%   147.1      0.3125E-04   0.000       97.12       0.000      0.5000E-01   0.000    
    3056   1.945      0.6364E-03 SPRIN         11   0.0%   147.3      0.3125E-04   0.000       97.28       0.000      0.5000E-01   0.000    
    3057   1.945      0.6364E-03 SPRIN         11   0.0%   147.4      0.3125E-04   0.000       97.43       0.000      0.5000E-01   0.000    
    3058   1.946      0.6364E-03 SPRIN         11   0.0%   147.6      0.3125E-04   0.000       97.58       0.000      0.5000E-01   0.000    
    3059   1.947      0.6364E-03 SPRIN         11   0.0%   147.7      0.3125E-04   0.000       97.73       0.000      0.5000E-01   0.000    
    3060   1.947      0.6364E-03 SPRIN         11   0.0%   147.9      0.3125E-04   0.000       97.89       0.000      0.5000E-01   0.000    
    3061   1.948      0.6364E-03 SPRIN         11   0.0%   148.0      0.3125E-04   0.000       98.04       0.000      0.5000E-01   0.000    
    3062   1.949      0.6364E-03 SPRIN         11   0.0%   148.2      0.3125E-04   0.000       98.19       0.000      0.5000E-01   0.000    
    3063   1.949      0.6364E-03 SPRIN         11   0.0%   148.3      0.3125E-04   0.000       98.35       0.000      0.5000E-01   0.000    
    3064   1.950      0.6364E-03 SPRIN         11   0.0%   148.5      0.3125E-04   0.000       98.50       0.000      0.5000E-01   0.000    
    3065   1.951      0.6364E-03 SPRIN         11   0.0%   148.7      0.3125E-04   0.000       98.65       0.000      0.5000E-01   0.000    
    3066   1.951      0.6364E-03 SPRIN         11   0.0%   148.8      0.3125E-04   0.000       98.81       0.000      0.5000E-01   0.000    
    3067   1.952      0.6364E-03 SPRIN         11   0.0%   149.0      0.3125E-04   0.000       98.96       0.000      0.5000E-01   0.000    
    3068   1.952      0.6364E-03 SPRIN         11   0.0%   149.1      0.3125E-04   0.000       99.12       0.000      0.5000E-01   0.000    
    3069   1.953      0.6364E-03 SPRIN         11   0.0%   149.3      0.3125E-04   0.000       99.27       0.000      0.5000E-01   0.000    
    3070   1.954      0.6364E-03 SPRIN         11   0.0%   149.4      0.3125E-04   0.000       99.42       0.000      0.5000E-01   0.000    
    3071   1.954      0.6364E-03 SPRIN         11   0.0%   149.6      0.3125E-04   0.000       99.58       0.000      0.5000E-01   0.000    
    3072   1.955      0.6364E-03 SPRIN         11   0.0%   149.7      0.3125E-04   0.000       99.73       0.000      0.5000E-01   0.000    
    3073   1.956      0.6364E-03 SPRIN         11   0.0%   149.9      0.3125E-04   0.000       99.89       0.000      0.5000E-01   0.000    
    3074   1.956      0.6364E-03 SPRIN         11   0.0%   150.0      0.3125E-04   0.000       100.0       0.000      0.5000E-01   0.000    
    3075   1.957      0.6364E-03 SPRIN         11   0.0%   150.2      0.3125E-04   0.000       100.2       0.000      0.5000E-01   0.000    
    3076   1.958      0.6364E-03 SPRIN         11   0.0%   150.4      0.3125E-04   0.000       100.4       0.000      0.5000E-01   0.000    
    3077   1.958      0.6364E-03 SPRIN         11   0.0%   150.5      0.3125E-04   0.000       100.5       0.000      0.5000E-01   0.000    
    3078   1.959      0.6364E-03 SPRIN         11   0.0%   150.7      0.3125E-04   0.000       100.7       0.000      0.5000E-01   0.000    
    3079   1.959      0.6364E-03 SPRIN         11   0.0%   150.8      0.3125E-04   0.000       100.8       0.000      0.5000E-01   0.000    
   CYCLE    TIME      TIME-STEP  ELEMENT          ERROR  I-ENERGY    K-ENERGY T  K-ENERGY R  EXT-WORK     MAS.ERR     TOTAL MASS  MASS ADDED
    3080   1.960      0.6364E-03 SPRIN         11   0.0%   151.0      0.3125E-04   0.000       101.0       0.000      0.5000E-01   0.000    
    3081   1.961      0.6364E-03 SPRIN         11   0.0%   151.1      0.3125E-04   0.000       101.1       0.000      0.5000E-01   0.000    
    3082   1.961      0.6364E-03 SPRIN         11   0.0%   151.3      0.3125E-04   0.000       101.3       0.000      0.5000E-01   0.000    
    3083   1.962      0.6364E-03 SPRIN         11   0.0%   151.4      0.3125E-04   0.000       101.4       0.000      0.5000E-01   0.000    
    3084   1.963      0.6364E-03 SPRIN         11   0.0%   151.6      0.3125E-04   0.000       101.6       0.000      0.5000E-01   0.000    
    3085   1.963      0.6364E-03 SPRIN         11   0.0%   151.7      0.3125E-04   0.000       101.7       0.000      0.5000E-01   0.000    
    3086   1.964      0.6364E-03 SPRIN         11   0.0%   151.9      0.3125E-04   0.000       101.9       0.000      0.5000E-01   0.000    
    3087   1.965      0.6364E-03 SPRIN         11   0.0%   152.1      0.3125E-04   0.000       102.1       0.000      0.5000E-01   0.000    
    3088   1.965      0.6364E-03 SPRIN         11   0.0%   152.2      0.3125E-04   0.000       102.2       0.000      0.5000E-01   0.000    
    3089   1.966      0.6364E-03 SPRIN         11   0.0%   152.4      0.3125E-04   0.000       102.4       0.000      0.5000E-01   0.000    
    3090   1.966      0.6364E-03 SPRIN         11   0.0%   152.5      0.3125E-04   0.000       102.5       0.000      0.5000E-01   0.000    
    3091   1.967      0.6364E-03 SPRIN         11   0.0%   152.7      0.3125E-04   0.000       102.7       0.000      0.5000E-01   0.000    
    3092   1.968      0.6364E-03 SPRIN         11   0.0%   152.8      0.3125E-04   0.000       102.8       0.000      0.5000E-01   0.000    
    3093   1.968      0.6364E-03 SPRIN         11   0.0%   153.0      0.3125E-04   0.000       103.0       0.000      0.5000E-01   0.000    
    3094   1.969      0.6364E-03 SPRIN         11   0.0%   153.2      0.3125E-04   0.000       103.2       0.000      0.5000E-01   0.000    
    3095   1.970      0.6364E-03 SPRIN         11   0.0%   153.3      0.3125E-04   0.000       103.3       0.000      0.5000E-01   0.000    
    3096   1.970      0.6364E-03 SPRIN         11   0.0%   153.5      0.3125E-04   0.000       103.5       0.000      0.5000E-01   0.000    
    3097   1.971      0.6364E-03 SPRIN         11   0.0%   153.6      0.3125E-04   0.000       103.6       0.000      0.5000E-01   0.000    
    3098   1.972      0.6364E-03 SPRIN         11   0.0%   153.8      0.3125E-04   0.000       103.8       0.000      0.5000E-01   0.000    
    3099   1.972      0.6364E-03 SPRIN         11   0.0%   153.9      0.3125E-04   0.000       103.9       0.000      0.5000E-01   0.000    
    3100   1.973      0.6364E-03 SPRIN         11   0.0%   154.1      0.3125E-04   0.000       104.1       0.000      0.5000E-01   0.000    
    3101   1.973      0.6364E-03 SPRIN         11   0.0%   154.3      0.3125E-04   0.000       104.3       0.000      0.5000E-01   0.000    
    3102   1.974      0.6364E-03 SPRIN         11   0.0%   154.4      0.3125E-04   0.000       104.4       0.000      0.5000E-01   0.000    
    3103   1.975      0.6364E-03 SPRIN         11   0.0%   154.6      0.3125E-04   0.000       104.6       0.000      0.5000E-01   0.000    
    3104   1.975      0.6364E-03 SPRIN         11   0.0%   154.7      0.3125E-04   0.000       104.7       0.000      0.5000E-01   0.000    
    3105   1.976      0.6364E-03 SPRIN         11   0.0%   154.9      0.3125E-04   0.000       104.9       0.000      0.5000E-01   0.000    
    3106   1.977      0.6364E-03 SPRIN         11   0.0%   155.0      0.3125E-04   0.000       105.0       0.000      0.5000E-01   0.000    
    3107   1.977      0.6364E-03 SPRIN         11   0.0%   155.2      0.3125E-04   0.000       105.2       0.000      0.5000E-01   0.000    
    3108   1.978      0.6364E-03 SPRIN         11   0.0%   155.4      0.3125E-04   0.000       105.4       0.000      0.5000E-01   0.000    
    3109   1.979      0.6364E-03 SPRIN         11   0.0%   155.5      0.3125E-04   0.000       105.5       0.000      0.5000E-01   0.000    
    3110   1.979      0.6364E-03 SPRIN         11   0.0%   155.7      0.3125E-04   0.000       105.7       0.000      0.5000E-01   0.000    
    3111   1.980      0.6364E-03 SPRIN         11   0.0%   155.8      0.3125E-04   0.000       105.8       0.000      0.5000E-01   0.000    
    3112   1.980      0.6364E-03 SPRIN         11   0.0%   156.0      0.3125E-04   0.000       106.0       0.000      0.5000E-01   0.000    
    3113   1.981      0.6364E-03 SPRIN         11   0.0%   156.1      0.3125E-04   0.000       106.1       0.000      0.5000E-01   0.000    
    3114   1.982      0.6364E-03 SPRIN         11   0.0%   156.3      0.3125E-04   0.000       106.3       0.000      0.5000E-01   0.000    
    3115   1.982      0.6364E-03 SPRIN         11   0.0%   156.5      0.3125E-04   0.000       106.5       0.000      0.5000E-01   0.000    
    3116   1.983      0.6364E-03 SPRIN         11   0.0%   156.6      0.3125E-04   0.000       106.6       0.000      0.5000E-01   0.000    
    3117   1.984      0.6364E-03 SPRIN         11   0.0%   156.8      0.3125E-04   0.000       106.8       0.000      0.5000E-01   0.000    
    3118   1.984      0.6364E-03 SPRIN         11   0.0%   156.9      0.3125E-04   0.000       106.9       0.000      0.5000E-01   0.000    
    3119   1.985      0.6364E-03 SPRIN         11   0.0%   157.1      0.3125E-04   0.000       107.1       0.000      0.5000E-01   0.000    
    3120   1.986      0.6364E-03 SPRIN         11   0.0%   157.3      0.3125E-04   0.000       107.3       0.000      0.5000E-01   0.000    
    3121   1.986      0.6364E-03 SPRIN         11   0.0%   157.4      0.3125E-04   0.000       107.4       0.000      0.5000E-01   0.000    
    3122   1.987      0.6364E-03 SPRIN         11   0.0%   157.6      0.3125E-04   0.000       107.6       0.000      0.5000E-01   0.000    
    3123   1.987      0.6364E-03 SPRIN         11   0.0%   157.7      0.3125E-04   0.000       107.7       0.000      0.5000E-01   0.000    
    3124   1.988      0.6364E-03 SPRIN         11   0.0%   157.9      0.3125E-04   0.000       107.9       0.000      0.5000E-01   0.000    
    3125   1.989      0.6364E-03 SPRIN         11   0.0%   158.1      0.3125E-04   0.000       108.1       0.000      0.5000E-01   0.000    
    3126   1.989      0.6364E-03 SPRIN         11   0.0%   158.2      0.3125E-04   0.000       108.2       0.000      0.5000E-01   0.000    
    3127   1.990      0.6364E-03 SPRIN         11   0.0%   158.4      0.3125E-04   0.000       108.4       0.000      0.5000E-01   0.000    
    3128   1.991      0.6364E-03 SPRIN         11   0.0%   158.5      0.3125E-04   0.000       108.5       0.000      0.5000E-01   0.000    
    3129   1.991      0.6364E-03 SPRIN         11   0.0%   158.7      0.3125E-04   0.000       108.7       0.000      0.5000E-01   0.000    
    3130   1.992      0.6364E-03 SPRIN         11   0.0%   158.9      0.3125E-04   0.000       108.9       0.000      0.5000E-01   0.000    
    3131   1.993      0.6364E-03 SPRIN         11   0.0%   159.0      0.3125E-04   0.000       109.0       0.000      0.5000E-01   0.000    
    3132   1.993      0.6364E-03 SPRIN         11   0.0%   159.2      0.3125E-04   0.000       109.2       0.000      0.5000E-01   0.000    
    3133   1.994      0.6364E-03 SPRIN         11   0.0%   159.3      0.3125E-04   0.000       109.3       0.000      0.5000E-01   0.000    
    3134   1.994      0.6364E-03 SPRIN         11   0.0%   159.5      0.3125E-04   0.000       109.5       0.000      0.5000E-01   0.000    
   CYCLE    TIME      TIME-STEP  ELEMENT          ERROR  I-ENERGY    K-ENERGY T  K-ENERGY R  EXT-WORK     MAS.ERR     TOTAL MASS  MASS ADDED
    3135   1.995      0.6364E-03 SPRIN         11   0.0%   159.7      0.3125E-04   0.000       109.7       0.000      0.5000E-01   0.000    
    3136   1.996      0.6364E-03 SPRIN         11   0.0%   159.8      0.3125E-04   0.000       109.8       0.000      0.5000E-01   0.000    
    3137   1.996      0.6364E-03 SPRIN         11   0.0%   160.0      0.3125E-04   0.000       110.0       0.000      0.5000E-01   0.000    
    3138   1.997      0.6364E-03 SPRIN         11   0.0%   160.1      0.3125E-04   0.000       110.1       0.000      0.5000E-01   0.000    
    3139   1.998      0.6364E-03 SPRIN         11   0.0%   160.3      0.3125E-04   0.000       110.3       0.000      0.5000E-01   0.000    
    3140   1.998      0.6364E-03 SPRIN         11   0.0%   160.5      0.3125E-04   0.000       110.5       0.000      0.5000E-01   0.000    
    3141   1.999      0.6364E-03 SPRIN         11   0.0%   160.6      0.3125E-04   0.000       110.6       0.000      0.5000E-01   0.000    
    3142   2.000      0.6364E-03 SPRIN         11   0.0%   160.8      0.3125E-04   0.000       110.8       0.000      0.5000E-01   0.000    
    3143   2.000      0.6364E-03 SPRIN         11   0.0%   161.0      0.3125E-04   0.000       111.0       0.000      0.5000E-01   0.000    
     ANIMATION FILE: SPR_PRE_2FLAGA011 WRITTEN
    3144   2.001      0.6364E-03 SPRIN         11   0.0%   161.1      0.3125E-04   0.000       111.1       0.000      0.5000E-01   0.000    
    3145   2.001      0.6364E-03 SPRIN         11   0.0%   161.3      0.3125E-04   0.000       111.3       0.000      0.5000E-01   0.000    
    3146   2.002      0.6364E-03 SPRIN         11   0.0%   161.4      0.3125E-04   0.000       111.4       0.000      0.5000E-01   0.000    
    3147   2.003      0.6364E-03 SPRIN         11   0.0%   161.6      0.3125E-04   0.000       111.6       0.000      0.5000E-01   0.000    
    3148   2.003      0.6364E-03 SPRIN         11   0.0%   161.8      0.3125E-04   0.000       111.8       0.000      0.5000E-01   0.000    
    3149   2.004      0.6364E-03 SPRIN         11   0.0%   161.9      0.3125E-04   0.000       111.9       0.000      0.5000E-01   0.000    
    3150   2.005      0.6364E-03 SPRIN         11   0.0%   162.1      0.3125E-04   0.000       112.1       0.000      0.5000E-01   0.000    
    3151   2.005      0.6364E-03 SPRIN         11   0.0%   162.2      0.3125E-04   0.000       112.2       0.000      0.5000E-01   0.000    
    3152   2.006      0.6364E-03 SPRIN         11   0.0%   162.4      0.3125E-04   0.000       112.4       0.000      0.5000E-01   0.000    
    3153   2.007      0.6364E-03 SPRIN         11   0.0%   162.6      0.3125E-04   0.000       112.6       0.000      0.5000E-01   0.000    
    3154   2.007      0.6364E-03 SPRIN         11   0.0%   162.7      0.3125E-04   0.000       112.7       0.000      0.5000E-01   0.000    
    3155   2.008      0.6364E-03 SPRIN         11   0.0%   162.9      0.3125E-04   0.000       112.9       0.000      0.5000E-01   0.000    
    3156   2.008      0.6364E-03 SPRIN         11   0.0%   163.1      0.3125E-04   0.000       113.1       0.000      0.5000E-01   0.000    
    3157   2.009      0.6364E-03 SPRIN         11   0.0%   163.2      0.3125E-04   0.000       113.2       0.000      0.5000E-01   0.000    
    3158   2.010      0.6364E-03 SPRIN         11   0.0%   163.4      0.3125E-04   0.000       113.4       0.000      0.5000E-01   0.000    
    3159   2.010      0.6364E-03 SPRIN         11   0.0%   163.6      0.3125E-04   0.000       113.6       0.000      0.5000E-01   0.000    
    3160   2.011      0.6364E-03 SPRIN         11   0.0%   163.7      0.3125E-04   0.000       113.7       0.000      0.5000E-01   0.000    
    3161   2.012      0.6364E-03 SPRIN         11   0.0%   163.9      0.3125E-04   0.000       113.9       0.000      0.5000E-01   0.000    
    3162   2.012      0.6364E-03 SPRIN         11   0.0%   164.0      0.3125E-04   0.000       114.0       0.000      0.5000E-01   0.000    
    3163   2.013      0.6364E-03 SPRIN         11   0.0%   164.2      0.3125E-04   0.000       114.2       0.000      0.5000E-01   0.000    
    3164   2.014      0.6364E-03 SPRIN         11   0.0%   164.4      0.3125E-04   0.000       114.4       0.000      0.5000E-01   0.000    
    3165   2.014      0.6364E-03 SPRIN         11   0.0%   164.5      0.3125E-04   0.000       114.5       0.000      0.5000E-01   0.000    
    3166   2.015      0.6364E-03 SPRIN         11   0.0%   164.7      0.3125E-04   0.000       114.7       0.000      0.5000E-01   0.000    
    3167   2.015      0.6364E-03 SPRIN         11   0.0%   164.9      0.3125E-04   0.000       114.9       0.000      0.5000E-01   0.000    
    3168   2.016      0.6364E-03 SPRIN         11   0.0%   165.0      0.3125E-04   0.000       115.0       0.000      0.5000E-01   0.000    
    3169   2.017      0.6364E-03 SPRIN         11   0.0%   165.2      0.3125E-04   0.000       115.2       0.000      0.5000E-01   0.000    
    3170   2.017      0.6364E-03 SPRIN         11   0.0%   165.4      0.3125E-04   0.000       115.4       0.000      0.5000E-01   0.000    
    3171   2.018      0.6364E-03 SPRIN         11   0.0%   165.5      0.3125E-04   0.000       115.5       0.000      0.5000E-01   0.000    
    3172   2.019      0.6364E-03 SPRIN         11   0.0%   165.7      0.3125E-04   0.000       115.7       0.000      0.5000E-01   0.000    
    3173   2.019      0.6364E-03 SPRIN         11   0.0%   165.8      0.3125E-04   0.000       115.8       0.000      0.5000E-01   0.000    
    3174   2.020      0.6364E-03 SPRIN         11   0.0%   166.0      0.3125E-04   0.000       116.0       0.000      0.5000E-01   0.000    
    3175   2.021      0.6364E-03 SPRIN         11   0.0%   166.2      0.3125E-04   0.000       116.2       0.000      0.5000E-01   0.000    
    3176   2.021      0.6364E-03 SPRIN         11   0.0%   166.3      0.3125E-04   0.000       116.3       0.000      0.5000E-01   0.000    
    3177   2.022      0.6364E-03 SPRIN         11   0.0%   166.5      0.3125E-04   0.000       116.5       0.000      0.5000E-01   0.000    
    3178   2.022      0.6364E-03 SPRIN         11   0.0%   166.7      0.3125E-04   0.000       116.7       0.000      0.5000E-01   0.000    
    3179   2.023      0.6364E-03 SPRIN         11   0.0%   166.8      0.3125E-04   0.000       116.8       0.000      0.5000E-01   0.000    
    3180   2.024      0.6364E-03 SPRIN         11   0.0%   167.0      0.3125E-04   0.000       117.0       0.000      0.5000E-01   0.000    
    3181   2.024      0.6364E-03 SPRIN         11   0.0%   167.2      0.3125E-04   0.000       117.2       0.000      0.5000E-01   0.000    
    3182   2.025      0.6364E-03 SPRIN         11   0.0%   167.3      0.3125E-04   0.000       117.3       0.000      0.5000E-01   0.000    
    3183   2.026      0.6364E-03 SPRIN         11   0.0%   167.5      0.3125E-04   0.000       117.5       0.000      0.5000E-01   0.000    
    3184   2.026      0.6364E-03 SPRIN         11   0.0%   167.7      0.3125E-04   0.000       117.7       0.000      0.5000E-01   0.000    
    3185   2.027      0.6364E-03 SPRIN         11   0.0%   167.8      0.3125E-04   0.000       117.8       0.000      0.5000E-01   0.000    
    3186   2.028      0.6364E-03 SPRIN         11   0.0%   168.0      0.3125E-04   0.000       118.0       0.000      0.5000E-01   0.000    
    3187   2.028      0.6364E-03 SPRIN         11   0.0%   168.2      0.3125E-04   0.000       118.2       0.000      0.5000E-01   0.000    
    3188   2.029      0.6364E-03 SPRIN         11   0.0%   168.3      0.3125E-04   0.000       118.3       0.000      0.5000E-01   0.000    
    3189   2.029      0.6364E-03 SPRIN         11   0.0%   168.5      0.3125E-04   0.000       118.5       0.000      0.5000E-01   0.000    
   CYCLE    TIME      TIME-STEP  ELEMENT          ERROR  I-ENERGY    K-ENERGY T  K-ENERGY R  EXT-WORK     MAS.ERR     TOTAL MASS  MASS ADDED
    3190   2.030      0.6364E-03 SPRIN         11   0.0%   168.7      0.3125E-04   0.000       118.7       0.000      0.5000E-01   0.000    
    3191   2.031      0.6364E-03 SPRIN         11   0.0%   168.8      0.3125E-04   0.000       118.8       0.000      0.5000E-01   0.000    
    3192   2.031      0.6364E-03 SPRIN         11   0.0%   169.0      0.3125E-04   0.000       119.0       0.000      0.5000E-01   0.000    
    3193   2.032      0.6364E-03 SPRIN         11   0.0%   169.2      0.3125E-04   0.000       119.2       0.000      0.5000E-01   0.000    
    3194   2.033      0.6364E-03 SPRIN         11   0.0%   169.3      0.3125E-04   0.000       119.3       0.000      0.5000E-01   0.000    
    3195   2.033      0.6364E-03 SPRIN         11   0.0%   169.5      0.3125E-04   0.000       119.5       0.000      0.5000E-01   0.000    
    3196   2.034      0.6364E-03 SPRIN         11   0.0%   169.7      0.3125E-04   0.000       119.7       0.000      0.5000E-01   0.000    
    3197   2.035      0.6364E-03 SPRIN         11   0.0%   169.8      0.3125E-04   0.000       119.8       0.000      0.5000E-01   0.000    
    3198   2.035      0.6364E-03 SPRIN         11   0.0%   170.0      0.3125E-04   0.000       120.0       0.000      0.5000E-01   0.000    
    3199   2.036      0.6364E-03 SPRIN         11   0.0%   170.2      0.3125E-04   0.000       120.2       0.000      0.5000E-01   0.000    
    3200   2.036      0.6364E-03 SPRIN         11   0.0%   170.3      0.3125E-04   0.000       120.3       0.000      0.5000E-01   0.000    
    3201   2.037      0.6364E-03 SPRIN         11   0.0%   170.5      0.3125E-04   0.000       120.5       0.000      0.5000E-01   0.000    
    3202   2.038      0.6364E-03 SPRIN         11   0.0%   170.7      0.3125E-04   0.000       120.7       0.000      0.5000E-01   0.000    
    3203   2.038      0.6364E-03 SPRIN         11   0.0%   170.8      0.3125E-04   0.000       120.8       0.000      0.5000E-01   0.000    
    3204   2.039      0.6364E-03 SPRIN         11   0.0%   171.0      0.3125E-04   0.000       121.0       0.000      0.5000E-01   0.000    
    3205   2.040      0.6364E-03 SPRIN         11   0.0%   171.2      0.3125E-04   0.000       121.2       0.000      0.5000E-01   0.000    
    3206   2.040      0.6364E-03 SPRIN         11   0.0%   171.3      0.3125E-04   0.000       121.3       0.000      0.5000E-01   0.000    
    3207   2.041      0.6364E-03 SPRIN         11   0.0%   171.5      0.3125E-04   0.000       121.5       0.000      0.5000E-01   0.000    
    3208   2.042      0.6364E-03 SPRIN         11   0.0%   171.7      0.3125E-04   0.000       121.7       0.000      0.5000E-01   0.000    
    3209   2.042      0.6364E-03 SPRIN         11   0.0%   171.8      0.3125E-04   0.000       121.8       0.000      0.5000E-01   0.000    
    3210   2.043      0.6364E-03 SPRIN         11   0.0%   172.0      0.3125E-04   0.000       122.0       0.000      0.5000E-01   0.000    
    3211   2.043      0.6364E-03 SPRIN         11   0.0%   172.2      0.3125E-04   0.000       122.2       0.000      0.5000E-01   0.000    
    3212   2.044      0.6364E-03 SPRIN         11   0.0%   172.3      0.3125E-04   0.000       122.3       0.000      0.5000E-01   0.000    
    3213   2.045      0.6364E-03 SPRIN         11   0.0%   172.5      0.3125E-04   0.000       122.5       0.000      0.5000E-01   0.000    
    3214   2.045      0.6364E-03 SPRIN         11   0.0%   172.7      0.3125E-04   0.000       122.7       0.000      0.5000E-01   0.000    
    3215   2.046      0.6364E-03 SPRIN         11   0.0%   172.9      0.3125E-04   0.000       122.9       0.000      0.5000E-01   0.000    
    3216   2.047      0.6364E-03 SPRIN         11   0.0%   173.0      0.3125E-04   0.000       123.0       0.000      0.5000E-01   0.000    
    3217   2.047      0.6364E-03 SPRIN         11   0.0%   173.2      0.3125E-04   0.000       123.2       0.000      0.5000E-01   0.000    
    3218   2.048      0.6364E-03 SPRIN         11   0.0%   173.4      0.3125E-04   0.000       123.4       0.000      0.5000E-01   0.000    
    3219   2.049      0.6364E-03 SPRIN         11   0.0%   173.5      0.3125E-04   0.000       123.5       0.000      0.5000E-01   0.000    
    3220   2.049      0.6364E-03 SPRIN         11   0.0%   173.7      0.3125E-04   0.000       123.7       0.000      0.5000E-01   0.000    
    3221   2.050      0.6364E-03 SPRIN         11   0.0%   173.9      0.3125E-04   0.000       123.9       0.000      0.5000E-01   0.000    
    3222   2.050      0.6364E-03 SPRIN         11   0.0%   174.0      0.3125E-04   0.000       124.0       0.000      0.5000E-01   0.000    
    3223   2.051      0.6364E-03 SPRIN         11   0.0%   174.2      0.3125E-04   0.000       124.2       0.000      0.5000E-01   0.000    
    3224   2.052      0.6364E-03 SPRIN         11   0.0%   174.4      0.3125E-04   0.000       124.4       0.000      0.5000E-01   0.000    
    3225   2.052      0.6364E-03 SPRIN         11   0.0%   174.5      0.3125E-04   0.000       124.5       0.000      0.5000E-01   0.000    
    3226   2.053      0.6364E-03 SPRIN         11   0.0%   174.7      0.3125E-04   0.000       124.7       0.000      0.5000E-01   0.000    
    3227   2.054      0.6364E-03 SPRIN         11   0.0%   174.9      0.3125E-04   0.000       124.9       0.000      0.5000E-01   0.000    
    3228   2.054      0.6364E-03 SPRIN         11   0.0%   175.1      0.3125E-04   0.000       125.1       0.000      0.5000E-01   0.000    
    3229   2.055      0.6364E-03 SPRIN         11   0.0%   175.2      0.3125E-04   0.000       125.2       0.000      0.5000E-01   0.000    
    3230   2.056      0.6364E-03 SPRIN         11   0.0%   175.4      0.3125E-04   0.000       125.4       0.000      0.5000E-01   0.000    
    3231   2.056      0.6364E-03 SPRIN         11   0.0%   175.6      0.3125E-04   0.000       125.6       0.000      0.5000E-01   0.000    
    3232   2.057      0.6364E-03 SPRIN         11   0.0%   175.7      0.3125E-04   0.000       125.7       0.000      0.5000E-01   0.000    
    3233   2.057      0.6364E-03 SPRIN         11   0.0%   175.9      0.3125E-04   0.000       125.9       0.000      0.5000E-01   0.000    
    3234   2.058      0.6364E-03 SPRIN         11   0.0%   176.1      0.3125E-04   0.000       126.1       0.000      0.5000E-01   0.000    
    3235   2.059      0.6364E-03 SPRIN         11   0.0%   176.2      0.3125E-04   0.000       126.2       0.000      0.5000E-01   0.000    
    3236   2.059      0.6364E-03 SPRIN         11   0.0%   176.4      0.3125E-04   0.000       126.4       0.000      0.5000E-01   0.000    
    3237   2.060      0.6364E-03 SPRIN         11   0.0%   176.6      0.3125E-04   0.000       126.6       0.000      0.5000E-01   0.000    
    3238   2.061      0.6364E-03 SPRIN         11   0.0%   176.8      0.3125E-04   0.000       126.8       0.000      0.5000E-01   0.000    
    3239   2.061      0.6364E-03 SPRIN         11   0.0%   176.9      0.3125E-04   0.000       126.9       0.000      0.5000E-01   0.000    
    3240   2.062      0.6364E-03 SPRIN         11   0.0%   177.1      0.3125E-04   0.000       127.1       0.000      0.5000E-01   0.000    
    3241   2.063      0.6364E-03 SPRIN         11   0.0%   177.3      0.3125E-04   0.000       127.3       0.000      0.5000E-01   0.000    
    3242   2.063      0.6364E-03 SPRIN         11   0.0%   177.4      0.3125E-04   0.000       127.4       0.000      0.5000E-01   0.000    
    3243   2.064      0.6364E-03 SPRIN         11   0.0%   177.6      0.3125E-04   0.000       127.6       0.000      0.5000E-01   0.000    
    3244   2.064      0.6364E-03 SPRIN         11   0.0%   177.8      0.3125E-04   0.000       127.8       0.000      0.5000E-01   0.000    
   CYCLE    TIME      TIME-STEP  ELEMENT          ERROR  I-ENERGY    K-ENERGY T  K-ENERGY R  EXT-WORK     MAS.ERR     TOTAL MASS  MASS ADDED
    3245   2.065      0.6364E-03 SPRIN         11   0.0%   178.0      0.3125E-04   0.000       128.0       0.000      0.5000E-01   0.000    
    3246   2.066      0.6364E-03 SPRIN         11   0.0%   178.1      0.3125E-04   0.000       128.1       0.000      0.5000E-01   0.000    
    3247   2.066      0.6364E-03 SPRIN         11   0.0%   178.3      0.3125E-04   0.000       128.3       0.000      0.5000E-01   0.000    
    3248   2.067      0.6364E-03 SPRIN         11   0.0%   178.5      0.3125E-04   0.000       128.5       0.000      0.5000E-01   0.000    
    3249   2.068      0.6364E-03 SPRIN         11   0.0%   178.7      0.3125E-04   0.000       128.7       0.000      0.5000E-01   0.000    
    3250   2.068      0.6364E-03 SPRIN         11   0.0%   178.8      0.3125E-04   0.000       128.8       0.000      0.5000E-01   0.000    
    3251   2.069      0.6364E-03 SPRIN         11   0.0%   179.0      0.3125E-04   0.000       129.0       0.000      0.5000E-01   0.000    
    3252   2.070      0.6364E-03 SPRIN         11   0.0%   179.2      0.3125E-04   0.000       129.2       0.000      0.5000E-01   0.000    
    3253   2.070      0.6364E-03 SPRIN         11   0.0%   179.3      0.3125E-04   0.000       129.3       0.000      0.5000E-01   0.000    
    3254   2.071      0.6364E-03 SPRIN         11   0.0%   179.5      0.3125E-04   0.000       129.5       0.000      0.5000E-01   0.000    
    3255   2.071      0.6364E-03 SPRIN         11   0.0%   179.7      0.3125E-04   0.000       129.7       0.000      0.5000E-01   0.000    
    3256   2.072      0.6364E-03 SPRIN         11   0.0%   179.9      0.3125E-04   0.000       129.9       0.000      0.5000E-01   0.000    
    3257   2.073      0.6364E-03 SPRIN         11   0.0%   180.0      0.3125E-04   0.000       130.0       0.000      0.5000E-01   0.000    
    3258   2.073      0.6364E-03 SPRIN         11   0.0%   180.2      0.3125E-04   0.000       130.2       0.000      0.5000E-01   0.000    
    3259   2.074      0.6364E-03 SPRIN         11   0.0%   180.4      0.3125E-04   0.000       130.4       0.000      0.5000E-01   0.000    
    3260   2.075      0.6364E-03 SPRIN         11   0.0%   180.6      0.3125E-04   0.000       130.6       0.000      0.5000E-01   0.000    
    3261   2.075      0.6364E-03 SPRIN         11   0.0%   180.7      0.3125E-04   0.000       130.7       0.000      0.5000E-01   0.000    
    3262   2.076      0.6364E-03 SPRIN         11   0.0%   180.9      0.3125E-04   0.000       130.9       0.000      0.5000E-01   0.000    
    3263   2.077      0.6364E-03 SPRIN         11   0.0%   181.1      0.3125E-04   0.000       131.1       0.000      0.5000E-01   0.000    
    3264   2.077      0.6364E-03 SPRIN         11   0.0%   181.2      0.3125E-04   0.000       131.2       0.000      0.5000E-01   0.000    
    3265   2.078      0.6364E-03 SPRIN         11   0.0%   181.4      0.3125E-04   0.000       131.4       0.000      0.5000E-01   0.000    
    3266   2.078      0.6364E-03 SPRIN         11   0.0%   181.6      0.3125E-04   0.000       131.6       0.000      0.5000E-01   0.000    
    3267   2.079      0.6364E-03 SPRIN         11   0.0%   181.8      0.3125E-04   0.000       131.8       0.000      0.5000E-01   0.000    
    3268   2.080      0.6364E-03 SPRIN         11   0.0%   181.9      0.3125E-04   0.000       131.9       0.000      0.5000E-01   0.000    
    3269   2.080      0.6364E-03 SPRIN         11   0.0%   182.1      0.3125E-04   0.000       132.1       0.000      0.5000E-01   0.000    
    3270   2.081      0.6364E-03 SPRIN         11   0.0%   182.3      0.3125E-04   0.000       132.3       0.000      0.5000E-01   0.000    
    3271   2.082      0.6364E-03 SPRIN         11   0.0%   182.5      0.3125E-04   0.000       132.5       0.000      0.5000E-01   0.000    
    3272   2.082      0.6364E-03 SPRIN         11   0.0%   182.6      0.3125E-04   0.000       132.6       0.000      0.5000E-01   0.000    
    3273   2.083      0.6364E-03 SPRIN         11   0.0%   182.8      0.3125E-04   0.000       132.8       0.000      0.5000E-01   0.000    
    3274   2.084      0.6364E-03 SPRIN         11   0.0%   183.0      0.3125E-04   0.000       133.0       0.000      0.5000E-01   0.000    
    3275   2.084      0.6364E-03 SPRIN         11   0.0%   183.2      0.3125E-04   0.000       133.2       0.000      0.5000E-01   0.000    
    3276   2.085      0.6364E-03 SPRIN         11   0.0%   183.3      0.3125E-04   0.000       133.3       0.000      0.5000E-01   0.000    
    3277   2.085      0.6364E-03 SPRIN         11   0.0%   183.5      0.3125E-04   0.000       133.5       0.000      0.5000E-01   0.000    
    3278   2.086      0.6364E-03 SPRIN         11   0.0%   183.7      0.3125E-04   0.000       133.7       0.000      0.5000E-01   0.000    
    3279   2.087      0.6364E-03 SPRIN         11   0.0%   183.9      0.3125E-04   0.000       133.9       0.000      0.5000E-01   0.000    
    3280   2.087      0.6364E-03 SPRIN         11   0.0%   184.0      0.3125E-04   0.000       134.0       0.000      0.5000E-01   0.000    
    3281   2.088      0.6364E-03 SPRIN         11   0.0%   184.2      0.3125E-04   0.000       134.2       0.000      0.5000E-01   0.000    
    3282   2.089      0.6364E-03 SPRIN         11   0.0%   184.4      0.3125E-04   0.000       134.4       0.000      0.5000E-01   0.000    
    3283   2.089      0.6364E-03 SPRIN         11   0.0%   184.6      0.3125E-04   0.000       134.6       0.000      0.5000E-01   0.000    
    3284   2.090      0.6364E-03 SPRIN         11   0.0%   184.7      0.3125E-04   0.000       134.7       0.000      0.5000E-01   0.000    
    3285   2.091      0.6364E-03 SPRIN         11   0.0%   184.9      0.3125E-04   0.000       134.9       0.000      0.5000E-01   0.000    
    3286   2.091      0.6364E-03 SPRIN         11   0.0%   185.1      0.3125E-04   0.000       135.1       0.000      0.5000E-01   0.000    
    3287   2.092      0.6364E-03 SPRIN         11   0.0%   185.3      0.3125E-04   0.000       135.3       0.000      0.5000E-01   0.000    
    3288   2.092      0.6364E-03 SPRIN         11   0.0%   185.4      0.3125E-04   0.000       135.4       0.000      0.5000E-01   0.000    
    3289   2.093      0.6364E-03 SPRIN         11  -0.0%   185.6      0.3125E-04   0.000       135.6       0.000      0.5000E-01   0.000    
    3290   2.094      0.6364E-03 SPRIN         11   0.0%   185.8      0.3125E-04   0.000       135.8       0.000      0.5000E-01   0.000    
    3291   2.094      0.6364E-03 SPRIN         11   0.0%   186.0      0.3125E-04   0.000       136.0       0.000      0.5000E-01   0.000    
    3292   2.095      0.6364E-03 SPRIN         11   0.0%   186.2      0.3125E-04   0.000       136.2       0.000      0.5000E-01   0.000    
    3293   2.096      0.6364E-03 SPRIN         11   0.0%   186.3      0.3125E-04   0.000       136.3       0.000      0.5000E-01   0.000    
    3294   2.096      0.6364E-03 SPRIN         11  -0.0%   186.5      0.3125E-04   0.000       136.5       0.000      0.5000E-01   0.000    
    3295   2.097      0.6364E-03 SPRIN         11   0.0%   186.7      0.3125E-04   0.000       136.7       0.000      0.5000E-01   0.000    
    3296   2.098      0.6364E-03 SPRIN         11   0.0%   186.9      0.3125E-04   0.000       136.9       0.000      0.5000E-01   0.000    
    3297   2.098      0.6364E-03 SPRIN         11   0.0%   187.0      0.3125E-04   0.000       137.0       0.000      0.5000E-01   0.000    
    3298   2.099      0.6364E-03 SPRIN         11   0.0%   187.2      0.3125E-04   0.000       137.2       0.000      0.5000E-01   0.000    
    3299   2.099      0.6364E-03 SPRIN         11   0.0%   187.4      0.3125E-04   0.000       137.4       0.000      0.5000E-01   0.000    
   CYCLE    TIME      TIME-STEP  ELEMENT          ERROR  I-ENERGY    K-ENERGY T  K-ENERGY R  EXT-WORK     MAS.ERR     TOTAL MASS  MASS ADDED
    3300   2.100      0.6364E-03 SPRIN         11   0.0%   187.6      0.3125E-04   0.000       137.6       0.000      0.5000E-01   0.000    
    3301   2.101      0.6364E-03 SPRIN         11   0.0%   187.7      0.3125E-04   0.000       137.7       0.000      0.5000E-01   0.000    
    3302   2.101      0.6364E-03 SPRIN         11   0.0%   187.9      0.3125E-04   0.000       137.9       0.000      0.5000E-01   0.000    
    3303   2.102      0.6364E-03 SPRIN         11   0.0%   188.1      0.3125E-04   0.000       138.1       0.000      0.5000E-01   0.000    
    3304   2.103      0.6364E-03 SPRIN         11   0.0%   188.3      0.3125E-04   0.000       138.3       0.000      0.5000E-01   0.000    
    3305   2.103      0.6364E-03 SPRIN         11   0.0%   188.5      0.3125E-04   0.000       138.5       0.000      0.5000E-01   0.000    
    3306   2.104      0.6364E-03 SPRIN         11   0.0%   188.6      0.3125E-04   0.000       138.6       0.000      0.5000E-01   0.000    
    3307   2.105      0.6364E-03 SPRIN         11   0.0%   188.8      0.3125E-04   0.000       138.8       0.000      0.5000E-01   0.000    
    3308   2.105      0.6364E-03 SPRIN         11   0.0%   189.0      0.3125E-04   0.000       139.0       0.000      0.5000E-01   0.000    
    3309   2.106      0.6364E-03 SPRIN         11   0.0%   189.2      0.3125E-04   0.000       139.2       0.000      0.5000E-01   0.000    
    3310   2.106      0.6364E-03 SPRIN         11   0.0%   189.4      0.3125E-04   0.000       139.4       0.000      0.5000E-01   0.000    
    3311   2.107      0.6364E-03 SPRIN         11   0.0%   189.5      0.3125E-04   0.000       139.5       0.000      0.5000E-01   0.000    
    3312   2.108      0.6364E-03 SPRIN         11   0.0%   189.7      0.3125E-04   0.000       139.7       0.000      0.5000E-01   0.000    
    3313   2.108      0.6364E-03 SPRIN         11   0.0%   189.9      0.3125E-04   0.000       139.9       0.000      0.5000E-01   0.000    
    3314   2.109      0.6364E-03 SPRIN         11   0.0%   190.1      0.3125E-04   0.000       140.1       0.000      0.5000E-01   0.000    
    3315   2.110      0.6364E-03 SPRIN         11   0.0%   190.2      0.3125E-04   0.000       140.2       0.000      0.5000E-01   0.000    
    3316   2.110      0.6364E-03 SPRIN         11   0.0%   190.4      0.3125E-04   0.000       140.4       0.000      0.5000E-01   0.000    
    3317   2.111      0.6364E-03 SPRIN         11   0.0%   190.6      0.3125E-04   0.000       140.6       0.000      0.5000E-01   0.000    
    3318   2.112      0.6364E-03 SPRIN         11   0.0%   190.8      0.3125E-04   0.000       140.8       0.000      0.5000E-01   0.000    
    3319   2.112      0.6364E-03 SPRIN         11   0.0%   191.0      0.3125E-04   0.000       141.0       0.000      0.5000E-01   0.000    
    3320   2.113      0.6364E-03 SPRIN         11   0.0%   191.1      0.3125E-04   0.000       141.1       0.000      0.5000E-01   0.000    
    3321   2.113      0.6364E-03 SPRIN         11   0.0%   191.3      0.3125E-04   0.000       141.3       0.000      0.5000E-01   0.000    
    3322   2.114      0.6364E-03 SPRIN         11   0.0%   191.5      0.3125E-04   0.000       141.5       0.000      0.5000E-01   0.000    
    3323   2.115      0.6364E-03 SPRIN         11   0.0%   191.7      0.3125E-04   0.000       141.7       0.000      0.5000E-01   0.000    
    3324   2.115      0.6364E-03 SPRIN         11   0.0%   191.9      0.3125E-04   0.000       141.9       0.000      0.5000E-01   0.000    
    3325   2.116      0.6364E-03 SPRIN         11   0.0%   192.0      0.3125E-04   0.000       142.0       0.000      0.5000E-01   0.000    
    3326   2.117      0.6364E-03 SPRIN         11   0.0%   192.2      0.3125E-04   0.000       142.2       0.000      0.5000E-01   0.000    
    3327   2.117      0.6364E-03 SPRIN         11   0.0%   192.4      0.3125E-04   0.000       142.4       0.000      0.5000E-01   0.000    
    3328   2.118      0.6364E-03 SPRIN         11   0.0%   192.6      0.3125E-04   0.000       142.6       0.000      0.5000E-01   0.000    
    3329   2.119      0.6364E-03 SPRIN         11  -0.0%   192.8      0.3125E-04   0.000       142.8       0.000      0.5000E-01   0.000    
    3330   2.119      0.6364E-03 SPRIN         11   0.0%   192.9      0.3125E-04   0.000       142.9       0.000      0.5000E-01   0.000    
    3331   2.120      0.6364E-03 SPRIN         11   0.0%   193.1      0.3125E-04   0.000       143.1       0.000      0.5000E-01   0.000    
    3332   2.120      0.6364E-03 SPRIN         11   0.0%   193.3      0.3125E-04   0.000       143.3       0.000      0.5000E-01   0.000    
    3333   2.121      0.6364E-03 SPRIN         11   0.0%   193.5      0.3125E-04   0.000       143.5       0.000      0.5000E-01   0.000    
    3334   2.122      0.6364E-03 SPRIN         11  -0.0%   193.7      0.3125E-04   0.000       143.7       0.000      0.5000E-01   0.000    
    3335   2.122      0.6364E-03 SPRIN         11   0.0%   193.8      0.3125E-04   0.000       143.8       0.000      0.5000E-01   0.000    
    3336   2.123      0.6364E-03 SPRIN         11   0.0%   194.0      0.3125E-04   0.000       144.0       0.000      0.5000E-01   0.000    
    3337   2.124      0.6364E-03 SPRIN         11   0.0%   194.2      0.3125E-04   0.000       144.2       0.000      0.5000E-01   0.000    
    3338   2.124      0.6364E-03 SPRIN         11   0.0%   194.4      0.3125E-04   0.000       144.4       0.000      0.5000E-01   0.000    
    3339   2.125      0.6364E-03 SPRIN         11   0.0%   194.6      0.3125E-04   0.000       144.6       0.000      0.5000E-01   0.000    
    3340   2.126      0.6364E-03 SPRIN         11   0.0%   194.8      0.3125E-04   0.000       144.8       0.000      0.5000E-01   0.000    
    3341   2.126      0.6364E-03 SPRIN         11   0.0%   194.9      0.3125E-04   0.000       144.9       0.000      0.5000E-01   0.000    
    3342   2.127      0.6364E-03 SPRIN         11   0.0%   195.1      0.3125E-04   0.000       145.1       0.000      0.5000E-01   0.000    
    3343   2.127      0.6364E-03 SPRIN         11   0.0%   195.3      0.3125E-04   0.000       145.3       0.000      0.5000E-01   0.000    
    3344   2.128      0.6364E-03 SPRIN         11   0.0%   195.5      0.3125E-04   0.000       145.5       0.000      0.5000E-01   0.000    
    3345   2.129      0.6364E-03 SPRIN         11   0.0%   195.7      0.3125E-04   0.000       145.7       0.000      0.5000E-01   0.000    
    3346   2.129      0.6364E-03 SPRIN         11   0.0%   195.8      0.3125E-04   0.000       145.8       0.000      0.5000E-01   0.000    
    3347   2.130      0.6364E-03 SPRIN         11   0.0%   196.0      0.3125E-04   0.000       146.0       0.000      0.5000E-01   0.000    
    3348   2.131      0.6364E-03 SPRIN         11   0.0%   196.2      0.3125E-04   0.000       146.2       0.000      0.5000E-01   0.000    
    3349   2.131      0.6364E-03 SPRIN         11   0.0%   196.4      0.3125E-04   0.000       146.4       0.000      0.5000E-01   0.000    
    3350   2.132      0.6364E-03 SPRIN         11   0.0%   196.6      0.3125E-04   0.000       146.6       0.000      0.5000E-01   0.000    
    3351   2.133      0.6364E-03 SPRIN         11   0.0%   196.8      0.3125E-04   0.000       146.8       0.000      0.5000E-01   0.000    
    3352   2.133      0.6364E-03 SPRIN         11   0.0%   196.9      0.3125E-04   0.000       146.9       0.000      0.5000E-01   0.000    
    3353   2.134      0.6364E-03 SPRIN         11   0.0%   197.1      0.3125E-04   0.000       147.1       0.000      0.5000E-01   0.000    
    3354   2.134      0.6364E-03 SPRIN         11   0.0%   197.3      0.3125E-04   0.000       147.3       0.000      0.5000E-01   0.000    
   CYCLE    TIME      TIME-STEP  ELEMENT          ERROR  I-ENERGY    K-ENERGY T  K-ENERGY R  EXT-WORK     MAS.ERR     TOTAL MASS  MASS ADDED
    3355   2.135      0.6364E-03 SPRIN         11   0.0%   197.5      0.3125E-04   0.000       147.5       0.000      0.5000E-01   0.000    
    3356   2.136      0.6364E-03 SPRIN         11   0.0%   197.7      0.3125E-04   0.000       147.7       0.000      0.5000E-01   0.000    
    3357   2.136      0.6364E-03 SPRIN         11   0.0%   197.9      0.3125E-04   0.000       147.9       0.000      0.5000E-01   0.000    
    3358   2.137      0.6364E-03 SPRIN         11   0.0%   198.0      0.3125E-04   0.000       148.0       0.000      0.5000E-01   0.000    
    3359   2.138      0.6364E-03 SPRIN         11   0.0%   198.2      0.3125E-04   0.000       148.2       0.000      0.5000E-01   0.000    
    3360   2.138      0.6364E-03 SPRIN         11   0.0%   198.4      0.3125E-04   0.000       148.4       0.000      0.5000E-01   0.000    
    3361   2.139      0.6364E-03 SPRIN         11   0.0%   198.6      0.3125E-04   0.000       148.6       0.000      0.5000E-01   0.000    
    3362   2.140      0.6364E-03 SPRIN         11   0.0%   198.8      0.3125E-04   0.000       148.8       0.000      0.5000E-01   0.000    
    3363   2.140      0.6364E-03 SPRIN         11   0.0%   199.0      0.3125E-04   0.000       149.0       0.000      0.5000E-01   0.000    
    3364   2.141      0.6364E-03 SPRIN         11   0.0%   199.1      0.3125E-04   0.000       149.1       0.000      0.5000E-01   0.000    
    3365   2.141      0.6364E-03 SPRIN         11   0.0%   199.3      0.3125E-04   0.000       149.3       0.000      0.5000E-01   0.000    
    3366   2.142      0.6364E-03 SPRIN         11   0.0%   199.5      0.3125E-04   0.000       149.5       0.000      0.5000E-01   0.000    
    3367   2.143      0.6364E-03 SPRIN         11   0.0%   199.7      0.3125E-04   0.000       149.7       0.000      0.5000E-01   0.000    
    3368   2.143      0.6364E-03 SPRIN         11   0.0%   199.9      0.3125E-04   0.000       149.9       0.000      0.5000E-01   0.000    
    3369   2.144      0.6364E-03 SPRIN         11  -0.0%   200.1      0.3125E-04   0.000       150.1       0.000      0.5000E-01   0.000    
    3370   2.145      0.6364E-03 SPRIN         11   0.0%   200.2      0.3125E-04   0.000       150.2       0.000      0.5000E-01   0.000    
    3371   2.145      0.6364E-03 SPRIN         11   0.0%   200.4      0.3125E-04   0.000       150.4       0.000      0.5000E-01   0.000    
    3372   2.146      0.6364E-03 SPRIN         11   0.0%   200.6      0.3125E-04   0.000       150.6       0.000      0.5000E-01   0.000    
    3373   2.147      0.6364E-03 SPRIN         11   0.0%   200.8      0.3125E-04   0.000       150.8       0.000      0.5000E-01   0.000    
    3374   2.147      0.6364E-03 SPRIN         11  -0.0%   201.0      0.3125E-04   0.000       151.0       0.000      0.5000E-01   0.000    
    3375   2.148      0.6364E-03 SPRIN         11   0.0%   201.2      0.3125E-04   0.000       151.2       0.000      0.5000E-01   0.000    
    3376   2.148      0.6364E-03 SPRIN         11   0.0%   201.4      0.3125E-04   0.000       151.4       0.000      0.5000E-01   0.000    
    3377   2.149      0.6364E-03 SPRIN         11   0.0%   201.5      0.3125E-04   0.000       151.5       0.000      0.5000E-01   0.000    
    3378   2.150      0.6364E-03 SPRIN         11   0.0%   201.7      0.3125E-04   0.000       151.7       0.000      0.5000E-01   0.000    
    3379   2.150      0.6364E-03 SPRIN         11   0.0%   201.9      0.3125E-04   0.000       151.9       0.000      0.5000E-01   0.000    
    3380   2.151      0.6364E-03 SPRIN         11   0.0%   202.1      0.3125E-04   0.000       152.1       0.000      0.5000E-01   0.000    
    3381   2.152      0.6364E-03 SPRIN         11   0.0%   202.3      0.3125E-04   0.000       152.3       0.000      0.5000E-01   0.000    
    3382   2.152      0.6364E-03 SPRIN         11   0.0%   202.5      0.3125E-04   0.000       152.5       0.000      0.5000E-01   0.000    
    3383   2.153      0.6364E-03 SPRIN         11   0.0%   202.7      0.3125E-04   0.000       152.7       0.000      0.5000E-01   0.000    
    3384   2.154      0.6364E-03 SPRIN         11   0.0%   202.8      0.3125E-04   0.000       152.8       0.000      0.5000E-01   0.000    
    3385   2.154      0.6364E-03 SPRIN         11   0.0%   203.0      0.3125E-04   0.000       153.0       0.000      0.5000E-01   0.000    
    3386   2.155      0.6364E-03 SPRIN         11   0.0%   203.2      0.3125E-04   0.000       153.2       0.000      0.5000E-01   0.000    
    3387   2.155      0.6364E-03 SPRIN         11   0.0%   203.4      0.3125E-04   0.000       153.4       0.000      0.5000E-01   0.000    
    3388   2.156      0.6364E-03 SPRIN         11   0.0%   203.6      0.3125E-04   0.000       153.6       0.000      0.5000E-01   0.000    
    3389   2.157      0.6364E-03 SPRIN         11   0.0%   203.8      0.3125E-04   0.000       153.8       0.000      0.5000E-01   0.000    
    3390   2.157      0.6364E-03 SPRIN         11   0.0%   204.0      0.3125E-04   0.000       154.0       0.000      0.5000E-01   0.000    
    3391   2.158      0.6364E-03 SPRIN         11   0.0%   204.1      0.3125E-04   0.000       154.1       0.000      0.5000E-01   0.000    
    3392   2.159      0.6364E-03 SPRIN         11   0.0%   204.3      0.3125E-04   0.000       154.3       0.000      0.5000E-01   0.000    
    3393   2.159      0.6364E-03 SPRIN         11   0.0%   204.5      0.3125E-04   0.000       154.5       0.000      0.5000E-01   0.000    
    3394   2.160      0.6364E-03 SPRIN         11   0.0%   204.7      0.3125E-04   0.000       154.7       0.000      0.5000E-01   0.000    
    3395   2.161      0.6364E-03 SPRIN         11   0.0%   204.9      0.3125E-04   0.000       154.9       0.000      0.5000E-01   0.000    
    3396   2.161      0.6364E-03 SPRIN         11   0.0%   205.1      0.3125E-04   0.000       155.1       0.000      0.5000E-01   0.000    
    3397   2.162      0.6364E-03 SPRIN         11   0.0%   205.3      0.3125E-04   0.000       155.3       0.000      0.5000E-01   0.000    
    3398   2.162      0.6364E-03 SPRIN         11   0.0%   205.5      0.3125E-04   0.000       155.5       0.000      0.5000E-01   0.000    
    3399   2.163      0.6364E-03 SPRIN         11   0.0%   205.6      0.3125E-04   0.000       155.6       0.000      0.5000E-01   0.000    
    3400   2.164      0.6364E-03 SPRIN         11   0.0%   205.8      0.3125E-04   0.000       155.8       0.000      0.5000E-01   0.000    
    3401   2.164      0.6364E-03 SPRIN         11   0.0%   206.0      0.3125E-04   0.000       156.0       0.000      0.5000E-01   0.000    
    3402   2.165      0.6364E-03 SPRIN         11   0.0%   206.2      0.3125E-04   0.000       156.2       0.000      0.5000E-01   0.000    
    3403   2.166      0.6364E-03 SPRIN         11   0.0%   206.4      0.3125E-04   0.000       156.4       0.000      0.5000E-01   0.000    
    3404   2.166      0.6364E-03 SPRIN         11   0.0%   206.6      0.3125E-04   0.000       156.6       0.000      0.5000E-01   0.000    
    3405   2.167      0.6364E-03 SPRIN         11   0.0%   206.8      0.3125E-04   0.000       156.8       0.000      0.5000E-01   0.000    
    3406   2.168      0.6364E-03 SPRIN         11   0.0%   207.0      0.3125E-04   0.000       157.0       0.000      0.5000E-01   0.000    
    3407   2.168      0.6364E-03 SPRIN         11   0.0%   207.1      0.3125E-04   0.000       157.1       0.000      0.5000E-01   0.000    
    3408   2.169      0.6364E-03 SPRIN         11   0.0%   207.3      0.3125E-04   0.000       157.3       0.000      0.5000E-01   0.000    
    3409   2.169      0.6364E-03 SPRIN         11   0.0%   207.5      0.3125E-04   0.000       157.5       0.000      0.5000E-01   0.000    
   CYCLE    TIME      TIME-STEP  ELEMENT          ERROR  I-ENERGY    K-ENERGY T  K-ENERGY R  EXT-WORK     MAS.ERR     TOTAL MASS  MASS ADDED
    3410   2.170      0.6364E-03 SPRIN         11   0.0%   207.7      0.3125E-04   0.000       157.7       0.000      0.5000E-01   0.000    
    3411   2.171      0.6364E-03 SPRIN         11   0.0%   207.9      0.3125E-04   0.000       157.9       0.000      0.5000E-01   0.000    
    3412   2.171      0.6364E-03 SPRIN         11   0.0%   208.1      0.3125E-04   0.000       158.1       0.000      0.5000E-01   0.000    
    3413   2.172      0.6364E-03 SPRIN         11   0.0%   208.3      0.3125E-04   0.000       158.3       0.000      0.5000E-01   0.000    
    3414   2.173      0.6364E-03 SPRIN         11   0.0%   208.5      0.3125E-04   0.000       158.5       0.000      0.5000E-01   0.000    
    3415   2.173      0.6364E-03 SPRIN         11   0.0%   208.7      0.3125E-04   0.000       158.7       0.000      0.5000E-01   0.000    
    3416   2.174      0.6364E-03 SPRIN         11   0.0%   208.8      0.3125E-04   0.000       158.8       0.000      0.5000E-01   0.000    
    3417   2.175      0.6364E-03 SPRIN         11   0.0%   209.0      0.3125E-04   0.000       159.0       0.000      0.5000E-01   0.000    
    3418   2.175      0.6364E-03 SPRIN         11   0.0%   209.2      0.3125E-04   0.000       159.2       0.000      0.5000E-01   0.000    
    3419   2.176      0.6364E-03 SPRIN         11   0.0%   209.4      0.3125E-04   0.000       159.4       0.000      0.5000E-01   0.000    
    3420   2.176      0.6364E-03 SPRIN         11   0.0%   209.6      0.3125E-04   0.000       159.6       0.000      0.5000E-01   0.000    
    3421   2.177      0.6364E-03 SPRIN         11   0.0%   209.8      0.3125E-04   0.000       159.8       0.000      0.5000E-01   0.000    
    3422   2.178      0.6364E-03 SPRIN         11   0.0%   210.0      0.3125E-04   0.000       160.0       0.000      0.5000E-01   0.000    
    3423   2.178      0.6364E-03 SPRIN         11   0.0%   210.2      0.3125E-04   0.000       160.2       0.000      0.5000E-01   0.000    
    3424   2.179      0.6364E-03 SPRIN         11   0.0%   210.4      0.3125E-04   0.000       160.4       0.000      0.5000E-01   0.000    
    3425   2.180      0.6364E-03 SPRIN         11   0.0%   210.6      0.3125E-04   0.000       160.6       0.000      0.5000E-01   0.000    
    3426   2.180      0.6364E-03 SPRIN         11   0.0%   210.7      0.3125E-04   0.000       160.7       0.000      0.5000E-01   0.000    
    3427   2.181      0.6364E-03 SPRIN         11   0.0%   210.9      0.3125E-04   0.000       160.9       0.000      0.5000E-01   0.000    
    3428   2.182      0.6364E-03 SPRIN         11   0.0%   211.1      0.3125E-04   0.000       161.1       0.000      0.5000E-01   0.000    
    3429   2.182      0.6364E-03 SPRIN         11   0.0%   211.3      0.3125E-04   0.000       161.3       0.000      0.5000E-01   0.000    
    3430   2.183      0.6364E-03 SPRIN         11   0.0%   211.5      0.3125E-04   0.000       161.5       0.000      0.5000E-01   0.000    
    3431   2.183      0.6364E-03 SPRIN         11   0.0%   211.7      0.3125E-04   0.000       161.7       0.000      0.5000E-01   0.000    
    3432   2.184      0.6364E-03 SPRIN         11   0.0%   211.9      0.3125E-04   0.000       161.9       0.000      0.5000E-01   0.000    
    3433   2.185      0.6364E-03 SPRIN         11   0.0%   212.1      0.3125E-04   0.000       162.1       0.000      0.5000E-01   0.000    
    3434   2.185      0.6364E-03 SPRIN         11   0.0%   212.3      0.3125E-04   0.000       162.3       0.000      0.5000E-01   0.000    
    3435   2.186      0.6364E-03 SPRIN         11   0.0%   212.5      0.3125E-04   0.000       162.5       0.000      0.5000E-01   0.000    
    3436   2.187      0.6364E-03 SPRIN         11   0.0%   212.6      0.3125E-04   0.000       162.6       0.000      0.5000E-01   0.000    
    3437   2.187      0.6364E-03 SPRIN         11   0.0%   212.8      0.3125E-04   0.000       162.8       0.000      0.5000E-01   0.000    
    3438   2.188      0.6364E-03 SPRIN         11   0.0%   213.0      0.3125E-04   0.000       163.0       0.000      0.5000E-01   0.000    
    3439   2.189      0.6364E-03 SPRIN         11   0.0%   213.2      0.3125E-04   0.000       163.2       0.000      0.5000E-01   0.000    
    3440   2.189      0.6364E-03 SPRIN         11   0.0%   213.4      0.3125E-04   0.000       163.4       0.000      0.5000E-01   0.000    
    3441   2.190      0.6364E-03 SPRIN         11   0.0%   213.6      0.3125E-04   0.000       163.6       0.000      0.5000E-01   0.000    
    3442   2.190      0.6364E-03 SPRIN         11   0.0%   213.8      0.3125E-04   0.000       163.8       0.000      0.5000E-01   0.000    
    3443   2.191      0.6364E-03 SPRIN         11   0.0%   214.0      0.3125E-04   0.000       164.0       0.000      0.5000E-01   0.000    
    3444   2.192      0.6364E-03 SPRIN         11   0.0%   214.2      0.3125E-04   0.000       164.2       0.000      0.5000E-01   0.000    
    3445   2.192      0.6364E-03 SPRIN         11   0.0%   214.4      0.3125E-04   0.000       164.4       0.000      0.5000E-01   0.000    
    3446   2.193      0.6364E-03 SPRIN         11   0.0%   214.6      0.3125E-04   0.000       164.6       0.000      0.5000E-01   0.000    
    3447   2.194      0.6364E-03 SPRIN         11   0.0%   214.8      0.3125E-04   0.000       164.8       0.000      0.5000E-01   0.000    
    3448   2.194      0.6364E-03 SPRIN         11   0.0%   215.0      0.3125E-04   0.000       165.0       0.000      0.5000E-01   0.000    
    3449   2.195      0.6364E-03 SPRIN         11   0.0%   215.1      0.3125E-04   0.000       165.1       0.000      0.5000E-01   0.000    
    3450   2.196      0.6364E-03 SPRIN         11   0.0%   215.3      0.3125E-04   0.000       165.3       0.000      0.5000E-01   0.000    
    3451   2.196      0.6364E-03 SPRIN         11   0.0%   215.5      0.3125E-04   0.000       165.5       0.000      0.5000E-01   0.000    
    3452   2.197      0.6364E-03 SPRIN         11   0.0%   215.7      0.3125E-04   0.000       165.7       0.000      0.5000E-01   0.000    
    3453   2.197      0.6364E-03 SPRIN         11   0.0%   215.9      0.3125E-04   0.000       165.9       0.000      0.5000E-01   0.000    
    3454   2.198      0.6364E-03 SPRIN         11   0.0%   216.1      0.3125E-04   0.000       166.1       0.000      0.5000E-01   0.000    
    3455   2.199      0.6364E-03 SPRIN         11   0.0%   216.3      0.3125E-04   0.000       166.3       0.000      0.5000E-01   0.000    
    3456   2.199      0.6364E-03 SPRIN         11   0.0%   216.5      0.3125E-04   0.000       166.5       0.000      0.5000E-01   0.000    
    3457   2.200      0.6364E-03 SPRIN         11   0.0%   216.7      0.3125E-04   0.000       166.7       0.000      0.5000E-01   0.000    
     ANIMATION FILE: SPR_PRE_2FLAGA012 WRITTEN
    3458   2.201      0.6364E-03 SPRIN         11   0.0%   216.9      0.3125E-04   0.000       166.9       0.000      0.5000E-01   0.000    
    3459   2.201      0.6364E-03 SPRIN         11   0.0%   217.1      0.3125E-04   0.000       167.1       0.000      0.5000E-01   0.000    
    3460   2.202      0.6364E-03 SPRIN         11   0.0%   217.3      0.3125E-04   0.000       167.3       0.000      0.5000E-01   0.000    
    3461   2.203      0.6364E-03 SPRIN         11   0.0%   217.5      0.3125E-04   0.000       167.5       0.000      0.5000E-01   0.000    
    3462   2.203      0.6364E-03 SPRIN         11   0.0%   217.7      0.3125E-04   0.000       167.7       0.000      0.5000E-01   0.000    
    3463   2.204      0.6364E-03 SPRIN         11   0.0%   217.9      0.3125E-04   0.000       167.9       0.000      0.5000E-01   0.000    
    3464   2.204      0.6364E-03 SPRIN         11   0.0%   218.0      0.3125E-04   0.000       168.0       0.000      0.5000E-01   0.000    
   CYCLE    TIME      TIME-STEP  ELEMENT          ERROR  I-ENERGY    K-ENERGY T  K-ENERGY R  EXT-WORK     MAS.ERR     TOTAL MASS  MASS ADDED
    3465   2.205      0.6364E-03 SPRIN         11   0.0%   218.2      0.3125E-04   0.000       168.2       0.000      0.5000E-01   0.000    
    3466   2.206      0.6364E-03 SPRIN         11   0.0%   218.4      0.3125E-04   0.000       168.4       0.000      0.5000E-01   0.000    
    3467   2.206      0.6364E-03 SPRIN         11   0.0%   218.6      0.3125E-04   0.000       168.6       0.000      0.5000E-01   0.000    
    3468   2.207      0.6364E-03 SPRIN         11   0.0%   218.8      0.3125E-04   0.000       168.8       0.000      0.5000E-01   0.000    
    3469   2.208      0.6364E-03 SPRIN         11   0.0%   219.0      0.3125E-04   0.000       169.0       0.000      0.5000E-01   0.000    
    3470   2.208      0.6364E-03 SPRIN         11   0.0%   219.2      0.3125E-04   0.000       169.2       0.000      0.5000E-01   0.000    
    3471   2.209      0.6364E-03 SPRIN         11   0.0%   219.4      0.3125E-04   0.000       169.4       0.000      0.5000E-01   0.000    
    3472   2.210      0.6364E-03 SPRIN         11   0.0%   219.6      0.3125E-04   0.000       169.6       0.000      0.5000E-01   0.000    
    3473   2.210      0.6364E-03 SPRIN         11   0.0%   219.8      0.3125E-04   0.000       169.8       0.000      0.5000E-01   0.000    
    3474   2.211      0.6364E-03 SPRIN         11   0.0%   220.0      0.3125E-04   0.000       170.0       0.000      0.5000E-01   0.000    
    3475   2.211      0.6364E-03 SPRIN         11   0.0%   220.2      0.3125E-04   0.000       170.2       0.000      0.5000E-01   0.000    
    3476   2.212      0.6364E-03 SPRIN         11   0.0%   220.4      0.3125E-04   0.000       170.4       0.000      0.5000E-01   0.000    
    3477   2.213      0.6364E-03 SPRIN         11   0.0%   220.6      0.3125E-04   0.000       170.6       0.000      0.5000E-01   0.000    
    3478   2.213      0.6364E-03 SPRIN         11   0.0%   220.8      0.3125E-04   0.000       170.8       0.000      0.5000E-01   0.000    
    3479   2.214      0.6364E-03 SPRIN         11   0.0%   221.0      0.3125E-04   0.000       171.0       0.000      0.5000E-01   0.000    
    3480   2.215      0.6364E-03 SPRIN         11   0.0%   221.2      0.3125E-04   0.000       171.2       0.000      0.5000E-01   0.000    
    3481   2.215      0.6364E-03 SPRIN         11   0.0%   221.4      0.3125E-04   0.000       171.4       0.000      0.5000E-01   0.000    
    3482   2.216      0.6364E-03 SPRIN         11   0.0%   221.6      0.3125E-04   0.000       171.6       0.000      0.5000E-01   0.000    
    3483   2.217      0.6364E-03 SPRIN         11   0.0%   221.8      0.3125E-04   0.000       171.8       0.000      0.5000E-01   0.000    
    3484   2.217      0.6364E-03 SPRIN         11   0.0%   221.9      0.3125E-04   0.000       171.9       0.000      0.5000E-01   0.000    
    3485   2.218      0.6364E-03 SPRIN         11   0.0%   222.1      0.3125E-04   0.000       172.1       0.000      0.5000E-01   0.000    
    3486   2.218      0.6364E-03 SPRIN         11   0.0%   222.3      0.3125E-04   0.000       172.3       0.000      0.5000E-01   0.000    
    3487   2.219      0.6364E-03 SPRIN         11   0.0%   222.5      0.3125E-04   0.000       172.5       0.000      0.5000E-01   0.000    
    3488   2.220      0.6364E-03 SPRIN         11   0.0%   222.7      0.3125E-04   0.000       172.7       0.000      0.5000E-01   0.000    
    3489   2.220      0.6364E-03 SPRIN         11   0.0%   222.9      0.3125E-04   0.000       172.9       0.000      0.5000E-01   0.000    
    3490   2.221      0.6364E-03 SPRIN         11   0.0%   223.1      0.3125E-04   0.000       173.1       0.000      0.5000E-01   0.000    
    3491   2.222      0.6364E-03 SPRIN         11   0.0%   223.3      0.3125E-04   0.000       173.3       0.000      0.5000E-01   0.000    
    3492   2.222      0.6364E-03 SPRIN         11   0.0%   223.5      0.3125E-04   0.000       173.5       0.000      0.5000E-01   0.000    
    3493   2.223      0.6364E-03 SPRIN         11   0.0%   223.7      0.3125E-04   0.000       173.7       0.000      0.5000E-01   0.000    
    3494   2.224      0.6364E-03 SPRIN         11   0.0%   223.9      0.3125E-04   0.000       173.9       0.000      0.5000E-01   0.000    
    3495   2.224      0.6364E-03 SPRIN         11   0.0%   224.1      0.3125E-04   0.000       174.1       0.000      0.5000E-01   0.000    
    3496   2.225      0.6364E-03 SPRIN         11   0.0%   224.3      0.3125E-04   0.000       174.3       0.000      0.5000E-01   0.000    
    3497   2.225      0.6364E-03 SPRIN         11   0.0%   224.5      0.3125E-04   0.000       174.5       0.000      0.5000E-01   0.000    
    3498   2.226      0.6364E-03 SPRIN         11   0.0%   224.7      0.3125E-04   0.000       174.7       0.000      0.5000E-01   0.000    
    3499   2.227      0.6364E-03 SPRIN         11   0.0%   224.9      0.3125E-04   0.000       174.9       0.000      0.5000E-01   0.000    
    3500   2.227      0.6364E-03 SPRIN         11   0.0%   225.1      0.3125E-04   0.000       175.1       0.000      0.5000E-01   0.000    
    3501   2.228      0.6364E-03 SPRIN         11   0.0%   225.3      0.3125E-04   0.000       175.3       0.000      0.5000E-01   0.000    
    3502   2.229      0.6364E-03 SPRIN         11   0.0%   225.5      0.3125E-04   0.000       175.5       0.000      0.5000E-01   0.000    
    3503   2.229      0.6364E-03 SPRIN         11   0.0%   225.7      0.3125E-04   0.000       175.7       0.000      0.5000E-01   0.000    
    3504   2.230      0.6364E-03 SPRIN         11   0.0%   225.9      0.3125E-04   0.000       175.9       0.000      0.5000E-01   0.000    
    3505   2.231      0.6364E-03 SPRIN         11   0.0%   226.1      0.3125E-04   0.000       176.1       0.000      0.5000E-01   0.000    
    3506   2.231      0.6364E-03 SPRIN         11   0.0%   226.3      0.3125E-04   0.000       176.3       0.000      0.5000E-01   0.000    
    3507   2.232      0.6364E-03 SPRIN         11   0.0%   226.5      0.3125E-04   0.000       176.5       0.000      0.5000E-01   0.000    
    3508   2.232      0.6364E-03 SPRIN         11   0.0%   226.7      0.3125E-04   0.000       176.7       0.000      0.5000E-01   0.000    
    3509   2.233      0.6364E-03 SPRIN         11   0.0%   226.9      0.3125E-04   0.000       176.9       0.000      0.5000E-01   0.000    
    3510   2.234      0.6364E-03 SPRIN         11   0.0%   227.1      0.3125E-04   0.000       177.1       0.000      0.5000E-01   0.000    
    3511   2.234      0.6364E-03 SPRIN         11   0.0%   227.3      0.3125E-04   0.000       177.3       0.000      0.5000E-01   0.000    
    3512   2.235      0.6364E-03 SPRIN         11   0.0%   227.5      0.3125E-04   0.000       177.5       0.000      0.5000E-01   0.000    
    3513   2.236      0.6364E-03 SPRIN         11   0.0%   227.7      0.3125E-04   0.000       177.7       0.000      0.5000E-01   0.000    
    3514   2.236      0.6364E-03 SPRIN         11   0.0%   227.9      0.3125E-04   0.000       177.9       0.000      0.5000E-01   0.000    
    3515   2.237      0.6364E-03 SPRIN         11   0.0%   228.1      0.3125E-04   0.000       178.1       0.000      0.5000E-01   0.000    
    3516   2.238      0.6364E-03 SPRIN         11   0.0%   228.3      0.3125E-04   0.000       178.3       0.000      0.5000E-01   0.000    
    3517   2.238      0.6364E-03 SPRIN         11   0.0%   228.5      0.3125E-04   0.000       178.5       0.000      0.5000E-01   0.000    
    3518   2.239      0.6364E-03 SPRIN         11   0.0%   228.7      0.3125E-04   0.000       178.7       0.000      0.5000E-01   0.000    
    3519   2.239      0.6364E-03 SPRIN         11   0.0%   228.9      0.3125E-04   0.000       178.9       0.000      0.5000E-01   0.000    
   CYCLE    TIME      TIME-STEP  ELEMENT          ERROR  I-ENERGY    K-ENERGY T  K-ENERGY R  EXT-WORK     MAS.ERR     TOTAL MASS  MASS ADDED
    3520   2.240      0.6364E-03 SPRIN         11   0.0%   229.1      0.3125E-04   0.000       179.1       0.000      0.5000E-01   0.000    
    3521   2.241      0.6364E-03 SPRIN         11   0.0%   229.3      0.3125E-04   0.000       179.3       0.000      0.5000E-01   0.000    
    3522   2.241      0.6364E-03 SPRIN         11   0.0%   229.5      0.3125E-04   0.000       179.5       0.000      0.5000E-01   0.000    
    3523   2.242      0.6364E-03 SPRIN         11   0.0%   229.7      0.3125E-04   0.000       179.7       0.000      0.5000E-01   0.000    
    3524   2.243      0.6364E-03 SPRIN         11   0.0%   229.9      0.3125E-04   0.000       179.9       0.000      0.5000E-01   0.000    
    3525   2.243      0.6364E-03 SPRIN         11   0.0%   230.1      0.3125E-04   0.000       180.1       0.000      0.5000E-01   0.000    
    3526   2.244      0.6364E-03 SPRIN         11   0.0%   230.3      0.3125E-04   0.000       180.3       0.000      0.5000E-01   0.000    
    3527   2.245      0.6364E-03 SPRIN         11   0.0%   230.5      0.3125E-04   0.000       180.5       0.000      0.5000E-01   0.000    
    3528   2.245      0.6364E-03 SPRIN         11   0.0%   230.7      0.3125E-04   0.000       180.7       0.000      0.5000E-01   0.000    
    3529   2.246      0.6364E-03 SPRIN         11   0.0%   230.9      0.3125E-04   0.000       180.9       0.000      0.5000E-01   0.000    
    3530   2.246      0.6364E-03 SPRIN         11   0.0%   231.1      0.3125E-04   0.000       181.1       0.000      0.5000E-01   0.000    
    3531   2.247      0.6364E-03 SPRIN         11   0.0%   231.3      0.3125E-04   0.000       181.3       0.000      0.5000E-01   0.000    
    3532   2.248      0.6364E-03 SPRIN         11   0.0%   231.5      0.3125E-04   0.000       181.5       0.000      0.5000E-01   0.000    
    3533   2.248      0.6364E-03 SPRIN         11   0.0%   231.7      0.3125E-04   0.000       181.7       0.000      0.5000E-01   0.000    
    3534   2.249      0.6364E-03 SPRIN         11   0.0%   231.9      0.3125E-04   0.000       181.9       0.000      0.5000E-01   0.000    
    3535   2.250      0.6364E-03 SPRIN         11   0.0%   232.1      0.3125E-04   0.000       182.1       0.000      0.5000E-01   0.000    
    3536   2.250      0.6364E-03 SPRIN         11   0.0%   232.3      0.3125E-04   0.000       182.3       0.000      0.5000E-01   0.000    
    3537   2.251      0.6364E-03 SPRIN         11   0.0%   232.5      0.3125E-04   0.000       182.5       0.000      0.5000E-01   0.000    
    3538   2.252      0.6364E-03 SPRIN         11   0.0%   232.7      0.3125E-04   0.000       182.7       0.000      0.5000E-01   0.000    
    3539   2.252      0.6364E-03 SPRIN         11  -0.0%   232.9      0.3125E-04   0.000       182.9       0.000      0.5000E-01   0.000    
    3540   2.253      0.6364E-03 SPRIN         11   0.0%   233.1      0.3125E-04   0.000       183.1       0.000      0.5000E-01   0.000    
    3541   2.253      0.6364E-03 SPRIN         11   0.0%   233.3      0.3125E-04   0.000       183.3       0.000      0.5000E-01   0.000    
    3542   2.254      0.6364E-03 SPRIN         11   0.0%   233.5      0.3125E-04   0.000       183.5       0.000      0.5000E-01   0.000    
    3543   2.255      0.6364E-03 SPRIN         11   0.0%   233.7      0.3125E-04   0.000       183.7       0.000      0.5000E-01   0.000    
    3544   2.255      0.6364E-03 SPRIN         11  -0.0%   233.9      0.3125E-04   0.000       183.9       0.000      0.5000E-01   0.000    
    3545   2.256      0.6364E-03 SPRIN         11   0.0%   234.1      0.3125E-04   0.000       184.1       0.000      0.5000E-01   0.000    
    3546   2.257      0.6364E-03 SPRIN         11   0.0%   234.3      0.3125E-04   0.000       184.3       0.000      0.5000E-01   0.000    
    3547   2.257      0.6364E-03 SPRIN         11   0.0%   234.5      0.3125E-04   0.000       184.5       0.000      0.5000E-01   0.000    
    3548   2.258      0.6364E-03 SPRIN         11   0.0%   234.7      0.3125E-04   0.000       184.7       0.000      0.5000E-01   0.000    
    3549   2.259      0.6364E-03 SPRIN         11  -0.0%   234.9      0.3125E-04   0.000       184.9       0.000      0.5000E-01   0.000    
    3550   2.259      0.6364E-03 SPRIN         11   0.0%   235.1      0.3125E-04   0.000       185.1       0.000      0.5000E-01   0.000    
    3551   2.260      0.6364E-03 SPRIN         11   0.0%   235.3      0.3125E-04   0.000       185.3       0.000      0.5000E-01   0.000    
    3552   2.260      0.6364E-03 SPRIN         11   0.0%   235.5      0.3125E-04   0.000       185.5       0.000      0.5000E-01   0.000    
    3553   2.261      0.6364E-03 SPRIN         11   0.0%   235.7      0.3125E-04   0.000       185.7       0.000      0.5000E-01   0.000    
    3554   2.262      0.6364E-03 SPRIN         11  -0.0%   235.9      0.3125E-04   0.000       185.9       0.000      0.5000E-01   0.000    
    3555   2.262      0.6364E-03 SPRIN         11   0.0%   236.1      0.3125E-04   0.000       186.1       0.000      0.5000E-01   0.000    
    3556   2.263      0.6364E-03 SPRIN         11  -0.0%   236.3      0.3125E-04   0.000       186.3       0.000      0.5000E-01   0.000    
    3557   2.264      0.6364E-03 SPRIN         11  -0.0%   236.5      0.3125E-04   0.000       186.5       0.000      0.5000E-01   0.000    
    3558   2.264      0.6364E-03 SPRIN         11   0.0%   236.7      0.3125E-04   0.000       186.7       0.000      0.5000E-01   0.000    
    3559   2.265      0.6364E-03 SPRIN         11  -0.0%   236.9      0.3125E-04   0.000       186.9       0.000      0.5000E-01   0.000    
    3560   2.266      0.6364E-03 SPRIN         11   0.0%   237.1      0.3125E-04   0.000       187.1       0.000      0.5000E-01   0.000    
    3561   2.266      0.6364E-03 SPRIN         11  -0.0%   237.3      0.3125E-04   0.000       187.3       0.000      0.5000E-01   0.000    
    3562   2.267      0.6364E-03 SPRIN         11  -0.0%   237.6      0.3125E-04   0.000       187.6       0.000      0.5000E-01   0.000    
    3563   2.267      0.6364E-03 SPRIN         11  -0.0%   237.8      0.3125E-04   0.000       187.8       0.000      0.5000E-01   0.000    
    3564   2.268      0.6364E-03 SPRIN         11  -0.0%   238.0      0.3125E-04   0.000       188.0       0.000      0.5000E-01   0.000    
    3565   2.269      0.6364E-03 SPRIN         11   0.0%   238.2      0.3125E-04   0.000       188.2       0.000      0.5000E-01   0.000    
    3566   2.269      0.6364E-03 SPRIN         11  -0.0%   238.4      0.3125E-04   0.000       188.4       0.000      0.5000E-01   0.000    
    3567   2.270      0.6364E-03 SPRIN         11  -0.0%   238.6      0.3125E-04   0.000       188.6       0.000      0.5000E-01   0.000    
    3568   2.271      0.6364E-03 SPRIN         11  -0.0%   238.8      0.3125E-04   0.000       188.8       0.000      0.5000E-01   0.000    
    3569   2.271      0.6364E-03 SPRIN         11  -0.0%   239.0      0.3125E-04   0.000       189.0       0.000      0.5000E-01   0.000    
    3570   2.272      0.6364E-03 SPRIN         11   0.0%   239.2      0.3125E-04   0.000       189.2       0.000      0.5000E-01   0.000    
    3571   2.273      0.6364E-03 SPRIN         11  -0.0%   239.4      0.3125E-04   0.000       189.4       0.000      0.5000E-01   0.000    
    3572   2.273      0.6364E-03 SPRIN         11  -0.0%   239.6      0.3125E-04   0.000       189.6       0.000      0.5000E-01   0.000    
    3573   2.274      0.6364E-03 SPRIN         11   0.0%   239.8      0.3125E-04   0.000       189.8       0.000      0.5000E-01   0.000    
    3574   2.274      0.6364E-03 SPRIN         11  -0.0%   240.0      0.3125E-04   0.000       190.0       0.000      0.5000E-01   0.000    
   CYCLE    TIME      TIME-STEP  ELEMENT          ERROR  I-ENERGY    K-ENERGY T  K-ENERGY R  EXT-WORK     MAS.ERR     TOTAL MASS  MASS ADDED
    3575   2.275      0.6364E-03 SPRIN         11   0.0%   240.2      0.3125E-04   0.000       190.2       0.000      0.5000E-01   0.000    
    3576   2.276      0.6364E-03 SPRIN         11  -0.0%   240.4      0.3125E-04   0.000       190.4       0.000      0.5000E-01   0.000    
    3577   2.276      0.6364E-03 SPRIN         11   0.0%   240.6      0.3125E-04   0.000       190.6       0.000      0.5000E-01   0.000    
    3578   2.277      0.6364E-03 SPRIN         11   0.0%   240.8      0.3125E-04   0.000       190.8       0.000      0.5000E-01   0.000    
    3579   2.278      0.6364E-03 SPRIN         11  -0.0%   241.0      0.3125E-04   0.000       191.0       0.000      0.5000E-01   0.000    
    3580   2.278      0.6364E-03 SPRIN         11   0.0%   241.2      0.3125E-04   0.000       191.2       0.000      0.5000E-01   0.000    
    3581   2.279      0.6364E-03 SPRIN         11   0.0%   241.4      0.3125E-04   0.000       191.4       0.000      0.5000E-01   0.000    
    3582   2.280      0.6364E-03 SPRIN         11   0.0%   241.7      0.3125E-04   0.000       191.7       0.000      0.5000E-01   0.000    
    3583   2.280      0.6364E-03 SPRIN         11   0.0%   241.9      0.3125E-04   0.000       191.9       0.000      0.5000E-01   0.000    
    3584   2.281      0.6364E-03 SPRIN         11  -0.0%   242.1      0.3125E-04   0.000       192.1       0.000      0.5000E-01   0.000    
    3585   2.281      0.6364E-03 SPRIN         11   0.0%   242.3      0.3125E-04   0.000       192.3       0.000      0.5000E-01   0.000    
    3586   2.282      0.6364E-03 SPRIN         11   0.0%   242.5      0.3125E-04   0.000       192.5       0.000      0.5000E-01   0.000    
    3587   2.283      0.6364E-03 SPRIN         11   0.0%   242.7      0.3125E-04   0.000       192.7       0.000      0.5000E-01   0.000    
    3588   2.283      0.6364E-03 SPRIN         11   0.0%   242.9      0.3125E-04   0.000       192.9       0.000      0.5000E-01   0.000    
    3589   2.284      0.6364E-03 SPRIN         11  -0.0%   243.1      0.3125E-04   0.000       193.1       0.000      0.5000E-01   0.000    
    3590   2.285      0.6364E-03 SPRIN         11   0.0%   243.3      0.3125E-04   0.000       193.3       0.000      0.5000E-01   0.000    
    3591   2.285      0.6364E-03 SPRIN         11  -0.0%   243.5      0.3125E-04   0.000       193.5       0.000      0.5000E-01   0.000    
    3592   2.286      0.6364E-03 SPRIN         11   0.0%   243.7      0.3125E-04   0.000       193.7       0.000      0.5000E-01   0.000    
    3593   2.287      0.6364E-03 SPRIN         11   0.0%   243.9      0.3125E-04   0.000       193.9       0.000      0.5000E-01   0.000    
    3594   2.287      0.6364E-03 SPRIN         11  -0.0%   244.1      0.3125E-04   0.000       194.1       0.000      0.5000E-01   0.000    
    3595   2.288      0.6364E-03 SPRIN         11   0.0%   244.3      0.3125E-04   0.000       194.3       0.000      0.5000E-01   0.000    
    3596   2.288      0.6364E-03 SPRIN         11  -0.0%   244.5      0.3125E-04   0.000       194.5       0.000      0.5000E-01   0.000    
    3597   2.289      0.6364E-03 SPRIN         11  -0.0%   244.8      0.3125E-04   0.000       194.8       0.000      0.5000E-01   0.000    
    3598   2.290      0.6364E-03 SPRIN         11  -0.0%   245.0      0.3125E-04   0.000       195.0       0.000      0.5000E-01   0.000    
    3599   2.290      0.6364E-03 SPRIN         11  -0.0%   245.2      0.3125E-04   0.000       195.2       0.000      0.5000E-01   0.000    
    3600   2.291      0.6364E-03 SPRIN         11   0.0%   245.4      0.3125E-04   0.000       195.4       0.000      0.5000E-01   0.000    
    3601   2.292      0.6364E-03 SPRIN         11  -0.0%   245.6      0.3125E-04   0.000       195.6       0.000      0.5000E-01   0.000    
    3602   2.292      0.6364E-03 SPRIN         11  -0.0%   245.8      0.3125E-04   0.000       195.8       0.000      0.5000E-01   0.000    
    3603   2.293      0.6364E-03 SPRIN         11  -0.0%   246.0      0.3125E-04   0.000       196.0       0.000      0.5000E-01   0.000    
    3604   2.294      0.6364E-03 SPRIN         11  -0.0%   246.2      0.3125E-04   0.000       196.2       0.000      0.5000E-01   0.000    
    3605   2.294      0.6364E-03 SPRIN         11  -0.0%   246.4      0.3125E-04   0.000       196.4       0.000      0.5000E-01   0.000    
    3606   2.295      0.6364E-03 SPRIN         11  -0.0%   246.6      0.3125E-04   0.000       196.6       0.000      0.5000E-01   0.000    
    3607   2.295      0.6364E-03 SPRIN         11  -0.0%   246.8      0.3125E-04   0.000       196.8       0.000      0.5000E-01   0.000    
    3608   2.296      0.6364E-03 SPRIN         11  -0.0%   247.0      0.3125E-04   0.000       197.0       0.000      0.5000E-01   0.000    
    3609   2.297      0.6364E-03 SPRIN         11  -0.0%   247.3      0.3125E-04   0.000       197.3       0.000      0.5000E-01   0.000    
    3610   2.297      0.6364E-03 SPRIN         11   0.0%   247.5      0.3125E-04   0.000       197.5       0.000      0.5000E-01   0.000    
    3611   2.298      0.6364E-03 SPRIN         11  -0.0%   247.7      0.3125E-04   0.000       197.7       0.000      0.5000E-01   0.000    
    3612   2.299      0.6364E-03 SPRIN         11  -0.0%   247.9      0.3125E-04   0.000       197.9       0.000      0.5000E-01   0.000    
    3613   2.299      0.6364E-03 SPRIN         11   0.0%   248.1      0.3125E-04   0.000       198.1       0.000      0.5000E-01   0.000    
    3614   2.300      0.6364E-03 SPRIN         11  -0.0%   248.3      0.3125E-04   0.000       198.3       0.000      0.5000E-01   0.000    
    3615   2.301      0.6364E-03 SPRIN         11   0.0%   248.5      0.3125E-04   0.000       198.5       0.000      0.5000E-01   0.000    
    3616   2.301      0.6364E-03 SPRIN         11  -0.0%   248.7      0.3125E-04   0.000       198.7       0.000      0.5000E-01   0.000    
    3617   2.302      0.6364E-03 SPRIN         11  -0.0%   248.9      0.3125E-04   0.000       198.9       0.000      0.5000E-01   0.000    
    3618   2.302      0.6364E-03 SPRIN         11   0.0%   249.1      0.3125E-04   0.000       199.1       0.000      0.5000E-01   0.000    
    3619   2.303      0.6364E-03 SPRIN         11  -0.0%   249.3      0.3125E-04   0.000       199.3       0.000      0.5000E-01   0.000    
    3620   2.304      0.6364E-03 SPRIN         11   0.0%   249.6      0.3125E-04   0.000       199.6       0.000      0.5000E-01   0.000    
    3621   2.304      0.6364E-03 SPRIN         11  -0.0%   249.8      0.3125E-04   0.000       199.8       0.000      0.5000E-01   0.000    
    3622   2.305      0.6364E-03 SPRIN         11   0.0%   250.0      0.3125E-04   0.000       200.0       0.000      0.5000E-01   0.000    
    3623   2.306      0.6364E-03 SPRIN         11   0.0%   250.2      0.3125E-04   0.000       200.2       0.000      0.5000E-01   0.000    
    3624   2.306      0.6364E-03 SPRIN         11  -0.0%   250.4      0.3125E-04   0.000       200.4       0.000      0.5000E-01   0.000    
    3625   2.307      0.6364E-03 SPRIN         11   0.0%   250.6      0.3125E-04   0.000       200.6       0.000      0.5000E-01   0.000    
    3626   2.308      0.6364E-03 SPRIN         11   0.0%   250.8      0.3125E-04   0.000       200.8       0.000      0.5000E-01   0.000    
    3627   2.308      0.6364E-03 SPRIN         11   0.0%   251.0      0.3125E-04   0.000       201.0       0.000      0.5000E-01   0.000    
    3628   2.309      0.6364E-03 SPRIN         11   0.0%   251.2      0.3125E-04   0.000       201.2       0.000      0.5000E-01   0.000    
    3629   2.309      0.6364E-03 SPRIN         11  -0.0%   251.5      0.3125E-04   0.000       201.5       0.000      0.5000E-01   0.000    
   CYCLE    TIME      TIME-STEP  ELEMENT          ERROR  I-ENERGY    K-ENERGY T  K-ENERGY R  EXT-WORK     MAS.ERR     TOTAL MASS  MASS ADDED
    3630   2.310      0.6364E-03 SPRIN         11   0.0%   251.7      0.3125E-04   0.000       201.7       0.000      0.5000E-01   0.000    
    3631   2.311      0.6364E-03 SPRIN         11  -0.0%   251.9      0.3125E-04   0.000       201.9       0.000      0.5000E-01   0.000    
    3632   2.311      0.6364E-03 SPRIN         11  -0.0%   252.1      0.3125E-04   0.000       202.1       0.000      0.5000E-01   0.000    
    3633   2.312      0.6364E-03 SPRIN         11   0.0%   252.3      0.3125E-04   0.000       202.3       0.000      0.5000E-01   0.000    
    3634   2.313      0.6364E-03 SPRIN         11  -0.0%   252.5      0.3125E-04   0.000       202.5       0.000      0.5000E-01   0.000    
    3635   2.313      0.6364E-03 SPRIN         11   0.0%   252.7      0.3125E-04   0.000       202.7       0.000      0.5000E-01   0.000    
    3636   2.314      0.6364E-03 SPRIN         11  -0.0%   252.9      0.3125E-04   0.000       202.9       0.000      0.5000E-01   0.000    
    3637   2.315      0.6364E-03 SPRIN         11  -0.0%   253.1      0.3125E-04   0.000       203.1       0.000      0.5000E-01   0.000    
    3638   2.315      0.6364E-03 SPRIN         11  -0.0%   253.4      0.3125E-04   0.000       203.4       0.000      0.5000E-01   0.000    
    3639   2.316      0.6364E-03 SPRIN         11  -0.0%   253.6      0.3125E-04   0.000       203.6       0.000      0.5000E-01   0.000    
    3640   2.316      0.6364E-03 SPRIN         11  -0.0%   253.8      0.3125E-04   0.000       203.8       0.000      0.5000E-01   0.000    
    3641   2.317      0.6364E-03 SPRIN         11  -0.0%   254.0      0.3125E-04   0.000       204.0       0.000      0.5000E-01   0.000    
    3642   2.318      0.6364E-03 SPRIN         11  -0.0%   254.2      0.3125E-04   0.000       204.2       0.000      0.5000E-01   0.000    
    3643   2.318      0.6364E-03 SPRIN         11  -0.0%   254.4      0.3125E-04   0.000       204.4       0.000      0.5000E-01   0.000    
    3644   2.319      0.6364E-03 SPRIN         11  -0.0%   254.6      0.3125E-04   0.000       204.6       0.000      0.5000E-01   0.000    
    3645   2.320      0.6364E-03 SPRIN         11  -0.0%   254.8      0.3125E-04   0.000       204.8       0.000      0.5000E-01   0.000    
    3646   2.320      0.6364E-03 SPRIN         11  -0.0%   255.0      0.3125E-04   0.000       205.0       0.000      0.5000E-01   0.000    
    3647   2.321      0.6364E-03 SPRIN         11  -0.0%   255.3      0.3125E-04   0.000       205.3       0.000      0.5000E-01   0.000    
    3648   2.322      0.6364E-03 SPRIN         11  -0.0%   255.5      0.3125E-04   0.000       205.5       0.000      0.5000E-01   0.000    
    3649   2.322      0.6364E-03 SPRIN         11  -0.0%   255.7      0.3125E-04   0.000       205.7       0.000      0.5000E-01   0.000    
    3650   2.323      0.6364E-03 SPRIN         11   0.0%   255.9      0.3125E-04   0.000       205.9       0.000      0.5000E-01   0.000    
    3651   2.323      0.6364E-03 SPRIN         11  -0.0%   256.1      0.3125E-04   0.000       206.1       0.000      0.5000E-01   0.000    
    3652   2.324      0.6364E-03 SPRIN         11  -0.0%   256.3      0.3125E-04   0.000       206.3       0.000      0.5000E-01   0.000    
    3653   2.325      0.6364E-03 SPRIN         11   0.0%   256.5      0.3125E-04   0.000       206.5       0.000      0.5000E-01   0.000    
    3654   2.325      0.6364E-03 SPRIN         11  -0.0%   256.8      0.3125E-04   0.000       206.8       0.000      0.5000E-01   0.000    
    3655   2.326      0.6364E-03 SPRIN         11   0.0%   257.0      0.3125E-04   0.000       207.0       0.000      0.5000E-01   0.000    
    3656   2.327      0.6364E-03 SPRIN         11  -0.0%   257.2      0.3125E-04   0.000       207.2       0.000      0.5000E-01   0.000    
    3657   2.327      0.6364E-03 SPRIN         11   0.0%   257.4      0.3125E-04   0.000       207.4       0.000      0.5000E-01   0.000    
    3658   2.328      0.6364E-03 SPRIN         11   0.0%   257.6      0.3125E-04   0.000       207.6       0.000      0.5000E-01   0.000    
    3659   2.329      0.6364E-03 SPRIN         11  -0.0%   257.8      0.3125E-04   0.000       207.8       0.000      0.5000E-01   0.000    
    3660   2.329      0.6364E-03 SPRIN         11   0.0%   258.0      0.3125E-04   0.000       208.0       0.000      0.5000E-01   0.000    
    3661   2.330      0.6364E-03 SPRIN         11   0.0%   258.2      0.3125E-04   0.000       208.2       0.000      0.5000E-01   0.000    
    3662   2.330      0.6364E-03 SPRIN         11   0.0%   258.5      0.3125E-04   0.000       208.5       0.000      0.5000E-01   0.000    
    3663   2.331      0.6364E-03 SPRIN         11   0.0%   258.7      0.3125E-04   0.000       208.7       0.000      0.5000E-01   0.000    
    3664   2.332      0.6364E-03 SPRIN         11  -0.0%   258.9      0.3125E-04   0.000       208.9       0.000      0.5000E-01   0.000    
    3665   2.332      0.6364E-03 SPRIN         11   0.0%   259.1      0.3125E-04   0.000       209.1       0.000      0.5000E-01   0.000    
    3666   2.333      0.6364E-03 SPRIN         11   0.0%   259.3      0.3125E-04   0.000       209.3       0.000      0.5000E-01   0.000    
    3667   2.334      0.6364E-03 SPRIN         11   0.0%   259.5      0.3125E-04   0.000       209.5       0.000      0.5000E-01   0.000    
    3668   2.334      0.6364E-03 SPRIN         11   0.0%   259.8      0.3125E-04   0.000       209.8       0.000      0.5000E-01   0.000    
    3669   2.335      0.6364E-03 SPRIN         11  -0.0%   260.0      0.3125E-04   0.000       210.0       0.000      0.5000E-01   0.000    
    3670   2.336      0.6364E-03 SPRIN         11   0.0%   260.2      0.3125E-04   0.000       210.2       0.000      0.5000E-01   0.000    
    3671   2.336      0.6364E-03 SPRIN         11  -0.0%   260.4      0.3125E-04   0.000       210.4       0.000      0.5000E-01   0.000    
    3672   2.337      0.6364E-03 SPRIN         11   0.0%   260.6      0.3125E-04   0.000       210.6       0.000      0.5000E-01   0.000    
    3673   2.337      0.6364E-03 SPRIN         11   0.0%   260.8      0.3125E-04   0.000       210.8       0.000      0.5000E-01   0.000    
    3674   2.338      0.6364E-03 SPRIN         11  -0.0%   261.0      0.3125E-04   0.000       211.0       0.000      0.5000E-01   0.000    
    3675   2.339      0.6364E-03 SPRIN         11   0.0%   261.3      0.3125E-04   0.000       211.3       0.000      0.5000E-01   0.000    
    3676   2.339      0.6364E-03 SPRIN         11   0.0%   261.5      0.3125E-04   0.000       211.5       0.000      0.5000E-01   0.000    
    3677   2.340      0.6364E-03 SPRIN         11   0.0%   261.7      0.3125E-04   0.000       211.7       0.000      0.5000E-01   0.000    
    3678   2.341      0.6364E-03 SPRIN         11   0.0%   261.9      0.3125E-04   0.000       211.9       0.000      0.5000E-01   0.000    
    3679   2.341      0.6364E-03 SPRIN         11  -0.0%   262.1      0.3125E-04   0.000       212.1       0.000      0.5000E-01   0.000    
    3680   2.342      0.6364E-03 SPRIN         11   0.0%   262.3      0.3125E-04   0.000       212.3       0.000      0.5000E-01   0.000    
    3681   2.343      0.6364E-03 SPRIN         11   0.0%   262.6      0.3125E-04   0.000       212.6       0.000      0.5000E-01   0.000    
    3682   2.343      0.6364E-03 SPRIN         11   0.0%   262.8      0.3125E-04   0.000       212.8       0.000      0.5000E-01   0.000    
    3683   2.344      0.6364E-03 SPRIN         11   0.0%   263.0      0.3125E-04   0.000       213.0       0.000      0.5000E-01   0.000    
    3684   2.344      0.6364E-03 SPRIN         11  -0.0%   263.2      0.3125E-04   0.000       213.2       0.000      0.5000E-01   0.000    
   CYCLE    TIME      TIME-STEP  ELEMENT          ERROR  I-ENERGY    K-ENERGY T  K-ENERGY R  EXT-WORK     MAS.ERR     TOTAL MASS  MASS ADDED
    3685   2.345      0.6364E-03 SPRIN         11   0.0%   263.4      0.3125E-04   0.000       213.4       0.000      0.5000E-01   0.000    
    3686   2.346      0.6364E-03 SPRIN         11   0.0%   263.6      0.3125E-04   0.000       213.6       0.000      0.5000E-01   0.000    
    3687   2.346      0.6364E-03 SPRIN         11   0.0%   263.8      0.3125E-04   0.000       213.8       0.000      0.5000E-01   0.000    
    3688   2.347      0.6364E-03 SPRIN         11   0.0%   264.1      0.3125E-04   0.000       214.1       0.000      0.5000E-01   0.000    
    3689   2.348      0.6364E-03 SPRIN         11   0.0%   264.3      0.3125E-04   0.000       214.3       0.000      0.5000E-01   0.000    
    3690   2.348      0.6364E-03 SPRIN         11   0.0%   264.5      0.3125E-04   0.000       214.5       0.000      0.5000E-01   0.000    
    3691   2.349      0.6364E-03 SPRIN         11   0.0%   264.7      0.3125E-04   0.000       214.7       0.000      0.5000E-01   0.000    
    3692   2.350      0.6364E-03 SPRIN         11   0.0%   264.9      0.3125E-04   0.000       214.9       0.000      0.5000E-01   0.000    
    3693   2.350      0.6364E-03 SPRIN         11   0.0%   265.2      0.3125E-04   0.000       215.2       0.000      0.5000E-01   0.000    
    3694   2.351      0.6364E-03 SPRIN         11   0.0%   265.4      0.3125E-04   0.000       215.4       0.000      0.5000E-01   0.000    
    3695   2.351      0.6364E-03 SPRIN         11   0.0%   265.6      0.3125E-04   0.000       215.6       0.000      0.5000E-01   0.000    
    3696   2.352      0.6364E-03 SPRIN         11   0.0%   265.8      0.3125E-04   0.000       215.8       0.000      0.5000E-01   0.000    
    3697   2.353      0.6364E-03 SPRIN         11   0.0%   266.0      0.3125E-04   0.000       216.0       0.000      0.5000E-01   0.000    
    3698   2.353      0.6364E-03 SPRIN         11   0.0%   266.2      0.3125E-04   0.000       216.2       0.000      0.5000E-01   0.000    
    3699   2.354      0.6364E-03 SPRIN         11   0.0%   266.5      0.3125E-04   0.000       216.5       0.000      0.5000E-01   0.000    
    3700   2.355      0.6364E-03 SPRIN         11   0.0%   266.7      0.3125E-04   0.000       216.7       0.000      0.5000E-01   0.000    
    3701   2.355      0.6364E-03 SPRIN         11   0.0%   266.9      0.3125E-04   0.000       216.9       0.000      0.5000E-01   0.000    
    3702   2.356      0.6364E-03 SPRIN         11   0.0%   267.1      0.3125E-04   0.000       217.1       0.000      0.5000E-01   0.000    
    3703   2.357      0.6364E-03 SPRIN         11   0.0%   267.3      0.3125E-04   0.000       217.3       0.000      0.5000E-01   0.000    
    3704   2.357      0.6364E-03 SPRIN         11  -0.0%   267.5      0.3125E-04   0.000       217.5       0.000      0.5000E-01   0.000    
    3705   2.358      0.6364E-03 SPRIN         11   0.0%   267.8      0.3125E-04   0.000       217.8       0.000      0.5000E-01   0.000    
    3706   2.358      0.6364E-03 SPRIN         11   0.0%   268.0      0.3125E-04   0.000       218.0       0.000      0.5000E-01   0.000    
    3707   2.359      0.6364E-03 SPRIN         11   0.0%   268.2      0.3125E-04   0.000       218.2       0.000      0.5000E-01   0.000    
    3708   2.360      0.6364E-03 SPRIN         11   0.0%   268.4      0.3125E-04   0.000       218.4       0.000      0.5000E-01   0.000    
    3709   2.360      0.6364E-03 SPRIN         11   0.0%   268.6      0.3125E-04   0.000       218.6       0.000      0.5000E-01   0.000    
    3710   2.361      0.6364E-03 SPRIN         11   0.0%   268.9      0.3125E-04   0.000       218.9       0.000      0.5000E-01   0.000    
    3711   2.362      0.6364E-03 SPRIN         11   0.0%   269.1      0.3125E-04   0.000       219.1       0.000      0.5000E-01   0.000    
    3712   2.362      0.6364E-03 SPRIN         11   0.0%   269.3      0.3125E-04   0.000       219.3       0.000      0.5000E-01   0.000    
    3713   2.363      0.6364E-03 SPRIN         11   0.0%   269.5      0.3125E-04   0.000       219.5       0.000      0.5000E-01   0.000    
    3714   2.364      0.6364E-03 SPRIN         11  -0.0%   269.7      0.3125E-04   0.000       219.7       0.000      0.5000E-01   0.000    
    3715   2.364      0.6364E-03 SPRIN         11   0.0%   270.0      0.3125E-04   0.000       220.0       0.000      0.5000E-01   0.000    
    3716   2.365      0.6364E-03 SPRIN         11  -0.0%   270.2      0.3125E-04   0.000       220.2       0.000      0.5000E-01   0.000    
    3717   2.365      0.6364E-03 SPRIN         11   0.0%   270.4      0.3125E-04   0.000       220.4       0.000      0.5000E-01   0.000    
    3718   2.366      0.6364E-03 SPRIN         11   0.0%   270.6      0.3125E-04   0.000       220.6       0.000      0.5000E-01   0.000    
    3719   2.367      0.6364E-03 SPRIN         11  -0.0%   270.8      0.3125E-04   0.000       220.8       0.000      0.5000E-01   0.000    
    3720   2.367      0.6364E-03 SPRIN         11   0.0%   271.1      0.3125E-04   0.000       221.1       0.000      0.5000E-01   0.000    
    3721   2.368      0.6364E-03 SPRIN         11   0.0%   271.3      0.3125E-04   0.000       221.3       0.000      0.5000E-01   0.000    
    3722   2.369      0.6364E-03 SPRIN         11   0.0%   271.5      0.3125E-04   0.000       221.5       0.000      0.5000E-01   0.000    
    3723   2.369      0.6364E-03 SPRIN         11   0.0%   271.7      0.3125E-04   0.000       221.7       0.000      0.5000E-01   0.000    
    3724   2.370      0.6364E-03 SPRIN         11   0.0%   271.9      0.3125E-04   0.000       221.9       0.000      0.5000E-01   0.000    
    3725   2.371      0.6364E-03 SPRIN         11   0.0%   272.2      0.3125E-04   0.000       222.2       0.000      0.5000E-01   0.000    
    3726   2.371      0.6364E-03 SPRIN         11   0.0%   272.4      0.3125E-04   0.000       222.4       0.000      0.5000E-01   0.000    
    3727   2.372      0.6364E-03 SPRIN         11   0.0%   272.6      0.3125E-04   0.000       222.6       0.000      0.5000E-01   0.000    
    3728   2.372      0.6364E-03 SPRIN         11   0.0%   272.8      0.3125E-04   0.000       222.8       0.000      0.5000E-01   0.000    
    3729   2.373      0.6364E-03 SPRIN         11   0.0%   273.0      0.3125E-04   0.000       223.0       0.000      0.5000E-01   0.000    
    3730   2.374      0.6364E-03 SPRIN         11   0.0%   273.3      0.3125E-04   0.000       223.3       0.000      0.5000E-01   0.000    
    3731   2.374      0.6364E-03 SPRIN         11   0.0%   273.5      0.3125E-04   0.000       223.5       0.000      0.5000E-01   0.000    
    3732   2.375      0.6364E-03 SPRIN         11   0.0%   273.7      0.3125E-04   0.000       223.7       0.000      0.5000E-01   0.000    
    3733   2.376      0.6364E-03 SPRIN         11   0.0%   273.9      0.3125E-04   0.000       223.9       0.000      0.5000E-01   0.000    
    3734   2.376      0.6364E-03 SPRIN         11   0.0%   274.1      0.3125E-04   0.000       224.1       0.000      0.5000E-01   0.000    
    3735   2.377      0.6364E-03 SPRIN         11   0.0%   274.4      0.3125E-04   0.000       224.4       0.000      0.5000E-01   0.000    
    3736   2.378      0.6364E-03 SPRIN         11   0.0%   274.6      0.3125E-04   0.000       224.6       0.000      0.5000E-01   0.000    
    3737   2.378      0.6364E-03 SPRIN         11   0.0%   274.8      0.3125E-04   0.000       224.8       0.000      0.5000E-01   0.000    
    3738   2.379      0.6364E-03 SPRIN         11   0.0%   275.0      0.3125E-04   0.000       225.0       0.000      0.5000E-01   0.000    
    3739   2.379      0.6364E-03 SPRIN         11  -0.0%   275.3      0.3125E-04   0.000       225.3       0.000      0.5000E-01   0.000    
   CYCLE    TIME      TIME-STEP  ELEMENT          ERROR  I-ENERGY    K-ENERGY T  K-ENERGY R  EXT-WORK     MAS.ERR     TOTAL MASS  MASS ADDED
    3740   2.380      0.6364E-03 SPRIN         11   0.0%   275.5      0.3125E-04   0.000       225.5       0.000      0.5000E-01   0.000    
    3741   2.381      0.6364E-03 SPRIN         11   0.0%   275.7      0.3125E-04   0.000       225.7       0.000      0.5000E-01   0.000    
    3742   2.381      0.6364E-03 SPRIN         11   0.0%   275.9      0.3125E-04   0.000       225.9       0.000      0.5000E-01   0.000    
    3743   2.382      0.6364E-03 SPRIN         11   0.0%   276.1      0.3125E-04   0.000       226.1       0.000      0.5000E-01   0.000    
    3744   2.383      0.6364E-03 SPRIN         11   0.0%   276.4      0.3125E-04   0.000       226.4       0.000      0.5000E-01   0.000    
    3745   2.383      0.6364E-03 SPRIN         11   0.0%   276.6      0.3125E-04   0.000       226.6       0.000      0.5000E-01   0.000    
    3746   2.384      0.6364E-03 SPRIN         11   0.0%   276.8      0.3125E-04   0.000       226.8       0.000      0.5000E-01   0.000    
    3747   2.385      0.6364E-03 SPRIN         11   0.0%   277.0      0.3125E-04   0.000       227.0       0.000      0.5000E-01   0.000    
    3748   2.385      0.6364E-03 SPRIN         11   0.0%   277.3      0.3125E-04   0.000       227.3       0.000      0.5000E-01   0.000    
    3749   2.386      0.6364E-03 SPRIN         11  -0.0%   277.5      0.3125E-04   0.000       227.5       0.000      0.5000E-01   0.000    
    3750   2.386      0.6364E-03 SPRIN         11   0.0%   277.7      0.3125E-04   0.000       227.7       0.000      0.5000E-01   0.000    
    3751   2.387      0.6364E-03 SPRIN         11  -0.0%   277.9      0.3125E-04   0.000       227.9       0.000      0.5000E-01   0.000    
    3752   2.388      0.6364E-03 SPRIN         11   0.0%   278.1      0.3125E-04   0.000       228.1       0.000      0.5000E-01   0.000    
    3753   2.388      0.6364E-03 SPRIN         11   0.0%   278.4      0.3125E-04   0.000       228.4       0.000      0.5000E-01   0.000    
    3754   2.389      0.6364E-03 SPRIN         11  -0.0%   278.6      0.3125E-04   0.000       228.6       0.000      0.5000E-01   0.000    
    3755   2.390      0.6364E-03 SPRIN         11   0.0%   278.8      0.3125E-04   0.000       228.8       0.000      0.5000E-01   0.000    
    3756   2.390      0.6364E-03 SPRIN         11  -0.0%   279.0      0.3125E-04   0.000       229.0       0.000      0.5000E-01   0.000    
    3757   2.391      0.6364E-03 SPRIN         11   0.0%   279.3      0.3125E-04   0.000       229.3       0.000      0.5000E-01   0.000    
    3758   2.392      0.6364E-03 SPRIN         11   0.0%   279.5      0.3125E-04   0.000       229.5       0.000      0.5000E-01   0.000    
    3759   2.392      0.6364E-03 SPRIN         11  -0.0%   279.7      0.3125E-04   0.000       229.7       0.000      0.5000E-01   0.000    
    3760   2.393      0.6364E-03 SPRIN         11   0.0%   279.9      0.3125E-04   0.000       229.9       0.000      0.5000E-01   0.000    
    3761   2.393      0.6364E-03 SPRIN         11   0.0%   280.2      0.3125E-04   0.000       230.2       0.000      0.5000E-01   0.000    
    3762   2.394      0.6364E-03 SPRIN         11   0.0%   280.4      0.3125E-04   0.000       230.4       0.000      0.5000E-01   0.000    
    3763   2.395      0.6364E-03 SPRIN         11   0.0%   280.6      0.3125E-04   0.000       230.6       0.000      0.5000E-01   0.000    
    3764   2.395      0.6364E-03 SPRIN         11   0.0%   280.8      0.3125E-04   0.000       230.8       0.000      0.5000E-01   0.000    
    3765   2.396      0.6364E-03 SPRIN         11   0.0%   281.1      0.3125E-04   0.000       231.1       0.000      0.5000E-01   0.000    
    3766   2.397      0.6364E-03 SPRIN         11   0.0%   281.3      0.3125E-04   0.000       231.3       0.000      0.5000E-01   0.000    
    3767   2.397      0.6364E-03 SPRIN         11   0.0%   281.5      0.3125E-04   0.000       231.5       0.000      0.5000E-01   0.000    
    3768   2.398      0.6364E-03 SPRIN         11   0.0%   281.7      0.3125E-04   0.000       231.7       0.000      0.5000E-01   0.000    
    3769   2.399      0.6364E-03 SPRIN         11   0.0%   282.0      0.3125E-04   0.000       232.0       0.000      0.5000E-01   0.000    
    3770   2.399      0.6364E-03 SPRIN         11   0.0%   282.2      0.3125E-04   0.000       232.2       0.000      0.5000E-01   0.000    
    3771   2.400      0.6364E-03 SPRIN         11   0.0%   282.4      0.3125E-04   0.000       232.4       0.000      0.5000E-01   0.000    
    3772   2.400      0.6364E-03 SPRIN         11   0.0%   282.6      0.3125E-04   0.000       232.6       0.000      0.5000E-01   0.000    
     ANIMATION FILE: SPR_PRE_2FLAGA013 WRITTEN
    3773   2.401      0.6364E-03 SPRIN         11   0.0%   282.9      0.3125E-04   0.000       232.9       0.000      0.5000E-01   0.000    
    3774   2.402      0.6364E-03 SPRIN         11   0.0%   283.1      0.3125E-04   0.000       233.1       0.000      0.5000E-01   0.000    
    3775   2.402      0.6364E-03 SPRIN         11   0.0%   283.3      0.3125E-04   0.000       233.3       0.000      0.5000E-01   0.000    
    3776   2.403      0.6364E-03 SPRIN         11   0.0%   283.5      0.3125E-04   0.000       233.5       0.000      0.5000E-01   0.000    
    3777   2.404      0.6364E-03 SPRIN         11   0.0%   283.8      0.3125E-04   0.000       233.8       0.000      0.5000E-01   0.000    
    3778   2.404      0.6364E-03 SPRIN         11   0.0%   284.0      0.3125E-04   0.000       234.0       0.000      0.5000E-01   0.000    
    3779   2.405      0.6364E-03 SPRIN         11   0.0%   284.2      0.3125E-04   0.000       234.2       0.000      0.5000E-01   0.000    
    3780   2.406      0.6364E-03 SPRIN         11   0.0%   284.4      0.3125E-04   0.000       234.4       0.000      0.5000E-01   0.000    
    3781   2.406      0.6364E-03 SPRIN         11   0.0%   284.7      0.3125E-04   0.000       234.7       0.000      0.5000E-01   0.000    
    3782   2.407      0.6364E-03 SPRIN         11   0.0%   284.9      0.3125E-04   0.000       234.9       0.000      0.5000E-01   0.000    
    3783   2.407      0.6364E-03 SPRIN         11   0.0%   285.1      0.3125E-04   0.000       235.1       0.000      0.5000E-01   0.000    
    3784   2.408      0.6364E-03 SPRIN         11  -0.0%   285.3      0.3125E-04   0.000       235.3       0.000      0.5000E-01   0.000    
    3785   2.409      0.6364E-03 SPRIN         11   0.0%   285.6      0.3125E-04   0.000       235.6       0.000      0.5000E-01   0.000    
    3786   2.409      0.6364E-03 SPRIN         11  -0.0%   285.8      0.3125E-04   0.000       235.8       0.000      0.5000E-01   0.000    
    3787   2.410      0.6364E-03 SPRIN         11   0.0%   286.0      0.3125E-04   0.000       236.0       0.000      0.5000E-01   0.000    
    3788   2.411      0.6364E-03 SPRIN         11   0.0%   286.3      0.3125E-04   0.000       236.3       0.000      0.5000E-01   0.000    
    3789   2.411      0.6364E-03 SPRIN         11  -0.0%   286.5      0.3125E-04   0.000       236.5       0.000      0.5000E-01   0.000    
    3790   2.412      0.6364E-03 SPRIN         11   0.0%   286.7      0.3125E-04   0.000       236.7       0.000      0.5000E-01   0.000    
    3791   2.413      0.6364E-03 SPRIN         11  -0.0%   286.9      0.3125E-04   0.000       236.9       0.000      0.5000E-01   0.000    
    3792   2.413      0.6364E-03 SPRIN         11   0.0%   287.2      0.3125E-04   0.000       237.2       0.000      0.5000E-01   0.000    
    3793   2.414      0.6364E-03 SPRIN         11   0.0%   287.4      0.3125E-04   0.000       237.4       0.000      0.5000E-01   0.000    
    3794   2.414      0.6364E-03 SPRIN         11  -0.0%   287.6      0.3125E-04   0.000       237.6       0.000      0.5000E-01   0.000    
   CYCLE    TIME      TIME-STEP  ELEMENT          ERROR  I-ENERGY    K-ENERGY T  K-ENERGY R  EXT-WORK     MAS.ERR     TOTAL MASS  MASS ADDED
    3795   2.415      0.6364E-03 SPRIN         11   0.0%   287.8      0.3125E-04   0.000       237.8       0.000      0.5000E-01   0.000    
    3796   2.416      0.6364E-03 SPRIN         11  -0.0%   288.1      0.3125E-04   0.000       238.1       0.000      0.5000E-01   0.000    
    3797   2.416      0.6364E-03 SPRIN         11   0.0%   288.3      0.3125E-04   0.000       238.3       0.000      0.5000E-01   0.000    
    3798   2.417      0.6364E-03 SPRIN         11   0.0%   288.5      0.3125E-04   0.000       238.5       0.000      0.5000E-01   0.000    
    3799   2.418      0.6364E-03 SPRIN         11  -0.0%   288.8      0.3125E-04   0.000       238.8       0.000      0.5000E-01   0.000    
    3800   2.418      0.6364E-03 SPRIN         11   0.0%   289.0      0.3125E-04   0.000       239.0       0.000      0.5000E-01   0.000    
    3801   2.419      0.6364E-03 SPRIN         11  -0.0%   289.2      0.3125E-04   0.000       239.2       0.000      0.5000E-01   0.000    
    3802   2.420      0.6364E-03 SPRIN         11   0.0%   289.4      0.3125E-04   0.000       239.4       0.000      0.5000E-01   0.000    
    3803   2.420      0.6364E-03 SPRIN         11   0.0%   289.7      0.3125E-04   0.000       239.7       0.000      0.5000E-01   0.000    
    3804   2.421      0.6364E-03 SPRIN         11   0.0%   289.9      0.3125E-04   0.000       239.9       0.000      0.5000E-01   0.000    
    3805   2.421      0.6364E-03 SPRIN         11   0.0%   290.1      0.3125E-04   0.000       240.1       0.000      0.5000E-01   0.000    
    3806   2.422      0.6364E-03 SPRIN         11   0.0%   290.4      0.3125E-04   0.000       240.4       0.000      0.5000E-01   0.000    
    3807   2.423      0.6364E-03 SPRIN         11   0.0%   290.6      0.3125E-04   0.000       240.6       0.000      0.5000E-01   0.000    
    3808   2.423      0.6364E-03 SPRIN         11   0.0%   290.8      0.3125E-04   0.000       240.8       0.000      0.5000E-01   0.000    
    3809   2.424      0.6364E-03 SPRIN         11   0.0%   291.0      0.3125E-04   0.000       241.0       0.000      0.5000E-01   0.000    
    3810   2.425      0.6364E-03 SPRIN         11   0.0%   291.3      0.3125E-04   0.000       241.3       0.000      0.5000E-01   0.000    
    3811   2.425      0.6364E-03 SPRIN         11   0.0%   291.5      0.3125E-04   0.000       241.5       0.000      0.5000E-01   0.000    
    3812   2.426      0.6364E-03 SPRIN         11   0.0%   291.7      0.3125E-04   0.000       241.7       0.000      0.5000E-01   0.000    
    3813   2.427      0.6364E-03 SPRIN         11   0.0%   292.0      0.3125E-04   0.000       242.0       0.000      0.5000E-01   0.000    
    3814   2.427      0.6364E-03 SPRIN         11   0.0%   292.2      0.3125E-04   0.000       242.2       0.000      0.5000E-01   0.000    
    3815   2.428      0.6364E-03 SPRIN         11   0.0%   292.4      0.3125E-04   0.000       242.4       0.000      0.5000E-01   0.000    
    3816   2.428      0.6364E-03 SPRIN         11   0.0%   292.6      0.3125E-04   0.000       242.6       0.000      0.5000E-01   0.000    
    3817   2.429      0.6364E-03 SPRIN         11   0.0%   292.9      0.3125E-04   0.000       242.9       0.000      0.5000E-01   0.000    
    3818   2.430      0.6364E-03 SPRIN         11   0.0%   293.1      0.3125E-04   0.000       243.1       0.000      0.5000E-01   0.000    
    3819   2.430      0.6364E-03 SPRIN         11  -0.0%   293.3      0.3125E-04   0.000       243.3       0.000      0.5000E-01   0.000    
    3820   2.431      0.6364E-03 SPRIN         11   0.0%   293.6      0.3125E-04   0.000       243.6       0.000      0.5000E-01   0.000    
    3821   2.432      0.6364E-03 SPRIN         11   0.0%   293.8      0.3125E-04   0.000       243.8       0.000      0.5000E-01   0.000    
    3822   2.432      0.6364E-03 SPRIN         11   0.0%   294.0      0.3125E-04   0.000       244.0       0.000      0.5000E-01   0.000    
    3823   2.433      0.6364E-03 SPRIN         11   0.0%   294.3      0.3125E-04   0.000       244.3       0.000      0.5000E-01   0.000    
    3824   2.434      0.6364E-03 SPRIN         11   0.0%   294.5      0.3125E-04   0.000       244.5       0.000      0.5000E-01   0.000    
    3825   2.434      0.6364E-03 SPRIN         11   0.0%   294.7      0.3125E-04   0.000       244.7       0.000      0.5000E-01   0.000    
    3826   2.435      0.6364E-03 SPRIN         11  -0.0%   294.9      0.3125E-04   0.000       244.9       0.000      0.5000E-01   0.000    
    3827   2.435      0.6364E-03 SPRIN         11   0.0%   295.2      0.3125E-04   0.000       245.2       0.000      0.5000E-01   0.000    
    3828   2.436      0.6364E-03 SPRIN         11   0.0%   295.4      0.3125E-04   0.000       245.4       0.000      0.5000E-01   0.000    
    3829   2.437      0.6364E-03 SPRIN         11  -0.0%   295.6      0.3125E-04   0.000       245.6       0.000      0.5000E-01   0.000    
    3830   2.437      0.6364E-03 SPRIN         11   0.0%   295.9      0.3125E-04   0.000       245.9       0.000      0.5000E-01   0.000    
    3831   2.438      0.6364E-03 SPRIN         11  -0.0%   296.1      0.3125E-04   0.000       246.1       0.000      0.5000E-01   0.000    
    3832   2.439      0.6364E-03 SPRIN         11  -0.0%   296.3      0.3125E-04   0.000       246.3       0.000      0.5000E-01   0.000    
    3833   2.439      0.6364E-03 SPRIN         11  -0.0%   296.6      0.3125E-04   0.000       246.6       0.000      0.5000E-01   0.000    
    3834   2.440      0.6364E-03 SPRIN         11  -0.0%   296.8      0.3125E-04   0.000       246.8       0.000      0.5000E-01   0.000    
    3835   2.441      0.6364E-03 SPRIN         11   0.0%   297.0      0.3125E-04   0.000       247.0       0.000      0.5000E-01   0.000    
    3836   2.441      0.6364E-03 SPRIN         11  -0.0%   297.3      0.3125E-04   0.000       247.3       0.000      0.5000E-01   0.000    
    3837   2.442      0.6364E-03 SPRIN         11   0.0%   297.5      0.3125E-04   0.000       247.5       0.000      0.5000E-01   0.000    
    3838   2.442      0.6364E-03 SPRIN         11   0.0%   297.7      0.3125E-04   0.000       247.7       0.000      0.5000E-01   0.000    
    3839   2.443      0.6364E-03 SPRIN         11  -0.0%   298.0      0.3125E-04   0.000       248.0       0.000      0.5000E-01   0.000    
    3840   2.444      0.6364E-03 SPRIN         11   0.0%   298.2      0.3125E-04   0.000       248.2       0.000      0.5000E-01   0.000    
    3841   2.444      0.6364E-03 SPRIN         11  -0.0%   298.4      0.3125E-04   0.000       248.4       0.000      0.5000E-01   0.000    
    3842   2.445      0.6364E-03 SPRIN         11   0.0%   298.7      0.3125E-04   0.000       248.7       0.000      0.5000E-01   0.000    
    3843   2.446      0.6364E-03 SPRIN         11   0.0%   298.9      0.3125E-04   0.000       248.9       0.000      0.5000E-01   0.000    
    3844   2.446      0.6364E-03 SPRIN         11  -0.0%   299.1      0.3125E-04   0.000       249.1       0.000      0.5000E-01   0.000    
    3845   2.447      0.6364E-03 SPRIN         11   0.0%   299.3      0.3125E-04   0.000       249.3       0.000      0.5000E-01   0.000    
    3846   2.448      0.6364E-03 SPRIN         11   0.0%   299.6      0.3125E-04   0.000       249.6       0.000      0.5000E-01   0.000    
    3847   2.448      0.6364E-03 SPRIN         11   0.0%   299.8      0.3125E-04   0.000       249.8       0.000      0.5000E-01   0.000    
    3848   2.449      0.6364E-03 SPRIN         11   0.0%   300.0      0.3125E-04   0.000       250.0       0.000      0.5000E-01   0.000    
    3849   2.449      0.6364E-03 SPRIN         11  -0.0%   300.3      0.3125E-04   0.000       250.3       0.000      0.5000E-01   0.000    
   CYCLE    TIME      TIME-STEP  ELEMENT          ERROR  I-ENERGY    K-ENERGY T  K-ENERGY R  EXT-WORK     MAS.ERR     TOTAL MASS  MASS ADDED
    3850   2.450      0.6364E-03 SPRIN         11   0.0%   300.5      0.3125E-04   0.000       250.5       0.000      0.5000E-01   0.000    
    3851   2.451      0.6364E-03 SPRIN         11   0.0%   300.7      0.3125E-04   0.000       250.7       0.000      0.5000E-01   0.000    
    3852   2.451      0.6364E-03 SPRIN         11   0.0%   301.0      0.3125E-04   0.000       251.0       0.000      0.5000E-01   0.000    
    3853   2.452      0.6364E-03 SPRIN         11   0.0%   301.2      0.3125E-04   0.000       251.2       0.000      0.5000E-01   0.000    
    3854   2.453      0.6364E-03 SPRIN         11  -0.0%   301.4      0.3125E-04   0.000       251.4       0.000      0.5000E-01   0.000    
    3855   2.453      0.6364E-03 SPRIN         11   0.0%   301.7      0.3125E-04   0.000       251.7       0.000      0.5000E-01   0.000    
    3856   2.454      0.6364E-03 SPRIN         11   0.0%   301.9      0.3125E-04   0.000       251.9       0.000      0.5000E-01   0.000    
    3857   2.455      0.6364E-03 SPRIN         11   0.0%   302.1      0.3125E-04   0.000       252.1       0.000      0.5000E-01   0.000    
    3858   2.455      0.6364E-03 SPRIN         11   0.0%   302.4      0.3125E-04   0.000       252.4       0.000      0.5000E-01   0.000    
    3859   2.456      0.6364E-03 SPRIN         11   0.0%   302.6      0.3125E-04   0.000       252.6       0.000      0.5000E-01   0.000    
    3860   2.456      0.6364E-03 SPRIN         11   0.0%   302.9      0.3125E-04   0.000       252.9       0.000      0.5000E-01   0.000    
    3861   2.457      0.6364E-03 SPRIN         11   0.0%   303.1      0.3125E-04   0.000       253.1       0.000      0.5000E-01   0.000    
    3862   2.458      0.6364E-03 SPRIN         11   0.0%   303.3      0.3125E-04   0.000       253.3       0.000      0.5000E-01   0.000    
    3863   2.458      0.6364E-03 SPRIN         11   0.0%   303.6      0.3125E-04   0.000       253.6       0.000      0.5000E-01   0.000    
    3864   2.459      0.6364E-03 SPRIN         11  -0.0%   303.8      0.3125E-04   0.000       253.8       0.000      0.5000E-01   0.000    
    3865   2.460      0.6364E-03 SPRIN         11   0.0%   304.0      0.3125E-04   0.000       254.0       0.000      0.5000E-01   0.000    
    3866   2.460      0.6364E-03 SPRIN         11  -0.0%   304.3      0.3125E-04   0.000       254.3       0.000      0.5000E-01   0.000    
    3867   2.461      0.6364E-03 SPRIN         11   0.0%   304.5      0.3125E-04   0.000       254.5       0.000      0.5000E-01   0.000    
    3868   2.462      0.6364E-03 SPRIN         11   0.0%   304.7      0.3125E-04   0.000       254.7       0.000      0.5000E-01   0.000    
    3869   2.462      0.6364E-03 SPRIN         11  -0.0%   305.0      0.3125E-04   0.000       255.0       0.000      0.5000E-01   0.000    
    3870   2.463      0.6364E-03 SPRIN         11   0.0%   305.2      0.3125E-04   0.000       255.2       0.000      0.5000E-01   0.000    
    3871   2.463      0.6364E-03 SPRIN         11  -0.0%   305.4      0.3125E-04   0.000       255.4       0.000      0.5000E-01   0.000    
    3872   2.464      0.6364E-03 SPRIN         11  -0.0%   305.7      0.3125E-04   0.000       255.7       0.000      0.5000E-01   0.000    
    3873   2.465      0.6364E-03 SPRIN         11   0.0%   305.9      0.3125E-04   0.000       255.9       0.000      0.5000E-01   0.000    
    3874   2.465      0.6364E-03 SPRIN         11  -0.0%   306.1      0.3125E-04   0.000       256.1       0.000      0.5000E-01   0.000    
    3875   2.466      0.6364E-03 SPRIN         11   0.0%   306.4      0.3125E-04   0.000       256.4       0.000      0.5000E-01   0.000    
    3876   2.467      0.6364E-03 SPRIN         11  -0.0%   306.6      0.3125E-04   0.000       256.6       0.000      0.5000E-01   0.000    
    3877   2.467      0.6364E-03 SPRIN         11  -0.0%   306.8      0.3125E-04   0.000       256.8       0.000      0.5000E-01   0.000    
    3878   2.468      0.6364E-03 SPRIN         11  -0.0%   307.1      0.3125E-04   0.000       257.1       0.000      0.5000E-01   0.000    
    3879   2.469      0.6364E-03 SPRIN         11  -0.0%   307.3      0.3125E-04   0.000       257.3       0.000      0.5000E-01   0.000    
    3880   2.469      0.6364E-03 SPRIN         11   0.0%   307.6      0.3125E-04   0.000       257.6       0.000      0.5000E-01   0.000    
    3881   2.470      0.6364E-03 SPRIN         11  -0.0%   307.8      0.3125E-04   0.000       257.8       0.000      0.5000E-01   0.000    
    3882   2.470      0.6364E-03 SPRIN         11  -0.0%   308.0      0.3125E-04   0.000       258.0       0.000      0.5000E-01   0.000    
    3883   2.471      0.6364E-03 SPRIN         11   0.0%   308.3      0.3125E-04   0.000       258.3       0.000      0.5000E-01   0.000    
    3884   2.472      0.6364E-03 SPRIN         11  -0.0%   308.5      0.3125E-04   0.000       258.5       0.000      0.5000E-01   0.000    
    3885   2.472      0.6364E-03 SPRIN         11   0.0%   308.7      0.3125E-04   0.000       258.7       0.000      0.5000E-01   0.000    
    3886   2.473      0.6364E-03 SPRIN         11  -0.0%   309.0      0.3125E-04   0.000       259.0       0.000      0.5000E-01   0.000    
    3887   2.474      0.6364E-03 SPRIN         11  -0.0%   309.2      0.3125E-04   0.000       259.2       0.000      0.5000E-01   0.000    
    3888   2.474      0.6364E-03 SPRIN         11   0.0%   309.4      0.3125E-04   0.000       259.4       0.000      0.5000E-01   0.000    
    3889   2.475      0.6364E-03 SPRIN         11  -0.0%   309.7      0.3125E-04   0.000       259.7       0.000      0.5000E-01   0.000    
    3890   2.476      0.6364E-03 SPRIN         11   0.0%   309.9      0.3125E-04   0.000       259.9       0.000      0.5000E-01   0.000    
    3891   2.476      0.6364E-03 SPRIN         11  -0.0%   310.2      0.3125E-04   0.000       260.2       0.000      0.5000E-01   0.000    
    3892   2.477      0.6364E-03 SPRIN         11  -0.0%   310.4      0.3125E-04   0.000       260.4       0.000      0.5000E-01   0.000    
    3893   2.477      0.6364E-03 SPRIN         11   0.0%   310.6      0.3125E-04   0.000       260.6       0.000      0.5000E-01   0.000    
    3894   2.478      0.6364E-03 SPRIN         11  -0.0%   310.9      0.3125E-04   0.000       260.9       0.000      0.5000E-01   0.000    
    3895   2.479      0.6364E-03 SPRIN         11   0.0%   311.1      0.3125E-04   0.000       261.1       0.000      0.5000E-01   0.000    
    3896   2.479      0.6364E-03 SPRIN         11  -0.0%   311.3      0.3125E-04   0.000       261.3       0.000      0.5000E-01   0.000    
    3897   2.480      0.6364E-03 SPRIN         11   0.0%   311.6      0.3125E-04   0.000       261.6       0.000      0.5000E-01   0.000    
    3898   2.481      0.6364E-03 SPRIN         11   0.0%   311.8      0.3125E-04   0.000       261.8       0.000      0.5000E-01   0.000    
    3899   2.481      0.6364E-03 SPRIN         11  -0.0%   312.1      0.3125E-04   0.000       262.1       0.000      0.5000E-01   0.000    
    3900   2.482      0.6364E-03 SPRIN         11   0.0%   312.3      0.3125E-04   0.000       262.3       0.000      0.5000E-01   0.000    
    3901   2.483      0.6364E-03 SPRIN         11   0.0%   312.5      0.3125E-04   0.000       262.5       0.000      0.5000E-01   0.000    
    3902   2.483      0.6364E-03 SPRIN         11   0.0%   312.8      0.3125E-04   0.000       262.8       0.000      0.5000E-01   0.000    
    3903   2.484      0.6364E-03 SPRIN         11   0.0%   313.0      0.3125E-04   0.000       263.0       0.000      0.5000E-01   0.000    
    3904   2.484      0.6364E-03 SPRIN         11  -0.0%   313.3      0.3125E-04   0.000       263.3       0.000      0.5000E-01   0.000    
   CYCLE    TIME      TIME-STEP  ELEMENT          ERROR  I-ENERGY    K-ENERGY T  K-ENERGY R  EXT-WORK     MAS.ERR     TOTAL MASS  MASS ADDED
    3905   2.485      0.6364E-03 SPRIN         11   0.0%   313.5      0.3125E-04   0.000       263.5       0.000      0.5000E-01   0.000    
    3906   2.486      0.6364E-03 SPRIN         11  -0.0%   313.7      0.3125E-04   0.000       263.7       0.000      0.5000E-01   0.000    
    3907   2.486      0.6364E-03 SPRIN         11   0.0%   314.0      0.3125E-04   0.000       264.0       0.000      0.5000E-01   0.000    
    3908   2.487      0.6364E-03 SPRIN         11   0.0%   314.2      0.3125E-04   0.000       264.2       0.000      0.5000E-01   0.000    
    3909   2.488      0.6364E-03 SPRIN         11  -0.0%   314.4      0.3125E-04   0.000       264.4       0.000      0.5000E-01   0.000    
    3910   2.488      0.6364E-03 SPRIN         11   0.0%   314.7      0.3125E-04   0.000       264.7       0.000      0.5000E-01   0.000    
    3911   2.489      0.6364E-03 SPRIN         11   0.0%   314.9      0.3125E-04   0.000       264.9       0.000      0.5000E-01   0.000    
    3912   2.490      0.6364E-03 SPRIN         11   0.0%   315.2      0.3125E-04   0.000       265.2       0.000      0.5000E-01   0.000    
    3913   2.490      0.6364E-03 SPRIN         11   0.0%   315.4      0.3125E-04   0.000       265.4       0.000      0.5000E-01   0.000    
    3914   2.491      0.6364E-03 SPRIN         11   0.0%   315.6      0.3125E-04   0.000       265.6       0.000      0.5000E-01   0.000    
    3915   2.491      0.6364E-03 SPRIN         11   0.0%   315.9      0.3125E-04   0.000       265.9       0.000      0.5000E-01   0.000    
    3916   2.492      0.6364E-03 SPRIN         11   0.0%   316.1      0.3125E-04   0.000       266.1       0.000      0.5000E-01   0.000    
    3917   2.493      0.6364E-03 SPRIN         11   0.0%   316.4      0.3125E-04   0.000       266.4       0.000      0.5000E-01   0.000    
    3918   2.493      0.6364E-03 SPRIN         11   0.0%   316.6      0.3125E-04   0.000       266.6       0.000      0.5000E-01   0.000    
    3919   2.494      0.6364E-03 SPRIN         11   0.0%   316.8      0.3125E-04   0.000       266.8       0.000      0.5000E-01   0.000    
    3920   2.495      0.6364E-03 SPRIN         11   0.0%   317.1      0.3125E-04   0.000       267.1       0.000      0.5000E-01   0.000    
    3921   2.495      0.6364E-03 SPRIN         11   0.0%   317.3      0.3125E-04   0.000       267.3       0.000      0.5000E-01   0.000    
    3922   2.496      0.6364E-03 SPRIN         11   0.0%   317.6      0.3125E-04   0.000       267.6       0.000      0.5000E-01   0.000    
    3923   2.497      0.6364E-03 SPRIN         11   0.0%   317.8      0.3125E-04   0.000       267.8       0.000      0.5000E-01   0.000    
    3924   2.497      0.6364E-03 SPRIN         11   0.0%   318.0      0.3125E-04   0.000       268.0       0.000      0.5000E-01   0.000    
    3925   2.498      0.6364E-03 SPRIN         11   0.0%   318.3      0.3125E-04   0.000       268.3       0.000      0.5000E-01   0.000    
    3926   2.498      0.6364E-03 SPRIN         11   0.0%   318.5      0.3125E-04   0.000       268.5       0.000      0.5000E-01   0.000    
    3927   2.499      0.6364E-03 SPRIN         11   0.0%   318.8      0.3125E-04   0.000       268.8       0.000      0.5000E-01   0.000    
    3928   2.500      0.6364E-03 SPRIN         11   0.0%   319.0      0.3125E-04   0.000       269.0       0.000      0.5000E-01   0.000    
    3929   2.500      0.6364E-03 SPRIN         11  -0.0%   319.3      0.3125E-04   0.000       269.3       0.000      0.5000E-01   0.000    
    3930   2.501      0.6364E-03 SPRIN         11   0.0%   319.5      0.3125E-04   0.000       269.5       0.000      0.5000E-01   0.000    
    3931   2.502      0.6364E-03 SPRIN         11  -0.0%   319.7      0.3125E-04   0.000       269.7       0.000      0.5000E-01   0.000    
    3932   2.502      0.6364E-03 SPRIN         11  -0.0%   320.0      0.3125E-04   0.000       270.0       0.000      0.5000E-01   0.000    
    3933   2.503      0.6364E-03 SPRIN         11   0.0%   320.2      0.3125E-04   0.000       270.2       0.000      0.5000E-01   0.000    
    3934   2.504      0.6364E-03 SPRIN         11  -0.0%   320.5      0.3125E-04   0.000       270.5       0.000      0.5000E-01   0.000    
    3935   2.504      0.6364E-03 SPRIN         11  -0.0%   320.7      0.3125E-04   0.000       270.7       0.000      0.5000E-01   0.000    
    3936   2.505      0.6364E-03 SPRIN         11  -0.0%   320.9      0.3125E-04   0.000       270.9       0.000      0.5000E-01   0.000    
    3937   2.505      0.6364E-03 SPRIN         11  -0.0%   321.2      0.3125E-04   0.000       271.2       0.000      0.5000E-01   0.000    
    3938   2.506      0.6364E-03 SPRIN         11  -0.0%   321.4      0.3125E-04   0.000       271.4       0.000      0.5000E-01   0.000    
    3939   2.507      0.6364E-03 SPRIN         11  -0.0%   321.7      0.3125E-04   0.000       271.7       0.000      0.5000E-01   0.000    
    3940   2.507      0.6364E-03 SPRIN         11   0.0%   321.9      0.3125E-04   0.000       271.9       0.000      0.5000E-01   0.000    
    3941   2.508      0.6364E-03 SPRIN         11  -0.0%   322.2      0.3125E-04   0.000       272.2       0.000      0.5000E-01   0.000    
    3942   2.509      0.6364E-03 SPRIN         11  -0.0%   322.4      0.3125E-04   0.000       272.4       0.000      0.5000E-01   0.000    
    3943   2.509      0.6364E-03 SPRIN         11   0.0%   322.6      0.3125E-04   0.000       272.6       0.000      0.5000E-01   0.000    
    3944   2.510      0.6364E-03 SPRIN         11  -0.0%   322.9      0.3125E-04   0.000       272.9       0.000      0.5000E-01   0.000    
    3945   2.511      0.6364E-03 SPRIN         11  -0.0%   323.1      0.3125E-04   0.000       273.1       0.000      0.5000E-01   0.000    
    3946   2.511      0.6364E-03 SPRIN         11  -0.0%   323.4      0.3125E-04   0.000       273.4       0.000      0.5000E-01   0.000    
    3947   2.512      0.6364E-03 SPRIN         11  -0.0%   323.6      0.3125E-04   0.000       273.6       0.000      0.5000E-01   0.000    
    3948   2.512      0.6364E-03 SPRIN         11  -0.0%   323.9      0.3125E-04   0.000       273.9       0.000      0.5000E-01   0.000    
    3949   2.513      0.6364E-03 SPRIN         11  -0.0%   324.1      0.3125E-04   0.000       274.1       0.000      0.5000E-01   0.000    
    3950   2.514      0.6364E-03 SPRIN         11  -0.0%   324.3      0.3125E-04   0.000       274.3       0.000      0.5000E-01   0.000    
    3951   2.514      0.6364E-03 SPRIN         11  -0.0%   324.6      0.3125E-04   0.000       274.6       0.000      0.5000E-01   0.000    
    3952   2.515      0.6364E-03 SPRIN         11  -0.0%   324.8      0.3125E-04   0.000       274.8       0.000      0.5000E-01   0.000    
    3953   2.516      0.6364E-03 SPRIN         11  -0.0%   325.1      0.3125E-04   0.000       275.1       0.000      0.5000E-01   0.000    
    3954   2.516      0.6364E-03 SPRIN         11  -0.0%   325.3      0.3125E-04   0.000       275.3       0.000      0.5000E-01   0.000    
    3955   2.517      0.6364E-03 SPRIN         11  -0.0%   325.6      0.3125E-04   0.000       275.6       0.000      0.5000E-01   0.000    
    3956   2.518      0.6364E-03 SPRIN         11  -0.0%   325.8      0.3125E-04   0.000       275.8       0.000      0.5000E-01   0.000    
    3957   2.518      0.6364E-03 SPRIN         11  -0.0%   326.0      0.3125E-04   0.000       276.0       0.000      0.5000E-01   0.000    
    3958   2.519      0.6364E-03 SPRIN         11  -0.0%   326.3      0.3125E-04   0.000       276.3       0.000      0.5000E-01   0.000    
    3959   2.519      0.6364E-03 SPRIN         11  -0.0%   326.5      0.3125E-04   0.000       276.5       0.000      0.5000E-01   0.000    
   CYCLE    TIME      TIME-STEP  ELEMENT          ERROR  I-ENERGY    K-ENERGY T  K-ENERGY R  EXT-WORK     MAS.ERR     TOTAL MASS  MASS ADDED
    3960   2.520      0.6364E-03 SPRIN         11   0.0%   326.8      0.3125E-04   0.000       276.8       0.000      0.5000E-01   0.000    
    3961   2.521      0.6364E-03 SPRIN         11  -0.0%   327.0      0.3125E-04   0.000       277.0       0.000      0.5000E-01   0.000    
    3962   2.521      0.6364E-03 SPRIN         11  -0.0%   327.3      0.3125E-04   0.000       277.3       0.000      0.5000E-01   0.000    
    3963   2.522      0.6364E-03 SPRIN         11  -0.0%   327.5      0.3125E-04   0.000       277.5       0.000      0.5000E-01   0.000    
    3964   2.523      0.6364E-03 SPRIN         11  -0.0%   327.8      0.3125E-04   0.000       277.8       0.000      0.5000E-01   0.000    
    3965   2.523      0.6364E-03 SPRIN         11  -0.0%   328.0      0.3125E-04   0.000       278.0       0.000      0.5000E-01   0.000    
    3966   2.524      0.6364E-03 SPRIN         11  -0.0%   328.2      0.3125E-04   0.000       278.2       0.000      0.5000E-01   0.000    
    3967   2.525      0.6364E-03 SPRIN         11  -0.0%   328.5      0.3125E-04   0.000       278.5       0.000      0.5000E-01   0.000    
    3968   2.525      0.6364E-03 SPRIN         11  -0.0%   328.7      0.3125E-04   0.000       278.7       0.000      0.5000E-01   0.000    
    3969   2.526      0.6364E-03 SPRIN         11  -0.0%   329.0      0.3125E-04   0.000       279.0       0.000      0.5000E-01   0.000    
    3970   2.526      0.6364E-03 SPRIN         11  -0.0%   329.2      0.3125E-04   0.000       279.2       0.000      0.5000E-01   0.000    
    3971   2.527      0.6364E-03 SPRIN         11  -0.0%   329.5      0.3125E-04   0.000       279.5       0.000      0.5000E-01   0.000    
    3972   2.528      0.6364E-03 SPRIN         11  -0.0%   329.7      0.3125E-04   0.000       279.7       0.000      0.5000E-01   0.000    
    3973   2.528      0.6364E-03 SPRIN         11  -0.0%   330.0      0.3125E-04   0.000       280.0       0.000      0.5000E-01   0.000    
    3974   2.529      0.6364E-03 SPRIN         11  -0.0%   330.2      0.3125E-04   0.000       280.2       0.000      0.5000E-01   0.000    
    3975   2.530      0.6364E-03 SPRIN         11  -0.0%   330.5      0.3125E-04   0.000       280.5       0.000      0.5000E-01   0.000    
    3976   2.530      0.6364E-03 SPRIN         11  -0.0%   330.7      0.3125E-04   0.000       280.7       0.000      0.5000E-01   0.000    
    3977   2.531      0.6364E-03 SPRIN         11  -0.0%   330.9      0.3125E-04   0.000       280.9       0.000      0.5000E-01   0.000    
    3978   2.532      0.6364E-03 SPRIN         11  -0.0%   331.2      0.3125E-04   0.000       281.2       0.000      0.5000E-01   0.000    
    3979   2.532      0.6364E-03 SPRIN         11  -0.0%   331.4      0.3125E-04   0.000       281.4       0.000      0.5000E-01   0.000    
    3980   2.533      0.6364E-03 SPRIN         11  -0.0%   331.7      0.3125E-04   0.000       281.7       0.000      0.5000E-01   0.000    
    3981   2.533      0.6364E-03 SPRIN         11  -0.0%   331.9      0.3125E-04   0.000       281.9       0.000      0.5000E-01   0.000    
    3982   2.534      0.6364E-03 SPRIN         11  -0.0%   332.2      0.3125E-04   0.000       282.2       0.000      0.5000E-01   0.000    
    3983   2.535      0.6364E-03 SPRIN         11  -0.0%   332.4      0.3125E-04   0.000       282.4       0.000      0.5000E-01   0.000    
    3984   2.535      0.6364E-03 SPRIN         11  -0.0%   332.7      0.3125E-04   0.000       282.7       0.000      0.5000E-01   0.000    
    3985   2.536      0.6364E-03 SPRIN         11  -0.0%   332.9      0.3125E-04   0.000       282.9       0.000      0.5000E-01   0.000    
    3986   2.537      0.6364E-03 SPRIN         11  -0.0%   333.2      0.3125E-04   0.000       283.2       0.000      0.5000E-01   0.000    
    3987   2.537      0.6364E-03 SPRIN         11  -0.0%   333.4      0.3125E-04   0.000       283.4       0.000      0.5000E-01   0.000    
    3988   2.538      0.6364E-03 SPRIN         11  -0.0%   333.7      0.3125E-04   0.000       283.7       0.000      0.5000E-01   0.000    
    3989   2.539      0.6364E-03 SPRIN         11  -0.0%   333.9      0.3125E-04   0.000       283.9       0.000      0.5000E-01   0.000    
    3990   2.539      0.6364E-03 SPRIN         11  -0.0%   334.2      0.3125E-04   0.000       284.2       0.000      0.5000E-01   0.000    
    3991   2.540      0.6364E-03 SPRIN         11  -0.0%   334.4      0.3125E-04   0.000       284.4       0.000      0.5000E-01   0.000    
    3992   2.540      0.6364E-03 SPRIN         11   0.0%   334.6      0.3125E-04   0.000       284.6       0.000      0.5000E-01   0.000    
    3993   2.541      0.6364E-03 SPRIN         11   0.0%   334.9      0.3125E-04   0.000       284.9       0.000      0.5000E-01   0.000    
    3994   2.542      0.6364E-03 SPRIN         11   0.0%   335.1      0.3125E-04   0.000       285.1       0.000      0.5000E-01   0.000    
    3995   2.542      0.6364E-03 SPRIN         11   0.0%   335.4      0.3125E-04   0.000       285.4       0.000      0.5000E-01   0.000    
    3996   2.543      0.6364E-03 SPRIN         11  -0.0%   335.6      0.3125E-04   0.000       285.6       0.000      0.5000E-01   0.000    
    3997   2.544      0.6364E-03 SPRIN         11  -0.0%   335.9      0.3125E-04   0.000       285.9       0.000      0.5000E-01   0.000    
    3998   2.544      0.6364E-03 SPRIN         11  -0.0%   336.1      0.3125E-04   0.000       286.1       0.000      0.5000E-01   0.000    
    3999   2.545      0.6364E-03 SPRIN         11  -0.0%   336.4      0.3125E-04   0.000       286.4       0.000      0.5000E-01   0.000    
    4000   2.546      0.6364E-03 SPRIN         11  -0.0%   336.6      0.3125E-04   0.000       286.6       0.000      0.5000E-01   0.000    
    4001   2.546      0.6364E-03 SPRIN         11  -0.0%   336.9      0.3125E-04   0.000       286.9       0.000      0.5000E-01   0.000    
    4002   2.547      0.6364E-03 SPRIN         11  -0.0%   337.1      0.3125E-04   0.000       287.1       0.000      0.5000E-01   0.000    
    4003   2.547      0.6364E-03 SPRIN         11   0.0%   337.4      0.3125E-04   0.000       287.4       0.000      0.5000E-01   0.000    
    4004   2.548      0.6364E-03 SPRIN         11   0.0%   337.6      0.3125E-04   0.000       287.6       0.000      0.5000E-01   0.000    
    4005   2.549      0.6364E-03 SPRIN         11   0.0%   337.9      0.3125E-04   0.000       287.9       0.000      0.5000E-01   0.000    
    4006   2.549      0.6364E-03 SPRIN         11   0.0%   338.1      0.3125E-04   0.000       288.1       0.000      0.5000E-01   0.000    
    4007   2.550      0.6364E-03 SPRIN         11   0.0%   338.4      0.3125E-04   0.000       288.4       0.000      0.5000E-01   0.000    
    4008   2.551      0.6364E-03 SPRIN         11   0.0%   338.6      0.3125E-04   0.000       288.6       0.000      0.5000E-01   0.000    
    4009   2.551      0.6364E-03 SPRIN         11   0.0%   338.9      0.3125E-04   0.000       288.9       0.000      0.5000E-01   0.000    
    4010   2.552      0.6364E-03 SPRIN         11   0.0%   339.1      0.3125E-04   0.000       289.1       0.000      0.5000E-01   0.000    
    4011   2.553      0.6364E-03 SPRIN         11   0.0%   339.4      0.3125E-04   0.000       289.4       0.000      0.5000E-01   0.000    
    4012   2.553      0.6364E-03 SPRIN         11   0.0%   339.6      0.3125E-04   0.000       289.6       0.000      0.5000E-01   0.000    
    4013   2.554      0.6364E-03 SPRIN         11   0.0%   339.9      0.3125E-04   0.000       289.9       0.000      0.5000E-01   0.000    
    4014   2.554      0.6364E-03 SPRIN         11   0.0%   340.1      0.3125E-04   0.000       290.1       0.000      0.5000E-01   0.000    
   CYCLE    TIME      TIME-STEP  ELEMENT          ERROR  I-ENERGY    K-ENERGY T  K-ENERGY R  EXT-WORK     MAS.ERR     TOTAL MASS  MASS ADDED
    4015   2.555      0.6364E-03 SPRIN         11   0.0%   340.4      0.3125E-04   0.000       290.4       0.000      0.5000E-01   0.000    
    4016   2.556      0.6364E-03 SPRIN         11  -0.0%   340.6      0.3125E-04   0.000       290.6       0.000      0.5000E-01   0.000    
    4017   2.556      0.6364E-03 SPRIN         11   0.0%   340.9      0.3125E-04   0.000       290.9       0.000      0.5000E-01   0.000    
    4018   2.557      0.6364E-03 SPRIN         11   0.0%   341.1      0.3125E-04   0.000       291.1       0.000      0.5000E-01   0.000    
    4019   2.558      0.6364E-03 SPRIN         11  -0.0%   341.4      0.3125E-04   0.000       291.4       0.000      0.5000E-01   0.000    
    4020   2.558      0.6364E-03 SPRIN         11   0.0%   341.6      0.3125E-04   0.000       291.6       0.000      0.5000E-01   0.000    
    4021   2.559      0.6364E-03 SPRIN         11   0.0%   341.9      0.3125E-04   0.000       291.9       0.000      0.5000E-01   0.000    
    4022   2.560      0.6364E-03 SPRIN         11   0.0%   342.1      0.3125E-04   0.000       292.1       0.000      0.5000E-01   0.000    
    4023   2.560      0.6364E-03 SPRIN         11   0.0%   342.4      0.3125E-04   0.000       292.4       0.000      0.5000E-01   0.000    
    4024   2.561      0.6364E-03 SPRIN         11   0.0%   342.6      0.3125E-04   0.000       292.6       0.000      0.5000E-01   0.000    
    4025   2.561      0.6364E-03 SPRIN         11   0.0%   342.9      0.3125E-04   0.000       292.9       0.000      0.5000E-01   0.000    
    4026   2.562      0.6364E-03 SPRIN         11   0.0%   343.1      0.3125E-04   0.000       293.1       0.000      0.5000E-01   0.000    
    4027   2.563      0.6364E-03 SPRIN         11   0.0%   343.4      0.3125E-04   0.000       293.4       0.000      0.5000E-01   0.000    
    4028   2.563      0.6364E-03 SPRIN         11   0.0%   343.6      0.3125E-04   0.000       293.6       0.000      0.5000E-01   0.000    
    4029   2.564      0.6364E-03 SPRIN         11   0.0%   343.9      0.3125E-04   0.000       293.9       0.000      0.5000E-01   0.000    
    4030   2.565      0.6364E-03 SPRIN         11   0.0%   344.1      0.3125E-04   0.000       294.1       0.000      0.5000E-01   0.000    
    4031   2.565      0.6364E-03 SPRIN         11  -0.0%   344.4      0.3125E-04   0.000       294.4       0.000      0.5000E-01   0.000    
    4032   2.566      0.6364E-03 SPRIN         11  -0.0%   344.6      0.3125E-04   0.000       294.6       0.000      0.5000E-01   0.000    
    4033   2.567      0.6364E-03 SPRIN         11   0.0%   344.9      0.3125E-04   0.000       294.9       0.000      0.5000E-01   0.000    
    4034   2.567      0.6364E-03 SPRIN         11  -0.0%   345.1      0.3125E-04   0.000       295.1       0.000      0.5000E-01   0.000    
    4035   2.568      0.6364E-03 SPRIN         11   0.0%   345.4      0.3125E-04   0.000       295.4       0.000      0.5000E-01   0.000    
    4036   2.568      0.6364E-03 SPRIN         11   0.0%   345.6      0.3125E-04   0.000       295.6       0.000      0.5000E-01   0.000    
    4037   2.569      0.6364E-03 SPRIN         11   0.0%   345.9      0.3125E-04   0.000       295.9       0.000      0.5000E-01   0.000    
    4038   2.570      0.6364E-03 SPRIN         11   0.0%   346.1      0.3125E-04   0.000       296.1       0.000      0.5000E-01   0.000    
    4039   2.570      0.6364E-03 SPRIN         11   0.0%   346.4      0.3125E-04   0.000       296.4       0.000      0.5000E-01   0.000    
    4040   2.571      0.6364E-03 SPRIN         11   0.0%   346.6      0.3125E-04   0.000       296.6       0.000      0.5000E-01   0.000    
    4041   2.572      0.6364E-03 SPRIN         11   0.0%   346.9      0.3125E-04   0.000       296.9       0.000      0.5000E-01   0.000    
    4042   2.572      0.6364E-03 SPRIN         11   0.0%   347.2      0.3125E-04   0.000       297.2       0.000      0.5000E-01   0.000    
    4043   2.573      0.6364E-03 SPRIN         11   0.0%   347.4      0.3125E-04   0.000       297.4       0.000      0.5000E-01   0.000    
    4044   2.574      0.6364E-03 SPRIN         11   0.0%   347.7      0.3125E-04   0.000       297.7       0.000      0.5000E-01   0.000    
    4045   2.574      0.6364E-03 SPRIN         11   0.0%   347.9      0.3125E-04   0.000       297.9       0.000      0.5000E-01   0.000    
    4046   2.575      0.6364E-03 SPRIN         11   0.0%   348.2      0.3125E-04   0.000       298.2       0.000      0.5000E-01   0.000    
    4047   2.575      0.6364E-03 SPRIN         11   0.0%   348.4      0.3125E-04   0.000       298.4       0.000      0.5000E-01   0.000    
    4048   2.576      0.6364E-03 SPRIN         11   0.0%   348.7      0.3125E-04   0.000       298.7       0.000      0.5000E-01   0.000    
    4049   2.577      0.6364E-03 SPRIN         11   0.0%   348.9      0.3125E-04   0.000       298.9       0.000      0.5000E-01   0.000    
    4050   2.577      0.6364E-03 SPRIN         11   0.0%   349.2      0.3125E-04   0.000       299.2       0.000      0.5000E-01   0.000    
    4051   2.578      0.6364E-03 SPRIN         11  -0.0%   349.4      0.3125E-04   0.000       299.4       0.000      0.5000E-01   0.000    
    4052   2.579      0.6364E-03 SPRIN         11   0.0%   349.7      0.3125E-04   0.000       299.7       0.000      0.5000E-01   0.000    
    4053   2.579      0.6364E-03 SPRIN         11   0.0%   349.9      0.3125E-04   0.000       299.9       0.000      0.5000E-01   0.000    
    4054   2.580      0.6364E-03 SPRIN         11  -0.0%   350.2      0.3125E-04   0.000       300.2       0.000      0.5000E-01   0.000    
    4055   2.581      0.6364E-03 SPRIN         11   0.0%   350.4      0.3125E-04   0.000       300.4       0.000      0.5000E-01   0.000    
    4056   2.581      0.6364E-03 SPRIN         11   0.0%   350.7      0.3125E-04   0.000       300.7       0.000      0.5000E-01   0.000    
    4057   2.582      0.6364E-03 SPRIN         11   0.0%   351.0      0.3125E-04   0.000       301.0       0.000      0.5000E-01   0.000    
    4058   2.582      0.6364E-03 SPRIN         11   0.0%   351.2      0.3125E-04   0.000       301.2       0.000      0.5000E-01   0.000    
    4059   2.583      0.6364E-03 SPRIN         11   0.0%   351.5      0.3125E-04   0.000       301.5       0.000      0.5000E-01   0.000    
    4060   2.584      0.6364E-03 SPRIN         11   0.0%   351.7      0.3125E-04   0.000       301.7       0.000      0.5000E-01   0.000    
    4061   2.584      0.6364E-03 SPRIN         11  -0.0%   352.0      0.3125E-04   0.000       302.0       0.000      0.5000E-01   0.000    
    4062   2.585      0.6364E-03 SPRIN         11   0.0%   352.2      0.3125E-04   0.000       302.2       0.000      0.5000E-01   0.000    
    4063   2.586      0.6364E-03 SPRIN         11   0.0%   352.5      0.3125E-04   0.000       302.5       0.000      0.5000E-01   0.000    
    4064   2.586      0.6364E-03 SPRIN         11  -0.0%   352.7      0.3125E-04   0.000       302.7       0.000      0.5000E-01   0.000    
    4065   2.587      0.6364E-03 SPRIN         11   0.0%   353.0      0.3125E-04   0.000       303.0       0.000      0.5000E-01   0.000    
    4066   2.588      0.6364E-03 SPRIN         11  -0.0%   353.2      0.3125E-04   0.000       303.2       0.000      0.5000E-01   0.000    
    4067   2.588      0.6364E-03 SPRIN         11  -0.0%   353.5      0.3125E-04   0.000       303.5       0.000      0.5000E-01   0.000    
    4068   2.589      0.6364E-03 SPRIN         11  -0.0%   353.8      0.3125E-04   0.000       303.8       0.000      0.5000E-01   0.000    
    4069   2.589      0.6364E-03 SPRIN         11  -0.0%   354.0      0.3125E-04   0.000       304.0       0.000      0.5000E-01   0.000    
   CYCLE    TIME      TIME-STEP  ELEMENT          ERROR  I-ENERGY    K-ENERGY T  K-ENERGY R  EXT-WORK     MAS.ERR     TOTAL MASS  MASS ADDED
    4070   2.590      0.6364E-03 SPRIN         11  -0.0%   354.3      0.3125E-04   0.000       304.3       0.000      0.5000E-01   0.000    
    4071   2.591      0.6364E-03 SPRIN         11  -0.0%   354.5      0.3125E-04   0.000       304.5       0.000      0.5000E-01   0.000    
    4072   2.591      0.6364E-03 SPRIN         11   0.0%   354.8      0.3125E-04   0.000       304.8       0.000      0.5000E-01   0.000    
    4073   2.592      0.6364E-03 SPRIN         11   0.0%   355.0      0.3125E-04   0.000       305.0       0.000      0.5000E-01   0.000    
    4074   2.593      0.6364E-03 SPRIN         11   0.0%   355.3      0.3125E-04   0.000       305.3       0.000      0.5000E-01   0.000    
    4075   2.593      0.6364E-03 SPRIN         11   0.0%   355.5      0.3125E-04   0.000       305.5       0.000      0.5000E-01   0.000    
    4076   2.594      0.6364E-03 SPRIN         11   0.0%   355.8      0.3125E-04   0.000       305.8       0.000      0.5000E-01   0.000    
    4077   2.595      0.6364E-03 SPRIN         11   0.0%   356.1      0.3125E-04   0.000       306.1       0.000      0.5000E-01   0.000    
    4078   2.595      0.6364E-03 SPRIN         11   0.0%   356.3      0.3125E-04   0.000       306.3       0.000      0.5000E-01   0.000    
    4079   2.596      0.6364E-03 SPRIN         11  -0.0%   356.6      0.3125E-04   0.000       306.6       0.000      0.5000E-01   0.000    
    4080   2.596      0.6364E-03 SPRIN         11  -0.0%   356.8      0.3125E-04   0.000       306.8       0.000      0.5000E-01   0.000    
    4081   2.597      0.6364E-03 SPRIN         11  -0.0%   357.1      0.3125E-04   0.000       307.1       0.000      0.5000E-01   0.000    
    4082   2.598      0.6364E-03 SPRIN         11  -0.0%   357.3      0.3125E-04   0.000       307.3       0.000      0.5000E-01   0.000    
    4083   2.598      0.6364E-03 SPRIN         11  -0.0%   357.6      0.3125E-04   0.000       307.6       0.000      0.5000E-01   0.000    
    4084   2.599      0.6364E-03 SPRIN         11  -0.0%   357.9      0.3125E-04   0.000       307.9       0.000      0.5000E-01   0.000    
    4085   2.600      0.6364E-03 SPRIN         11   0.0%   358.1      0.3125E-04   0.000       308.1       0.000      0.5000E-01   0.000    
    4086   2.600      0.6364E-03 SPRIN         11  -0.0%   358.4      0.3125E-04   0.000       308.4       0.000      0.5000E-01   0.000    
     ANIMATION FILE: SPR_PRE_2FLAGA014 WRITTEN
    4087   2.601      0.6364E-03 SPRIN         11   0.0%   358.6      0.3125E-04   0.000       308.6       0.000      0.5000E-01   0.000    
    4088   2.602      0.6364E-03 SPRIN         11   0.0%   358.9      0.3125E-04   0.000       308.9       0.000      0.5000E-01   0.000    
    4089   2.602      0.6364E-03 SPRIN         11  -0.0%   359.1      0.3125E-04   0.000       309.1       0.000      0.5000E-01   0.000    
    4090   2.603      0.6364E-03 SPRIN         11   0.0%   359.4      0.3125E-04   0.000       309.4       0.000      0.5000E-01   0.000    
    4091   2.603      0.6364E-03 SPRIN         11   0.0%   359.7      0.3125E-04   0.000       309.7       0.000      0.5000E-01   0.000    
    4092   2.604      0.6364E-03 SPRIN         11   0.0%   359.9      0.3125E-04   0.000       309.9       0.000      0.5000E-01   0.000    
    4093   2.605      0.6364E-03 SPRIN         11   0.0%   360.2      0.3125E-04   0.000       310.2       0.000      0.5000E-01   0.000    
    4094   2.605      0.6364E-03 SPRIN         11   0.0%   360.4      0.3125E-04   0.000       310.4       0.000      0.5000E-01   0.000    
    4095   2.606      0.6364E-03 SPRIN         11   0.0%   360.7      0.3125E-04   0.000       310.7       0.000      0.5000E-01   0.000    
    4096   2.607      0.6364E-03 SPRIN         11  -0.0%   360.9      0.3125E-04   0.000       310.9       0.000      0.5000E-01   0.000    
    4097   2.607      0.6364E-03 SPRIN         11   0.0%   361.2      0.3125E-04   0.000       311.2       0.000      0.5000E-01   0.000    
    4098   2.608      0.6364E-03 SPRIN         11   0.0%   361.5      0.3125E-04   0.000       311.5       0.000      0.5000E-01   0.000    
    4099   2.609      0.6364E-03 SPRIN         11  -0.0%   361.7      0.3125E-04   0.000       311.7       0.000      0.5000E-01   0.000    
    4100   2.609      0.6364E-03 SPRIN         11   0.0%   362.0      0.3125E-04   0.000       312.0       0.000      0.5000E-01   0.000    
    4101   2.610      0.6364E-03 SPRIN         11   0.0%   362.2      0.3125E-04   0.000       312.2       0.000      0.5000E-01   0.000    
    4102   2.610      0.6364E-03 SPRIN         11   0.0%   362.5      0.3125E-04   0.000       312.5       0.000      0.5000E-01   0.000    
    4103   2.611      0.6364E-03 SPRIN         11   0.0%   362.8      0.3125E-04   0.000       312.8       0.000      0.5000E-01   0.000    
    4104   2.612      0.6364E-03 SPRIN         11   0.0%   363.0      0.3125E-04   0.000       313.0       0.000      0.5000E-01   0.000    
    4105   2.612      0.6364E-03 SPRIN         11   0.0%   363.3      0.3125E-04   0.000       313.3       0.000      0.5000E-01   0.000    
    4106   2.613      0.6364E-03 SPRIN         11   0.0%   363.5      0.3125E-04   0.000       313.5       0.000      0.5000E-01   0.000    
    4107   2.614      0.6364E-03 SPRIN         11   0.0%   363.8      0.3125E-04   0.000       313.8       0.000      0.5000E-01   0.000    
    4108   2.614      0.6364E-03 SPRIN         11   0.0%   364.0      0.3125E-04   0.000       314.0       0.000      0.5000E-01   0.000    
    4109   2.615      0.6364E-03 SPRIN         11   0.0%   364.3      0.3125E-04   0.000       314.3       0.000      0.5000E-01   0.000    
    4110   2.616      0.6364E-03 SPRIN         11   0.0%   364.6      0.3125E-04   0.000       314.6       0.000      0.5000E-01   0.000    
    4111   2.616      0.6364E-03 SPRIN         11   0.0%   364.8      0.3125E-04   0.000       314.8       0.000      0.5000E-01   0.000    
    4112   2.617      0.6364E-03 SPRIN         11   0.0%   365.1      0.3125E-04   0.000       315.1       0.000      0.5000E-01   0.000    
    4113   2.617      0.6364E-03 SPRIN         11   0.0%   365.3      0.3125E-04   0.000       315.3       0.000      0.5000E-01   0.000    
    4114   2.618      0.6364E-03 SPRIN         11  -0.0%   365.6      0.3125E-04   0.000       315.6       0.000      0.5000E-01   0.000    
    4115   2.619      0.6364E-03 SPRIN         11  -0.0%   365.9      0.3125E-04   0.000       315.9       0.000      0.5000E-01   0.000    
    4116   2.619      0.6364E-03 SPRIN         11  -0.0%   366.1      0.3125E-04   0.000       316.1       0.000      0.5000E-01   0.000    
    4117   2.620      0.6364E-03 SPRIN         11   0.0%   366.4      0.3125E-04   0.000       316.4       0.000      0.5000E-01   0.000    
    4118   2.621      0.6364E-03 SPRIN         11   0.0%   366.6      0.3125E-04   0.000       316.6       0.000      0.5000E-01   0.000    
    4119   2.621      0.6364E-03 SPRIN         11   0.0%   366.9      0.3125E-04   0.000       316.9       0.000      0.5000E-01   0.000    
    4120   2.622      0.6364E-03 SPRIN         11   0.0%   367.2      0.3125E-04   0.000       317.2       0.000      0.5000E-01   0.000    
    4121   2.623      0.6364E-03 SPRIN         11   0.0%   367.4      0.3125E-04   0.000       317.4       0.000      0.5000E-01   0.000    
    4122   2.623      0.6364E-03 SPRIN         11   0.0%   367.7      0.3125E-04   0.000       317.7       0.000      0.5000E-01   0.000    
    4123   2.624      0.6364E-03 SPRIN         11   0.0%   367.9      0.3125E-04   0.000       317.9       0.000      0.5000E-01   0.000    
    4124   2.624      0.6364E-03 SPRIN         11   0.0%   368.2      0.3125E-04   0.000       318.2       0.000      0.5000E-01   0.000    
   CYCLE    TIME      TIME-STEP  ELEMENT          ERROR  I-ENERGY    K-ENERGY T  K-ENERGY R  EXT-WORK     MAS.ERR     TOTAL MASS  MASS ADDED
    4125   2.625      0.6364E-03 SPRIN         11   0.0%   368.5      0.3125E-04   0.000       318.5       0.000      0.5000E-01   0.000    
    4126   2.626      0.6364E-03 SPRIN         11   0.0%   368.7      0.3125E-04   0.000       318.7       0.000      0.5000E-01   0.000    
    4127   2.626      0.6364E-03 SPRIN         11   0.0%   369.0      0.3125E-04   0.000       319.0       0.000      0.5000E-01   0.000    
    4128   2.627      0.6364E-03 SPRIN         11   0.0%   369.3      0.3125E-04   0.000       319.3       0.000      0.5000E-01   0.000    
    4129   2.628      0.6364E-03 SPRIN         11   0.0%   369.5      0.3125E-04   0.000       319.5       0.000      0.5000E-01   0.000    
    4130   2.628      0.6364E-03 SPRIN         11   0.0%   369.8      0.3125E-04   0.000       319.8       0.000      0.5000E-01   0.000    
    4131   2.629      0.6364E-03 SPRIN         11  -0.0%   370.0      0.3125E-04   0.000       320.0       0.000      0.5000E-01   0.000    
    4132   2.630      0.6364E-03 SPRIN         11   0.0%   370.3      0.3125E-04   0.000       320.3       0.000      0.5000E-01   0.000    
    4133   2.630      0.6364E-03 SPRIN         11   0.0%   370.6      0.3125E-04   0.000       320.6       0.000      0.5000E-01   0.000    
    4134   2.631      0.6364E-03 SPRIN         11  -0.0%   370.8      0.3125E-04   0.000       320.8       0.000      0.5000E-01   0.000    
    4135   2.631      0.6364E-03 SPRIN         11   0.0%   371.1      0.3125E-04   0.000       321.1       0.000      0.5000E-01   0.000    
    4136   2.632      0.6364E-03 SPRIN         11   0.0%   371.3      0.3125E-04   0.000       321.3       0.000      0.5000E-01   0.000    
    4137   2.633      0.6364E-03 SPRIN         11   0.0%   371.6      0.3125E-04   0.000       321.6       0.000      0.5000E-01   0.000    
    4138   2.633      0.6364E-03 SPRIN         11   0.0%   371.9      0.3125E-04   0.000       321.9       0.000      0.5000E-01   0.000    
    4139   2.634      0.6364E-03 SPRIN         11   0.0%   372.1      0.3125E-04   0.000       322.1       0.000      0.5000E-01   0.000    
    4140   2.635      0.6364E-03 SPRIN         11   0.0%   372.4      0.3125E-04   0.000       322.4       0.000      0.5000E-01   0.000    
    4141   2.635      0.6364E-03 SPRIN         11  -0.0%   372.7      0.3125E-04   0.000       322.7       0.000      0.5000E-01   0.000    
    4142   2.636      0.6364E-03 SPRIN         11   0.0%   372.9      0.3125E-04   0.000       322.9       0.000      0.5000E-01   0.000    
    4143   2.637      0.6364E-03 SPRIN         11   0.0%   373.2      0.3125E-04   0.000       323.2       0.000      0.5000E-01   0.000    
    4144   2.637      0.6364E-03 SPRIN         11  -0.0%   373.4      0.3125E-04   0.000       323.4       0.000      0.5000E-01   0.000    
    4145   2.638      0.6364E-03 SPRIN         11   0.0%   373.7      0.3125E-04   0.000       323.7       0.000      0.5000E-01   0.000    
    4146   2.638      0.6364E-03 SPRIN         11  -0.0%   374.0      0.3125E-04   0.000       324.0       0.000      0.5000E-01   0.000    
    4147   2.639      0.6364E-03 SPRIN         11  -0.0%   374.2      0.3125E-04   0.000       324.2       0.000      0.5000E-01   0.000    
    4148   2.640      0.6364E-03 SPRIN         11  -0.0%   374.5      0.3125E-04   0.000       324.5       0.000      0.5000E-01   0.000    
    4149   2.640      0.6364E-03 SPRIN         11  -0.0%   374.8      0.3125E-04   0.000       324.8       0.000      0.5000E-01   0.000    
    4150   2.641      0.6364E-03 SPRIN         11  -0.0%   375.0      0.3125E-04   0.000       325.0       0.000      0.5000E-01   0.000    
    4151   2.642      0.6364E-03 SPRIN         11  -0.0%   375.3      0.3125E-04   0.000       325.3       0.000      0.5000E-01   0.000    
    4152   2.642      0.6364E-03 SPRIN         11   0.0%   375.6      0.3125E-04   0.000       325.6       0.000      0.5000E-01   0.000    
    4153   2.643      0.6364E-03 SPRIN         11   0.0%   375.8      0.3125E-04   0.000       325.8       0.000      0.5000E-01   0.000    
    4154   2.644      0.6364E-03 SPRIN         11   0.0%   376.1      0.3125E-04   0.000       326.1       0.000      0.5000E-01   0.000    
    4155   2.644      0.6364E-03 SPRIN         11   0.0%   376.3      0.3125E-04   0.000       326.3       0.000      0.5000E-01   0.000    
    4156   2.645      0.6364E-03 SPRIN         11   0.0%   376.6      0.3125E-04   0.000       326.6       0.000      0.5000E-01   0.000    
    4157   2.645      0.6364E-03 SPRIN         11   0.0%   376.9      0.3125E-04   0.000       326.9       0.000      0.5000E-01   0.000    
    4158   2.646      0.6364E-03 SPRIN         11   0.0%   377.1      0.3125E-04   0.000       327.1       0.000      0.5000E-01   0.000    
    4159   2.647      0.6364E-03 SPRIN         11  -0.0%   377.4      0.3125E-04   0.000       327.4       0.000      0.5000E-01   0.000    
    4160   2.647      0.6364E-03 SPRIN         11  -0.0%   377.7      0.3125E-04   0.000       327.7       0.000      0.5000E-01   0.000    
    4161   2.648      0.6364E-03 SPRIN         11  -0.0%   377.9      0.3125E-04   0.000       327.9       0.000      0.5000E-01   0.000    
    4162   2.649      0.6364E-03 SPRIN         11  -0.0%   378.2      0.3125E-04   0.000       328.2       0.000      0.5000E-01   0.000    
    4163   2.649      0.6364E-03 SPRIN         11  -0.0%   378.5      0.3125E-04   0.000       328.5       0.000      0.5000E-01   0.000    
    4164   2.650      0.6364E-03 SPRIN         11  -0.0%   378.7      0.3125E-04   0.000       328.7       0.000      0.5000E-01   0.000    
    4165   2.651      0.6364E-03 SPRIN         11   0.0%   379.0      0.3125E-04   0.000       329.0       0.000      0.5000E-01   0.000    
    4166   2.651      0.6364E-03 SPRIN         11  -0.0%   379.3      0.3125E-04   0.000       329.3       0.000      0.5000E-01   0.000    
    4167   2.652      0.6364E-03 SPRIN         11   0.0%   379.5      0.3125E-04   0.000       329.5       0.000      0.5000E-01   0.000    
    4168   2.652      0.6364E-03 SPRIN         11   0.0%   379.8      0.3125E-04   0.000       329.8       0.000      0.5000E-01   0.000    
    4169   2.653      0.6364E-03 SPRIN         11  -0.0%   380.1      0.3125E-04   0.000       330.1       0.000      0.5000E-01   0.000    
    4170   2.654      0.6364E-03 SPRIN         11   0.0%   380.3      0.3125E-04   0.000       330.3       0.000      0.5000E-01   0.000    
    4171   2.654      0.6364E-03 SPRIN         11   0.0%   380.6      0.3125E-04   0.000       330.6       0.000      0.5000E-01   0.000    
    4172   2.655      0.6364E-03 SPRIN         11  -0.0%   380.9      0.3125E-04   0.000       330.9       0.000      0.5000E-01   0.000    
    4173   2.656      0.6364E-03 SPRIN         11   0.0%   381.1      0.3125E-04   0.000       331.1       0.000      0.5000E-01   0.000    
    4174   2.656      0.6364E-03 SPRIN         11  -0.0%   381.4      0.3125E-04   0.000       331.4       0.000      0.5000E-01   0.000    
    4175   2.657      0.6364E-03 SPRIN         11  -0.0%   381.6      0.3125E-04   0.000       331.6       0.000      0.5000E-01   0.000    
    4176   2.658      0.6364E-03 SPRIN         11  -0.0%   381.9      0.3125E-04   0.000       331.9       0.000      0.5000E-01   0.000    
    4177   2.658      0.6364E-03 SPRIN         11  -0.0%   382.2      0.3125E-04   0.000       332.2       0.000      0.5000E-01   0.000    
    4178   2.659      0.6364E-03 SPRIN         11  -0.0%   382.4      0.3125E-04   0.000       332.4       0.000      0.5000E-01   0.000    
    4179   2.659      0.6364E-03 SPRIN         11  -0.0%   382.7      0.3125E-04   0.000       332.7       0.000      0.5000E-01   0.000    
   CYCLE    TIME      TIME-STEP  ELEMENT          ERROR  I-ENERGY    K-ENERGY T  K-ENERGY R  EXT-WORK     MAS.ERR     TOTAL MASS  MASS ADDED
    4180   2.660      0.6364E-03 SPRIN         11   0.0%   383.0      0.3125E-04   0.000       333.0       0.000      0.5000E-01   0.000    
    4181   2.661      0.6364E-03 SPRIN         11  -0.0%   383.2      0.3125E-04   0.000       333.2       0.000      0.5000E-01   0.000    
    4182   2.661      0.6364E-03 SPRIN         11  -0.0%   383.5      0.3125E-04   0.000       333.5       0.000      0.5000E-01   0.000    
    4183   2.662      0.6364E-03 SPRIN         11   0.0%   383.8      0.3125E-04   0.000       333.8       0.000      0.5000E-01   0.000    
    4184   2.663      0.6364E-03 SPRIN         11  -0.0%   384.0      0.3125E-04   0.000       334.0       0.000      0.5000E-01   0.000    
    4185   2.663      0.6364E-03 SPRIN         11   0.0%   384.3      0.3125E-04   0.000       334.3       0.000      0.5000E-01   0.000    
    4186   2.664      0.6364E-03 SPRIN         11   0.0%   384.6      0.3125E-04   0.000       334.6       0.000      0.5000E-01   0.000    
    4187   2.665      0.6364E-03 SPRIN         11   0.0%   384.9      0.3125E-04   0.000       334.9       0.000      0.5000E-01   0.000    
    4188   2.665      0.6364E-03 SPRIN         11   0.0%   385.1      0.3125E-04   0.000       335.1       0.000      0.5000E-01   0.000    
    4189   2.666      0.6364E-03 SPRIN         11   0.0%   385.4      0.3125E-04   0.000       335.4       0.000      0.5000E-01   0.000    
    4190   2.666      0.6364E-03 SPRIN         11   0.0%   385.7      0.3125E-04   0.000       335.7       0.000      0.5000E-01   0.000    
    4191   2.667      0.6364E-03 SPRIN         11   0.0%   385.9      0.3125E-04   0.000       335.9       0.000      0.5000E-01   0.000    
    4192   2.668      0.6364E-03 SPRIN         11   0.0%   386.2      0.3125E-04   0.000       336.2       0.000      0.5000E-01   0.000    
    4193   2.668      0.6364E-03 SPRIN         11   0.0%   386.5      0.3125E-04   0.000       336.5       0.000      0.5000E-01   0.000    
    4194   2.669      0.6364E-03 SPRIN         11  -0.0%   386.7      0.3125E-04   0.000       336.7       0.000      0.5000E-01   0.000    
    4195   2.670      0.6364E-03 SPRIN         11  -0.0%   387.0      0.3125E-04   0.000       337.0       0.000      0.5000E-01   0.000    
    4196   2.670      0.6364E-03 SPRIN         11  -0.0%   387.3      0.3125E-04   0.000       337.3       0.000      0.5000E-01   0.000    
    4197   2.671      0.6364E-03 SPRIN         11  -0.0%   387.5      0.3125E-04   0.000       337.5       0.000      0.5000E-01   0.000    
    4198   2.672      0.6364E-03 SPRIN         11   0.0%   387.8      0.3125E-04   0.000       337.8       0.000      0.5000E-01   0.000    
    4199   2.672      0.6364E-03 SPRIN         11   0.0%   388.1      0.3125E-04   0.000       338.1       0.000      0.5000E-01   0.000    
    4200   2.673      0.6364E-03 SPRIN         11   0.0%   388.3      0.3125E-04   0.000       338.3       0.000      0.5000E-01   0.000    
    4201   2.673      0.6364E-03 SPRIN         11   0.0%   388.6      0.3125E-04   0.000       338.6       0.000      0.5000E-01   0.000    
    4202   2.674      0.6364E-03 SPRIN         11   0.0%   388.9      0.3125E-04   0.000       338.9       0.000      0.5000E-01   0.000    
    4203   2.675      0.6364E-03 SPRIN         11   0.0%   389.1      0.3125E-04   0.000       339.1       0.000      0.5000E-01   0.000    
    4204   2.675      0.6364E-03 SPRIN         11  -0.0%   389.4      0.3125E-04   0.000       339.4       0.000      0.5000E-01   0.000    
    4205   2.676      0.6364E-03 SPRIN         11   0.0%   389.7      0.3125E-04   0.000       339.7       0.000      0.5000E-01   0.000    
    4206   2.677      0.6364E-03 SPRIN         11   0.0%   389.9      0.3125E-04   0.000       339.9       0.000      0.5000E-01   0.000    
    4207   2.677      0.6364E-03 SPRIN         11   0.0%   390.2      0.3125E-04   0.000       340.2       0.000      0.5000E-01   0.000    
    4208   2.678      0.6364E-03 SPRIN         11   0.0%   390.5      0.3125E-04   0.000       340.5       0.000      0.5000E-01   0.000    
    4209   2.679      0.6364E-03 SPRIN         11   0.0%   390.8      0.3125E-04   0.000       340.8       0.000      0.5000E-01   0.000    
    4210   2.679      0.6364E-03 SPRIN         11   0.0%   391.0      0.3125E-04   0.000       341.0       0.000      0.5000E-01   0.000    
    4211   2.680      0.6364E-03 SPRIN         11  -0.0%   391.3      0.3125E-04   0.000       341.3       0.000      0.5000E-01   0.000    
    4212   2.681      0.6364E-03 SPRIN         11   0.0%   391.6      0.3125E-04   0.000       341.6       0.000      0.5000E-01   0.000    
    4213   2.681      0.6364E-03 SPRIN         11   0.0%   391.8      0.3125E-04   0.000       341.8       0.000      0.5000E-01   0.000    
    4214   2.682      0.6364E-03 SPRIN         11  -0.0%   392.1      0.3125E-04   0.000       342.1       0.000      0.5000E-01   0.000    
    4215   2.682      0.6364E-03 SPRIN         11   0.0%   392.4      0.3125E-04   0.000       342.4       0.000      0.5000E-01   0.000    
    4216   2.683      0.6364E-03 SPRIN         11   0.0%   392.6      0.3125E-04   0.000       342.6       0.000      0.5000E-01   0.000    
    4217   2.684      0.6364E-03 SPRIN         11   0.0%   392.9      0.3125E-04   0.000       342.9       0.000      0.5000E-01   0.000    
    4218   2.684      0.6364E-03 SPRIN         11   0.0%   393.2      0.3125E-04   0.000       343.2       0.000      0.5000E-01   0.000    
    4219   2.685      0.6364E-03 SPRIN         11   0.0%   393.5      0.3125E-04   0.000       343.5       0.000      0.5000E-01   0.000    
    4220   2.686      0.6364E-03 SPRIN         11   0.0%   393.7      0.3125E-04   0.000       343.7       0.000      0.5000E-01   0.000    
    4221   2.686      0.6364E-03 SPRIN         11   0.0%   394.0      0.3125E-04   0.000       344.0       0.000      0.5000E-01   0.000    
    4222   2.687      0.6364E-03 SPRIN         11   0.0%   394.3      0.3125E-04   0.000       344.3       0.000      0.5000E-01   0.000    
    4223   2.688      0.6364E-03 SPRIN         11   0.0%   394.5      0.3125E-04   0.000       344.5       0.000      0.5000E-01   0.000    
    4224   2.688      0.6364E-03 SPRIN         11   0.0%   394.8      0.3125E-04   0.000       344.8       0.000      0.5000E-01   0.000    
    4225   2.689      0.6364E-03 SPRIN         11   0.0%   395.1      0.3125E-04   0.000       345.1       0.000      0.5000E-01   0.000    
    4226   2.689      0.6364E-03 SPRIN         11  -0.0%   395.4      0.3125E-04   0.000       345.4       0.000      0.5000E-01   0.000    
    4227   2.690      0.6364E-03 SPRIN         11  -0.0%   395.6      0.3125E-04   0.000       345.6       0.000      0.5000E-01   0.000    
    4228   2.691      0.6364E-03 SPRIN         11  -0.0%   395.9      0.3125E-04   0.000       345.9       0.000      0.5000E-01   0.000    
    4229   2.691      0.6364E-03 SPRIN         11  -0.0%   396.2      0.3125E-04   0.000       346.2       0.000      0.5000E-01   0.000    
    4230   2.692      0.6364E-03 SPRIN         11  -0.0%   396.4      0.3125E-04   0.000       346.4       0.000      0.5000E-01   0.000    
    4231   2.693      0.6364E-03 SPRIN         11  -0.0%   396.7      0.3125E-04   0.000       346.7       0.000      0.5000E-01   0.000    
    4232   2.693      0.6364E-03 SPRIN         11  -0.0%   397.0      0.3125E-04   0.000       347.0       0.000      0.5000E-01   0.000    
    4233   2.694      0.6364E-03 SPRIN         11   0.0%   397.3      0.3125E-04   0.000       347.3       0.000      0.5000E-01   0.000    
    4234   2.695      0.6364E-03 SPRIN         11   0.0%   397.5      0.3125E-04   0.000       347.5       0.000      0.5000E-01   0.000    
   CYCLE    TIME      TIME-STEP  ELEMENT          ERROR  I-ENERGY    K-ENERGY T  K-ENERGY R  EXT-WORK     MAS.ERR     TOTAL MASS  MASS ADDED
    4235   2.695      0.6364E-03 SPRIN         11   0.0%   397.8      0.3125E-04   0.000       347.8       0.000      0.5000E-01   0.000    
    4236   2.696      0.6364E-03 SPRIN         11  -0.0%   398.1      0.3125E-04   0.000       348.1       0.000      0.5000E-01   0.000    
    4237   2.696      0.6364E-03 SPRIN         11   0.0%   398.3      0.3125E-04   0.000       348.3       0.000      0.5000E-01   0.000    
    4238   2.697      0.6364E-03 SPRIN         11   0.0%   398.6      0.3125E-04   0.000       348.6       0.000      0.5000E-01   0.000    
    4239   2.698      0.6364E-03 SPRIN         11  -0.0%   398.9      0.3125E-04   0.000       348.9       0.000      0.5000E-01   0.000    
    4240   2.698      0.6364E-03 SPRIN         11  -0.0%   399.2      0.3125E-04   0.000       349.2       0.000      0.5000E-01   0.000    
    4241   2.699      0.6364E-03 SPRIN         11  -0.0%   399.4      0.3125E-04   0.000       349.4       0.000      0.5000E-01   0.000    
    4242   2.700      0.6364E-03 SPRIN         11  -0.0%   399.7      0.3125E-04   0.000       349.7       0.000      0.5000E-01   0.000    
    4243   2.700      0.6364E-03 SPRIN         11  -0.0%   400.0      0.3125E-04   0.000       350.0       0.000      0.5000E-01   0.000    
    4244   2.701      0.6364E-03 SPRIN         11  -0.0%   400.3      0.3125E-04   0.000       350.3       0.000      0.5000E-01   0.000    
    4245   2.702      0.6364E-03 SPRIN         11  -0.0%   400.5      0.3125E-04   0.000       350.5       0.000      0.5000E-01   0.000    
    4246   2.702      0.6364E-03 SPRIN         11  -0.0%   400.8      0.3125E-04   0.000       350.8       0.000      0.5000E-01   0.000    
    4247   2.703      0.6364E-03 SPRIN         11  -0.0%   401.1      0.3125E-04   0.000       351.1       0.000      0.5000E-01   0.000    
    4248   2.703      0.6364E-03 SPRIN         11  -0.0%   401.3      0.3125E-04   0.000       351.3       0.000      0.5000E-01   0.000    
    4249   2.704      0.6364E-03 SPRIN         11  -0.0%   401.6      0.3125E-04   0.000       351.6       0.000      0.5000E-01   0.000    
    4250   2.705      0.6364E-03 SPRIN         11  -0.0%   401.9      0.3125E-04   0.000       351.9       0.000      0.5000E-01   0.000    
    4251   2.705      0.6364E-03 SPRIN         11  -0.0%   402.2      0.3125E-04   0.000       352.2       0.000      0.5000E-01   0.000    
    4252   2.706      0.6364E-03 SPRIN         11  -0.0%   402.4      0.3125E-04   0.000       352.4       0.000      0.5000E-01   0.000    
    4253   2.707      0.6364E-03 SPRIN         11  -0.0%   402.7      0.3125E-04   0.000       352.7       0.000      0.5000E-01   0.000    
    4254   2.707      0.6364E-03 SPRIN         11  -0.0%   403.0      0.3125E-04   0.000       353.0       0.000      0.5000E-01   0.000    
    4255   2.708      0.6364E-03 SPRIN         11  -0.0%   403.3      0.3125E-04   0.000       353.3       0.000      0.5000E-01   0.000    
    4256   2.709      0.6364E-03 SPRIN         11  -0.0%   403.5      0.3125E-04   0.000       353.5       0.000      0.5000E-01   0.000    
    4257   2.709      0.6364E-03 SPRIN         11  -0.0%   403.8      0.3125E-04   0.000       353.8       0.000      0.5000E-01   0.000    
    4258   2.710      0.6364E-03 SPRIN         11  -0.0%   404.1      0.3125E-04   0.000       354.1       0.000      0.5000E-01   0.000    
    4259   2.710      0.6364E-03 SPRIN         11  -0.0%   404.4      0.3125E-04   0.000       354.4       0.000      0.5000E-01   0.000    
    4260   2.711      0.6364E-03 SPRIN         11  -0.0%   404.6      0.3125E-04   0.000       354.6       0.000      0.5000E-01   0.000    
    4261   2.712      0.6364E-03 SPRIN         11  -0.0%   404.9      0.3125E-04   0.000       354.9       0.000      0.5000E-01   0.000    
    4262   2.712      0.6364E-03 SPRIN         11  -0.0%   405.2      0.3125E-04   0.000       355.2       0.000      0.5000E-01   0.000    
    4263   2.713      0.6364E-03 SPRIN         11  -0.0%   405.5      0.3125E-04   0.000       355.5       0.000      0.5000E-01   0.000    
    4264   2.714      0.6364E-03 SPRIN         11  -0.0%   405.7      0.3125E-04   0.000       355.7       0.000      0.5000E-01   0.000    
    4265   2.714      0.6364E-03 SPRIN         11  -0.0%   406.0      0.3125E-04   0.000       356.0       0.000      0.5000E-01   0.000    
    4266   2.715      0.6364E-03 SPRIN         11  -0.0%   406.3      0.3125E-04   0.000       356.3       0.000      0.5000E-01   0.000    
    4267   2.716      0.6364E-03 SPRIN         11  -0.0%   406.6      0.3125E-04   0.000       356.6       0.000      0.5000E-01   0.000    
    4268   2.716      0.6364E-03 SPRIN         11  -0.0%   406.8      0.3125E-04   0.000       356.8       0.000      0.5000E-01   0.000    
    4269   2.717      0.6364E-03 SPRIN         11  -0.0%   407.1      0.3125E-04   0.000       357.1       0.000      0.5000E-01   0.000    
    4270   2.717      0.6364E-03 SPRIN         11   0.0%   407.4      0.3125E-04   0.000       357.4       0.000      0.5000E-01   0.000    
    4271   2.718      0.6364E-03 SPRIN         11  -0.0%   407.7      0.3125E-04   0.000       357.7       0.000      0.5000E-01   0.000    
    4272   2.719      0.6364E-03 SPRIN         11  -0.0%   407.9      0.3125E-04   0.000       357.9       0.000      0.5000E-01   0.000    
    4273   2.719      0.6364E-03 SPRIN         11  -0.0%   408.2      0.3125E-04   0.000       358.2       0.000      0.5000E-01   0.000    
    4274   2.720      0.6364E-03 SPRIN         11  -0.0%   408.5      0.3125E-04   0.000       358.5       0.000      0.5000E-01   0.000    
    4275   2.721      0.6364E-03 SPRIN         11  -0.0%   408.8      0.3125E-04   0.000       358.8       0.000      0.5000E-01   0.000    
    4276   2.721      0.6364E-03 SPRIN         11  -0.0%   409.0      0.3125E-04   0.000       359.0       0.000      0.5000E-01   0.000    
    4277   2.722      0.6364E-03 SPRIN         11  -0.0%   409.3      0.3125E-04   0.000       359.3       0.000      0.5000E-01   0.000    
    4278   2.723      0.6364E-03 SPRIN         11  -0.0%   409.6      0.3125E-04   0.000       359.6       0.000      0.5000E-01   0.000    
    4279   2.723      0.6364E-03 SPRIN         11  -0.0%   409.9      0.3125E-04   0.000       359.9       0.000      0.5000E-01   0.000    
    4280   2.724      0.6364E-03 SPRIN         11  -0.0%   410.1      0.3125E-04   0.000       360.1       0.000      0.5000E-01   0.000    
    4281   2.724      0.6364E-03 SPRIN         11  -0.0%   410.4      0.3125E-04   0.000       360.4       0.000      0.5000E-01   0.000    
    4282   2.725      0.6364E-03 SPRIN         11  -0.0%   410.7      0.3125E-04   0.000       360.7       0.000      0.5000E-01   0.000    
    4283   2.726      0.6364E-03 SPRIN         11  -0.0%   411.0      0.3125E-04   0.000       361.0       0.000      0.5000E-01   0.000    
    4284   2.726      0.6364E-03 SPRIN         11  -0.0%   411.3      0.3125E-04   0.000       361.3       0.000      0.5000E-01   0.000    
    4285   2.727      0.6364E-03 SPRIN         11  -0.0%   411.5      0.3125E-04   0.000       361.5       0.000      0.5000E-01   0.000    
    4286   2.728      0.6364E-03 SPRIN         11  -0.0%   411.8      0.3125E-04   0.000       361.8       0.000      0.5000E-01   0.000    
    4287   2.728      0.6364E-03 SPRIN         11  -0.0%   412.1      0.3125E-04   0.000       362.1       0.000      0.5000E-01   0.000    
    4288   2.729      0.6364E-03 SPRIN         11  -0.0%   412.4      0.3125E-04   0.000       362.4       0.000      0.5000E-01   0.000    
    4289   2.730      0.6364E-03 SPRIN         11  -0.0%   412.6      0.3125E-04   0.000       362.6       0.000      0.5000E-01   0.000    
   CYCLE    TIME      TIME-STEP  ELEMENT          ERROR  I-ENERGY    K-ENERGY T  K-ENERGY R  EXT-WORK     MAS.ERR     TOTAL MASS  MASS ADDED
    4290   2.730      0.6364E-03 SPRIN         11  -0.0%   412.9      0.3125E-04   0.000       362.9       0.000      0.5000E-01   0.000    
    4291   2.731      0.6364E-03 SPRIN         11  -0.0%   413.2      0.3125E-04   0.000       363.2       0.000      0.5000E-01   0.000    
    4292   2.731      0.6364E-03 SPRIN         11  -0.0%   413.5      0.3125E-04   0.000       363.5       0.000      0.5000E-01   0.000    
    4293   2.732      0.6364E-03 SPRIN         11  -0.0%   413.8      0.3125E-04   0.000       363.8       0.000      0.5000E-01   0.000    
    4294   2.733      0.6364E-03 SPRIN         11  -0.0%   414.0      0.3125E-04   0.000       364.0       0.000      0.5000E-01   0.000    
    4295   2.733      0.6364E-03 SPRIN         11  -0.0%   414.3      0.3125E-04   0.000       364.3       0.000      0.5000E-01   0.000    
    4296   2.734      0.6364E-03 SPRIN         11  -0.0%   414.6      0.3125E-04   0.000       364.6       0.000      0.5000E-01   0.000    
    4297   2.735      0.6364E-03 SPRIN         11  -0.0%   414.9      0.3125E-04   0.000       364.9       0.000      0.5000E-01   0.000    
    4298   2.735      0.6364E-03 SPRIN         11  -0.0%   415.1      0.3125E-04   0.000       365.1       0.000      0.5000E-01   0.000    
    4299   2.736      0.6364E-03 SPRIN         11  -0.0%   415.4      0.3125E-04   0.000       365.4       0.000      0.5000E-01   0.000    
    4300   2.737      0.6364E-03 SPRIN         11  -0.0%   415.7      0.3125E-04   0.000       365.7       0.000      0.5000E-01   0.000    
    4301   2.737      0.6364E-03 SPRIN         11  -0.0%   416.0      0.3125E-04   0.000       366.0       0.000      0.5000E-01   0.000    
    4302   2.738      0.6364E-03 SPRIN         11   0.0%   416.3      0.3125E-04   0.000       366.3       0.000      0.5000E-01   0.000    
    4303   2.738      0.6364E-03 SPRIN         11   0.0%   416.5      0.3125E-04   0.000       366.5       0.000      0.5000E-01   0.000    
    4304   2.739      0.6364E-03 SPRIN         11   0.0%   416.8      0.3125E-04   0.000       366.8       0.000      0.5000E-01   0.000    
    4305   2.740      0.6364E-03 SPRIN         11   0.0%   417.1      0.3125E-04   0.000       367.1       0.000      0.5000E-01   0.000    
    4306   2.740      0.6364E-03 SPRIN         11  -0.0%   417.4      0.3125E-04   0.000       367.4       0.000      0.5000E-01   0.000    
    4307   2.741      0.6364E-03 SPRIN         11  -0.0%   417.7      0.3125E-04   0.000       367.7       0.000      0.5000E-01   0.000    
    4308   2.742      0.6364E-03 SPRIN         11  -0.0%   417.9      0.3125E-04   0.000       367.9       0.000      0.5000E-01   0.000    
    4309   2.742      0.6364E-03 SPRIN         11  -0.0%   418.2      0.3125E-04   0.000       368.2       0.000      0.5000E-01   0.000    
    4310   2.743      0.6364E-03 SPRIN         11  -0.0%   418.5      0.3125E-04   0.000       368.5       0.000      0.5000E-01   0.000    
    4311   2.744      0.6364E-03 SPRIN         11  -0.0%   418.8      0.3125E-04   0.000       368.8       0.000      0.5000E-01   0.000    
    4312   2.744      0.6364E-03 SPRIN         11  -0.0%   419.1      0.3125E-04   0.000       369.1       0.000      0.5000E-01   0.000    
    4313   2.745      0.6364E-03 SPRIN         11   0.0%   419.3      0.3125E-04   0.000       369.3       0.000      0.5000E-01   0.000    
    4314   2.745      0.6364E-03 SPRIN         11   0.0%   419.6      0.3125E-04   0.000       369.6       0.000      0.5000E-01   0.000    
    4315   2.746      0.6364E-03 SPRIN         11   0.0%   419.9      0.3125E-04   0.000       369.9       0.000      0.5000E-01   0.000    
    4316   2.747      0.6364E-03 SPRIN         11   0.0%   420.2      0.3125E-04   0.000       370.2       0.000      0.5000E-01   0.000    
    4317   2.747      0.6364E-03 SPRIN         11   0.0%   420.5      0.3125E-04   0.000       370.5       0.000      0.5000E-01   0.000    
    4318   2.748      0.6364E-03 SPRIN         11   0.0%   420.7      0.3125E-04   0.000       370.7       0.000      0.5000E-01   0.000    
    4319   2.749      0.6364E-03 SPRIN         11  -0.0%   421.0      0.3125E-04   0.000       371.0       0.000      0.5000E-01   0.000    
    4320   2.749      0.6364E-03 SPRIN         11   0.0%   421.3      0.3125E-04   0.000       371.3       0.000      0.5000E-01   0.000    
    4321   2.750      0.6364E-03 SPRIN         11   0.0%   421.6      0.3125E-04   0.000       371.6       0.000      0.5000E-01   0.000    
    4322   2.751      0.6364E-03 SPRIN         11   0.0%   421.9      0.3125E-04   0.000       371.9       0.000      0.5000E-01   0.000    
    4323   2.751      0.6364E-03 SPRIN         11   0.0%   422.1      0.3125E-04   0.000       372.1       0.000      0.5000E-01   0.000    
    4324   2.752      0.6364E-03 SPRIN         11   0.0%   422.4      0.3125E-04   0.000       372.4       0.000      0.5000E-01   0.000    
    4325   2.752      0.6364E-03 SPRIN         11   0.0%   422.7      0.3125E-04   0.000       372.7       0.000      0.5000E-01   0.000    
    4326   2.753      0.6364E-03 SPRIN         11  -0.0%   423.0      0.3125E-04   0.000       373.0       0.000      0.5000E-01   0.000    
    4327   2.754      0.6364E-03 SPRIN         11   0.0%   423.3      0.3125E-04   0.000       373.3       0.000      0.5000E-01   0.000    
    4328   2.754      0.6364E-03 SPRIN         11   0.0%   423.5      0.3125E-04   0.000       373.5       0.000      0.5000E-01   0.000    
    4329   2.755      0.6364E-03 SPRIN         11  -0.0%   423.8      0.3125E-04   0.000       373.8       0.000      0.5000E-01   0.000    
    4330   2.756      0.6364E-03 SPRIN         11   0.0%   424.1      0.3125E-04   0.000       374.1       0.000      0.5000E-01   0.000    
    4331   2.756      0.6364E-03 SPRIN         11   0.0%   424.4      0.3125E-04   0.000       374.4       0.000      0.5000E-01   0.000    
    4332   2.757      0.6364E-03 SPRIN         11   0.0%   424.7      0.3125E-04   0.000       374.7       0.000      0.5000E-01   0.000    
    4333   2.758      0.6364E-03 SPRIN         11   0.0%   425.0      0.3125E-04   0.000       375.0       0.000      0.5000E-01   0.000    
    4334   2.758      0.6364E-03 SPRIN         11   0.0%   425.2      0.3125E-04   0.000       375.2       0.000      0.5000E-01   0.000    
    4335   2.759      0.6364E-03 SPRIN         11   0.0%   425.5      0.3125E-04   0.000       375.5       0.000      0.5000E-01   0.000    
    4336   2.759      0.6364E-03 SPRIN         11   0.0%   425.8      0.3125E-04   0.000       375.8       0.000      0.5000E-01   0.000    
    4337   2.760      0.6364E-03 SPRIN         11   0.0%   426.1      0.3125E-04   0.000       376.1       0.000      0.5000E-01   0.000    
    4338   2.761      0.6364E-03 SPRIN         11   0.0%   426.4      0.3125E-04   0.000       376.4       0.000      0.5000E-01   0.000    
    4339   2.761      0.6364E-03 SPRIN         11   0.0%   426.7      0.3125E-04   0.000       376.7       0.000      0.5000E-01   0.000    
    4340   2.762      0.6364E-03 SPRIN         11   0.0%   426.9      0.3125E-04   0.000       376.9       0.000      0.5000E-01   0.000    
    4341   2.763      0.6364E-03 SPRIN         11  -0.0%   427.2      0.3125E-04   0.000       377.2       0.000      0.5000E-01   0.000    
    4342   2.763      0.6364E-03 SPRIN         11  -0.0%   427.5      0.3125E-04   0.000       377.5       0.000      0.5000E-01   0.000    
    4343   2.764      0.6364E-03 SPRIN         11   0.0%   427.8      0.3125E-04   0.000       377.8       0.000      0.5000E-01   0.000    
    4344   2.765      0.6364E-03 SPRIN         11  -0.0%   428.1      0.3125E-04   0.000       378.1       0.000      0.5000E-01   0.000    
   CYCLE    TIME      TIME-STEP  ELEMENT          ERROR  I-ENERGY    K-ENERGY T  K-ENERGY R  EXT-WORK     MAS.ERR     TOTAL MASS  MASS ADDED
    4345   2.765      0.6364E-03 SPRIN         11   0.0%   428.3      0.3125E-04   0.000       378.3       0.000      0.5000E-01   0.000    
    4346   2.766      0.6364E-03 SPRIN         11   0.0%   428.6      0.3125E-04   0.000       378.6       0.000      0.5000E-01   0.000    
    4347   2.766      0.6364E-03 SPRIN         11   0.0%   428.9      0.3125E-04   0.000       378.9       0.000      0.5000E-01   0.000    
    4348   2.767      0.6364E-03 SPRIN         11   0.0%   429.2      0.3125E-04   0.000       379.2       0.000      0.5000E-01   0.000    
    4349   2.768      0.6364E-03 SPRIN         11   0.0%   429.5      0.3125E-04   0.000       379.5       0.000      0.5000E-01   0.000    
    4350   2.768      0.6364E-03 SPRIN         11   0.0%   429.8      0.3125E-04   0.000       379.8       0.000      0.5000E-01   0.000    
    4351   2.769      0.6364E-03 SPRIN         11   0.0%   430.1      0.3125E-04   0.000       380.1       0.000      0.5000E-01   0.000    
    4352   2.770      0.6364E-03 SPRIN         11   0.0%   430.3      0.3125E-04   0.000       380.3       0.000      0.5000E-01   0.000    
    4353   2.770      0.6364E-03 SPRIN         11   0.0%   430.6      0.3125E-04   0.000       380.6       0.000      0.5000E-01   0.000    
    4354   2.771      0.6364E-03 SPRIN         11   0.0%   430.9      0.3125E-04   0.000       380.9       0.000      0.5000E-01   0.000    
    4355   2.772      0.6364E-03 SPRIN         11   0.0%   431.2      0.3125E-04   0.000       381.2       0.000      0.5000E-01   0.000    
    4356   2.772      0.6364E-03 SPRIN         11   0.0%   431.5      0.3125E-04   0.000       381.5       0.000      0.5000E-01   0.000    
    4357   2.773      0.6364E-03 SPRIN         11   0.0%   431.8      0.3125E-04   0.000       381.8       0.000      0.5000E-01   0.000    
    4358   2.773      0.6364E-03 SPRIN         11   0.0%   432.0      0.3125E-04   0.000       382.0       0.000      0.5000E-01   0.000    
    4359   2.774      0.6364E-03 SPRIN         11   0.0%   432.3      0.3125E-04   0.000       382.3       0.000      0.5000E-01   0.000    
    4360   2.775      0.6364E-03 SPRIN         11   0.0%   432.6      0.3125E-04   0.000       382.6       0.000      0.5000E-01   0.000    
    4361   2.775      0.6364E-03 SPRIN         11  -0.0%   432.9      0.3125E-04   0.000       382.9       0.000      0.5000E-01   0.000    
    4362   2.776      0.6364E-03 SPRIN         11   0.0%   433.2      0.3125E-04   0.000       383.2       0.000      0.5000E-01   0.000    
    4363   2.777      0.6364E-03 SPRIN         11   0.0%   433.5      0.3125E-04   0.000       383.5       0.000      0.5000E-01   0.000    
    4364   2.777      0.6364E-03 SPRIN         11  -0.0%   433.8      0.3125E-04   0.000       383.8       0.000      0.5000E-01   0.000    
    4365   2.778      0.6364E-03 SPRIN         11   0.0%   434.0      0.3125E-04   0.000       384.0       0.000      0.5000E-01   0.000    
    4366   2.779      0.6364E-03 SPRIN         11   0.0%   434.3      0.3125E-04   0.000       384.3       0.000      0.5000E-01   0.000    
    4367   2.779      0.6364E-03 SPRIN         11   0.0%   434.6      0.3125E-04   0.000       384.6       0.000      0.5000E-01   0.000    
    4368   2.780      0.6364E-03 SPRIN         11   0.0%   434.9      0.3125E-04   0.000       384.9       0.000      0.5000E-01   0.000    
    4369   2.780      0.6364E-03 SPRIN         11   0.0%   435.2      0.3125E-04   0.000       385.2       0.000      0.5000E-01   0.000    
    4370   2.781      0.6364E-03 SPRIN         11   0.0%   435.5      0.3125E-04   0.000       385.5       0.000      0.5000E-01   0.000    
    4371   2.782      0.6364E-03 SPRIN         11  -0.0%   435.7      0.3125E-04   0.000       385.7       0.000      0.5000E-01   0.000    
    4372   2.782      0.6364E-03 SPRIN         11   0.0%   436.0      0.3125E-04   0.000       386.0       0.000      0.5000E-01   0.000    
    4373   2.783      0.6364E-03 SPRIN         11   0.0%   436.3      0.3125E-04   0.000       386.3       0.000      0.5000E-01   0.000    
    4374   2.784      0.6364E-03 SPRIN         11  -0.0%   436.6      0.3125E-04   0.000       386.6       0.000      0.5000E-01   0.000    
    4375   2.784      0.6364E-03 SPRIN         11   0.0%   436.9      0.3125E-04   0.000       386.9       0.000      0.5000E-01   0.000    
    4376   2.785      0.6364E-03 SPRIN         11  -0.0%   437.2      0.3125E-04   0.000       387.2       0.000      0.5000E-01   0.000    
    4377   2.786      0.6364E-03 SPRIN         11  -0.0%   437.5      0.3125E-04   0.000       387.5       0.000      0.5000E-01   0.000    
    4378   2.786      0.6364E-03 SPRIN         11  -0.0%   437.8      0.3125E-04   0.000       387.8       0.000      0.5000E-01   0.000    
    4379   2.787      0.6364E-03 SPRIN         11  -0.0%   438.0      0.3125E-04   0.000       388.0       0.000      0.5000E-01   0.000    
    4380   2.787      0.6364E-03 SPRIN         11  -0.0%   438.3      0.3125E-04   0.000       388.3       0.000      0.5000E-01   0.000    
    4381   2.788      0.6364E-03 SPRIN         11  -0.0%   438.6      0.3125E-04   0.000       388.6       0.000      0.5000E-01   0.000    
    4382   2.789      0.6364E-03 SPRIN         11   0.0%   438.9      0.3125E-04   0.000       388.9       0.000      0.5000E-01   0.000    
    4383   2.789      0.6364E-03 SPRIN         11   0.0%   439.2      0.3125E-04   0.000       389.2       0.000      0.5000E-01   0.000    
    4384   2.790      0.6364E-03 SPRIN         11   0.0%   439.5      0.3125E-04   0.000       389.5       0.000      0.5000E-01   0.000    
    4385   2.791      0.6364E-03 SPRIN         11   0.0%   439.8      0.3125E-04   0.000       389.8       0.000      0.5000E-01   0.000    
    4386   2.791      0.6364E-03 SPRIN         11  -0.0%   440.1      0.3125E-04   0.000       390.1       0.000      0.5000E-01   0.000    
    4387   2.792      0.6364E-03 SPRIN         11   0.0%   440.3      0.3125E-04   0.000       390.3       0.000      0.5000E-01   0.000    
    4388   2.793      0.6364E-03 SPRIN         11   0.0%   440.6      0.3125E-04   0.000       390.6       0.000      0.5000E-01   0.000    
    4389   2.793      0.6364E-03 SPRIN         11  -0.0%   440.9      0.3125E-04   0.000       390.9       0.000      0.5000E-01   0.000    
    4390   2.794      0.6364E-03 SPRIN         11  -0.0%   441.2      0.3125E-04   0.000       391.2       0.000      0.5000E-01   0.000    
    4391   2.794      0.6364E-03 SPRIN         11  -0.0%   441.5      0.3125E-04   0.000       391.5       0.000      0.5000E-01   0.000    
    4392   2.795      0.6364E-03 SPRIN         11  -0.0%   441.8      0.3125E-04   0.000       391.8       0.000      0.5000E-01   0.000    
    4393   2.796      0.6364E-03 SPRIN         11  -0.0%   442.1      0.3125E-04   0.000       392.1       0.000      0.5000E-01   0.000    
    4394   2.796      0.6364E-03 SPRIN         11  -0.0%   442.4      0.3125E-04   0.000       392.4       0.000      0.5000E-01   0.000    
    4395   2.797      0.6364E-03 SPRIN         11   0.0%   442.6      0.3125E-04   0.000       392.6       0.000      0.5000E-01   0.000    
    4396   2.798      0.6364E-03 SPRIN         11  -0.0%   442.9      0.3125E-04   0.000       392.9       0.000      0.5000E-01   0.000    
    4397   2.798      0.6364E-03 SPRIN         11   0.0%   443.2      0.3125E-04   0.000       393.2       0.000      0.5000E-01   0.000    
    4398   2.799      0.6364E-03 SPRIN         11   0.0%   443.5      0.3125E-04   0.000       393.5       0.000      0.5000E-01   0.000    
    4399   2.800      0.6364E-03 SPRIN         11  -0.0%   443.8      0.3125E-04   0.000       393.8       0.000      0.5000E-01   0.000    
   CYCLE    TIME      TIME-STEP  ELEMENT          ERROR  I-ENERGY    K-ENERGY T  K-ENERGY R  EXT-WORK     MAS.ERR     TOTAL MASS  MASS ADDED
    4400   2.800      0.6364E-03 SPRIN         11   0.0%   444.1      0.3125E-04   0.000       394.1       0.000      0.5000E-01   0.000    
     ANIMATION FILE: SPR_PRE_2FLAGA015 WRITTEN
    4401   2.801      0.6364E-03 SPRIN         11  -0.0%   444.4      0.3125E-04   0.000       394.4       0.000      0.5000E-01   0.000    
    4402   2.801      0.6364E-03 SPRIN         11  -0.0%   444.7      0.3125E-04   0.000       394.7       0.000      0.5000E-01   0.000    
    4403   2.802      0.6364E-03 SPRIN         11   0.0%   445.0      0.3125E-04   0.000       395.0       0.000      0.5000E-01   0.000    
    4404   2.803      0.6364E-03 SPRIN         11  -0.0%   445.2      0.3125E-04   0.000       395.2       0.000      0.5000E-01   0.000    
    4405   2.803      0.6364E-03 SPRIN         11  -0.0%   445.5      0.3125E-04   0.000       395.5       0.000      0.5000E-01   0.000    
    4406   2.804      0.6364E-03 SPRIN         11  -0.0%   445.8      0.3125E-04   0.000       395.8       0.000      0.5000E-01   0.000    
    4407   2.805      0.6364E-03 SPRIN         11  -0.0%   446.1      0.3125E-04   0.000       396.1       0.000      0.5000E-01   0.000    
    4408   2.805      0.6364E-03 SPRIN         11  -0.0%   446.4      0.3125E-04   0.000       396.4       0.000      0.5000E-01   0.000    
    4409   2.806      0.6364E-03 SPRIN         11  -0.0%   446.7      0.3125E-04   0.000       396.7       0.000      0.5000E-01   0.000    
    4410   2.807      0.6364E-03 SPRIN         11   0.0%   447.0      0.3125E-04   0.000       397.0       0.000      0.5000E-01   0.000    
    4411   2.807      0.6364E-03 SPRIN         11  -0.0%   447.3      0.3125E-04   0.000       397.3       0.000      0.5000E-01   0.000    
    4412   2.808      0.6364E-03 SPRIN         11  -0.0%   447.6      0.3125E-04   0.000       397.6       0.000      0.5000E-01   0.000    
    4413   2.808      0.6364E-03 SPRIN         11   0.0%   447.8      0.3125E-04   0.000       397.8       0.000      0.5000E-01   0.000    
    4414   2.809      0.6364E-03 SPRIN         11  -0.0%   448.1      0.3125E-04   0.000       398.1       0.000      0.5000E-01   0.000    
    4415   2.810      0.6364E-03 SPRIN         11   0.0%   448.4      0.3125E-04   0.000       398.4       0.000      0.5000E-01   0.000    
    4416   2.810      0.6364E-03 SPRIN         11  -0.0%   448.7      0.3125E-04   0.000       398.7       0.000      0.5000E-01   0.000    
    4417   2.811      0.6364E-03 SPRIN         11   0.0%   449.0      0.3125E-04   0.000       399.0       0.000      0.5000E-01   0.000    
    4418   2.812      0.6364E-03 SPRIN         11   0.0%   449.3      0.3125E-04   0.000       399.3       0.000      0.5000E-01   0.000    
    4419   2.812      0.6364E-03 SPRIN         11   0.0%   449.6      0.3125E-04   0.000       399.6       0.000      0.5000E-01   0.000    
    4420   2.813      0.6364E-03 SPRIN         11   0.0%   449.9      0.3125E-04   0.000       399.9       0.000      0.5000E-01   0.000    
    4421   2.814      0.6364E-03 SPRIN         11  -0.0%   450.2      0.3125E-04   0.000       400.2       0.000      0.5000E-01   0.000    
    4422   2.814      0.6364E-03 SPRIN         11  -0.0%   450.5      0.3125E-04   0.000       400.5       0.000      0.5000E-01   0.000    
    4423   2.815      0.6364E-03 SPRIN         11  -0.0%   450.8      0.3125E-04   0.000       400.8       0.000      0.5000E-01   0.000    
    4424   2.815      0.6364E-03 SPRIN         11  -0.0%   451.0      0.3125E-04   0.000       401.0       0.000      0.5000E-01   0.000    
    4425   2.816      0.6364E-03 SPRIN         11  -0.0%   451.3      0.3125E-04   0.000       401.3       0.000      0.5000E-01   0.000    
    4426   2.817      0.6364E-03 SPRIN         11  -0.0%   451.6      0.3125E-04   0.000       401.6       0.000      0.5000E-01   0.000    
    4427   2.817      0.6364E-03 SPRIN         11  -0.0%   451.9      0.3125E-04   0.000       401.9       0.000      0.5000E-01   0.000    
    4428   2.818      0.6364E-03 SPRIN         11   0.0%   452.2      0.3125E-04   0.000       402.2       0.000      0.5000E-01   0.000    
    4429   2.819      0.6364E-03 SPRIN         11   0.0%   452.5      0.3125E-04   0.000       402.5       0.000      0.5000E-01   0.000    
    4430   2.819      0.6364E-03 SPRIN         11   0.0%   452.8      0.3125E-04   0.000       402.8       0.000      0.5000E-01   0.000    
    4431   2.820      0.6364E-03 SPRIN         11  -0.0%   453.1      0.3125E-04   0.000       403.1       0.000      0.5000E-01   0.000    
    4432   2.821      0.6364E-03 SPRIN         11   0.0%   453.4      0.3125E-04   0.000       403.4       0.000      0.5000E-01   0.000    
    4433   2.821      0.6364E-03 SPRIN         11   0.0%   453.7      0.3125E-04   0.000       403.7       0.000      0.5000E-01   0.000    
    4434   2.822      0.6364E-03 SPRIN         11  -0.0%   454.0      0.3125E-04   0.000       404.0       0.000      0.5000E-01   0.000    
    4435   2.822      0.6364E-03 SPRIN         11   0.0%   454.3      0.3125E-04   0.000       404.3       0.000      0.5000E-01   0.000    
    4436   2.823      0.6364E-03 SPRIN         11  -0.0%   454.6      0.3125E-04   0.000       404.6       0.000      0.5000E-01   0.000    
    4437   2.824      0.6364E-03 SPRIN         11  -0.0%   454.8      0.3125E-04   0.000       404.8       0.000      0.5000E-01   0.000    
    4438   2.824      0.6364E-03 SPRIN         11   0.0%   455.1      0.3125E-04   0.000       405.1       0.000      0.5000E-01   0.000    
    4439   2.825      0.6364E-03 SPRIN         11  -0.0%   455.4      0.3125E-04   0.000       405.4       0.000      0.5000E-01   0.000    
    4440   2.826      0.6364E-03 SPRIN         11  -0.0%   455.7      0.3125E-04   0.000       405.7       0.000      0.5000E-01   0.000    
    4441   2.826      0.6364E-03 SPRIN         11  -0.0%   456.0      0.3125E-04   0.000       406.0       0.000      0.5000E-01   0.000    
    4442   2.827      0.6364E-03 SPRIN         11  -0.0%   456.3      0.3125E-04   0.000       406.3       0.000      0.5000E-01   0.000    
    4443   2.828      0.6364E-03 SPRIN         11  -0.0%   456.6      0.3125E-04   0.000       406.6       0.000      0.5000E-01   0.000    
    4444   2.828      0.6364E-03 SPRIN         11  -0.0%   456.9      0.3125E-04   0.000       406.9       0.000      0.5000E-01   0.000    
    4445   2.829      0.6364E-03 SPRIN         11   0.0%   457.2      0.3125E-04   0.000       407.2       0.000      0.5000E-01   0.000    
    4446   2.829      0.6364E-03 SPRIN         11  -0.0%   457.5      0.3125E-04   0.000       407.5       0.000      0.5000E-01   0.000    
    4447   2.830      0.6364E-03 SPRIN         11  -0.0%   457.8      0.3125E-04   0.000       407.8       0.000      0.5000E-01   0.000    
    4448   2.831      0.6364E-03 SPRIN         11   0.0%   458.1      0.3125E-04   0.000       408.1       0.000      0.5000E-01   0.000    
    4449   2.831      0.6364E-03 SPRIN         11  -0.0%   458.4      0.3125E-04   0.000       408.4       0.000      0.5000E-01   0.000    
    4450   2.832      0.6364E-03 SPRIN         11   0.0%   458.7      0.3125E-04   0.000       408.7       0.000      0.5000E-01   0.000    
    4451   2.833      0.6364E-03 SPRIN         11  -0.0%   458.9      0.3125E-04   0.000       408.9       0.000      0.5000E-01   0.000    
    4452   2.833      0.6364E-03 SPRIN         11   0.0%   459.2      0.3125E-04   0.000       409.2       0.000      0.5000E-01   0.000    
    4453   2.834      0.6364E-03 SPRIN         11   0.0%   459.5      0.3125E-04   0.000       409.5       0.000      0.5000E-01   0.000    
    4454   2.835      0.6364E-03 SPRIN         11  -0.0%   459.8      0.3125E-04   0.000       409.8       0.000      0.5000E-01   0.000    
   CYCLE    TIME      TIME-STEP  ELEMENT          ERROR  I-ENERGY    K-ENERGY T  K-ENERGY R  EXT-WORK     MAS.ERR     TOTAL MASS  MASS ADDED
    4455   2.835      0.6364E-03 SPRIN         11   0.0%   460.1      0.3125E-04   0.000       410.1       0.000      0.5000E-01   0.000    
    4456   2.836      0.6364E-03 SPRIN         11  -0.0%   460.4      0.3125E-04   0.000       410.4       0.000      0.5000E-01   0.000    
    4457   2.836      0.6364E-03 SPRIN         11  -0.0%   460.7      0.3125E-04   0.000       410.7       0.000      0.5000E-01   0.000    
    4458   2.837      0.6364E-03 SPRIN         11  -0.0%   461.0      0.3125E-04   0.000       411.0       0.000      0.5000E-01   0.000    
    4459   2.838      0.6364E-03 SPRIN         11  -0.0%   461.3      0.3125E-04   0.000       411.3       0.000      0.5000E-01   0.000    
    4460   2.838      0.6364E-03 SPRIN         11  -0.0%   461.6      0.3125E-04   0.000       411.6       0.000      0.5000E-01   0.000    
    4461   2.839      0.6364E-03 SPRIN         11  -0.0%   461.9      0.3125E-04   0.000       411.9       0.000      0.5000E-01   0.000    
    4462   2.840      0.6364E-03 SPRIN         11   0.0%   462.2      0.3125E-04   0.000       412.2       0.000      0.5000E-01   0.000    
    4463   2.840      0.6364E-03 SPRIN         11   0.0%   462.5      0.3125E-04   0.000       412.5       0.000      0.5000E-01   0.000    
    4464   2.841      0.6364E-03 SPRIN         11   0.0%   462.8      0.3125E-04   0.000       412.8       0.000      0.5000E-01   0.000    
    4465   2.842      0.6364E-03 SPRIN         11   0.0%   463.1      0.3125E-04   0.000       413.1       0.000      0.5000E-01   0.000    
    4466   2.842      0.6364E-03 SPRIN         11  -0.0%   463.4      0.3125E-04   0.000       413.4       0.000      0.5000E-01   0.000    
    4467   2.843      0.6364E-03 SPRIN         11   0.0%   463.7      0.3125E-04   0.000       413.7       0.000      0.5000E-01   0.000    
    4468   2.843      0.6364E-03 SPRIN         11   0.0%   464.0      0.3125E-04   0.000       414.0       0.000      0.5000E-01   0.000    
    4469   2.844      0.6364E-03 SPRIN         11  -0.0%   464.3      0.3125E-04   0.000       414.3       0.000      0.5000E-01   0.000    
    4470   2.845      0.6364E-03 SPRIN         11  -0.0%   464.6      0.3125E-04   0.000       414.6       0.000      0.5000E-01   0.000    
    4471   2.845      0.6364E-03 SPRIN         11  -0.0%   464.9      0.3125E-04   0.000       414.9       0.000      0.5000E-01   0.000    
    4472   2.846      0.6364E-03 SPRIN         11  -0.0%   465.1      0.3125E-04   0.000       415.1       0.000      0.5000E-01   0.000    
    4473   2.847      0.6364E-03 SPRIN         11  -0.0%   465.4      0.3125E-04   0.000       415.4       0.000      0.5000E-01   0.000    
    4474   2.847      0.6364E-03 SPRIN         11  -0.0%   465.7      0.3125E-04   0.000       415.7       0.000      0.5000E-01   0.000    
    4475   2.848      0.6364E-03 SPRIN         11   0.0%   466.0      0.3125E-04   0.000       416.0       0.000      0.5000E-01   0.000    
    4476   2.849      0.6364E-03 SPRIN         11  -0.0%   466.3      0.3125E-04   0.000       416.3       0.000      0.5000E-01   0.000    
    4477   2.849      0.6364E-03 SPRIN         11   0.0%   466.6      0.3125E-04   0.000       416.6       0.000      0.5000E-01   0.000    
    4478   2.850      0.6364E-03 SPRIN         11   0.0%   466.9      0.3125E-04   0.000       416.9       0.000      0.5000E-01   0.000    
    4479   2.850      0.6364E-03 SPRIN         11  -0.0%   467.2      0.3125E-04   0.000       417.2       0.000      0.5000E-01   0.000    
    4480   2.851      0.6364E-03 SPRIN         11   0.0%   467.5      0.3125E-04   0.000       417.5       0.000      0.5000E-01   0.000    
    4481   2.852      0.6364E-03 SPRIN         11  -0.0%   467.8      0.3125E-04   0.000       417.8       0.000      0.5000E-01   0.000    
    4482   2.852      0.6364E-03 SPRIN         11  -0.0%   468.1      0.3125E-04   0.000       418.1       0.000      0.5000E-01   0.000    
    4483   2.853      0.6364E-03 SPRIN         11   0.0%   468.4      0.3125E-04   0.000       418.4       0.000      0.5000E-01   0.000    
    4484   2.854      0.6364E-03 SPRIN         11  -0.0%   468.7      0.3125E-04   0.000       418.7       0.000      0.5000E-01   0.000    
    4485   2.854      0.6364E-03 SPRIN         11   0.0%   469.0      0.3125E-04   0.000       419.0       0.000      0.5000E-01   0.000    
    4486   2.855      0.6364E-03 SPRIN         11  -0.0%   469.3      0.3125E-04   0.000       419.3       0.000      0.5000E-01   0.000    
    4487   2.856      0.6364E-03 SPRIN         11   0.0%   469.6      0.3125E-04   0.000       419.6       0.000      0.5000E-01   0.000    
    4488   2.856      0.6364E-03 SPRIN         11   0.0%   469.9      0.3125E-04   0.000       419.9       0.000      0.5000E-01   0.000    
    4489   2.857      0.6364E-03 SPRIN         11  -0.0%   470.2      0.3125E-04   0.000       420.2       0.000      0.5000E-01   0.000    
    4490   2.857      0.6364E-03 SPRIN         11   0.0%   470.5      0.3125E-04   0.000       420.5       0.000      0.5000E-01   0.000    
    4491   2.858      0.6364E-03 SPRIN         11   0.0%   470.8      0.3125E-04   0.000       420.8       0.000      0.5000E-01   0.000    
    4492   2.859      0.6364E-03 SPRIN         11   0.0%   471.1      0.3125E-04   0.000       421.1       0.000      0.5000E-01   0.000    
    4493   2.859      0.6364E-03 SPRIN         11   0.0%   471.4      0.3125E-04   0.000       421.4       0.000      0.5000E-01   0.000    
    4494   2.860      0.6364E-03 SPRIN         11   0.0%   471.7      0.3125E-04   0.000       421.7       0.000      0.5000E-01   0.000    
    4495   2.861      0.6364E-03 SPRIN         11   0.0%   472.0      0.3125E-04   0.000       422.0       0.000      0.5000E-01   0.000    
    4496   2.861      0.6364E-03 SPRIN         11   0.0%   472.3      0.3125E-04   0.000       422.3       0.000      0.5000E-01   0.000    
    4497   2.862      0.6364E-03 SPRIN         11   0.0%   472.6      0.3125E-04   0.000       422.6       0.000      0.5000E-01   0.000    
    4498   2.863      0.6364E-03 SPRIN         11   0.0%   472.9      0.3125E-04   0.000       422.9       0.000      0.5000E-01   0.000    
    4499   2.863      0.6364E-03 SPRIN         11   0.0%   473.2      0.3125E-04   0.000       423.2       0.000      0.5000E-01   0.000    
    4500   2.864      0.6364E-03 SPRIN         11   0.0%   473.5      0.3125E-04   0.000       423.5       0.000      0.5000E-01   0.000    
    4501   2.864      0.6364E-03 SPRIN         11   0.0%   473.8      0.3125E-04   0.000       423.8       0.000      0.5000E-01   0.000    
    4502   2.865      0.6364E-03 SPRIN         11   0.0%   474.1      0.3125E-04   0.000       424.1       0.000      0.5000E-01   0.000    
    4503   2.866      0.6364E-03 SPRIN         11   0.0%   474.4      0.3125E-04   0.000       424.4       0.000      0.5000E-01   0.000    
    4504   2.866      0.6364E-03 SPRIN         11  -0.0%   474.7      0.3125E-04   0.000       424.7       0.000      0.5000E-01   0.000    
    4505   2.867      0.6364E-03 SPRIN         11   0.0%   475.0      0.3125E-04   0.000       425.0       0.000      0.5000E-01   0.000    
    4506   2.868      0.6364E-03 SPRIN         11  -0.0%   475.3      0.3125E-04   0.000       425.3       0.000      0.5000E-01   0.000    
    4507   2.868      0.6364E-03 SPRIN         11  -0.0%   475.6      0.3125E-04   0.000       425.6       0.000      0.5000E-01   0.000    
    4508   2.869      0.6364E-03 SPRIN         11   0.0%   475.9      0.3125E-04   0.000       425.9       0.000      0.5000E-01   0.000    
    4509   2.870      0.6364E-03 SPRIN         11   0.0%   476.2      0.3125E-04   0.000       426.2       0.000      0.5000E-01   0.000    
   CYCLE    TIME      TIME-STEP  ELEMENT          ERROR  I-ENERGY    K-ENERGY T  K-ENERGY R  EXT-WORK     MAS.ERR     TOTAL MASS  MASS ADDED
    4510   2.870      0.6364E-03 SPRIN         11   0.0%   476.5      0.3125E-04   0.000       426.5       0.000      0.5000E-01   0.000    
    4511   2.871      0.6364E-03 SPRIN         11  -0.0%   476.8      0.3125E-04   0.000       426.8       0.000      0.5000E-01   0.000    
    4512   2.871      0.6364E-03 SPRIN         11   0.0%   477.1      0.3125E-04   0.000       427.1       0.000      0.5000E-01   0.000    
    4513   2.872      0.6364E-03 SPRIN         11   0.0%   477.4      0.3125E-04   0.000       427.4       0.000      0.5000E-01   0.000    
    4514   2.873      0.6364E-03 SPRIN         11  -0.0%   477.7      0.3125E-04   0.000       427.7       0.000      0.5000E-01   0.000    
    4515   2.873      0.6364E-03 SPRIN         11   0.0%   478.0      0.3125E-04   0.000       428.0       0.000      0.5000E-01   0.000    
    4516   2.874      0.6364E-03 SPRIN         11  -0.0%   478.3      0.3125E-04   0.000       428.3       0.000      0.5000E-01   0.000    
    4517   2.875      0.6364E-03 SPRIN         11  -0.0%   478.6      0.3125E-04   0.000       428.6       0.000      0.5000E-01   0.000    
    4518   2.875      0.6364E-03 SPRIN         11   0.0%   478.9      0.3125E-04   0.000       428.9       0.000      0.5000E-01   0.000    
    4519   2.876      0.6364E-03 SPRIN         11  -0.0%   479.2      0.3125E-04   0.000       429.2       0.000      0.5000E-01   0.000    
    4520   2.877      0.6364E-03 SPRIN         11  -0.0%   479.5      0.3125E-04   0.000       429.5       0.000      0.5000E-01   0.000    
    4521   2.877      0.6364E-03 SPRIN         11  -0.0%   479.8      0.3125E-04   0.000       429.8       0.000      0.5000E-01   0.000    
    4522   2.878      0.6364E-03 SPRIN         11  -0.0%   480.1      0.3125E-04   0.000       430.1       0.000      0.5000E-01   0.000    
    4523   2.878      0.6364E-03 SPRIN         11  -0.0%   480.4      0.3125E-04   0.000       430.4       0.000      0.5000E-01   0.000    
    4524   2.879      0.6364E-03 SPRIN         11  -0.0%   480.7      0.3125E-04   0.000       430.7       0.000      0.5000E-01   0.000    
    4525   2.880      0.6364E-03 SPRIN         11   0.0%   481.0      0.3125E-04   0.000       431.0       0.000      0.5000E-01   0.000    
    4526   2.880      0.6364E-03 SPRIN         11  -0.0%   481.3      0.3125E-04   0.000       431.3       0.000      0.5000E-01   0.000    
    4527   2.881      0.6364E-03 SPRIN         11  -0.0%   481.6      0.3125E-04   0.000       431.6       0.000      0.5000E-01   0.000    
    4528   2.882      0.6364E-03 SPRIN         11   0.0%   481.9      0.3125E-04   0.000       431.9       0.000      0.5000E-01   0.000    
    4529   2.882      0.6364E-03 SPRIN         11  -0.0%   482.2      0.3125E-04   0.000       432.2       0.000      0.5000E-01   0.000    
    4530   2.883      0.6364E-03 SPRIN         11   0.0%   482.5      0.3125E-04   0.000       432.5       0.000      0.5000E-01   0.000    
    4531   2.884      0.6364E-03 SPRIN         11  -0.0%   482.8      0.3125E-04   0.000       432.8       0.000      0.5000E-01   0.000    
    4532   2.884      0.6364E-03 SPRIN         11   0.0%   483.1      0.3125E-04   0.000       433.1       0.000      0.5000E-01   0.000    
    4533   2.885      0.6364E-03 SPRIN         11   0.0%   483.4      0.3125E-04   0.000       433.4       0.000      0.5000E-01   0.000    
    4534   2.885      0.6364E-03 SPRIN         11   0.0%   483.7      0.3125E-04   0.000       433.7       0.000      0.5000E-01   0.000    
    4535   2.886      0.6364E-03 SPRIN         11   0.0%   484.0      0.3125E-04   0.000       434.0       0.000      0.5000E-01   0.000    
    4536   2.887      0.6364E-03 SPRIN         11  -0.0%   484.3      0.3125E-04   0.000       434.3       0.000      0.5000E-01   0.000    
    4537   2.887      0.6364E-03 SPRIN         11  -0.0%   484.6      0.3125E-04   0.000       434.6       0.000      0.5000E-01   0.000    
    4538   2.888      0.6364E-03 SPRIN         11  -0.0%   484.9      0.3125E-04   0.000       434.9       0.000      0.5000E-01   0.000    
    4539   2.889      0.6364E-03 SPRIN         11  -0.0%   485.2      0.3125E-04   0.000       435.2       0.000      0.5000E-01   0.000    
    4540   2.889      0.6364E-03 SPRIN         11  -0.0%   485.5      0.3125E-04   0.000       435.5       0.000      0.5000E-01   0.000    
    4541   2.890      0.6364E-03 SPRIN         11  -0.0%   485.8      0.3125E-04   0.000       435.8       0.000      0.5000E-01   0.000    
    4542   2.891      0.6364E-03 SPRIN         11  -0.0%   486.1      0.3125E-04   0.000       436.1       0.000      0.5000E-01   0.000    
    4543   2.891      0.6364E-03 SPRIN         11   0.0%   486.4      0.3125E-04   0.000       436.4       0.000      0.5000E-01   0.000    
    4544   2.892      0.6364E-03 SPRIN         11  -0.0%   486.7      0.3125E-04   0.000       436.7       0.000      0.5000E-01   0.000    
    4545   2.892      0.6364E-03 SPRIN         11   0.0%   487.0      0.3125E-04   0.000       437.0       0.000      0.5000E-01   0.000    
    4546   2.893      0.6364E-03 SPRIN         11  -0.0%   487.3      0.3125E-04   0.000       437.3       0.000      0.5000E-01   0.000    
    4547   2.894      0.6364E-03 SPRIN         11  -0.0%   487.6      0.3125E-04   0.000       437.6       0.000      0.5000E-01   0.000    
    4548   2.894      0.6364E-03 SPRIN         11  -0.0%   487.9      0.3125E-04   0.000       437.9       0.000      0.5000E-01   0.000    
    4549   2.895      0.6364E-03 SPRIN         11  -0.0%   488.3      0.3125E-04   0.000       438.3       0.000      0.5000E-01   0.000    
    4550   2.896      0.6364E-03 SPRIN         11  -0.0%   488.6      0.3125E-04   0.000       438.6       0.000      0.5000E-01   0.000    
    4551   2.896      0.6364E-03 SPRIN         11  -0.0%   488.9      0.3125E-04   0.000       438.9       0.000      0.5000E-01   0.000    
    4552   2.897      0.6364E-03 SPRIN         11  -0.0%   489.2      0.3125E-04   0.000       439.2       0.000      0.5000E-01   0.000    
    4553   2.898      0.6364E-03 SPRIN         11  -0.0%   489.5      0.3125E-04   0.000       439.5       0.000      0.5000E-01   0.000    
    4554   2.898      0.6364E-03 SPRIN         11  -0.0%   489.8      0.3125E-04   0.000       439.8       0.000      0.5000E-01   0.000    
    4555   2.899      0.6364E-03 SPRIN         11  -0.0%   490.1      0.3125E-04   0.000       440.1       0.000      0.5000E-01   0.000    
    4556   2.899      0.6364E-03 SPRIN         11  -0.0%   490.4      0.3125E-04   0.000       440.4       0.000      0.5000E-01   0.000    
    4557   2.900      0.6364E-03 SPRIN         11  -0.0%   490.7      0.3125E-04   0.000       440.7       0.000      0.5000E-01   0.000    
    4558   2.901      0.6364E-03 SPRIN         11  -0.0%   491.0      0.3125E-04   0.000       441.0       0.000      0.5000E-01   0.000    
    4559   2.901      0.6364E-03 SPRIN         11  -0.0%   491.3      0.3125E-04   0.000       441.3       0.000      0.5000E-01   0.000    
    4560   2.902      0.6364E-03 SPRIN         11  -0.0%   491.6      0.3125E-04   0.000       441.6       0.000      0.5000E-01   0.000    
    4561   2.903      0.6364E-03 SPRIN         11  -0.0%   491.9      0.3125E-04   0.000       441.9       0.000      0.5000E-01   0.000    
    4562   2.903      0.6364E-03 SPRIN         11  -0.0%   492.2      0.3125E-04   0.000       442.2       0.000      0.5000E-01   0.000    
    4563   2.904      0.6364E-03 SPRIN         11  -0.0%   492.5      0.3125E-04   0.000       442.5       0.000      0.5000E-01   0.000    
    4564   2.905      0.6364E-03 SPRIN         11  -0.0%   492.8      0.3125E-04   0.000       442.8       0.000      0.5000E-01   0.000    
   CYCLE    TIME      TIME-STEP  ELEMENT          ERROR  I-ENERGY    K-ENERGY T  K-ENERGY R  EXT-WORK     MAS.ERR     TOTAL MASS  MASS ADDED
    4565   2.905      0.6364E-03 SPRIN         11  -0.0%   493.1      0.3125E-04   0.000       443.1       0.000      0.5000E-01   0.000    
    4566   2.906      0.6364E-03 SPRIN         11  -0.0%   493.4      0.3125E-04   0.000       443.4       0.000      0.5000E-01   0.000    
    4567   2.906      0.6364E-03 SPRIN         11  -0.0%   493.7      0.3125E-04   0.000       443.7       0.000      0.5000E-01   0.000    
    4568   2.907      0.6364E-03 SPRIN         11  -0.0%   494.0      0.3125E-04   0.000       444.0       0.000      0.5000E-01   0.000    
    4569   2.908      0.6364E-03 SPRIN         11  -0.0%   494.4      0.3125E-04   0.000       444.4       0.000      0.5000E-01   0.000    
    4570   2.908      0.6364E-03 SPRIN         11  -0.0%   494.7      0.3125E-04   0.000       444.7       0.000      0.5000E-01   0.000    
    4571   2.909      0.6364E-03 SPRIN         11  -0.0%   495.0      0.3125E-04   0.000       445.0       0.000      0.5000E-01   0.000    
    4572   2.910      0.6364E-03 SPRIN         11  -0.0%   495.3      0.3125E-04   0.000       445.3       0.000      0.5000E-01   0.000    
    4573   2.910      0.6364E-03 SPRIN         11  -0.0%   495.6      0.3125E-04   0.000       445.6       0.000      0.5000E-01   0.000    
    4574   2.911      0.6364E-03 SPRIN         11  -0.0%   495.9      0.3125E-04   0.000       445.9       0.000      0.5000E-01   0.000    
    4575   2.912      0.6364E-03 SPRIN         11  -0.0%   496.2      0.3125E-04   0.000       446.2       0.000      0.5000E-01   0.000    
    4576   2.912      0.6364E-03 SPRIN         11  -0.0%   496.5      0.3125E-04   0.000       446.5       0.000      0.5000E-01   0.000    
    4577   2.913      0.6364E-03 SPRIN         11  -0.0%   496.8      0.3125E-04   0.000       446.8       0.000      0.5000E-01   0.000    
    4578   2.913      0.6364E-03 SPRIN         11   0.0%   497.1      0.3125E-04   0.000       447.1       0.000      0.5000E-01   0.000    
    4579   2.914      0.6364E-03 SPRIN         11  -0.0%   497.4      0.3125E-04   0.000       447.4       0.000      0.5000E-01   0.000    
    4580   2.915      0.6364E-03 SPRIN         11   0.0%   497.7      0.3125E-04   0.000       447.7       0.000      0.5000E-01   0.000    
    4581   2.915      0.6364E-03 SPRIN         11  -0.0%   498.0      0.3125E-04   0.000       448.0       0.000      0.5000E-01   0.000    
    4582   2.916      0.6364E-03 SPRIN         11  -0.0%   498.3      0.3125E-04   0.000       448.3       0.000      0.5000E-01   0.000    
    4583   2.917      0.6364E-03 SPRIN         11  -0.0%   498.6      0.3125E-04   0.000       448.6       0.000      0.5000E-01   0.000    
    4584   2.917      0.6364E-03 SPRIN         11  -0.0%   499.0      0.3125E-04   0.000       449.0       0.000      0.5000E-01   0.000    
    4585   2.918      0.6364E-03 SPRIN         11  -0.0%   499.3      0.3125E-04   0.000       449.3       0.000      0.5000E-01   0.000    
    4586   2.919      0.6364E-03 SPRIN         11  -0.0%   499.6      0.3125E-04   0.000       449.6       0.000      0.5000E-01   0.000    
    4587   2.919      0.6364E-03 SPRIN         11  -0.0%   499.9      0.3125E-04   0.000       449.9       0.000      0.5000E-01   0.000    
    4588   2.920      0.6364E-03 SPRIN         11  -0.0%   500.2      0.3125E-04   0.000       450.2       0.000      0.5000E-01   0.000    
    4589   2.920      0.6364E-03 SPRIN         11  -0.0%   500.5      0.3125E-04   0.000       450.5       0.000      0.5000E-01   0.000    
    4590   2.921      0.6364E-03 SPRIN         11  -0.0%   500.8      0.3125E-04   0.000       450.8       0.000      0.5000E-01   0.000    
    4591   2.922      0.6364E-03 SPRIN         11  -0.0%   501.1      0.3125E-04   0.000       451.1       0.000      0.5000E-01   0.000    
    4592   2.922      0.6364E-03 SPRIN         11  -0.0%   501.4      0.3125E-04   0.000       451.4       0.000      0.5000E-01   0.000    
    4593   2.923      0.6364E-03 SPRIN         11  -0.0%   501.7      0.3125E-04   0.000       451.7       0.000      0.5000E-01   0.000    
    4594   2.924      0.6364E-03 SPRIN         11  -0.0%   502.0      0.3125E-04   0.000       452.0       0.000      0.5000E-01   0.000    
    4595   2.924      0.6364E-03 SPRIN         11  -0.0%   502.3      0.3125E-04   0.000       452.3       0.000      0.5000E-01   0.000    
    4596   2.925      0.6364E-03 SPRIN         11  -0.0%   502.7      0.3125E-04   0.000       452.7       0.000      0.5000E-01   0.000    
    4597   2.926      0.6364E-03 SPRIN         11  -0.0%   503.0      0.3125E-04   0.000       453.0       0.000      0.5000E-01   0.000    
    4598   2.926      0.6364E-03 SPRIN         11  -0.0%   503.3      0.3125E-04   0.000       453.3       0.000      0.5000E-01   0.000    
    4599   2.927      0.6364E-03 SPRIN         11  -0.0%   503.6      0.3125E-04   0.000       453.6       0.000      0.5000E-01   0.000    
    4600   2.927      0.6364E-03 SPRIN         11  -0.0%   503.9      0.3125E-04   0.000       453.9       0.000      0.5000E-01   0.000    
    4601   2.928      0.6364E-03 SPRIN         11  -0.0%   504.2      0.3125E-04   0.000       454.2       0.000      0.5000E-01   0.000    
    4602   2.929      0.6364E-03 SPRIN         11  -0.0%   504.5      0.3125E-04   0.000       454.5       0.000      0.5000E-01   0.000    
    4603   2.929      0.6364E-03 SPRIN         11  -0.0%   504.8      0.3125E-04   0.000       454.8       0.000      0.5000E-01   0.000    
    4604   2.930      0.6364E-03 SPRIN         11  -0.0%   505.1      0.3125E-04   0.000       455.1       0.000      0.5000E-01   0.000    
    4605   2.931      0.6364E-03 SPRIN         11   0.0%   505.4      0.3125E-04   0.000       455.4       0.000      0.5000E-01   0.000    
    4606   2.931      0.6364E-03 SPRIN         11  -0.0%   505.7      0.3125E-04   0.000       455.7       0.000      0.5000E-01   0.000    
    4607   2.932      0.6364E-03 SPRIN         11  -0.0%   506.1      0.3125E-04   0.000       456.1       0.000      0.5000E-01   0.000    
    4608   2.933      0.6364E-03 SPRIN         11   0.0%   506.4      0.3125E-04   0.000       456.4       0.000      0.5000E-01   0.000    
    4609   2.933      0.6364E-03 SPRIN         11  -0.0%   506.7      0.3125E-04   0.000       456.7       0.000      0.5000E-01   0.000    
    4610   2.934      0.6364E-03 SPRIN         11   0.0%   507.0      0.3125E-04   0.000       457.0       0.000      0.5000E-01   0.000    
    4611   2.934      0.6364E-03 SPRIN         11  -0.0%   507.3      0.3125E-04   0.000       457.3       0.000      0.5000E-01   0.000    
    4612   2.935      0.6364E-03 SPRIN         11   0.0%   507.6      0.3125E-04   0.000       457.6       0.000      0.5000E-01   0.000    
    4613   2.936      0.6364E-03 SPRIN         11   0.0%   507.9      0.3125E-04   0.000       457.9       0.000      0.5000E-01   0.000    
    4614   2.936      0.6364E-03 SPRIN         11   0.0%   508.2      0.3125E-04   0.000       458.2       0.000      0.5000E-01   0.000    
    4615   2.937      0.6364E-03 SPRIN         11   0.0%   508.5      0.3125E-04   0.000       458.5       0.000      0.5000E-01   0.000    
    4616   2.938      0.6364E-03 SPRIN         11  -0.0%   508.8      0.3125E-04   0.000       458.8       0.000      0.5000E-01   0.000    
    4617   2.938      0.6364E-03 SPRIN         11   0.0%   509.2      0.3125E-04   0.000       459.2       0.000      0.5000E-01   0.000    
    4618   2.939      0.6364E-03 SPRIN         11   0.0%   509.5      0.3125E-04   0.000       459.5       0.000      0.5000E-01   0.000    
    4619   2.940      0.6364E-03 SPRIN         11  -0.0%   509.8      0.3125E-04   0.000       459.8       0.000      0.5000E-01   0.000    
   CYCLE    TIME      TIME-STEP  ELEMENT          ERROR  I-ENERGY    K-ENERGY T  K-ENERGY R  EXT-WORK     MAS.ERR     TOTAL MASS  MASS ADDED
    4620   2.940      0.6364E-03 SPRIN         11  -0.0%   510.1      0.3125E-04   0.000       460.1       0.000      0.5000E-01   0.000    
    4621   2.941      0.6364E-03 SPRIN         11  -0.0%   510.4      0.3125E-04   0.000       460.4       0.000      0.5000E-01   0.000    
    4622   2.941      0.6364E-03 SPRIN         11   0.0%   510.7      0.3125E-04   0.000       460.7       0.000      0.5000E-01   0.000    
    4623   2.942      0.6364E-03 SPRIN         11   0.0%   511.0      0.3125E-04   0.000       461.0       0.000      0.5000E-01   0.000    
    4624   2.943      0.6364E-03 SPRIN         11   0.0%   511.3      0.3125E-04   0.000       461.3       0.000      0.5000E-01   0.000    
    4625   2.943      0.6364E-03 SPRIN         11   0.0%   511.6      0.3125E-04   0.000       461.6       0.000      0.5000E-01   0.000    
    4626   2.944      0.6364E-03 SPRIN         11   0.0%   512.0      0.3125E-04   0.000       462.0       0.000      0.5000E-01   0.000    
    4627   2.945      0.6364E-03 SPRIN         11   0.0%   512.3      0.3125E-04   0.000       462.3       0.000      0.5000E-01   0.000    
    4628   2.945      0.6364E-03 SPRIN         11  -0.0%   512.6      0.3125E-04   0.000       462.6       0.000      0.5000E-01   0.000    
    4629   2.946      0.6364E-03 SPRIN         11  -0.0%   512.9      0.3125E-04   0.000       462.9       0.000      0.5000E-01   0.000    
    4630   2.947      0.6364E-03 SPRIN         11  -0.0%   513.2      0.3125E-04   0.000       463.2       0.000      0.5000E-01   0.000    
    4631   2.947      0.6364E-03 SPRIN         11  -0.0%   513.5      0.3125E-04   0.000       463.5       0.000      0.5000E-01   0.000    
    4632   2.948      0.6364E-03 SPRIN         11  -0.0%   513.8      0.3125E-04   0.000       463.8       0.000      0.5000E-01   0.000    
    4633   2.948      0.6364E-03 SPRIN         11  -0.0%   514.1      0.3125E-04   0.000       464.1       0.000      0.5000E-01   0.000    
    4634   2.949      0.6364E-03 SPRIN         11  -0.0%   514.5      0.3125E-04   0.000       464.5       0.000      0.5000E-01   0.000    
    4635   2.950      0.6364E-03 SPRIN         11  -0.0%   514.8      0.3125E-04   0.000       464.8       0.000      0.5000E-01   0.000    
    4636   2.950      0.6364E-03 SPRIN         11  -0.0%   515.1      0.3125E-04   0.000       465.1       0.000      0.5000E-01   0.000    
    4637   2.951      0.6364E-03 SPRIN         11  -0.0%   515.4      0.3125E-04   0.000       465.4       0.000      0.5000E-01   0.000    
    4638   2.952      0.6364E-03 SPRIN         11  -0.0%   515.7      0.3125E-04   0.000       465.7       0.000      0.5000E-01   0.000    
    4639   2.952      0.6364E-03 SPRIN         11  -0.0%   516.0      0.3125E-04   0.000       466.0       0.000      0.5000E-01   0.000    
    4640   2.953      0.6364E-03 SPRIN         11  -0.0%   516.3      0.3125E-04   0.000       466.3       0.000      0.5000E-01   0.000    
    4641   2.954      0.6364E-03 SPRIN         11  -0.0%   516.6      0.3125E-04   0.000       466.6       0.000      0.5000E-01   0.000    
    4642   2.954      0.6364E-03 SPRIN         11  -0.0%   517.0      0.3125E-04   0.000       467.0       0.000      0.5000E-01   0.000    
    4643   2.955      0.6364E-03 SPRIN         11  -0.0%   517.3      0.3125E-04   0.000       467.3       0.000      0.5000E-01   0.000    
    4644   2.955      0.6364E-03 SPRIN         11  -0.0%   517.6      0.3125E-04   0.000       467.6       0.000      0.5000E-01   0.000    
    4645   2.956      0.6364E-03 SPRIN         11  -0.0%   517.9      0.3125E-04   0.000       467.9       0.000      0.5000E-01   0.000    
    4646   2.957      0.6364E-03 SPRIN         11  -0.0%   518.2      0.3125E-04   0.000       468.2       0.000      0.5000E-01   0.000    
    4647   2.957      0.6364E-03 SPRIN         11  -0.0%   518.5      0.3125E-04   0.000       468.5       0.000      0.5000E-01   0.000    
    4648   2.958      0.6364E-03 SPRIN         11  -0.0%   518.8      0.3125E-04   0.000       468.8       0.000      0.5000E-01   0.000    
    4649   2.959      0.6364E-03 SPRIN         11  -0.0%   519.2      0.3125E-04   0.000       469.2       0.000      0.5000E-01   0.000    
    4650   2.959      0.6364E-03 SPRIN         11  -0.0%   519.5      0.3125E-04   0.000       469.5       0.000      0.5000E-01   0.000    
    4651   2.960      0.6364E-03 SPRIN         11  -0.0%   519.8      0.3125E-04   0.000       469.8       0.000      0.5000E-01   0.000    
    4652   2.961      0.6364E-03 SPRIN         11  -0.0%   520.1      0.3125E-04   0.000       470.1       0.000      0.5000E-01   0.000    
    4653   2.961      0.6364E-03 SPRIN         11  -0.0%   520.4      0.3125E-04   0.000       470.4       0.000      0.5000E-01   0.000    
    4654   2.962      0.6364E-03 SPRIN         11  -0.0%   520.7      0.3125E-04   0.000       470.7       0.000      0.5000E-01   0.000    
    4655   2.962      0.6364E-03 SPRIN         11  -0.0%   521.0      0.3125E-04   0.000       471.0       0.000      0.5000E-01   0.000    
    4656   2.963      0.6364E-03 SPRIN         11  -0.0%   521.4      0.3125E-04   0.000       471.4       0.000      0.5000E-01   0.000    
    4657   2.964      0.6364E-03 SPRIN         11   0.0%   521.7      0.3125E-04   0.000       471.7       0.000      0.5000E-01   0.000    
    4658   2.964      0.6364E-03 SPRIN         11   0.0%   522.0      0.3125E-04   0.000       472.0       0.000      0.5000E-01   0.000    
    4659   2.965      0.6364E-03 SPRIN         11   0.0%   522.3      0.3125E-04   0.000       472.3       0.000      0.5000E-01   0.000    
    4660   2.966      0.6364E-03 SPRIN         11   0.0%   522.6      0.3125E-04   0.000       472.6       0.000      0.5000E-01   0.000    
    4661   2.966      0.6364E-03 SPRIN         11  -0.0%   522.9      0.3125E-04   0.000       472.9       0.000      0.5000E-01   0.000    
    4662   2.967      0.6364E-03 SPRIN         11   0.0%   523.2      0.3125E-04   0.000       473.2       0.000      0.5000E-01   0.000    
    4663   2.968      0.6364E-03 SPRIN         11  -0.0%   523.6      0.3125E-04   0.000       473.6       0.000      0.5000E-01   0.000    
    4664   2.968      0.6364E-03 SPRIN         11  -0.0%   523.9      0.3125E-04   0.000       473.9       0.000      0.5000E-01   0.000    
    4665   2.969      0.6364E-03 SPRIN         11  -0.0%   524.2      0.3125E-04   0.000       474.2       0.000      0.5000E-01   0.000    
    4666   2.969      0.6364E-03 SPRIN         11  -0.0%   524.5      0.3125E-04   0.000       474.5       0.000      0.5000E-01   0.000    
    4667   2.970      0.6364E-03 SPRIN         11  -0.0%   524.8      0.3125E-04   0.000       474.8       0.000      0.5000E-01   0.000    
    4668   2.971      0.6364E-03 SPRIN         11  -0.0%   525.1      0.3125E-04   0.000       475.1       0.000      0.5000E-01   0.000    
    4669   2.971      0.6364E-03 SPRIN         11  -0.0%   525.5      0.3125E-04   0.000       475.5       0.000      0.5000E-01   0.000    
    4670   2.972      0.6364E-03 SPRIN         11  -0.0%   525.8      0.3125E-04   0.000       475.8       0.000      0.5000E-01   0.000    
    4671   2.973      0.6364E-03 SPRIN         11  -0.0%   526.1      0.3125E-04   0.000       476.1       0.000      0.5000E-01   0.000    
    4672   2.973      0.6364E-03 SPRIN         11  -0.0%   526.4      0.3125E-04   0.000       476.4       0.000      0.5000E-01   0.000    
    4673   2.974      0.6364E-03 SPRIN         11  -0.0%   526.7      0.3125E-04   0.000       476.7       0.000      0.5000E-01   0.000    
    4674   2.975      0.6364E-03 SPRIN         11  -0.0%   527.0      0.3125E-04   0.000       477.0       0.000      0.5000E-01   0.000    
   CYCLE    TIME      TIME-STEP  ELEMENT          ERROR  I-ENERGY    K-ENERGY T  K-ENERGY R  EXT-WORK     MAS.ERR     TOTAL MASS  MASS ADDED
    4675   2.975      0.6364E-03 SPRIN         11  -0.0%   527.4      0.3125E-04   0.000       477.4       0.000      0.5000E-01   0.000    
    4676   2.976      0.6364E-03 SPRIN         11  -0.0%   527.7      0.3125E-04   0.000       477.7       0.000      0.5000E-01   0.000    
    4677   2.976      0.6364E-03 SPRIN         11  -0.0%   528.0      0.3125E-04   0.000       478.0       0.000      0.5000E-01   0.000    
    4678   2.977      0.6364E-03 SPRIN         11  -0.0%   528.3      0.3125E-04   0.000       478.3       0.000      0.5000E-01   0.000    
    4679   2.978      0.6364E-03 SPRIN         11  -0.0%   528.6      0.3125E-04   0.000       478.6       0.000      0.5000E-01   0.000    
    4680   2.978      0.6364E-03 SPRIN         11  -0.0%   528.9      0.3125E-04   0.000       478.9       0.000      0.5000E-01   0.000    
    4681   2.979      0.6364E-03 SPRIN         11  -0.0%   529.3      0.3125E-04   0.000       479.3       0.000      0.5000E-01   0.000    
    4682   2.980      0.6364E-03 SPRIN         11  -0.0%   529.6      0.3125E-04   0.000       479.6       0.000      0.5000E-01   0.000    
    4683   2.980      0.6364E-03 SPRIN         11  -0.0%   529.9      0.3125E-04   0.000       479.9       0.000      0.5000E-01   0.000    
    4684   2.981      0.6364E-03 SPRIN         11  -0.0%   530.2      0.3125E-04   0.000       480.2       0.000      0.5000E-01   0.000    
    4685   2.982      0.6364E-03 SPRIN         11  -0.0%   530.5      0.3125E-04   0.000       480.5       0.000      0.5000E-01   0.000    
    4686   2.982      0.6364E-03 SPRIN         11  -0.0%   530.8      0.3125E-04   0.000       480.8       0.000      0.5000E-01   0.000    
    4687   2.983      0.6364E-03 SPRIN         11  -0.0%   531.2      0.3125E-04   0.000       481.2       0.000      0.5000E-01   0.000    
    4688   2.983      0.6364E-03 SPRIN         11  -0.0%   531.5      0.3125E-04   0.000       481.5       0.000      0.5000E-01   0.000    
    4689   2.984      0.6364E-03 SPRIN         11  -0.0%   531.8      0.3125E-04   0.000       481.8       0.000      0.5000E-01   0.000    
    4690   2.985      0.6364E-03 SPRIN         11   0.0%   532.1      0.3125E-04   0.000       482.1       0.000      0.5000E-01   0.000    
    4691   2.985      0.6364E-03 SPRIN         11  -0.0%   532.4      0.3125E-04   0.000       482.4       0.000      0.5000E-01   0.000    
    4692   2.986      0.6364E-03 SPRIN         11  -0.0%   532.8      0.3125E-04   0.000       482.8       0.000      0.5000E-01   0.000    
    4693   2.987      0.6364E-03 SPRIN         11   0.0%   533.1      0.3125E-04   0.000       483.1       0.000      0.5000E-01   0.000    
    4694   2.987      0.6364E-03 SPRIN         11  -0.0%   533.4      0.3125E-04   0.000       483.4       0.000      0.5000E-01   0.000    
    4695   2.988      0.6364E-03 SPRIN         11  -0.0%   533.7      0.3125E-04   0.000       483.7       0.000      0.5000E-01   0.000    
    4696   2.989      0.6364E-03 SPRIN         11  -0.0%   534.0      0.3125E-04   0.000       484.0       0.000      0.5000E-01   0.000    
    4697   2.989      0.6364E-03 SPRIN         11  -0.0%   534.3      0.3125E-04   0.000       484.3       0.000      0.5000E-01   0.000    
    4698   2.990      0.6364E-03 SPRIN         11  -0.0%   534.7      0.3125E-04   0.000       484.7       0.000      0.5000E-01   0.000    
    4699   2.990      0.6364E-03 SPRIN         11  -0.0%   535.0      0.3125E-04   0.000       485.0       0.000      0.5000E-01   0.000    
    4700   2.991      0.6364E-03 SPRIN         11  -0.0%   535.3      0.3125E-04   0.000       485.3       0.000      0.5000E-01   0.000    
    4701   2.992      0.6364E-03 SPRIN         11  -0.0%   535.6      0.3125E-04   0.000       485.6       0.000      0.5000E-01   0.000    
    4702   2.992      0.6364E-03 SPRIN         11  -0.0%   535.9      0.3125E-04   0.000       485.9       0.000      0.5000E-01   0.000    
    4703   2.993      0.6364E-03 SPRIN         11  -0.0%   536.3      0.3125E-04   0.000       486.3       0.000      0.5000E-01   0.000    
    4704   2.994      0.6364E-03 SPRIN         11  -0.0%   536.6      0.3125E-04   0.000       486.6       0.000      0.5000E-01   0.000    
    4705   2.994      0.6364E-03 SPRIN         11  -0.0%   536.9      0.3125E-04   0.000       486.9       0.000      0.5000E-01   0.000    
    4706   2.995      0.6364E-03 SPRIN         11  -0.0%   537.2      0.3125E-04   0.000       487.2       0.000      0.5000E-01   0.000    
    4707   2.996      0.6364E-03 SPRIN         11  -0.0%   537.5      0.3125E-04   0.000       487.5       0.000      0.5000E-01   0.000    
    4708   2.996      0.6364E-03 SPRIN         11  -0.0%   537.9      0.3125E-04   0.000       487.9       0.000      0.5000E-01   0.000    
    4709   2.997      0.6364E-03 SPRIN         11  -0.0%   538.2      0.3125E-04   0.000       488.2       0.000      0.5000E-01   0.000    
    4710   2.997      0.6364E-03 SPRIN         11  -0.0%   538.5      0.3125E-04   0.000       488.5       0.000      0.5000E-01   0.000    
    4711   2.998      0.6364E-03 SPRIN         11  -0.0%   538.8      0.3125E-04   0.000       488.8       0.000      0.5000E-01   0.000    
    4712   2.999      0.6364E-03 SPRIN         11  -0.0%   539.1      0.3125E-04   0.000       489.1       0.000      0.5000E-01   0.000    
    4713   2.999      0.6364E-03 SPRIN         11  -0.0%   539.5      0.3125E-04   0.000       489.5       0.000      0.5000E-01   0.000    
    4714   3.000      0.6364E-03 SPRIN         11   0.0%   539.8      0.5832E-05   0.000       489.6       0.000      0.5000E-01   0.000    
    4715   3.001      0.6364E-03 SPRIN         11   0.0%   539.2      0.1166E-03   0.000       489.2       0.000      0.5000E-01   0.000    
     ANIMATION FILE: SPR_PRE_2FLAGA016 WRITTEN
    4716   3.001      0.6364E-03 SPRIN         11  -0.0%   538.5      0.1250E-03   0.000       488.5       0.000      0.5000E-01   0.000    
    4717   3.002      0.6364E-03 SPRIN         11  -0.0%   537.9      0.1250E-03   0.000       487.9       0.000      0.5000E-01   0.000    
    4718   3.003      0.6364E-03 SPRIN         11  -0.0%   537.3      0.1250E-03   0.000       487.3       0.000      0.5000E-01   0.000    
    4719   3.003      0.6364E-03 SPRIN         11  -0.0%   536.6      0.1250E-03   0.000       486.6       0.000      0.5000E-01   0.000    
    4720   3.004      0.6364E-03 SPRIN         11  -0.0%   536.0      0.1250E-03   0.000       486.0       0.000      0.5000E-01   0.000    
    4721   3.004      0.6364E-03 SPRIN         11  -0.0%   535.3      0.1250E-03   0.000       485.3       0.000      0.5000E-01   0.000    
    4722   3.005      0.6364E-03 SPRIN         11  -0.0%   534.7      0.1250E-03   0.000       484.7       0.000      0.5000E-01   0.000    
    4723   3.006      0.6364E-03 SPRIN         11  -0.0%   534.1      0.1250E-03   0.000       484.1       0.000      0.5000E-01   0.000    
    4724   3.006      0.6364E-03 SPRIN         11  -0.0%   533.4      0.1250E-03   0.000       483.4       0.000      0.5000E-01   0.000    
    4725   3.007      0.6364E-03 SPRIN         11  -0.0%   532.8      0.1250E-03   0.000       482.8       0.000      0.5000E-01   0.000    
    4726   3.008      0.6364E-03 SPRIN         11  -0.0%   532.2      0.1250E-03   0.000       482.2       0.000      0.5000E-01   0.000    
    4727   3.008      0.6364E-03 SPRIN         11  -0.0%   531.5      0.1250E-03   0.000       481.5       0.000      0.5000E-01   0.000    
    4728   3.009      0.6364E-03 SPRIN         11  -0.0%   530.9      0.1250E-03   0.000       480.9       0.000      0.5000E-01   0.000    
    4729   3.010      0.6364E-03 SPRIN         11  -0.0%   530.3      0.1250E-03   0.000       480.3       0.000      0.5000E-01   0.000    
   CYCLE    TIME      TIME-STEP  ELEMENT          ERROR  I-ENERGY    K-ENERGY T  K-ENERGY R  EXT-WORK     MAS.ERR     TOTAL MASS  MASS ADDED
    4730   3.010      0.6364E-03 SPRIN         11  -0.0%   529.6      0.1250E-03   0.000       479.6       0.000      0.5000E-01   0.000    
    4731   3.011      0.6364E-03 SPRIN         11  -0.0%   529.0      0.1250E-03   0.000       479.0       0.000      0.5000E-01   0.000    
    4732   3.011      0.6364E-03 SPRIN         11  -0.0%   528.3      0.1250E-03   0.000       478.3       0.000      0.5000E-01   0.000    
    4733   3.012      0.6364E-03 SPRIN         11  -0.0%   527.7      0.1250E-03   0.000       477.7       0.000      0.5000E-01   0.000    
    4734   3.013      0.6364E-03 SPRIN         11  -0.0%   527.1      0.1250E-03   0.000       477.1       0.000      0.5000E-01   0.000    
    4735   3.013      0.6364E-03 SPRIN         11  -0.0%   526.4      0.1250E-03   0.000       476.4       0.000      0.5000E-01   0.000    
    4736   3.014      0.6364E-03 SPRIN         11  -0.0%   525.8      0.1250E-03   0.000       475.8       0.000      0.5000E-01   0.000    
    4737   3.015      0.6364E-03 SPRIN         11  -0.0%   525.2      0.1250E-03   0.000       475.2       0.000      0.5000E-01   0.000    
    4738   3.015      0.6364E-03 SPRIN         11  -0.0%   524.6      0.1250E-03   0.000       474.6       0.000      0.5000E-01   0.000    
    4739   3.016      0.6364E-03 SPRIN         11  -0.0%   523.9      0.1250E-03   0.000       473.9       0.000      0.5000E-01   0.000    
    4740   3.017      0.6364E-03 SPRIN         11  -0.0%   523.3      0.1250E-03   0.000       473.3       0.000      0.5000E-01   0.000    
    4741   3.017      0.6364E-03 SPRIN         11  -0.0%   522.7      0.1250E-03   0.000       472.7       0.000      0.5000E-01   0.000    
    4742   3.018      0.6364E-03 SPRIN         11  -0.0%   522.0      0.1250E-03   0.000       472.0       0.000      0.5000E-01   0.000    
    4743   3.018      0.6364E-03 SPRIN         11  -0.0%   521.4      0.1250E-03   0.000       471.4       0.000      0.5000E-01   0.000    
    4744   3.019      0.6364E-03 SPRIN         11  -0.0%   520.8      0.1250E-03   0.000       470.8       0.000      0.5000E-01   0.000    
    4745   3.020      0.6364E-03 SPRIN         11  -0.0%   520.1      0.1250E-03   0.000       470.1       0.000      0.5000E-01   0.000    
    4746   3.020      0.6364E-03 SPRIN         11  -0.0%   519.5      0.1250E-03   0.000       469.5       0.000      0.5000E-01   0.000    
    4747   3.021      0.6364E-03 SPRIN         11  -0.0%   518.9      0.1250E-03   0.000       468.9       0.000      0.5000E-01   0.000    
    4748   3.022      0.6364E-03 SPRIN         11  -0.0%   518.3      0.1250E-03   0.000       468.3       0.000      0.5000E-01   0.000    
    4749   3.022      0.6364E-03 SPRIN         11  -0.0%   517.6      0.1250E-03   0.000       467.6       0.000      0.5000E-01   0.000    
    4750   3.023      0.6364E-03 SPRIN         11  -0.0%   517.0      0.1250E-03   0.000       467.0       0.000      0.5000E-01   0.000    
    4751   3.024      0.6364E-03 SPRIN         11  -0.0%   516.4      0.1250E-03   0.000       466.4       0.000      0.5000E-01   0.000    
    4752   3.024      0.6364E-03 SPRIN         11  -0.0%   515.7      0.1250E-03   0.000       465.7       0.000      0.5000E-01   0.000    
    4753   3.025      0.6364E-03 SPRIN         11  -0.0%   515.1      0.1250E-03   0.000       465.1       0.000      0.5000E-01   0.000    
    4754   3.025      0.6364E-03 SPRIN         11  -0.0%   514.5      0.1250E-03   0.000       464.5       0.000      0.5000E-01   0.000    
    4755   3.026      0.6364E-03 SPRIN         11  -0.0%   513.9      0.1250E-03   0.000       463.9       0.000      0.5000E-01   0.000    
    4756   3.027      0.6364E-03 SPRIN         11  -0.0%   513.2      0.1250E-03   0.000       463.2       0.000      0.5000E-01   0.000    
    4757   3.027      0.6364E-03 SPRIN         11  -0.0%   512.6      0.1250E-03   0.000       462.6       0.000      0.5000E-01   0.000    
    4758   3.028      0.6364E-03 SPRIN         11  -0.0%   512.0      0.1250E-03   0.000       462.0       0.000      0.5000E-01   0.000    
    4759   3.029      0.6364E-03 SPRIN         11  -0.0%   511.4      0.1250E-03   0.000       461.4       0.000      0.5000E-01   0.000    
    4760   3.029      0.6364E-03 SPRIN         11  -0.0%   510.8      0.1250E-03   0.000       460.8       0.000      0.5000E-01   0.000    
    4761   3.030      0.6364E-03 SPRIN         11  -0.0%   510.1      0.1250E-03   0.000       460.1       0.000      0.5000E-01   0.000    
    4762   3.031      0.6364E-03 SPRIN         11  -0.0%   509.5      0.1250E-03   0.000       459.5       0.000      0.5000E-01   0.000    
    4763   3.031      0.6364E-03 SPRIN         11  -0.0%   508.9      0.1250E-03   0.000       458.9       0.000      0.5000E-01   0.000    
    4764   3.032      0.6364E-03 SPRIN         11  -0.0%   508.3      0.1250E-03   0.000       458.3       0.000      0.5000E-01   0.000    
    4765   3.032      0.6364E-03 SPRIN         11  -0.0%   507.6      0.1250E-03   0.000       457.6       0.000      0.5000E-01   0.000    
    4766   3.033      0.6364E-03 SPRIN         11  -0.0%   507.0      0.1250E-03   0.000       457.0       0.000      0.5000E-01   0.000    
    4767   3.034      0.6364E-03 SPRIN         11  -0.0%   506.4      0.1250E-03   0.000       456.4       0.000      0.5000E-01   0.000    
    4768   3.034      0.6364E-03 SPRIN         11  -0.0%   505.8      0.1250E-03   0.000       455.8       0.000      0.5000E-01   0.000    
    4769   3.035      0.6364E-03 SPRIN         11  -0.0%   505.2      0.1250E-03   0.000       455.2       0.000      0.5000E-01   0.000    
    4770   3.036      0.6364E-03 SPRIN         11  -0.0%   504.5      0.1250E-03   0.000       454.5       0.000      0.5000E-01   0.000    
    4771   3.036      0.6364E-03 SPRIN         11  -0.0%   503.9      0.1250E-03   0.000       453.9       0.000      0.5000E-01   0.000    
    4772   3.037      0.6364E-03 SPRIN         11  -0.0%   503.3      0.1250E-03   0.000       453.3       0.000      0.5000E-01   0.000    
    4773   3.038      0.6364E-03 SPRIN         11  -0.0%   502.7      0.1250E-03   0.000       452.7       0.000      0.5000E-01   0.000    
    4774   3.038      0.6364E-03 SPRIN         11  -0.0%   502.1      0.1250E-03   0.000       452.1       0.000      0.5000E-01   0.000    
    4775   3.039      0.6364E-03 SPRIN         11  -0.0%   501.5      0.1250E-03   0.000       451.5       0.000      0.5000E-01   0.000    
    4776   3.039      0.6364E-03 SPRIN         11  -0.0%   500.8      0.1250E-03   0.000       450.8       0.000      0.5000E-01   0.000    
    4777   3.040      0.6364E-03 SPRIN         11  -0.0%   500.2      0.1250E-03   0.000       450.2       0.000      0.5000E-01   0.000    
    4778   3.041      0.6364E-03 SPRIN         11  -0.0%   499.6      0.1250E-03   0.000       449.6       0.000      0.5000E-01   0.000    
    4779   3.041      0.6364E-03 SPRIN         11  -0.0%   499.0      0.1250E-03   0.000       449.0       0.000      0.5000E-01   0.000    
    4780   3.042      0.6364E-03 SPRIN         11  -0.0%   498.4      0.1250E-03   0.000       448.4       0.000      0.5000E-01   0.000    
    4781   3.043      0.6364E-03 SPRIN         11  -0.0%   497.8      0.1250E-03   0.000       447.8       0.000      0.5000E-01   0.000    
    4782   3.043      0.6364E-03 SPRIN         11  -0.0%   497.2      0.1250E-03   0.000       447.2       0.000      0.5000E-01   0.000    
    4783   3.044      0.6364E-03 SPRIN         11  -0.0%   496.5      0.1250E-03   0.000       446.5       0.000      0.5000E-01   0.000    
    4784   3.045      0.6364E-03 SPRIN         11  -0.0%   495.9      0.1250E-03   0.000       445.9       0.000      0.5000E-01   0.000    
   CYCLE    TIME      TIME-STEP  ELEMENT          ERROR  I-ENERGY    K-ENERGY T  K-ENERGY R  EXT-WORK     MAS.ERR     TOTAL MASS  MASS ADDED
    4785   3.045      0.6364E-03 SPRIN         11  -0.0%   495.3      0.1250E-03   0.000       445.3       0.000      0.5000E-01   0.000    
    4786   3.046      0.6364E-03 SPRIN         11  -0.0%   494.7      0.1250E-03   0.000       444.7       0.000      0.5000E-01   0.000    
    4787   3.046      0.6364E-03 SPRIN         11  -0.0%   494.1      0.1250E-03   0.000       444.1       0.000      0.5000E-01   0.000    
    4788   3.047      0.6364E-03 SPRIN         11  -0.0%   493.5      0.1250E-03   0.000       443.5       0.000      0.5000E-01   0.000    
    4789   3.048      0.6364E-03 SPRIN         11  -0.0%   492.9      0.1250E-03   0.000       442.9       0.000      0.5000E-01   0.000    
    4790   3.048      0.6364E-03 SPRIN         11  -0.0%   492.3      0.1250E-03   0.000       442.3       0.000      0.5000E-01   0.000    
    4791   3.049      0.6364E-03 SPRIN         11  -0.0%   491.6      0.1250E-03   0.000       441.6       0.000      0.5000E-01   0.000    
    4792   3.050      0.6364E-03 SPRIN         11  -0.0%   491.0      0.1250E-03   0.000       441.0       0.000      0.5000E-01   0.000    
    4793   3.050      0.6364E-03 SPRIN         11  -0.0%   490.4      0.1250E-03   0.000       440.4       0.000      0.5000E-01   0.000    
    4794   3.051      0.6364E-03 SPRIN         11  -0.0%   489.8      0.1250E-03   0.000       439.8       0.000      0.5000E-01   0.000    
    4795   3.052      0.6364E-03 SPRIN         11  -0.0%   489.2      0.1250E-03   0.000       439.2       0.000      0.5000E-01   0.000    
    4796   3.052      0.6364E-03 SPRIN         11  -0.0%   488.6      0.1250E-03   0.000       438.6       0.000      0.5000E-01   0.000    
    4797   3.053      0.6364E-03 SPRIN         11  -0.0%   488.0      0.1250E-03   0.000       438.0       0.000      0.5000E-01   0.000    
    4798   3.053      0.6364E-03 SPRIN         11  -0.0%   487.4      0.1250E-03   0.000       437.4       0.000      0.5000E-01   0.000    
    4799   3.054      0.6364E-03 SPRIN         11  -0.0%   486.8      0.1250E-03   0.000       436.8       0.000      0.5000E-01   0.000    
    4800   3.055      0.6364E-03 SPRIN         11  -0.0%   486.2      0.1250E-03   0.000       436.2       0.000      0.5000E-01   0.000    
    4801   3.055      0.6364E-03 SPRIN         11  -0.0%   485.6      0.1250E-03   0.000       435.6       0.000      0.5000E-01   0.000    
    4802   3.056      0.6364E-03 SPRIN         11  -0.0%   485.0      0.1250E-03   0.000       435.0       0.000      0.5000E-01   0.000    
    4803   3.057      0.6364E-03 SPRIN         11  -0.0%   484.4      0.1250E-03   0.000       434.4       0.000      0.5000E-01   0.000    
    4804   3.057      0.6364E-03 SPRIN         11  -0.0%   483.7      0.1250E-03   0.000       433.7       0.000      0.5000E-01   0.000    
    4805   3.058      0.6364E-03 SPRIN         11  -0.0%   483.1      0.1250E-03   0.000       433.1       0.000      0.5000E-01   0.000    
    4806   3.059      0.6364E-03 SPRIN         11  -0.0%   482.5      0.1250E-03   0.000       432.5       0.000      0.5000E-01   0.000    
    4807   3.059      0.6364E-03 SPRIN         11  -0.0%   481.9      0.1250E-03   0.000       431.9       0.000      0.5000E-01   0.000    
    4808   3.060      0.6364E-03 SPRIN         11  -0.0%   481.3      0.1250E-03   0.000       431.3       0.000      0.5000E-01   0.000    
    4809   3.060      0.6364E-03 SPRIN         11  -0.0%   480.7      0.1250E-03   0.000       430.7       0.000      0.5000E-01   0.000    
    4810   3.061      0.6364E-03 SPRIN         11  -0.0%   480.1      0.1250E-03   0.000       430.1       0.000      0.5000E-01   0.000    
    4811   3.062      0.6364E-03 SPRIN         11  -0.0%   479.5      0.1250E-03   0.000       429.5       0.000      0.5000E-01   0.000    
    4812   3.062      0.6364E-03 SPRIN         11  -0.0%   478.9      0.1250E-03   0.000       428.9       0.000      0.5000E-01   0.000    
    4813   3.063      0.6364E-03 SPRIN         11  -0.0%   478.3      0.1250E-03   0.000       428.3       0.000      0.5000E-01   0.000    
    4814   3.064      0.6364E-03 SPRIN         11  -0.0%   477.7      0.1250E-03   0.000       427.7       0.000      0.5000E-01   0.000    
    4815   3.064      0.6364E-03 SPRIN         11  -0.0%   477.1      0.1250E-03   0.000       427.1       0.000      0.5000E-01   0.000    
    4816   3.065      0.6364E-03 SPRIN         11  -0.0%   476.5      0.1250E-03   0.000       426.5       0.000      0.5000E-01   0.000    
    4817   3.066      0.6364E-03 SPRIN         11  -0.0%   475.9      0.1250E-03   0.000       425.9       0.000      0.5000E-01   0.000    
    4818   3.066      0.6364E-03 SPRIN         11  -0.0%   475.3      0.1250E-03   0.000       425.3       0.000      0.5000E-01   0.000    
    4819   3.067      0.6364E-03 SPRIN         11  -0.0%   474.7      0.1250E-03   0.000       424.7       0.000      0.5000E-01   0.000    
    4820   3.067      0.6364E-03 SPRIN         11  -0.0%   474.1      0.1250E-03   0.000       424.1       0.000      0.5000E-01   0.000    
    4821   3.068      0.6364E-03 SPRIN         11  -0.0%   473.5      0.1250E-03   0.000       423.5       0.000      0.5000E-01   0.000    
    4822   3.069      0.6364E-03 SPRIN         11  -0.0%   472.9      0.1250E-03   0.000       422.9       0.000      0.5000E-01   0.000    
    4823   3.069      0.6364E-03 SPRIN         11  -0.0%   472.3      0.1250E-03   0.000       422.3       0.000      0.5000E-01   0.000    
    4824   3.070      0.6364E-03 SPRIN         11  -0.0%   471.7      0.1250E-03   0.000       421.7       0.000      0.5000E-01   0.000    
    4825   3.071      0.6364E-03 SPRIN         11  -0.0%   471.1      0.1250E-03   0.000       421.1       0.000      0.5000E-01   0.000    
    4826   3.071      0.6364E-03 SPRIN         11  -0.0%   470.5      0.1250E-03   0.000       420.5       0.000      0.5000E-01   0.000    
    4827   3.072      0.6364E-03 SPRIN         11  -0.0%   469.9      0.1250E-03   0.000       419.9       0.000      0.5000E-01   0.000    
    4828   3.073      0.6364E-03 SPRIN         11  -0.0%   469.3      0.1250E-03   0.000       419.3       0.000      0.5000E-01   0.000    
    4829   3.073      0.6364E-03 SPRIN         11  -0.0%   468.7      0.1250E-03   0.000       418.7       0.000      0.5000E-01   0.000    
    4830   3.074      0.6364E-03 SPRIN         11  -0.0%   468.2      0.1250E-03   0.000       418.2       0.000      0.5000E-01   0.000    
    4831   3.074      0.6364E-03 SPRIN         11  -0.0%   467.6      0.1250E-03   0.000       417.6       0.000      0.5000E-01   0.000    
    4832   3.075      0.6364E-03 SPRIN         11  -0.0%   467.0      0.1250E-03   0.000       417.0       0.000      0.5000E-01   0.000    
    4833   3.076      0.6364E-03 SPRIN         11  -0.0%   466.4      0.1250E-03   0.000       416.4       0.000      0.5000E-01   0.000    
    4834   3.076      0.6364E-03 SPRIN         11  -0.0%   465.8      0.1250E-03   0.000       415.8       0.000      0.5000E-01   0.000    
    4835   3.077      0.6364E-03 SPRIN         11  -0.0%   465.2      0.1250E-03   0.000       415.2       0.000      0.5000E-01   0.000    
    4836   3.078      0.6364E-03 SPRIN         11  -0.0%   464.6      0.1250E-03   0.000       414.6       0.000      0.5000E-01   0.000    
    4837   3.078      0.6364E-03 SPRIN         11  -0.0%   464.0      0.1250E-03   0.000       414.0       0.000      0.5000E-01   0.000    
    4838   3.079      0.6364E-03 SPRIN         11  -0.0%   463.4      0.1250E-03   0.000       413.4       0.000      0.5000E-01   0.000    
    4839   3.080      0.6364E-03 SPRIN         11  -0.0%   462.8      0.1250E-03   0.000       412.8       0.000      0.5000E-01   0.000    
   CYCLE    TIME      TIME-STEP  ELEMENT          ERROR  I-ENERGY    K-ENERGY T  K-ENERGY R  EXT-WORK     MAS.ERR     TOTAL MASS  MASS ADDED
    4840   3.080      0.6364E-03 SPRIN         11  -0.0%   462.2      0.1250E-03   0.000       412.2       0.000      0.5000E-01   0.000    
    4841   3.081      0.6364E-03 SPRIN         11  -0.0%   461.6      0.1250E-03   0.000       411.6       0.000      0.5000E-01   0.000    
    4842   3.081      0.6364E-03 SPRIN         11  -0.0%   461.1      0.1250E-03   0.000       411.1       0.000      0.5000E-01   0.000    
    4843   3.082      0.6364E-03 SPRIN         11  -0.0%   460.5      0.1250E-03   0.000       410.5       0.000      0.5000E-01   0.000    
    4844   3.083      0.6364E-03 SPRIN         11  -0.0%   459.9      0.1250E-03   0.000       409.9       0.000      0.5000E-01   0.000    
    4845   3.083      0.6364E-03 SPRIN         11  -0.0%   459.3      0.1250E-03   0.000       409.3       0.000      0.5000E-01   0.000    
    4846   3.084      0.6364E-03 SPRIN         11  -0.0%   458.7      0.1250E-03   0.000       408.7       0.000      0.5000E-01   0.000    
    4847   3.085      0.6364E-03 SPRIN         11  -0.0%   458.1      0.1250E-03   0.000       408.1       0.000      0.5000E-01   0.000    
    4848   3.085      0.6364E-03 SPRIN         11  -0.0%   457.5      0.1250E-03   0.000       407.5       0.000      0.5000E-01   0.000    
    4849   3.086      0.6364E-03 SPRIN         11  -0.0%   456.9      0.1250E-03   0.000       406.9       0.000      0.5000E-01   0.000    
    4850   3.087      0.6364E-03 SPRIN         11  -0.0%   456.3      0.1250E-03   0.000       406.3       0.000      0.5000E-01   0.000    
    4851   3.087      0.6364E-03 SPRIN         11  -0.0%   455.8      0.1250E-03   0.000       405.8       0.000      0.5000E-01   0.000    
    4852   3.088      0.6364E-03 SPRIN         11  -0.0%   455.2      0.1250E-03   0.000       405.2       0.000      0.5000E-01   0.000    
    4853   3.088      0.6364E-03 SPRIN         11  -0.0%   454.6      0.1250E-03   0.000       404.6       0.000      0.5000E-01   0.000    
    4854   3.089      0.6364E-03 SPRIN         11  -0.0%   454.0      0.1250E-03   0.000       404.0       0.000      0.5000E-01   0.000    
    4855   3.090      0.6364E-03 SPRIN         11  -0.0%   453.4      0.1250E-03   0.000       403.4       0.000      0.5000E-01   0.000    
    4856   3.090      0.6364E-03 SPRIN         11  -0.0%   452.8      0.1250E-03   0.000       402.8       0.000      0.5000E-01   0.000    
    4857   3.091      0.6364E-03 SPRIN         11  -0.0%   452.3      0.1250E-03   0.000       402.3       0.000      0.5000E-01   0.000    
    4858   3.092      0.6364E-03 SPRIN         11  -0.0%   451.7      0.1250E-03   0.000       401.7       0.000      0.5000E-01   0.000    
    4859   3.092      0.6364E-03 SPRIN         11  -0.0%   451.1      0.1250E-03   0.000       401.1       0.000      0.5000E-01   0.000    
    4860   3.093      0.6364E-03 SPRIN         11  -0.0%   450.5      0.1250E-03   0.000       400.5       0.000      0.5000E-01   0.000    
    4861   3.094      0.6364E-03 SPRIN         11  -0.0%   449.9      0.1250E-03   0.000       399.9       0.000      0.5000E-01   0.000    
    4862   3.094      0.6364E-03 SPRIN         11  -0.0%   449.3      0.1250E-03   0.000       399.3       0.000      0.5000E-01   0.000    
    4863   3.095      0.6364E-03 SPRIN         11  -0.0%   448.8      0.1250E-03   0.000       398.8       0.000      0.5000E-01   0.000    
    4864   3.095      0.6364E-03 SPRIN         11  -0.0%   448.2      0.1250E-03   0.000       398.2       0.000      0.5000E-01   0.000    
    4865   3.096      0.6364E-03 SPRIN         11  -0.0%   447.6      0.1250E-03   0.000       397.6       0.000      0.5000E-01   0.000    
    4866   3.097      0.6364E-03 SPRIN         11  -0.0%   447.0      0.1250E-03   0.000       397.0       0.000      0.5000E-01   0.000    
    4867   3.097      0.6364E-03 SPRIN         11  -0.0%   446.4      0.1250E-03   0.000       396.4       0.000      0.5000E-01   0.000    
    4868   3.098      0.6364E-03 SPRIN         11  -0.0%   445.9      0.1250E-03   0.000       395.9       0.000      0.5000E-01   0.000    
    4869   3.099      0.6364E-03 SPRIN         11  -0.0%   445.3      0.1250E-03   0.000       395.3       0.000      0.5000E-01   0.000    
    4870   3.099      0.6364E-03 SPRIN         11  -0.0%   444.7      0.1250E-03   0.000       394.7       0.000      0.5000E-01   0.000    
    4871   3.100      0.6364E-03 SPRIN         11  -0.0%   444.1      0.1250E-03   0.000       394.1       0.000      0.5000E-01   0.000    
    4872   3.101      0.6364E-03 SPRIN         11  -0.0%   443.5      0.1250E-03   0.000       393.5       0.000      0.5000E-01   0.000    
    4873   3.101      0.6364E-03 SPRIN         11  -0.0%   443.0      0.1250E-03   0.000       393.0       0.000      0.5000E-01   0.000    
    4874   3.102      0.6364E-03 SPRIN         11  -0.0%   442.4      0.1250E-03   0.000       392.4       0.000      0.5000E-01   0.000    
    4875   3.102      0.6364E-03 SPRIN         11  -0.0%   441.8      0.1250E-03   0.000       391.8       0.000      0.5000E-01   0.000    
    4876   3.103      0.6364E-03 SPRIN         11  -0.0%   441.2      0.1250E-03   0.000       391.2       0.000      0.5000E-01   0.000    
    4877   3.104      0.6364E-03 SPRIN         11  -0.0%   440.7      0.1250E-03   0.000       390.7       0.000      0.5000E-01   0.000    
    4878   3.104      0.6364E-03 SPRIN         11  -0.0%   440.1      0.1250E-03   0.000       390.1       0.000      0.5000E-01   0.000    
    4879   3.105      0.6364E-03 SPRIN         11  -0.0%   439.5      0.1250E-03   0.000       389.5       0.000      0.5000E-01   0.000    
    4880   3.106      0.6364E-03 SPRIN         11  -0.0%   438.9      0.1250E-03   0.000       388.9       0.000      0.5000E-01   0.000    
    4881   3.106      0.6364E-03 SPRIN         11  -0.0%   438.4      0.1250E-03   0.000       388.4       0.000      0.5000E-01   0.000    
    4882   3.107      0.6364E-03 SPRIN         11  -0.0%   437.8      0.1250E-03   0.000       387.8       0.000      0.5000E-01   0.000    
    4883   3.108      0.6364E-03 SPRIN         11  -0.0%   437.2      0.1250E-03   0.000       387.2       0.000      0.5000E-01   0.000    
    4884   3.108      0.6364E-03 SPRIN         11  -0.0%   436.6      0.1250E-03   0.000       386.6       0.000      0.5000E-01   0.000    
    4885   3.109      0.6364E-03 SPRIN         11  -0.0%   436.1      0.1250E-03   0.000       386.1       0.000      0.5000E-01   0.000    
    4886   3.109      0.6364E-03 SPRIN         11  -0.0%   435.5      0.1250E-03   0.000       385.5       0.000      0.5000E-01   0.000    
    4887   3.110      0.6364E-03 SPRIN         11  -0.0%   434.9      0.1250E-03   0.000       384.9       0.000      0.5000E-01   0.000    
    4888   3.111      0.6364E-03 SPRIN         11  -0.0%   434.4      0.1250E-03   0.000       384.4       0.000      0.5000E-01   0.000    
    4889   3.111      0.6364E-03 SPRIN         11  -0.0%   433.8      0.1250E-03   0.000       383.8       0.000      0.5000E-01   0.000    
    4890   3.112      0.6364E-03 SPRIN         11  -0.0%   433.2      0.1250E-03   0.000       383.2       0.000      0.5000E-01   0.000    
    4891   3.113      0.6364E-03 SPRIN         11  -0.0%   432.6      0.1250E-03   0.000       382.6       0.000      0.5000E-01   0.000    
    4892   3.113      0.6364E-03 SPRIN         11  -0.0%   432.1      0.1250E-03   0.000       382.1       0.000      0.5000E-01   0.000    
    4893   3.114      0.6364E-03 SPRIN         11  -0.0%   431.5      0.1250E-03   0.000       381.5       0.000      0.5000E-01   0.000    
    4894   3.115      0.6364E-03 SPRIN         11  -0.0%   430.9      0.1250E-03   0.000       380.9       0.000      0.5000E-01   0.000    
   CYCLE    TIME      TIME-STEP  ELEMENT          ERROR  I-ENERGY    K-ENERGY T  K-ENERGY R  EXT-WORK     MAS.ERR     TOTAL MASS  MASS ADDED
    4895   3.115      0.6364E-03 SPRIN         11  -0.0%   430.4      0.1250E-03   0.000       380.4       0.000      0.5000E-01   0.000    
    4896   3.116      0.6364E-03 SPRIN         11  -0.0%   429.8      0.1250E-03   0.000       379.8       0.000      0.5000E-01   0.000    
    4897   3.116      0.6364E-03 SPRIN         11  -0.0%   429.2      0.1250E-03   0.000       379.2       0.000      0.5000E-01   0.000    
    4898   3.117      0.6364E-03 SPRIN         11  -0.0%   428.7      0.1250E-03   0.000       378.7       0.000      0.5000E-01   0.000    
    4899   3.118      0.6364E-03 SPRIN         11  -0.0%   428.1      0.1250E-03   0.000       378.1       0.000      0.5000E-01   0.000    
    4900   3.118      0.6364E-03 SPRIN         11  -0.0%   427.5      0.1250E-03   0.000       377.5       0.000      0.5000E-01   0.000    
    4901   3.119      0.6364E-03 SPRIN         11  -0.0%   427.0      0.1250E-03   0.000       377.0       0.000      0.5000E-01   0.000    
    4902   3.120      0.6364E-03 SPRIN         11  -0.0%   426.4      0.1250E-03   0.000       376.4       0.000      0.5000E-01   0.000    
    4903   3.120      0.6364E-03 SPRIN         11  -0.0%   425.8      0.1250E-03   0.000       375.8       0.000      0.5000E-01   0.000    
    4904   3.121      0.6364E-03 SPRIN         11  -0.0%   425.3      0.1250E-03   0.000       375.3       0.000      0.5000E-01   0.000    
    4905   3.122      0.6364E-03 SPRIN         11  -0.0%   424.7      0.1250E-03   0.000       374.7       0.000      0.5000E-01   0.000    
    4906   3.122      0.6364E-03 SPRIN         11  -0.0%   424.1      0.1250E-03   0.000       374.1       0.000      0.5000E-01   0.000    
    4907   3.123      0.6364E-03 SPRIN         11  -0.0%   423.6      0.1250E-03   0.000       373.6       0.000      0.5000E-01   0.000    
    4908   3.123      0.6364E-03 SPRIN         11  -0.0%   423.0      0.1250E-03   0.000       373.0       0.000      0.5000E-01   0.000    
    4909   3.124      0.6364E-03 SPRIN         11  -0.0%   422.5      0.1250E-03   0.000       372.5       0.000      0.5000E-01   0.000    
    4910   3.125      0.6364E-03 SPRIN         11  -0.0%   421.9      0.1250E-03   0.000       371.9       0.000      0.5000E-01   0.000    
    4911   3.125      0.6364E-03 SPRIN         11  -0.0%   421.3      0.1250E-03   0.000       371.3       0.000      0.5000E-01   0.000    
    4912   3.126      0.6364E-03 SPRIN         11  -0.0%   420.8      0.1250E-03   0.000       370.8       0.000      0.5000E-01   0.000    
    4913   3.127      0.6364E-03 SPRIN         11  -0.0%   420.2      0.1250E-03   0.000       370.2       0.000      0.5000E-01   0.000    
    4914   3.127      0.6364E-03 SPRIN         11  -0.0%   419.7      0.1250E-03   0.000       369.7       0.000      0.5000E-01   0.000    
    4915   3.128      0.6364E-03 SPRIN         11  -0.0%   419.1      0.1250E-03   0.000       369.1       0.000      0.5000E-01   0.000    
    4916   3.129      0.6364E-03 SPRIN         11  -0.0%   418.5      0.1250E-03   0.000       368.5       0.000      0.5000E-01   0.000    
    4917   3.129      0.6364E-03 SPRIN         11  -0.0%   418.0      0.1250E-03   0.000       368.0       0.000      0.5000E-01   0.000    
    4918   3.130      0.6364E-03 SPRIN         11  -0.0%   417.4      0.1250E-03   0.000       367.4       0.000      0.5000E-01   0.000    
    4919   3.130      0.6364E-03 SPRIN         11  -0.0%   416.9      0.1250E-03   0.000       366.9       0.000      0.5000E-01   0.000    
    4920   3.131      0.6364E-03 SPRIN         11  -0.0%   416.3      0.1250E-03   0.000       366.3       0.000      0.5000E-01   0.000    
    4921   3.132      0.6364E-03 SPRIN         11  -0.0%   415.7      0.1250E-03   0.000       365.7       0.000      0.5000E-01   0.000    
    4922   3.132      0.6364E-03 SPRIN         11  -0.0%   415.2      0.1250E-03   0.000       365.2       0.000      0.5000E-01   0.000    
    4923   3.133      0.6364E-03 SPRIN         11  -0.0%   414.6      0.1250E-03   0.000       364.6       0.000      0.5000E-01   0.000    
    4924   3.134      0.6364E-03 SPRIN         11  -0.0%   414.1      0.1250E-03   0.000       364.1       0.000      0.5000E-01   0.000    
    4925   3.134      0.6364E-03 SPRIN         11  -0.0%   413.5      0.1250E-03   0.000       363.5       0.000      0.5000E-01   0.000    
    4926   3.135      0.6364E-03 SPRIN         11  -0.0%   413.0      0.1250E-03   0.000       363.0       0.000      0.5000E-01   0.000    
    4927   3.136      0.6364E-03 SPRIN         11  -0.0%   412.4      0.1250E-03   0.000       362.4       0.000      0.5000E-01   0.000    
    4928   3.136      0.6364E-03 SPRIN         11  -0.0%   411.8      0.1250E-03   0.000       361.8       0.000      0.5000E-01   0.000    
    4929   3.137      0.6364E-03 SPRIN         11  -0.0%   411.3      0.1250E-03   0.000       361.3       0.000      0.5000E-01   0.000    
    4930   3.137      0.6364E-03 SPRIN         11  -0.0%   410.7      0.1250E-03   0.000       360.7       0.000      0.5000E-01   0.000    
    4931   3.138      0.6364E-03 SPRIN         11  -0.0%   410.2      0.1250E-03   0.000       360.2       0.000      0.5000E-01   0.000    
    4932   3.139      0.6364E-03 SPRIN         11  -0.0%   409.6      0.1250E-03   0.000       359.6       0.000      0.5000E-01   0.000    
    4933   3.139      0.6364E-03 SPRIN         11  -0.0%   409.1      0.1250E-03   0.000       359.1       0.000      0.5000E-01   0.000    
    4934   3.140      0.6364E-03 SPRIN         11  -0.0%   408.5      0.1250E-03   0.000       358.5       0.000      0.5000E-01   0.000    
    4935   3.141      0.6364E-03 SPRIN         11  -0.0%   408.0      0.1250E-03   0.000       358.0       0.000      0.5000E-01   0.000    
    4936   3.141      0.6364E-03 SPRIN         11  -0.0%   407.4      0.1250E-03   0.000       357.4       0.000      0.5000E-01   0.000    
    4937   3.142      0.6364E-03 SPRIN         11  -0.0%   406.9      0.1250E-03   0.000       356.9       0.000      0.5000E-01   0.000    
    4938   3.143      0.6364E-03 SPRIN         11  -0.0%   406.3      0.1250E-03   0.000       356.3       0.000      0.5000E-01   0.000    
    4939   3.143      0.6364E-03 SPRIN         11  -0.0%   405.8      0.1250E-03   0.000       355.8       0.000      0.5000E-01   0.000    
    4940   3.144      0.6364E-03 SPRIN         11  -0.0%   405.2      0.1250E-03   0.000       355.2       0.000      0.5000E-01   0.000    
    4941   3.144      0.6364E-03 SPRIN         11  -0.0%   404.7      0.1250E-03   0.000       354.7       0.000      0.5000E-01   0.000    
    4942   3.145      0.6364E-03 SPRIN         11  -0.0%   404.1      0.1250E-03   0.000       354.1       0.000      0.5000E-01   0.000    
    4943   3.146      0.6364E-03 SPRIN         11  -0.0%   403.6      0.1250E-03   0.000       353.6       0.000      0.5000E-01   0.000    
    4944   3.146      0.6364E-03 SPRIN         11  -0.0%   403.0      0.1250E-03   0.000       353.0       0.000      0.5000E-01   0.000    
    4945   3.147      0.6364E-03 SPRIN         11  -0.0%   402.5      0.1250E-03   0.000       352.5       0.000      0.5000E-01   0.000    
    4946   3.148      0.6364E-03 SPRIN         11  -0.0%   401.9      0.1250E-03   0.000       351.9       0.000      0.5000E-01   0.000    
    4947   3.148      0.6364E-03 SPRIN         11  -0.0%   401.4      0.1250E-03   0.000       351.4       0.000      0.5000E-01   0.000    
    4948   3.149      0.6364E-03 SPRIN         11  -0.0%   400.8      0.1250E-03   0.000       350.8       0.000      0.5000E-01   0.000    
    4949   3.150      0.6364E-03 SPRIN         11  -0.0%   400.3      0.1250E-03   0.000       350.3       0.000      0.5000E-01   0.000    
   CYCLE    TIME      TIME-STEP  ELEMENT          ERROR  I-ENERGY    K-ENERGY T  K-ENERGY R  EXT-WORK     MAS.ERR     TOTAL MASS  MASS ADDED
    4950   3.150      0.6364E-03 SPRIN         11  -0.0%   399.7      0.1250E-03   0.000       349.7       0.000      0.5000E-01   0.000    
    4951   3.151      0.6364E-03 SPRIN         11  -0.0%   399.2      0.1250E-03   0.000       349.2       0.000      0.5000E-01   0.000    
    4952   3.151      0.6364E-03 SPRIN         11  -0.0%   398.7      0.1250E-03   0.000       348.7       0.000      0.5000E-01   0.000    
    4953   3.152      0.6364E-03 SPRIN         11  -0.0%   398.1      0.1250E-03   0.000       348.1       0.000      0.5000E-01   0.000    
    4954   3.153      0.6364E-03 SPRIN         11  -0.0%   397.6      0.1250E-03   0.000       347.6       0.000      0.5000E-01   0.000    
    4955   3.153      0.6364E-03 SPRIN         11  -0.0%   397.0      0.1250E-03   0.000       347.0       0.000      0.5000E-01   0.000    
    4956   3.154      0.6364E-03 SPRIN         11  -0.0%   396.5      0.1250E-03   0.000       346.5       0.000      0.5000E-01   0.000    
    4957   3.155      0.6364E-03 SPRIN         11  -0.0%   395.9      0.1250E-03   0.000       345.9       0.000      0.5000E-01   0.000    
    4958   3.155      0.6364E-03 SPRIN         11  -0.0%   395.4      0.1250E-03   0.000       345.4       0.000      0.5000E-01   0.000    
    4959   3.156      0.6364E-03 SPRIN         11  -0.0%   394.8      0.1250E-03   0.000       344.8       0.000      0.5000E-01   0.000    
    4960   3.157      0.6364E-03 SPRIN         11  -0.0%   394.3      0.1250E-03   0.000       344.3       0.000      0.5000E-01   0.000    
    4961   3.157      0.6364E-03 SPRIN         11  -0.0%   393.8      0.1250E-03   0.000       343.8       0.000      0.5000E-01   0.000    
    4962   3.158      0.6364E-03 SPRIN         11  -0.0%   393.2      0.1250E-03   0.000       343.2       0.000      0.5000E-01   0.000    
    4963   3.158      0.6364E-03 SPRIN         11  -0.0%   392.7      0.1250E-03   0.000       342.7       0.000      0.5000E-01   0.000    
    4964   3.159      0.6364E-03 SPRIN         11  -0.0%   392.1      0.1250E-03   0.000       342.1       0.000      0.5000E-01   0.000    
    4965   3.160      0.6364E-03 SPRIN         11  -0.0%   391.6      0.1250E-03   0.000       341.6       0.000      0.5000E-01   0.000    
    4966   3.160      0.6364E-03 SPRIN         11  -0.0%   391.1      0.1250E-03   0.000       341.1       0.000      0.5000E-01   0.000    
    4967   3.161      0.6364E-03 SPRIN         11  -0.0%   390.5      0.1250E-03   0.000       340.5       0.000      0.5000E-01   0.000    
    4968   3.162      0.6364E-03 SPRIN         11  -0.0%   390.0      0.1250E-03   0.000       340.0       0.000      0.5000E-01   0.000    
    4969   3.162      0.6364E-03 SPRIN         11  -0.0%   389.4      0.1250E-03   0.000       339.4       0.000      0.5000E-01   0.000    
    4970   3.163      0.6364E-03 SPRIN         11  -0.0%   388.9      0.1250E-03   0.000       338.9       0.000      0.5000E-01   0.000    
    4971   3.164      0.6364E-03 SPRIN         11  -0.0%   388.4      0.1250E-03   0.000       338.4       0.000      0.5000E-01   0.000    
    4972   3.164      0.6364E-03 SPRIN         11  -0.0%   387.8      0.1250E-03   0.000       337.8       0.000      0.5000E-01   0.000    
    4973   3.165      0.6364E-03 SPRIN         11  -0.0%   387.3      0.1250E-03   0.000       337.3       0.000      0.5000E-01   0.000    
    4974   3.165      0.6364E-03 SPRIN         11  -0.0%   386.8      0.1250E-03   0.000       336.8       0.000      0.5000E-01   0.000    
    4975   3.166      0.6364E-03 SPRIN         11  -0.0%   386.2      0.1250E-03   0.000       336.2       0.000      0.5000E-01   0.000    
    4976   3.167      0.6364E-03 SPRIN         11  -0.0%   385.7      0.1250E-03   0.000       335.7       0.000      0.5000E-01   0.000    
    4977   3.167      0.6364E-03 SPRIN         11  -0.0%   385.2      0.1250E-03   0.000       335.2       0.000      0.5000E-01   0.000    
    4978   3.168      0.6364E-03 SPRIN         11  -0.0%   384.6      0.1250E-03   0.000       334.6       0.000      0.5000E-01   0.000    
    4979   3.169      0.6364E-03 SPRIN         11  -0.0%   384.1      0.1250E-03   0.000       334.1       0.000      0.5000E-01   0.000    
    4980   3.169      0.6364E-03 SPRIN         11  -0.0%   383.6      0.1250E-03   0.000       333.6       0.000      0.5000E-01   0.000    
    4981   3.170      0.6364E-03 SPRIN         11  -0.0%   383.0      0.1250E-03   0.000       333.0       0.000      0.5000E-01   0.000    
    4982   3.171      0.6364E-03 SPRIN         11  -0.0%   382.5      0.1250E-03   0.000       332.5       0.000      0.5000E-01   0.000    
    4983   3.171      0.6364E-03 SPRIN         11  -0.0%   382.0      0.1250E-03   0.000       332.0       0.000      0.5000E-01   0.000    
    4984   3.172      0.6364E-03 SPRIN         11  -0.0%   381.4      0.1250E-03   0.000       331.4       0.000      0.5000E-01   0.000    
    4985   3.172      0.6364E-03 SPRIN         11  -0.0%   380.9      0.1250E-03   0.000       330.9       0.000      0.5000E-01   0.000    
    4986   3.173      0.6364E-03 SPRIN         11  -0.0%   380.4      0.1250E-03   0.000       330.4       0.000      0.5000E-01   0.000    
    4987   3.174      0.6364E-03 SPRIN         11  -0.0%   379.8      0.1250E-03   0.000       329.8       0.000      0.5000E-01   0.000    
    4988   3.174      0.6364E-03 SPRIN         11  -0.0%   379.3      0.1250E-03   0.000       329.3       0.000      0.5000E-01   0.000    
    4989   3.175      0.6364E-03 SPRIN         11  -0.0%   378.8      0.1250E-03   0.000       328.8       0.000      0.5000E-01   0.000    
    4990   3.176      0.6364E-03 SPRIN         11  -0.0%   378.2      0.1250E-03   0.000       328.2       0.000      0.5000E-01   0.000    
    4991   3.176      0.6364E-03 SPRIN         11  -0.0%   377.7      0.1250E-03   0.000       327.7       0.000      0.5000E-01   0.000    
    4992   3.177      0.6364E-03 SPRIN         11  -0.0%   377.2      0.1250E-03   0.000       327.2       0.000      0.5000E-01   0.000    
    4993   3.178      0.6364E-03 SPRIN         11  -0.0%   376.6      0.1250E-03   0.000       326.6       0.000      0.5000E-01   0.000    
    4994   3.178      0.6364E-03 SPRIN         11  -0.0%   376.1      0.1250E-03   0.000       326.1       0.000      0.5000E-01   0.000    
    4995   3.179      0.6364E-03 SPRIN         11  -0.0%   375.6      0.1250E-03   0.000       325.6       0.000      0.5000E-01   0.000    
    4996   3.179      0.6364E-03 SPRIN         11  -0.0%   375.1      0.1250E-03   0.000       325.1       0.000      0.5000E-01   0.000    
    4997   3.180      0.6364E-03 SPRIN         11  -0.0%   374.5      0.1250E-03   0.000       324.5       0.000      0.5000E-01   0.000    
    4998   3.181      0.6364E-03 SPRIN         11  -0.0%   374.0      0.1250E-03   0.000       324.0       0.000      0.5000E-01   0.000    
    4999   3.181      0.6364E-03 SPRIN         11  -0.0%   373.5      0.1250E-03   0.000       323.5       0.000      0.5000E-01   0.000    
    5000   3.182      0.6364E-03 SPRIN         11  -0.0%   373.0      0.1250E-03   0.000       323.0       0.000      0.5000E-01   0.000    
    5001   3.183      0.6364E-03 SPRIN         11  -0.0%   372.4      0.1250E-03   0.000       322.4       0.000      0.5000E-01   0.000    
    5002   3.183      0.6364E-03 SPRIN         11  -0.0%   371.9      0.1250E-03   0.000       321.9       0.000      0.5000E-01   0.000    
    5003   3.184      0.6364E-03 SPRIN         11  -0.0%   371.4      0.1250E-03   0.000       321.4       0.000      0.5000E-01   0.000    
    5004   3.185      0.6364E-03 SPRIN         11  -0.0%   370.9      0.1250E-03   0.000       320.9       0.000      0.5000E-01   0.000    
   CYCLE    TIME      TIME-STEP  ELEMENT          ERROR  I-ENERGY    K-ENERGY T  K-ENERGY R  EXT-WORK     MAS.ERR     TOTAL MASS  MASS ADDED
    5005   3.185      0.6364E-03 SPRIN         11  -0.0%   370.3      0.1250E-03   0.000       320.3       0.000      0.5000E-01   0.000    
    5006   3.186      0.6364E-03 SPRIN         11  -0.0%   369.8      0.1250E-03   0.000       319.8       0.000      0.5000E-01   0.000    
    5007   3.186      0.6364E-03 SPRIN         11  -0.0%   369.3      0.1250E-03   0.000       319.3       0.000      0.5000E-01   0.000    
    5008   3.187      0.6364E-03 SPRIN         11  -0.0%   368.8      0.1250E-03   0.000       318.8       0.000      0.5000E-01   0.000    
    5009   3.188      0.6364E-03 SPRIN         11  -0.0%   368.2      0.1250E-03   0.000       318.2       0.000      0.5000E-01   0.000    
    5010   3.188      0.6364E-03 SPRIN         11  -0.0%   367.7      0.1250E-03   0.000       317.7       0.000      0.5000E-01   0.000    
    5011   3.189      0.6364E-03 SPRIN         11  -0.0%   367.2      0.1250E-03   0.000       317.2       0.000      0.5000E-01   0.000    
    5012   3.190      0.6364E-03 SPRIN         11  -0.0%   366.7      0.1250E-03   0.000       316.7       0.000      0.5000E-01   0.000    
    5013   3.190      0.6364E-03 SPRIN         11  -0.0%   366.2      0.1250E-03   0.000       316.2       0.000      0.5000E-01   0.000    
    5014   3.191      0.6364E-03 SPRIN         11  -0.0%   365.6      0.1250E-03   0.000       315.6       0.000      0.5000E-01   0.000    
    5015   3.192      0.6364E-03 SPRIN         11  -0.0%   365.1      0.1250E-03   0.000       315.1       0.000      0.5000E-01   0.000    
    5016   3.192      0.6364E-03 SPRIN         11  -0.0%   364.6      0.1250E-03   0.000       314.6       0.000      0.5000E-01   0.000    
    5017   3.193      0.6364E-03 SPRIN         11  -0.0%   364.1      0.1250E-03   0.000       314.1       0.000      0.5000E-01   0.000    
    5018   3.193      0.6364E-03 SPRIN         11  -0.0%   363.6      0.1250E-03   0.000       313.6       0.000      0.5000E-01   0.000    
    5019   3.194      0.6364E-03 SPRIN         11  -0.0%   363.0      0.1250E-03   0.000       313.0       0.000      0.5000E-01   0.000    
    5020   3.195      0.6364E-03 SPRIN         11  -0.0%   362.5      0.1250E-03   0.000       312.5       0.000      0.5000E-01   0.000    
    5021   3.195      0.6364E-03 SPRIN         11  -0.0%   362.0      0.1250E-03   0.000       312.0       0.000      0.5000E-01   0.000    
    5022   3.196      0.6364E-03 SPRIN         11  -0.0%   361.5      0.1250E-03   0.000       311.5       0.000      0.5000E-01   0.000    
    5023   3.197      0.6364E-03 SPRIN         11  -0.0%   361.0      0.1250E-03   0.000       311.0       0.000      0.5000E-01   0.000    
    5024   3.197      0.6364E-03 SPRIN         11  -0.0%   360.5      0.1250E-03   0.000       310.5       0.000      0.5000E-01   0.000    
    5025   3.198      0.6364E-03 SPRIN         11  -0.0%   359.9      0.1250E-03   0.000       309.9       0.000      0.5000E-01   0.000    
    5026   3.199      0.6364E-03 SPRIN         11  -0.0%   359.4      0.1250E-03   0.000       309.4       0.000      0.5000E-01   0.000    
    5027   3.199      0.6364E-03 SPRIN         11  -0.0%   358.9      0.1250E-03   0.000       308.9       0.000      0.5000E-01   0.000    
    5028   3.200      0.6364E-03 SPRIN         11  -0.0%   358.4      0.1250E-03   0.000       308.4       0.000      0.5000E-01   0.000    
    5029   3.200      0.6364E-03 SPRIN         11  -0.0%   357.9      0.1250E-03   0.000       307.9       0.000      0.5000E-01   0.000    
     ANIMATION FILE: SPR_PRE_2FLAGA017 WRITTEN
    5030   3.201      0.6364E-03 SPRIN         11  -0.0%   357.4      0.1250E-03   0.000       307.4       0.000      0.5000E-01   0.000    
    5031   3.202      0.6364E-03 SPRIN         11  -0.0%   356.9      0.1250E-03   0.000       306.9       0.000      0.5000E-01   0.000    
    5032   3.202      0.6364E-03 SPRIN         11  -0.0%   356.3      0.1250E-03   0.000       306.3       0.000      0.5000E-01   0.000    
    5033   3.203      0.6364E-03 SPRIN         11  -0.0%   355.8      0.1250E-03   0.000       305.8       0.000      0.5000E-01   0.000    
    5034   3.204      0.6364E-03 SPRIN         11  -0.0%   355.3      0.1250E-03   0.000       305.3       0.000      0.5000E-01   0.000    
    5035   3.204      0.6364E-03 SPRIN         11  -0.0%   354.8      0.1250E-03   0.000       304.8       0.000      0.5000E-01   0.000    
    5036   3.205      0.6364E-03 SPRIN         11  -0.0%   354.3      0.1250E-03   0.000       304.3       0.000      0.5000E-01   0.000    
    5037   3.206      0.6364E-03 SPRIN         11  -0.0%   353.8      0.1250E-03   0.000       303.8       0.000      0.5000E-01   0.000    
    5038   3.206      0.6364E-03 SPRIN         11  -0.0%   353.3      0.1250E-03   0.000       303.3       0.000      0.5000E-01   0.000    
    5039   3.207      0.6364E-03 SPRIN         11  -0.0%   352.8      0.1250E-03   0.000       302.8       0.000      0.5000E-01   0.000    
    5040   3.207      0.6364E-03 SPRIN         11  -0.0%   352.3      0.1250E-03   0.000       302.3       0.000      0.5000E-01   0.000    
    5041   3.208      0.6364E-03 SPRIN         11  -0.0%   351.8      0.1250E-03   0.000       301.8       0.000      0.5000E-01   0.000    
    5042   3.209      0.6364E-03 SPRIN         11  -0.0%   351.2      0.1250E-03   0.000       301.2       0.000      0.5000E-01   0.000    
    5043   3.209      0.6364E-03 SPRIN         11  -0.0%   350.7      0.1250E-03   0.000       300.7       0.000      0.5000E-01   0.000    
    5044   3.210      0.6364E-03 SPRIN         11  -0.0%   350.2      0.1250E-03   0.000       300.2       0.000      0.5000E-01   0.000    
    5045   3.211      0.6364E-03 SPRIN         11  -0.0%   349.7      0.1250E-03   0.000       299.7       0.000      0.5000E-01   0.000    
    5046   3.211      0.6364E-03 SPRIN         11  -0.0%   349.2      0.1250E-03   0.000       299.2       0.000      0.5000E-01   0.000    
    5047   3.212      0.6364E-03 SPRIN         11  -0.0%   348.7      0.1250E-03   0.000       298.7       0.000      0.5000E-01   0.000    
    5048   3.213      0.6364E-03 SPRIN         11  -0.0%   348.2      0.1250E-03   0.000       298.2       0.000      0.5000E-01   0.000    
    5049   3.213      0.6364E-03 SPRIN         11  -0.0%   347.7      0.1250E-03   0.000       297.7       0.000      0.5000E-01   0.000    
    5050   3.214      0.6364E-03 SPRIN         11  -0.0%   347.2      0.1250E-03   0.000       297.2       0.000      0.5000E-01   0.000    
    5051   3.214      0.6364E-03 SPRIN         11  -0.0%   346.7      0.1250E-03   0.000       296.7       0.000      0.5000E-01   0.000    
    5052   3.215      0.6364E-03 SPRIN         11  -0.0%   346.2      0.1250E-03   0.000       296.2       0.000      0.5000E-01   0.000    
    5053   3.216      0.6364E-03 SPRIN         11  -0.0%   345.7      0.1250E-03   0.000       295.7       0.000      0.5000E-01   0.000    
    5054   3.216      0.6364E-03 SPRIN         11  -0.0%   345.2      0.1250E-03   0.000       295.2       0.000      0.5000E-01   0.000    
    5055   3.217      0.6364E-03 SPRIN         11  -0.0%   344.7      0.1250E-03   0.000       294.7       0.000      0.5000E-01   0.000    
    5056   3.218      0.6364E-03 SPRIN         11  -0.0%   344.2      0.1250E-03   0.000       294.2       0.000      0.5000E-01   0.000    
    5057   3.218      0.6364E-03 SPRIN         11  -0.0%   343.7      0.1250E-03   0.000       293.7       0.000      0.5000E-01   0.000    
    5058   3.219      0.6364E-03 SPRIN         11  -0.0%   343.2      0.1250E-03   0.000       293.2       0.000      0.5000E-01   0.000    
    5059   3.220      0.6364E-03 SPRIN         11  -0.0%   342.7      0.1250E-03   0.000       292.7       0.000      0.5000E-01   0.000    
   CYCLE    TIME      TIME-STEP  ELEMENT          ERROR  I-ENERGY    K-ENERGY T  K-ENERGY R  EXT-WORK     MAS.ERR     TOTAL MASS  MASS ADDED
    5060   3.220      0.6364E-03 SPRIN         11  -0.0%   342.2      0.1250E-03   0.000       292.2       0.000      0.5000E-01   0.000    
    5061   3.221      0.6364E-03 SPRIN         11  -0.0%   341.7      0.1250E-03   0.000       291.7       0.000      0.5000E-01   0.000    
    5062   3.221      0.6364E-03 SPRIN         11  -0.0%   341.2      0.1250E-03   0.000       291.2       0.000      0.5000E-01   0.000    
    5063   3.222      0.6364E-03 SPRIN         11  -0.0%   340.7      0.1250E-03   0.000       290.7       0.000      0.5000E-01   0.000    
    5064   3.223      0.6364E-03 SPRIN         11  -0.0%   340.2      0.1250E-03   0.000       290.2       0.000      0.5000E-01   0.000    
    5065   3.223      0.6364E-03 SPRIN         11  -0.0%   339.7      0.1250E-03   0.000       289.7       0.000      0.5000E-01   0.000    
    5066   3.224      0.6364E-03 SPRIN         11  -0.0%   339.2      0.1250E-03   0.000       289.2       0.000      0.5000E-01   0.000    
    5067   3.225      0.6364E-03 SPRIN         11  -0.0%   338.7      0.1250E-03   0.000       288.7       0.000      0.5000E-01   0.000    
    5068   3.225      0.6364E-03 SPRIN         11  -0.0%   338.2      0.1250E-03   0.000       288.2       0.000      0.5000E-01   0.000    
    5069   3.226      0.6364E-03 SPRIN         11  -0.0%   337.7      0.1250E-03   0.000       287.7       0.000      0.5000E-01   0.000    
    5070   3.227      0.6364E-03 SPRIN         11  -0.0%   337.2      0.1250E-03   0.000       287.2       0.000      0.5000E-01   0.000    
    5071   3.227      0.6364E-03 SPRIN         11  -0.0%   336.7      0.1250E-03   0.000       286.7       0.000      0.5000E-01   0.000    
    5072   3.228      0.6364E-03 SPRIN         11  -0.0%   336.2      0.1250E-03   0.000       286.2       0.000      0.5000E-01   0.000    
    5073   3.228      0.6364E-03 SPRIN         11  -0.0%   335.7      0.1250E-03   0.000       285.7       0.000      0.5000E-01   0.000    
    5074   3.229      0.6364E-03 SPRIN         11  -0.0%   335.2      0.1250E-03   0.000       285.2       0.000      0.5000E-01   0.000    
    5075   3.230      0.6364E-03 SPRIN         11  -0.0%   334.7      0.1250E-03   0.000       284.7       0.000      0.5000E-01   0.000    
    5076   3.230      0.6364E-03 SPRIN         11  -0.0%   334.2      0.1250E-03   0.000       284.2       0.000      0.5000E-01   0.000    
    5077   3.231      0.6364E-03 SPRIN         11  -0.0%   333.7      0.1250E-03   0.000       283.7       0.000      0.5000E-01   0.000    
    5078   3.232      0.6364E-03 SPRIN         11  -0.0%   333.2      0.1250E-03   0.000       283.2       0.000      0.5000E-01   0.000    
    5079   3.232      0.6364E-03 SPRIN         11  -0.0%   332.7      0.1250E-03   0.000       282.7       0.000      0.5000E-01   0.000    
    5080   3.233      0.6364E-03 SPRIN         11  -0.0%   332.2      0.1250E-03   0.000       282.2       0.000      0.5000E-01   0.000    
    5081   3.234      0.6364E-03 SPRIN         11  -0.0%   331.7      0.1250E-03   0.000       281.7       0.000      0.5000E-01   0.000    
    5082   3.234      0.6364E-03 SPRIN         11  -0.0%   331.2      0.1250E-03   0.000       281.2       0.000      0.5000E-01   0.000    
    5083   3.235      0.6364E-03 SPRIN         11  -0.0%   330.7      0.1250E-03   0.000       280.7       0.000      0.5000E-01   0.000    
    5084   3.235      0.6364E-03 SPRIN         11  -0.0%   330.2      0.1250E-03   0.000       280.2       0.000      0.5000E-01   0.000    
    5085   3.236      0.6364E-03 SPRIN         11  -0.0%   329.8      0.1250E-03   0.000       279.8       0.000      0.5000E-01   0.000    
    5086   3.237      0.6364E-03 SPRIN         11  -0.0%   329.3      0.1250E-03   0.000       279.3       0.000      0.5000E-01   0.000    
    5087   3.237      0.6364E-03 SPRIN         11  -0.0%   328.8      0.1250E-03   0.000       278.8       0.000      0.5000E-01   0.000    
    5088   3.238      0.6364E-03 SPRIN         11  -0.0%   328.3      0.1250E-03   0.000       278.3       0.000      0.5000E-01   0.000    
    5089   3.239      0.6364E-03 SPRIN         11  -0.0%   327.8      0.1250E-03   0.000       277.8       0.000      0.5000E-01   0.000    
    5090   3.239      0.6364E-03 SPRIN         11  -0.0%   327.3      0.1250E-03   0.000       277.3       0.000      0.5000E-01   0.000    
    5091   3.240      0.6364E-03 SPRIN         11  -0.0%   326.8      0.1250E-03   0.000       276.8       0.000      0.5000E-01   0.000    
    5092   3.241      0.6364E-03 SPRIN         11  -0.0%   326.3      0.1250E-03   0.000       276.3       0.000      0.5000E-01   0.000    
    5093   3.241      0.6364E-03 SPRIN         11  -0.0%   325.8      0.1250E-03   0.000       275.8       0.000      0.5000E-01   0.000    
    5094   3.242      0.6364E-03 SPRIN         11  -0.0%   325.3      0.1250E-03   0.000       275.3       0.000      0.5000E-01   0.000    
    5095   3.242      0.6364E-03 SPRIN         11  -0.0%   324.9      0.1250E-03   0.000       274.9       0.000      0.5000E-01   0.000    
    5096   3.243      0.6364E-03 SPRIN         11  -0.0%   324.4      0.1250E-03   0.000       274.4       0.000      0.5000E-01   0.000    
    5097   3.244      0.6364E-03 SPRIN         11  -0.0%   323.9      0.1250E-03   0.000       273.9       0.000      0.5000E-01   0.000    
    5098   3.244      0.6364E-03 SPRIN         11  -0.0%   323.4      0.1250E-03   0.000       273.4       0.000      0.5000E-01   0.000    
    5099   3.245      0.6364E-03 SPRIN         11  -0.0%   322.9      0.1250E-03   0.000       272.9       0.000      0.5000E-01   0.000    
    5100   3.246      0.6364E-03 SPRIN         11  -0.0%   322.4      0.1250E-03   0.000       272.4       0.000      0.5000E-01   0.000    
    5101   3.246      0.6364E-03 SPRIN         11  -0.0%   321.9      0.1250E-03   0.000       271.9       0.000      0.5000E-01   0.000    
    5102   3.247      0.6364E-03 SPRIN         11  -0.0%   321.5      0.1250E-03   0.000       271.5       0.000      0.5000E-01   0.000    
    5103   3.248      0.6364E-03 SPRIN         11  -0.0%   321.0      0.1250E-03   0.000       271.0       0.000      0.5000E-01   0.000    
    5104   3.248      0.6364E-03 SPRIN         11  -0.0%   320.5      0.1250E-03   0.000       270.5       0.000      0.5000E-01   0.000    
    5105   3.249      0.6364E-03 SPRIN         11  -0.0%   320.0      0.1250E-03   0.000       270.0       0.000      0.5000E-01   0.000    
    5106   3.249      0.6364E-03 SPRIN         11  -0.0%   319.5      0.1250E-03   0.000       269.5       0.000      0.5000E-01   0.000    
    5107   3.250      0.6364E-03 SPRIN         11  -0.0%   319.0      0.1250E-03   0.000       269.0       0.000      0.5000E-01   0.000    
    5108   3.251      0.6364E-03 SPRIN         11  -0.0%   318.6      0.1250E-03   0.000       268.6       0.000      0.5000E-01   0.000    
    5109   3.251      0.6364E-03 SPRIN         11  -0.0%   318.1      0.1250E-03   0.000       268.1       0.000      0.5000E-01   0.000    
    5110   3.252      0.6364E-03 SPRIN         11  -0.0%   317.6      0.1250E-03   0.000       267.6       0.000      0.5000E-01   0.000    
    5111   3.253      0.6364E-03 SPRIN         11  -0.0%   317.1      0.1250E-03   0.000       267.1       0.000      0.5000E-01   0.000    
    5112   3.253      0.6364E-03 SPRIN         11  -0.0%   316.6      0.1250E-03   0.000       266.6       0.000      0.5000E-01   0.000    
    5113   3.254      0.6364E-03 SPRIN         11  -0.0%   316.2      0.1250E-03   0.000       266.2       0.000      0.5000E-01   0.000    
    5114   3.255      0.6364E-03 SPRIN         11  -0.0%   315.7      0.1250E-03   0.000       265.7       0.000      0.5000E-01   0.000    
   CYCLE    TIME      TIME-STEP  ELEMENT          ERROR  I-ENERGY    K-ENERGY T  K-ENERGY R  EXT-WORK     MAS.ERR     TOTAL MASS  MASS ADDED
    5115   3.255      0.6364E-03 SPRIN         11  -0.0%   315.2      0.1250E-03   0.000       265.2       0.000      0.5000E-01   0.000    
    5116   3.256      0.6364E-03 SPRIN         11  -0.0%   314.7      0.1250E-03   0.000       264.7       0.000      0.5000E-01   0.000    
    5117   3.256      0.6364E-03 SPRIN         11  -0.0%   314.2      0.1250E-03   0.000       264.2       0.000      0.5000E-01   0.000    
    5118   3.257      0.6364E-03 SPRIN         11  -0.0%   313.8      0.1250E-03   0.000       263.8       0.000      0.5000E-01   0.000    
    5119   3.258      0.6364E-03 SPRIN         11  -0.0%   313.3      0.1250E-03   0.000       263.3       0.000      0.5000E-01   0.000    
    5120   3.258      0.6364E-03 SPRIN         11  -0.0%   312.8      0.1250E-03   0.000       262.8       0.000      0.5000E-01   0.000    
    5121   3.259      0.6364E-03 SPRIN         11  -0.0%   312.3      0.1250E-03   0.000       262.3       0.000      0.5000E-01   0.000    
    5122   3.260      0.6364E-03 SPRIN         11  -0.0%   311.9      0.1250E-03   0.000       261.9       0.000      0.5000E-01   0.000    
    5123   3.260      0.6364E-03 SPRIN         11  -0.0%   311.4      0.1250E-03   0.000       261.4       0.000      0.5000E-01   0.000    
    5124   3.261      0.6364E-03 SPRIN         11  -0.0%   310.9      0.1250E-03   0.000       260.9       0.000      0.5000E-01   0.000    
    5125   3.262      0.6364E-03 SPRIN         11  -0.0%   310.4      0.1250E-03   0.000       260.4       0.000      0.5000E-01   0.000    
    5126   3.262      0.6364E-03 SPRIN         11  -0.0%   310.0      0.1250E-03   0.000       260.0       0.000      0.5000E-01   0.000    
    5127   3.263      0.6364E-03 SPRIN         11  -0.0%   309.5      0.1250E-03   0.000       259.5       0.000      0.5000E-01   0.000    
    5128   3.263      0.6364E-03 SPRIN         11  -0.0%   309.0      0.1250E-03   0.000       259.0       0.000      0.5000E-01   0.000    
    5129   3.264      0.6364E-03 SPRIN         11  -0.0%   308.5      0.1250E-03   0.000       258.5       0.000      0.5000E-01   0.000    
    5130   3.265      0.6364E-03 SPRIN         11  -0.0%   308.1      0.1250E-03   0.000       258.1       0.000      0.5000E-01   0.000    
    5131   3.265      0.6364E-03 SPRIN         11  -0.0%   307.6      0.1250E-03   0.000       257.6       0.000      0.5000E-01   0.000    
    5132   3.266      0.6364E-03 SPRIN         11  -0.0%   307.1      0.1250E-03   0.000       257.1       0.000      0.5000E-01   0.000    
    5133   3.267      0.6364E-03 SPRIN         11  -0.0%   306.6      0.1250E-03   0.000       256.6       0.000      0.5000E-01   0.000    
    5134   3.267      0.6364E-03 SPRIN         11  -0.0%   306.2      0.1250E-03   0.000       256.2       0.000      0.5000E-01   0.000    
    5135   3.268      0.6364E-03 SPRIN         11  -0.0%   305.7      0.1250E-03   0.000       255.7       0.000      0.5000E-01   0.000    
    5136   3.269      0.6364E-03 SPRIN         11  -0.0%   305.2      0.1250E-03   0.000       255.2       0.000      0.5000E-01   0.000    
    5137   3.269      0.6364E-03 SPRIN         11  -0.0%   304.8      0.1250E-03   0.000       254.8       0.000      0.5000E-01   0.000    
    5138   3.270      0.6364E-03 SPRIN         11  -0.0%   304.3      0.1250E-03   0.000       254.3       0.000      0.5000E-01   0.000    
    5139   3.270      0.6364E-03 SPRIN         11  -0.0%   303.8      0.1250E-03   0.000       253.8       0.000      0.5000E-01   0.000    
    5140   3.271      0.6364E-03 SPRIN         11  -0.0%   303.4      0.1250E-03   0.000       253.4       0.000      0.5000E-01   0.000    
    5141   3.272      0.6364E-03 SPRIN         11  -0.0%   302.9      0.1250E-03   0.000       252.9       0.000      0.5000E-01   0.000    
    5142   3.272      0.6364E-03 SPRIN         11  -0.0%   302.4      0.1250E-03   0.000       252.4       0.000      0.5000E-01   0.000    
    5143   3.273      0.6364E-03 SPRIN         11  -0.0%   301.9      0.1250E-03   0.000       251.9       0.000      0.5000E-01   0.000    
    5144   3.274      0.6364E-03 SPRIN         11  -0.0%   301.5      0.1250E-03   0.000       251.5       0.000      0.5000E-01   0.000    
    5145   3.274      0.6364E-03 SPRIN         11  -0.0%   301.0      0.1250E-03   0.000       251.0       0.000      0.5000E-01   0.000    
    5146   3.275      0.6364E-03 SPRIN         11  -0.0%   300.5      0.1250E-03   0.000       250.5       0.000      0.5000E-01   0.000    
    5147   3.276      0.6364E-03 SPRIN         11  -0.0%   300.1      0.1250E-03   0.000       250.1       0.000      0.5000E-01   0.000    
    5148   3.276      0.6364E-03 SPRIN         11  -0.0%   299.6      0.1250E-03   0.000       249.6       0.000      0.5000E-01   0.000    
    5149   3.277      0.6364E-03 SPRIN         11  -0.0%   299.1      0.1250E-03   0.000       249.1       0.000      0.5000E-01   0.000    
    5150   3.277      0.6364E-03 SPRIN         11  -0.0%   298.7      0.1250E-03   0.000       248.7       0.000      0.5000E-01   0.000    
    5151   3.278      0.6364E-03 SPRIN         11  -0.0%   298.2      0.1250E-03   0.000       248.2       0.000      0.5000E-01   0.000    
    5152   3.279      0.6364E-03 SPRIN         11  -0.0%   297.8      0.1250E-03   0.000       247.8       0.000      0.5000E-01   0.000    
    5153   3.279      0.6364E-03 SPRIN         11  -0.0%   297.3      0.1250E-03   0.000       247.3       0.000      0.5000E-01   0.000    
    5154   3.280      0.6364E-03 SPRIN         11  -0.0%   296.8      0.1250E-03   0.000       246.8       0.000      0.5000E-01   0.000    
    5155   3.281      0.6364E-03 SPRIN         11  -0.0%   296.4      0.1250E-03   0.000       246.4       0.000      0.5000E-01   0.000    
    5156   3.281      0.6364E-03 SPRIN         11  -0.0%   295.9      0.1250E-03   0.000       245.9       0.000      0.5000E-01   0.000    
    5157   3.282      0.6364E-03 SPRIN         11  -0.0%   295.4      0.1250E-03   0.000       245.4       0.000      0.5000E-01   0.000    
    5158   3.283      0.6364E-03 SPRIN         11  -0.0%   295.0      0.1250E-03   0.000       245.0       0.000      0.5000E-01   0.000    
    5159   3.283      0.6364E-03 SPRIN         11  -0.0%   294.5      0.1250E-03   0.000       244.5       0.000      0.5000E-01   0.000    
    5160   3.284      0.6364E-03 SPRIN         11  -0.0%   294.1      0.1250E-03   0.000       244.1       0.000      0.5000E-01   0.000    
    5161   3.284      0.6364E-03 SPRIN         11  -0.0%   293.6      0.1250E-03   0.000       243.6       0.000      0.5000E-01   0.000    
    5162   3.285      0.6364E-03 SPRIN         11  -0.0%   293.1      0.1250E-03   0.000       243.1       0.000      0.5000E-01   0.000    
    5163   3.286      0.6364E-03 SPRIN         11  -0.0%   292.7      0.1250E-03   0.000       242.7       0.000      0.5000E-01   0.000    
    5164   3.286      0.6364E-03 SPRIN         11  -0.0%   292.2      0.1250E-03   0.000       242.2       0.000      0.5000E-01   0.000    
    5165   3.287      0.6364E-03 SPRIN         11  -0.0%   291.8      0.1250E-03   0.000       241.8       0.000      0.5000E-01   0.000    
    5166   3.288      0.6364E-03 SPRIN         11  -0.0%   291.3      0.1250E-03   0.000       241.3       0.000      0.5000E-01   0.000    
    5167   3.288      0.6364E-03 SPRIN         11  -0.0%   290.8      0.1250E-03   0.000       240.8       0.000      0.5000E-01   0.000    
    5168   3.289      0.6364E-03 SPRIN         11  -0.0%   290.4      0.1250E-03   0.000       240.4       0.000      0.5000E-01   0.000    
    5169   3.290      0.6364E-03 SPRIN         11  -0.0%   289.9      0.1250E-03   0.000       239.9       0.000      0.5000E-01   0.000    
   CYCLE    TIME      TIME-STEP  ELEMENT          ERROR  I-ENERGY    K-ENERGY T  K-ENERGY R  EXT-WORK     MAS.ERR     TOTAL MASS  MASS ADDED
    5170   3.290      0.6364E-03 SPRIN         11  -0.0%   289.5      0.1250E-03   0.000       239.5       0.000      0.5000E-01   0.000    
    5171   3.291      0.6364E-03 SPRIN         11  -0.0%   289.0      0.1250E-03   0.000       239.0       0.000      0.5000E-01   0.000    
    5172   3.291      0.6364E-03 SPRIN         11  -0.0%   288.6      0.1250E-03   0.000       238.6       0.000      0.5000E-01   0.000    
    5173   3.292      0.6364E-03 SPRIN         11  -0.0%   288.1      0.1250E-03   0.000       238.1       0.000      0.5000E-01   0.000    
    5174   3.293      0.6364E-03 SPRIN         11  -0.0%   287.6      0.1250E-03   0.000       237.6       0.000      0.5000E-01   0.000    
    5175   3.293      0.6364E-03 SPRIN         11  -0.0%   287.2      0.1250E-03   0.000       237.2       0.000      0.5000E-01   0.000    
    5176   3.294      0.6364E-03 SPRIN         11  -0.0%   286.7      0.1250E-03   0.000       236.7       0.000      0.5000E-01   0.000    
    5177   3.295      0.6364E-03 SPRIN         11  -0.0%   286.3      0.1250E-03   0.000       236.3       0.000      0.5000E-01   0.000    
    5178   3.295      0.6364E-03 SPRIN         11  -0.0%   285.8      0.1250E-03   0.000       235.8       0.000      0.5000E-01   0.000    
    5179   3.296      0.6364E-03 SPRIN         11  -0.0%   285.4      0.1250E-03   0.000       235.4       0.000      0.5000E-01   0.000    
    5180   3.297      0.6364E-03 SPRIN         11  -0.0%   284.9      0.1250E-03   0.000       234.9       0.000      0.5000E-01   0.000    
    5181   3.297      0.6364E-03 SPRIN         11  -0.0%   284.5      0.1250E-03   0.000       234.5       0.000      0.5000E-01   0.000    
    5182   3.298      0.6364E-03 SPRIN         11  -0.0%   284.0      0.1250E-03   0.000       234.0       0.000      0.5000E-01   0.000    
    5183   3.298      0.6364E-03 SPRIN         11  -0.0%   283.6      0.1250E-03   0.000       233.6       0.000      0.5000E-01   0.000    
    5184   3.299      0.6364E-03 SPRIN         11  -0.0%   283.1      0.1250E-03   0.000       233.1       0.000      0.5000E-01   0.000    
    5185   3.300      0.6364E-03 SPRIN         11  -0.0%   282.7      0.1250E-03   0.000       232.7       0.000      0.5000E-01   0.000    
    5186   3.300      0.6364E-03 SPRIN         11  -0.0%   282.2      0.1250E-03   0.000       232.2       0.000      0.5000E-01   0.000    
    5187   3.301      0.6364E-03 SPRIN         11  -0.0%   281.8      0.1250E-03   0.000       231.8       0.000      0.5000E-01   0.000    
    5188   3.302      0.6364E-03 SPRIN         11  -0.0%   281.3      0.1250E-03   0.000       231.3       0.000      0.5000E-01   0.000    
    5189   3.302      0.6364E-03 SPRIN         11  -0.0%   280.9      0.1250E-03   0.000       230.9       0.000      0.5000E-01   0.000    
    5190   3.303      0.6364E-03 SPRIN         11  -0.0%   280.4      0.1250E-03   0.000       230.4       0.000      0.5000E-01   0.000    
    5191   3.304      0.6364E-03 SPRIN         11  -0.0%   280.0      0.1250E-03   0.000       230.0       0.000      0.5000E-01   0.000    
    5192   3.304      0.6364E-03 SPRIN         11  -0.0%   279.5      0.1250E-03   0.000       229.5       0.000      0.5000E-01   0.000    
    5193   3.305      0.6364E-03 SPRIN         11  -0.0%   279.1      0.1250E-03   0.000       229.1       0.000      0.5000E-01   0.000    
    5194   3.305      0.6364E-03 SPRIN         11  -0.0%   278.6      0.1250E-03   0.000       228.6       0.000      0.5000E-01   0.000    
    5195   3.306      0.6364E-03 SPRIN         11  -0.0%   278.2      0.1250E-03   0.000       228.2       0.000      0.5000E-01   0.000    
    5196   3.307      0.6364E-03 SPRIN         11  -0.0%   277.7      0.1250E-03   0.000       227.7       0.000      0.5000E-01   0.000    
    5197   3.307      0.6364E-03 SPRIN         11  -0.0%   277.3      0.1250E-03   0.000       227.3       0.000      0.5000E-01   0.000    
    5198   3.308      0.6364E-03 SPRIN         11  -0.0%   276.8      0.1250E-03   0.000       226.8       0.000      0.5000E-01   0.000    
    5199   3.309      0.6364E-03 SPRIN         11  -0.0%   276.4      0.1250E-03   0.000       226.4       0.000      0.5000E-01   0.000    
    5200   3.309      0.6364E-03 SPRIN         11  -0.0%   276.0      0.1250E-03   0.000       226.0       0.000      0.5000E-01   0.000    
    5201   3.310      0.6364E-03 SPRIN         11  -0.0%   275.5      0.1250E-03   0.000       225.5       0.000      0.5000E-01   0.000    
    5202   3.311      0.6364E-03 SPRIN         11  -0.0%   275.1      0.1250E-03   0.000       225.1       0.000      0.5000E-01   0.000    
    5203   3.311      0.6364E-03 SPRIN         11  -0.0%   274.6      0.1250E-03   0.000       224.6       0.000      0.5000E-01   0.000    
    5204   3.312      0.6364E-03 SPRIN         11  -0.0%   274.2      0.1250E-03   0.000       224.2       0.000      0.5000E-01   0.000    
    5205   3.312      0.6364E-03 SPRIN         11  -0.0%   273.7      0.1250E-03   0.000       223.7       0.000      0.5000E-01   0.000    
    5206   3.313      0.6364E-03 SPRIN         11  -0.0%   273.3      0.1250E-03   0.000       223.3       0.000      0.5000E-01   0.000    
    5207   3.314      0.6364E-03 SPRIN         11  -0.0%   272.8      0.1250E-03   0.000       222.8       0.000      0.5000E-01   0.000    
    5208   3.314      0.6364E-03 SPRIN         11  -0.0%   272.4      0.1250E-03   0.000       222.4       0.000      0.5000E-01   0.000    
    5209   3.315      0.6364E-03 SPRIN         11  -0.0%   272.0      0.1250E-03   0.000       222.0       0.000      0.5000E-01   0.000    
    5210   3.316      0.6364E-03 SPRIN         11  -0.0%   271.5      0.1250E-03   0.000       221.5       0.000      0.5000E-01   0.000    
    5211   3.316      0.6364E-03 SPRIN         11  -0.0%   271.1      0.1250E-03   0.000       221.1       0.000      0.5000E-01   0.000    
    5212   3.317      0.6364E-03 SPRIN         11  -0.0%   270.6      0.1250E-03   0.000       220.6       0.000      0.5000E-01   0.000    
    5213   3.318      0.6364E-03 SPRIN         11  -0.0%   270.2      0.1250E-03   0.000       220.2       0.000      0.5000E-01   0.000    
    5214   3.318      0.6364E-03 SPRIN         11  -0.0%   269.8      0.1250E-03   0.000       219.8       0.000      0.5000E-01   0.000    
    5215   3.319      0.6364E-03 SPRIN         11  -0.0%   269.3      0.1250E-03   0.000       219.3       0.000      0.5000E-01   0.000    
    5216   3.319      0.6364E-03 SPRIN         11  -0.0%   268.9      0.1250E-03   0.000       218.9       0.000      0.5000E-01   0.000    
    5217   3.320      0.6364E-03 SPRIN         11  -0.0%   268.5      0.1250E-03   0.000       218.5       0.000      0.5000E-01   0.000    
    5218   3.321      0.6364E-03 SPRIN         11  -0.0%   268.0      0.1250E-03   0.000       218.0       0.000      0.5000E-01   0.000    
    5219   3.321      0.6364E-03 SPRIN         11  -0.0%   267.6      0.1250E-03   0.000       217.6       0.000      0.5000E-01   0.000    
    5220   3.322      0.6364E-03 SPRIN         11  -0.0%   267.1      0.1250E-03   0.000       217.1       0.000      0.5000E-01   0.000    
    5221   3.323      0.6364E-03 SPRIN         11  -0.0%   266.7      0.1250E-03   0.000       216.7       0.000      0.5000E-01   0.000    
    5222   3.323      0.6364E-03 SPRIN         11  -0.0%   266.3      0.1250E-03   0.000       216.3       0.000      0.5000E-01   0.000    
    5223   3.324      0.6364E-03 SPRIN         11  -0.0%   265.8      0.1250E-03   0.000       215.8       0.000      0.5000E-01   0.000    
    5224   3.325      0.6364E-03 SPRIN         11  -0.0%   265.4      0.1250E-03   0.000       215.4       0.000      0.5000E-01   0.000    
   CYCLE    TIME      TIME-STEP  ELEMENT          ERROR  I-ENERGY    K-ENERGY T  K-ENERGY R  EXT-WORK     MAS.ERR     TOTAL MASS  MASS ADDED
    5225   3.325      0.6364E-03 SPRIN         11  -0.0%   265.0      0.1250E-03   0.000       215.0       0.000      0.5000E-01   0.000    
    5226   3.326      0.6364E-03 SPRIN         11  -0.0%   264.5      0.1250E-03   0.000       214.5       0.000      0.5000E-01   0.000    
    5227   3.326      0.6364E-03 SPRIN         11  -0.0%   264.1      0.1250E-03   0.000       214.1       0.000      0.5000E-01   0.000    
    5228   3.327      0.6364E-03 SPRIN         11  -0.0%   263.7      0.1250E-03   0.000       213.7       0.000      0.5000E-01   0.000    
    5229   3.328      0.6364E-03 SPRIN         11  -0.0%   263.2      0.1250E-03   0.000       213.2       0.000      0.5000E-01   0.000    
    5230   3.328      0.6364E-03 SPRIN         11  -0.0%   262.8      0.1250E-03   0.000       212.8       0.000      0.5000E-01   0.000    
    5231   3.329      0.6364E-03 SPRIN         11  -0.0%   262.4      0.1250E-03   0.000       212.4       0.000      0.5000E-01   0.000    
    5232   3.330      0.6364E-03 SPRIN         11  -0.0%   261.9      0.1250E-03   0.000       211.9       0.000      0.5000E-01   0.000    
    5233   3.330      0.6364E-03 SPRIN         11  -0.0%   261.5      0.1250E-03   0.000       211.5       0.000      0.5000E-01   0.000    
    5234   3.331      0.6364E-03 SPRIN         11  -0.0%   261.1      0.1250E-03   0.000       211.1       0.000      0.5000E-01   0.000    
    5235   3.332      0.6364E-03 SPRIN         11  -0.0%   260.6      0.1250E-03   0.000       210.6       0.000      0.5000E-01   0.000    
    5236   3.332      0.6364E-03 SPRIN         11  -0.0%   260.2      0.1250E-03   0.000       210.2       0.000      0.5000E-01   0.000    
    5237   3.333      0.6364E-03 SPRIN         11  -0.0%   259.8      0.1250E-03   0.000       209.8       0.000      0.5000E-01   0.000    
    5238   3.333      0.6364E-03 SPRIN         11  -0.0%   259.4      0.1250E-03   0.000       209.4       0.000      0.5000E-01   0.000    
    5239   3.334      0.6364E-03 SPRIN         11  -0.0%   258.9      0.1250E-03   0.000       208.9       0.000      0.5000E-01   0.000    
    5240   3.335      0.6364E-03 SPRIN         11  -0.0%   258.5      0.1250E-03   0.000       208.5       0.000      0.5000E-01   0.000    
    5241   3.335      0.6364E-03 SPRIN         11  -0.0%   258.1      0.1250E-03   0.000       208.1       0.000      0.5000E-01   0.000    
    5242   3.336      0.6364E-03 SPRIN         11  -0.0%   257.6      0.1250E-03   0.000       207.6       0.000      0.5000E-01   0.000    
    5243   3.337      0.6364E-03 SPRIN         11  -0.0%   257.2      0.1250E-03   0.000       207.2       0.000      0.5000E-01   0.000    
    5244   3.337      0.6364E-03 SPRIN         11  -0.0%   256.8      0.1250E-03   0.000       206.8       0.000      0.5000E-01   0.000    
    5245   3.338      0.6364E-03 SPRIN         11  -0.0%   256.4      0.1250E-03   0.000       206.4       0.000      0.5000E-01   0.000    
    5246   3.339      0.6364E-03 SPRIN         11  -0.0%   255.9      0.1250E-03   0.000       205.9       0.000      0.5000E-01   0.000    
    5247   3.339      0.6364E-03 SPRIN         11  -0.0%   255.5      0.1250E-03   0.000       205.5       0.000      0.5000E-01   0.000    
    5248   3.340      0.6364E-03 SPRIN         11  -0.0%   255.1      0.1250E-03   0.000       205.1       0.000      0.5000E-01   0.000    
    5249   3.340      0.6364E-03 SPRIN         11  -0.0%   254.7      0.1250E-03   0.000       204.7       0.000      0.5000E-01   0.000    
    5250   3.341      0.6364E-03 SPRIN         11  -0.0%   254.2      0.1250E-03   0.000       204.2       0.000      0.5000E-01   0.000    
    5251   3.342      0.6364E-03 SPRIN         11  -0.0%   253.8      0.1250E-03   0.000       203.8       0.000      0.5000E-01   0.000    
    5252   3.342      0.6364E-03 SPRIN         11  -0.0%   253.4      0.1250E-03   0.000       203.4       0.000      0.5000E-01   0.000    
    5253   3.343      0.6364E-03 SPRIN         11  -0.0%   253.0      0.1250E-03   0.000       203.0       0.000      0.5000E-01   0.000    
    5254   3.344      0.6364E-03 SPRIN         11  -0.0%   252.5      0.1250E-03   0.000       202.5       0.000      0.5000E-01   0.000    
    5255   3.344      0.6364E-03 SPRIN         11  -0.0%   252.1      0.1250E-03   0.000       202.1       0.000      0.5000E-01   0.000    
    5256   3.345      0.6364E-03 SPRIN         11  -0.0%   251.7      0.1250E-03   0.000       201.7       0.000      0.5000E-01   0.000    
    5257   3.346      0.6364E-03 SPRIN         11  -0.0%   251.3      0.1250E-03   0.000       201.3       0.000      0.5000E-01   0.000    
    5258   3.346      0.6364E-03 SPRIN         11  -0.0%   250.8      0.1250E-03   0.000       200.8       0.000      0.5000E-01   0.000    
    5259   3.347      0.6364E-03 SPRIN         11  -0.0%   250.4      0.1250E-03   0.000       200.4       0.000      0.5000E-01   0.000    
    5260   3.347      0.6364E-03 SPRIN         11  -0.0%   250.0      0.1250E-03   0.000       200.0       0.000      0.5000E-01   0.000    
    5261   3.348      0.6364E-03 SPRIN         11  -0.0%   249.6      0.1250E-03   0.000       199.6       0.000      0.5000E-01   0.000    
    5262   3.349      0.6364E-03 SPRIN         11  -0.0%   249.2      0.1250E-03   0.000       199.2       0.000      0.5000E-01   0.000    
    5263   3.349      0.6364E-03 SPRIN         11  -0.0%   248.7      0.1250E-03   0.000       198.7       0.000      0.5000E-01   0.000    
    5264   3.350      0.6364E-03 SPRIN         11  -0.0%   248.3      0.1250E-03   0.000       198.3       0.000      0.5000E-01   0.000    
    5265   3.351      0.6364E-03 SPRIN         11  -0.0%   247.9      0.1250E-03   0.000       197.9       0.000      0.5000E-01   0.000    
    5266   3.351      0.6364E-03 SPRIN         11  -0.0%   247.5      0.1250E-03   0.000       197.5       0.000      0.5000E-01   0.000    
    5267   3.352      0.6364E-03 SPRIN         11  -0.0%   247.1      0.1250E-03   0.000       197.1       0.000      0.5000E-01   0.000    
    5268   3.353      0.6364E-03 SPRIN         11  -0.0%   246.7      0.1250E-03   0.000       196.7       0.000      0.5000E-01   0.000    
    5269   3.353      0.6364E-03 SPRIN         11  -0.0%   246.2      0.1250E-03   0.000       196.2       0.000      0.5000E-01   0.000    
    5270   3.354      0.6364E-03 SPRIN         11  -0.0%   245.8      0.1250E-03   0.000       195.8       0.000      0.5000E-01   0.000    
    5271   3.354      0.6364E-03 SPRIN         11  -0.0%   245.4      0.1250E-03   0.000       195.4       0.000      0.5000E-01   0.000    
    5272   3.355      0.6364E-03 SPRIN         11  -0.0%   245.0      0.1250E-03   0.000       195.0       0.000      0.5000E-01   0.000    
    5273   3.356      0.6364E-03 SPRIN         11  -0.0%   244.6      0.1250E-03   0.000       194.6       0.000      0.5000E-01   0.000    
    5274   3.356      0.6364E-03 SPRIN         11  -0.0%   244.2      0.1250E-03   0.000       194.2       0.000      0.5000E-01   0.000    
    5275   3.357      0.6364E-03 SPRIN         11  -0.0%   243.7      0.1250E-03   0.000       193.7       0.000      0.5000E-01   0.000    
    5276   3.358      0.6364E-03 SPRIN         11  -0.0%   243.3      0.1250E-03   0.000       193.3       0.000      0.5000E-01   0.000    
    5277   3.358      0.6364E-03 SPRIN         11  -0.0%   242.9      0.1250E-03   0.000       192.9       0.000      0.5000E-01   0.000    
    5278   3.359      0.6364E-03 SPRIN         11  -0.0%   242.5      0.1250E-03   0.000       192.5       0.000      0.5000E-01   0.000    
    5279   3.360      0.6364E-03 SPRIN         11  -0.0%   242.1      0.1250E-03   0.000       192.1       0.000      0.5000E-01   0.000    
   CYCLE    TIME      TIME-STEP  ELEMENT          ERROR  I-ENERGY    K-ENERGY T  K-ENERGY R  EXT-WORK     MAS.ERR     TOTAL MASS  MASS ADDED
    5280   3.360      0.6364E-03 SPRIN         11  -0.0%   241.7      0.1250E-03   0.000       191.7       0.000      0.5000E-01   0.000    
    5281   3.361      0.6364E-03 SPRIN         11  -0.0%   241.3      0.1250E-03   0.000       191.3       0.000      0.5000E-01   0.000    
    5282   3.361      0.6364E-03 SPRIN         11  -0.0%   240.9      0.1250E-03   0.000       190.9       0.000      0.5000E-01   0.000    
    5283   3.362      0.6364E-03 SPRIN         11  -0.0%   240.4      0.1250E-03   0.000       190.4       0.000      0.5000E-01   0.000    
    5284   3.363      0.6364E-03 SPRIN         11  -0.0%   240.0      0.1250E-03   0.000       190.0       0.000      0.5000E-01   0.000    
    5285   3.363      0.6364E-03 SPRIN         11  -0.0%   239.6      0.1250E-03   0.000       189.6       0.000      0.5000E-01   0.000    
    5286   3.364      0.6364E-03 SPRIN         11  -0.0%   239.2      0.1250E-03   0.000       189.2       0.000      0.5000E-01   0.000    
    5287   3.365      0.6364E-03 SPRIN         11  -0.0%   238.8      0.1250E-03   0.000       188.8       0.000      0.5000E-01   0.000    
    5288   3.365      0.6364E-03 SPRIN         11  -0.0%   238.4      0.1250E-03   0.000       188.4       0.000      0.5000E-01   0.000    
    5289   3.366      0.6364E-03 SPRIN         11  -0.0%   238.0      0.1250E-03   0.000       188.0       0.000      0.5000E-01   0.000    
    5290   3.367      0.6364E-03 SPRIN         11  -0.0%   237.6      0.1250E-03   0.000       187.6       0.000      0.5000E-01   0.000    
    5291   3.367      0.6364E-03 SPRIN         11  -0.0%   237.2      0.1250E-03   0.000       187.2       0.000      0.5000E-01   0.000    
    5292   3.368      0.6364E-03 SPRIN         11  -0.0%   236.8      0.1250E-03   0.000       186.8       0.000      0.5000E-01   0.000    
    5293   3.368      0.6364E-03 SPRIN         11  -0.0%   236.4      0.1250E-03   0.000       186.4       0.000      0.5000E-01   0.000    
    5294   3.369      0.6364E-03 SPRIN         11  -0.0%   236.0      0.1250E-03   0.000       186.0       0.000      0.5000E-01   0.000    
    5295   3.370      0.6364E-03 SPRIN         11  -0.0%   235.5      0.1250E-03   0.000       185.5       0.000      0.5000E-01   0.000    
    5296   3.370      0.6364E-03 SPRIN         11  -0.0%   235.1      0.1250E-03   0.000       185.1       0.000      0.5000E-01   0.000    
    5297   3.371      0.6364E-03 SPRIN         11  -0.0%   234.7      0.1250E-03   0.000       184.7       0.000      0.5000E-01   0.000    
    5298   3.372      0.6364E-03 SPRIN         11  -0.0%   234.3      0.1250E-03   0.000       184.3       0.000      0.5000E-01   0.000    
    5299   3.372      0.6364E-03 SPRIN         11  -0.0%   233.9      0.1250E-03   0.000       183.9       0.000      0.5000E-01   0.000    
    5300   3.373      0.6364E-03 SPRIN         11  -0.0%   233.5      0.1250E-03   0.000       183.5       0.000      0.5000E-01   0.000    
    5301   3.374      0.6364E-03 SPRIN         11  -0.0%   233.1      0.1250E-03   0.000       183.1       0.000      0.5000E-01   0.000    
    5302   3.374      0.6364E-03 SPRIN         11  -0.0%   232.7      0.1250E-03   0.000       182.7       0.000      0.5000E-01   0.000    
    5303   3.375      0.6364E-03 SPRIN         11  -0.0%   232.3      0.1250E-03   0.000       182.3       0.000      0.5000E-01   0.000    
    5304   3.375      0.6364E-03 SPRIN         11  -0.0%   231.9      0.1250E-03   0.000       181.9       0.000      0.5000E-01   0.000    
    5305   3.376      0.6364E-03 SPRIN         11  -0.0%   231.5      0.1250E-03   0.000       181.5       0.000      0.5000E-01   0.000    
    5306   3.377      0.6364E-03 SPRIN         11  -0.0%   231.1      0.1250E-03   0.000       181.1       0.000      0.5000E-01   0.000    
    5307   3.377      0.6364E-03 SPRIN         11  -0.0%   230.7      0.1250E-03   0.000       180.7       0.000      0.5000E-01   0.000    
    5308   3.378      0.6364E-03 SPRIN         11  -0.0%   230.3      0.1250E-03   0.000       180.3       0.000      0.5000E-01   0.000    
    5309   3.379      0.6364E-03 SPRIN         11  -0.0%   229.9      0.1250E-03   0.000       179.9       0.000      0.5000E-01   0.000    
    5310   3.379      0.6364E-03 SPRIN         11  -0.0%   229.5      0.1250E-03   0.000       179.5       0.000      0.5000E-01   0.000    
    5311   3.380      0.6364E-03 SPRIN         11  -0.0%   229.1      0.1250E-03   0.000       179.1       0.000      0.5000E-01   0.000    
    5312   3.381      0.6364E-03 SPRIN         11  -0.0%   228.7      0.1250E-03   0.000       178.7       0.000      0.5000E-01   0.000    
    5313   3.381      0.6364E-03 SPRIN         11  -0.0%   228.3      0.1250E-03   0.000       178.3       0.000      0.5000E-01   0.000    
    5314   3.382      0.6364E-03 SPRIN         11  -0.0%   227.9      0.1250E-03   0.000       177.9       0.000      0.5000E-01   0.000    
    5315   3.382      0.6364E-03 SPRIN         11  -0.0%   227.5      0.1250E-03   0.000       177.5       0.000      0.5000E-01   0.000    
    5316   3.383      0.6364E-03 SPRIN         11  -0.0%   227.1      0.1250E-03   0.000       177.1       0.000      0.5000E-01   0.000    
    5317   3.384      0.6364E-03 SPRIN         11  -0.0%   226.7      0.1250E-03   0.000       176.7       0.000      0.5000E-01   0.000    
    5318   3.384      0.6364E-03 SPRIN         11  -0.0%   226.3      0.1250E-03   0.000       176.3       0.000      0.5000E-01   0.000    
    5319   3.385      0.6364E-03 SPRIN         11  -0.0%   225.9      0.1250E-03   0.000       175.9       0.000      0.5000E-01   0.000    
    5320   3.386      0.6364E-03 SPRIN         11  -0.0%   225.5      0.1250E-03   0.000       175.5       0.000      0.5000E-01   0.000    
    5321   3.386      0.6364E-03 SPRIN         11  -0.0%   225.1      0.1250E-03   0.000       175.1       0.000      0.5000E-01   0.000    
    5322   3.387      0.6364E-03 SPRIN         11  -0.0%   224.7      0.1250E-03   0.000       174.7       0.000      0.5000E-01   0.000    
    5323   3.388      0.6364E-03 SPRIN         11  -0.0%   224.3      0.1250E-03   0.000       174.3       0.000      0.5000E-01   0.000    
    5324   3.388      0.6364E-03 SPRIN         11  -0.0%   223.9      0.1250E-03   0.000       173.9       0.000      0.5000E-01   0.000    
    5325   3.389      0.6364E-03 SPRIN         11  -0.0%   223.5      0.1250E-03   0.000       173.5       0.000      0.5000E-01   0.000    
    5326   3.389      0.6364E-03 SPRIN         11  -0.0%   223.2      0.1250E-03   0.000       173.2       0.000      0.5000E-01   0.000    
    5327   3.390      0.6364E-03 SPRIN         11  -0.0%   222.8      0.1250E-03   0.000       172.8       0.000      0.5000E-01   0.000    
    5328   3.391      0.6364E-03 SPRIN         11  -0.0%   222.4      0.1250E-03   0.000       172.4       0.000      0.5000E-01   0.000    
    5329   3.391      0.6364E-03 SPRIN         11  -0.0%   222.0      0.1250E-03   0.000       172.0       0.000      0.5000E-01   0.000    
    5330   3.392      0.6364E-03 SPRIN         11  -0.0%   221.6      0.1250E-03   0.000       171.6       0.000      0.5000E-01   0.000    
    5331   3.393      0.6364E-03 SPRIN         11  -0.0%   221.2      0.1250E-03   0.000       171.2       0.000      0.5000E-01   0.000    
    5332   3.393      0.6364E-03 SPRIN         11  -0.0%   220.8      0.1250E-03   0.000       170.8       0.000      0.5000E-01   0.000    
    5333   3.394      0.6364E-03 SPRIN         11  -0.0%   220.4      0.1250E-03   0.000       170.4       0.000      0.5000E-01   0.000    
    5334   3.395      0.6364E-03 SPRIN         11  -0.0%   220.0      0.1250E-03   0.000       170.0       0.000      0.5000E-01   0.000    
   CYCLE    TIME      TIME-STEP  ELEMENT          ERROR  I-ENERGY    K-ENERGY T  K-ENERGY R  EXT-WORK     MAS.ERR     TOTAL MASS  MASS ADDED
    5335   3.395      0.6364E-03 SPRIN         11  -0.0%   219.6      0.1250E-03   0.000       169.6       0.000      0.5000E-01   0.000    
    5336   3.396      0.6364E-03 SPRIN         11  -0.0%   219.2      0.1250E-03   0.000       169.2       0.000      0.5000E-01   0.000    
    5337   3.396      0.6364E-03 SPRIN         11  -0.0%   218.8      0.1250E-03   0.000       168.8       0.000      0.5000E-01   0.000    
    5338   3.397      0.6364E-03 SPRIN         11  -0.0%   218.5      0.1250E-03   0.000       168.5       0.000      0.5000E-01   0.000    
    5339   3.398      0.6364E-03 SPRIN         11  -0.0%   218.1      0.1250E-03   0.000       168.1       0.000      0.5000E-01   0.000    
    5340   3.398      0.6364E-03 SPRIN         11  -0.0%   217.7      0.1250E-03   0.000       167.7       0.000      0.5000E-01   0.000    
    5341   3.399      0.6364E-03 SPRIN         11  -0.0%   217.3      0.1250E-03   0.000       167.3       0.000      0.5000E-01   0.000    
    5342   3.400      0.6364E-03 SPRIN         11  -0.0%   216.9      0.1250E-03   0.000       166.9       0.000      0.5000E-01   0.000    
    5343   3.400      0.6364E-03 SPRIN         11  -0.0%   216.5      0.1250E-03   0.000       166.5       0.000      0.5000E-01   0.000    
     ANIMATION FILE: SPR_PRE_2FLAGA018 WRITTEN
    5344   3.401      0.6364E-03 SPRIN         11  -0.0%   216.1      0.1250E-03   0.000       166.1       0.000      0.5000E-01   0.000    
    5345   3.402      0.6364E-03 SPRIN         11  -0.0%   215.7      0.1250E-03   0.000       165.7       0.000      0.5000E-01   0.000    
    5346   3.402      0.6364E-03 SPRIN         11  -0.0%   215.4      0.1250E-03   0.000       165.4       0.000      0.5000E-01   0.000    
    5347   3.403      0.6364E-03 SPRIN         11  -0.0%   215.0      0.1250E-03   0.000       165.0       0.000      0.5000E-01   0.000    
    5348   3.403      0.6364E-03 SPRIN         11  -0.0%   214.6      0.1250E-03   0.000       164.6       0.000      0.5000E-01   0.000    
    5349   3.404      0.6364E-03 SPRIN         11  -0.0%   214.2      0.1250E-03   0.000       164.2       0.000      0.5000E-01   0.000    
    5350   3.405      0.6364E-03 SPRIN         11  -0.0%   213.8      0.1250E-03   0.000       163.8       0.000      0.5000E-01   0.000    
    5351   3.405      0.6364E-03 SPRIN         11  -0.0%   213.4      0.1250E-03   0.000       163.4       0.000      0.5000E-01   0.000    
    5352   3.406      0.6364E-03 SPRIN         11  -0.0%   213.1      0.1250E-03   0.000       163.1       0.000      0.5000E-01   0.000    
    5353   3.407      0.6364E-03 SPRIN         11  -0.0%   212.7      0.1250E-03   0.000       162.7       0.000      0.5000E-01   0.000    
    5354   3.407      0.6364E-03 SPRIN         11  -0.0%   212.3      0.1250E-03   0.000       162.3       0.000      0.5000E-01   0.000    
    5355   3.408      0.6364E-03 SPRIN         11  -0.0%   211.9      0.1250E-03   0.000       161.9       0.000      0.5000E-01   0.000    
    5356   3.409      0.6364E-03 SPRIN         11  -0.0%   211.5      0.1250E-03   0.000       161.5       0.000      0.5000E-01   0.000    
    5357   3.409      0.6364E-03 SPRIN         11  -0.0%   211.1      0.1250E-03   0.000       161.1       0.000      0.5000E-01   0.000    
    5358   3.410      0.6364E-03 SPRIN         11  -0.0%   210.8      0.1250E-03   0.000       160.8       0.000      0.5000E-01   0.000    
    5359   3.410      0.6364E-03 SPRIN         11  -0.0%   210.4      0.1250E-03   0.000       160.4       0.000      0.5000E-01   0.000    
    5360   3.411      0.6364E-03 SPRIN         11  -0.0%   210.0      0.1250E-03   0.000       160.0       0.000      0.5000E-01   0.000    
    5361   3.412      0.6364E-03 SPRIN         11  -0.0%   209.6      0.1250E-03   0.000       159.6       0.000      0.5000E-01   0.000    
    5362   3.412      0.6364E-03 SPRIN         11  -0.0%   209.2      0.1250E-03   0.000       159.2       0.000      0.5000E-01   0.000    
    5363   3.413      0.6364E-03 SPRIN         11  -0.0%   208.9      0.1250E-03   0.000       158.9       0.000      0.5000E-01   0.000    
    5364   3.414      0.6364E-03 SPRIN         11  -0.0%   208.5      0.1250E-03   0.000       158.5       0.000      0.5000E-01   0.000    
    5365   3.414      0.6364E-03 SPRIN         11  -0.0%   208.1      0.1250E-03   0.000       158.1       0.000      0.5000E-01   0.000    
    5366   3.415      0.6364E-03 SPRIN         11  -0.0%   207.7      0.1250E-03   0.000       157.7       0.000      0.5000E-01   0.000    
    5367   3.416      0.6364E-03 SPRIN         11  -0.0%   207.4      0.1250E-03   0.000       157.4       0.000      0.5000E-01   0.000    
    5368   3.416      0.6364E-03 SPRIN         11  -0.0%   207.0      0.1250E-03   0.000       157.0       0.000      0.5000E-01   0.000    
    5369   3.417      0.6364E-03 SPRIN         11  -0.0%   206.6      0.1250E-03   0.000       156.6       0.000      0.5000E-01   0.000    
    5370   3.417      0.6364E-03 SPRIN         11  -0.0%   206.2      0.1250E-03   0.000       156.2       0.000      0.5000E-01   0.000    
    5371   3.418      0.6364E-03 SPRIN         11  -0.0%   205.9      0.1250E-03   0.000       155.9       0.000      0.5000E-01   0.000    
    5372   3.419      0.6364E-03 SPRIN         11  -0.0%   205.5      0.1250E-03   0.000       155.5       0.000      0.5000E-01   0.000    
    5373   3.419      0.6364E-03 SPRIN         11  -0.0%   205.1      0.1250E-03   0.000       155.1       0.000      0.5000E-01   0.000    
    5374   3.420      0.6364E-03 SPRIN         11  -0.0%   204.7      0.1250E-03   0.000       154.7       0.000      0.5000E-01   0.000    
    5375   3.421      0.6364E-03 SPRIN         11  -0.0%   204.4      0.1250E-03   0.000       154.4       0.000      0.5000E-01   0.000    
    5376   3.421      0.6364E-03 SPRIN         11  -0.0%   204.0      0.1250E-03   0.000       154.0       0.000      0.5000E-01   0.000    
    5377   3.422      0.6364E-03 SPRIN         11  -0.0%   203.6      0.1250E-03   0.000       153.6       0.000      0.5000E-01   0.000    
    5378   3.423      0.6364E-03 SPRIN         11  -0.0%   203.2      0.1250E-03   0.000       153.2       0.000      0.5000E-01   0.000    
    5379   3.423      0.6364E-03 SPRIN         11  -0.0%   202.9      0.1250E-03   0.000       152.9       0.000      0.5000E-01   0.000    
    5380   3.424      0.6364E-03 SPRIN         11  -0.0%   202.5      0.1250E-03   0.000       152.5       0.000      0.5000E-01   0.000    
    5381   3.424      0.6364E-03 SPRIN         11  -0.0%   202.1      0.1250E-03   0.000       152.1       0.000      0.5000E-01   0.000    
    5382   3.425      0.6364E-03 SPRIN         11  -0.0%   201.8      0.1250E-03   0.000       151.8       0.000      0.5000E-01   0.000    
    5383   3.426      0.6364E-03 SPRIN         11  -0.0%   201.4      0.1250E-03   0.000       151.4       0.000      0.5000E-01   0.000    
    5384   3.426      0.6364E-03 SPRIN         11  -0.0%   201.0      0.1250E-03   0.000       151.0       0.000      0.5000E-01   0.000    
    5385   3.427      0.6364E-03 SPRIN         11  -0.0%   200.6      0.1250E-03   0.000       150.6       0.000      0.5000E-01   0.000    
    5386   3.428      0.6364E-03 SPRIN         11  -0.0%   200.3      0.1250E-03   0.000       150.3       0.000      0.5000E-01   0.000    
    5387   3.428      0.6364E-03 SPRIN         11  -0.0%   199.9      0.1250E-03   0.000       149.9       0.000      0.5000E-01   0.000    
    5388   3.429      0.6364E-03 SPRIN         11  -0.0%   199.5      0.1250E-03   0.000       149.5       0.000      0.5000E-01   0.000    
    5389   3.430      0.6364E-03 SPRIN         11  -0.0%   199.2      0.1250E-03   0.000       149.2       0.000      0.5000E-01   0.000    
   CYCLE    TIME      TIME-STEP  ELEMENT          ERROR  I-ENERGY    K-ENERGY T  K-ENERGY R  EXT-WORK     MAS.ERR     TOTAL MASS  MASS ADDED
    5390   3.430      0.6364E-03 SPRIN         11  -0.0%   198.8      0.1250E-03   0.000       148.8       0.000      0.5000E-01   0.000    
    5391   3.431      0.6364E-03 SPRIN         11  -0.0%   198.4      0.1250E-03   0.000       148.4       0.000      0.5000E-01   0.000    
    5392   3.431      0.6364E-03 SPRIN         11  -0.0%   198.1      0.1250E-03   0.000       148.1       0.000      0.5000E-01   0.000    
    5393   3.432      0.6364E-03 SPRIN         11  -0.0%   197.7      0.1250E-03   0.000       147.7       0.000      0.5000E-01   0.000    
    5394   3.433      0.6364E-03 SPRIN         11  -0.0%   197.3      0.1250E-03   0.000       147.3       0.000      0.5000E-01   0.000    
    5395   3.433      0.6364E-03 SPRIN         11  -0.0%   197.0      0.1250E-03   0.000       147.0       0.000      0.5000E-01   0.000    
    5396   3.434      0.6364E-03 SPRIN         11  -0.0%   196.6      0.1250E-03   0.000       146.6       0.000      0.5000E-01   0.000    
    5397   3.435      0.6364E-03 SPRIN         11  -0.0%   196.2      0.1250E-03   0.000       146.2       0.000      0.5000E-01   0.000    
    5398   3.435      0.6364E-03 SPRIN         11  -0.0%   195.9      0.1250E-03   0.000       145.9       0.000      0.5000E-01   0.000    
    5399   3.436      0.6364E-03 SPRIN         11  -0.0%   195.5      0.1250E-03   0.000       145.5       0.000      0.5000E-01   0.000    
    5400   3.437      0.6364E-03 SPRIN         11  -0.0%   195.1      0.1250E-03   0.000       145.1       0.000      0.5000E-01   0.000    
    5401   3.437      0.6364E-03 SPRIN         11  -0.0%   194.8      0.1250E-03   0.000       144.8       0.000      0.5000E-01   0.000    
    5402   3.438      0.6364E-03 SPRIN         11  -0.0%   194.4      0.1250E-03   0.000       144.4       0.000      0.5000E-01   0.000    
    5403   3.438      0.6364E-03 SPRIN         11  -0.0%   194.1      0.1250E-03   0.000       144.1       0.000      0.5000E-01   0.000    
    5404   3.439      0.6364E-03 SPRIN         11  -0.0%   193.7      0.1250E-03   0.000       143.7       0.000      0.5000E-01   0.000    
    5405   3.440      0.6364E-03 SPRIN         11  -0.0%   193.3      0.1250E-03   0.000       143.3       0.000      0.5000E-01   0.000    
    5406   3.440      0.6364E-03 SPRIN         11  -0.0%   193.0      0.1250E-03   0.000       143.0       0.000      0.5000E-01   0.000    
    5407   3.441      0.6364E-03 SPRIN         11  -0.0%   192.6      0.1250E-03   0.000       142.6       0.000      0.5000E-01   0.000    
    5408   3.442      0.6364E-03 SPRIN         11  -0.0%   192.2      0.1250E-03   0.000       142.2       0.000      0.5000E-01   0.000    
    5409   3.442      0.6364E-03 SPRIN         11  -0.0%   191.9      0.1250E-03   0.000       141.9       0.000      0.5000E-01   0.000    
    5410   3.443      0.6364E-03 SPRIN         11  -0.0%   191.5      0.1250E-03   0.000       141.5       0.000      0.5000E-01   0.000    
    5411   3.444      0.6364E-03 SPRIN         11  -0.0%   191.2      0.1250E-03   0.000       141.2       0.000      0.5000E-01   0.000    
    5412   3.444      0.6364E-03 SPRIN         11  -0.0%   190.8      0.1250E-03   0.000       140.8       0.000      0.5000E-01   0.000    
    5413   3.445      0.6364E-03 SPRIN         11  -0.0%   190.4      0.1250E-03   0.000       140.4       0.000      0.5000E-01   0.000    
    5414   3.445      0.6364E-03 SPRIN         11  -0.0%   190.1      0.1250E-03   0.000       140.1       0.000      0.5000E-01   0.000    
    5415   3.446      0.6364E-03 SPRIN         11  -0.0%   189.7      0.1250E-03   0.000       139.7       0.000      0.5000E-01   0.000    
    5416   3.447      0.6364E-03 SPRIN         11  -0.0%   189.4      0.1250E-03   0.000       139.4       0.000      0.5000E-01   0.000    
    5417   3.447      0.6364E-03 SPRIN         11  -0.0%   189.0      0.1250E-03   0.000       139.0       0.000      0.5000E-01   0.000    
    5418   3.448      0.6364E-03 SPRIN         11  -0.0%   188.7      0.1250E-03   0.000       138.7       0.000      0.5000E-01   0.000    
    5419   3.449      0.6364E-03 SPRIN         11  -0.0%   188.3      0.1250E-03   0.000       138.3       0.000      0.5000E-01   0.000    
    5420   3.449      0.6364E-03 SPRIN         11  -0.0%   188.0      0.1250E-03   0.000       138.0       0.000      0.5000E-01   0.000    
    5421   3.450      0.6364E-03 SPRIN         11  -0.0%   187.6      0.1250E-03   0.000       137.6       0.000      0.5000E-01   0.000    
    5422   3.451      0.6364E-03 SPRIN         11  -0.0%   187.2      0.1250E-03   0.000       137.2       0.000      0.5000E-01   0.000    
    5423   3.451      0.6364E-03 SPRIN         11  -0.0%   186.9      0.1250E-03   0.000       136.9       0.000      0.5000E-01   0.000    
    5424   3.452      0.6364E-03 SPRIN         11  -0.0%   186.5      0.1250E-03   0.000       136.5       0.000      0.5000E-01   0.000    
    5425   3.452      0.6364E-03 SPRIN         11  -0.0%   186.2      0.1250E-03   0.000       136.2       0.000      0.5000E-01   0.000    
    5426   3.453      0.6364E-03 SPRIN         11  -0.0%   185.8      0.1250E-03   0.000       135.8       0.000      0.5000E-01   0.000    
    5427   3.454      0.6364E-03 SPRIN         11  -0.0%   185.5      0.1250E-03   0.000       135.5       0.000      0.5000E-01   0.000    
    5428   3.454      0.6364E-03 SPRIN         11  -0.0%   185.1      0.1250E-03   0.000       135.1       0.000      0.5000E-01   0.000    
    5429   3.455      0.6364E-03 SPRIN         11  -0.0%   184.8      0.1250E-03   0.000       134.8       0.000      0.5000E-01   0.000    
    5430   3.456      0.6364E-03 SPRIN         11  -0.0%   184.4      0.1250E-03   0.000       134.4       0.000      0.5000E-01   0.000    
    5431   3.456      0.6364E-03 SPRIN         11  -0.0%   184.1      0.1250E-03   0.000       134.1       0.000      0.5000E-01   0.000    
    5432   3.457      0.6364E-03 SPRIN         11  -0.0%   183.7      0.1250E-03   0.000       133.7       0.000      0.5000E-01   0.000    
    5433   3.458      0.6364E-03 SPRIN         11  -0.0%   183.4      0.1250E-03   0.000       133.4       0.000      0.5000E-01   0.000    
    5434   3.458      0.6364E-03 SPRIN         11  -0.0%   183.0      0.1250E-03   0.000       133.0       0.000      0.5000E-01   0.000    
    5435   3.459      0.6364E-03 SPRIN         11  -0.0%   182.7      0.1250E-03   0.000       132.7       0.000      0.5000E-01   0.000    
    5436   3.459      0.6364E-03 SPRIN         11  -0.0%   182.3      0.1250E-03   0.000       132.3       0.000      0.5000E-01   0.000    
    5437   3.460      0.6364E-03 SPRIN         11  -0.0%   182.0      0.1250E-03   0.000       132.0       0.000      0.5000E-01   0.000    
    5438   3.461      0.6364E-03 SPRIN         11  -0.0%   181.6      0.1250E-03   0.000       131.6       0.000      0.5000E-01   0.000    
    5439   3.461      0.6364E-03 SPRIN         11  -0.0%   181.3      0.1250E-03   0.000       131.3       0.000      0.5000E-01   0.000    
    5440   3.462      0.6364E-03 SPRIN         11  -0.0%   180.9      0.1250E-03   0.000       130.9       0.000      0.5000E-01   0.000    
    5441   3.463      0.6364E-03 SPRIN         11  -0.0%   180.6      0.1250E-03   0.000       130.6       0.000      0.5000E-01   0.000    
    5442   3.463      0.6364E-03 SPRIN         11  -0.0%   180.2      0.1250E-03   0.000       130.2       0.000      0.5000E-01   0.000    
    5443   3.464      0.6364E-03 SPRIN         11  -0.0%   179.9      0.1250E-03   0.000       129.9       0.000      0.5000E-01   0.000    
    5444   3.465      0.6364E-03 SPRIN         11  -0.0%   179.5      0.1250E-03   0.000       129.5       0.000      0.5000E-01   0.000    
   CYCLE    TIME      TIME-STEP  ELEMENT          ERROR  I-ENERGY    K-ENERGY T  K-ENERGY R  EXT-WORK     MAS.ERR     TOTAL MASS  MASS ADDED
    5445   3.465      0.6364E-03 SPRIN         11  -0.0%   179.2      0.1250E-03   0.000       129.2       0.000      0.5000E-01   0.000    
    5446   3.466      0.6364E-03 SPRIN         11  -0.0%   178.8      0.1250E-03   0.000       128.8       0.000      0.5000E-01   0.000    
    5447   3.466      0.6364E-03 SPRIN         11  -0.0%   178.5      0.1250E-03   0.000       128.5       0.000      0.5000E-01   0.000    
    5448   3.467      0.6364E-03 SPRIN         11  -0.0%   178.2      0.1250E-03   0.000       128.2       0.000      0.5000E-01   0.000    
    5449   3.468      0.6364E-03 SPRIN         11  -0.0%   177.8      0.1250E-03   0.000       127.8       0.000      0.5000E-01   0.000    
    5450   3.468      0.6364E-03 SPRIN         11  -0.0%   177.5      0.1250E-03   0.000       127.5       0.000      0.5000E-01   0.000    
    5451   3.469      0.6364E-03 SPRIN         11  -0.0%   177.1      0.1250E-03   0.000       127.1       0.000      0.5000E-01   0.000    
    5452   3.470      0.6364E-03 SPRIN         11  -0.0%   176.8      0.1250E-03   0.000       126.8       0.000      0.5000E-01   0.000    
    5453   3.470      0.6364E-03 SPRIN         11  -0.0%   176.4      0.1250E-03   0.000       126.4       0.000      0.5000E-01   0.000    
    5454   3.471      0.6364E-03 SPRIN         11  -0.0%   176.1      0.1250E-03   0.000       126.1       0.000      0.5000E-01   0.000    
    5455   3.472      0.6364E-03 SPRIN         11  -0.0%   175.8      0.1250E-03   0.000       125.8       0.000      0.5000E-01   0.000    
    5456   3.472      0.6364E-03 SPRIN         11  -0.0%   175.4      0.1250E-03   0.000       125.4       0.000      0.5000E-01   0.000    
    5457   3.473      0.6364E-03 SPRIN         11  -0.0%   175.1      0.1250E-03   0.000       125.1       0.000      0.5000E-01   0.000    
    5458   3.473      0.6364E-03 SPRIN         11  -0.0%   174.7      0.1250E-03   0.000       124.7       0.000      0.5000E-01   0.000    
    5459   3.474      0.6364E-03 SPRIN         11  -0.0%   174.4      0.1250E-03   0.000       124.4       0.000      0.5000E-01   0.000    
    5460   3.475      0.6364E-03 SPRIN         11  -0.0%   174.1      0.1250E-03   0.000       124.1       0.000      0.5000E-01   0.000    
    5461   3.475      0.6364E-03 SPRIN         11  -0.0%   173.7      0.1250E-03   0.000       123.7       0.000      0.5000E-01   0.000    
    5462   3.476      0.6364E-03 SPRIN         11  -0.0%   173.4      0.1250E-03   0.000       123.4       0.000      0.5000E-01   0.000    
    5463   3.477      0.6364E-03 SPRIN         11  -0.0%   173.0      0.1250E-03   0.000       123.0       0.000      0.5000E-01   0.000    
    5464   3.477      0.6364E-03 SPRIN         11  -0.0%   172.7      0.1250E-03   0.000       122.7       0.000      0.5000E-01   0.000    
    5465   3.478      0.6364E-03 SPRIN         11  -0.0%   172.4      0.1250E-03   0.000       122.4       0.000      0.5000E-01   0.000    
    5466   3.479      0.6364E-03 SPRIN         11  -0.0%   172.0      0.1250E-03   0.000       122.0       0.000      0.5000E-01   0.000    
    5467   3.479      0.6364E-03 SPRIN         11  -0.0%   171.7      0.1250E-03   0.000       121.7       0.000      0.5000E-01   0.000    
    5468   3.480      0.6364E-03 SPRIN         11  -0.0%   171.4      0.1250E-03   0.000       121.4       0.000      0.5000E-01   0.000    
    5469   3.480      0.6364E-03 SPRIN         11  -0.0%   171.0      0.1250E-03   0.000       121.0       0.000      0.5000E-01   0.000    
    5470   3.481      0.6364E-03 SPRIN         11  -0.0%   170.7      0.1250E-03   0.000       120.7       0.000      0.5000E-01   0.000    
    5471   3.482      0.6364E-03 SPRIN         11  -0.0%   170.4      0.1250E-03   0.000       120.4       0.000      0.5000E-01   0.000    
    5472   3.482      0.6364E-03 SPRIN         11  -0.0%   170.0      0.1250E-03   0.000       120.0       0.000      0.5000E-01   0.000    
    5473   3.483      0.6364E-03 SPRIN         11  -0.0%   169.7      0.1250E-03   0.000       119.7       0.000      0.5000E-01   0.000    
    5474   3.484      0.6364E-03 SPRIN         11  -0.0%   169.3      0.1250E-03   0.000       119.3       0.000      0.5000E-01   0.000    
    5475   3.484      0.6364E-03 SPRIN         11  -0.0%   169.0      0.1250E-03   0.000       119.0       0.000      0.5000E-01   0.000    
    5476   3.485      0.6364E-03 SPRIN         11  -0.0%   168.7      0.1250E-03   0.000       118.7       0.000      0.5000E-01   0.000    
    5477   3.486      0.6364E-03 SPRIN         11  -0.0%   168.3      0.1250E-03   0.000       118.3       0.000      0.5000E-01   0.000    
    5478   3.486      0.6364E-03 SPRIN         11  -0.0%   168.0      0.1250E-03   0.000       118.0       0.000      0.5000E-01   0.000    
    5479   3.487      0.6364E-03 SPRIN         11  -0.0%   167.7      0.1250E-03   0.000       117.7       0.000      0.5000E-01   0.000    
    5480   3.487      0.6364E-03 SPRIN         11  -0.0%   167.4      0.1250E-03   0.000       117.4       0.000      0.5000E-01   0.000    
    5481   3.488      0.6364E-03 SPRIN         11  -0.0%   167.0      0.1250E-03   0.000       117.0       0.000      0.5000E-01   0.000    
    5482   3.489      0.6364E-03 SPRIN         11  -0.0%   166.7      0.1250E-03   0.000       116.7       0.000      0.5000E-01   0.000    
    5483   3.489      0.6364E-03 SPRIN         11  -0.0%   166.4      0.1250E-03   0.000       116.4       0.000      0.5000E-01   0.000    
    5484   3.490      0.6364E-03 SPRIN         11  -0.0%   166.0      0.1250E-03   0.000       116.0       0.000      0.5000E-01   0.000    
    5485   3.491      0.6364E-03 SPRIN         11  -0.0%   165.7      0.1250E-03   0.000       115.7       0.000      0.5000E-01   0.000    
    5486   3.491      0.6364E-03 SPRIN         11  -0.0%   165.4      0.1250E-03   0.000       115.4       0.000      0.5000E-01   0.000    
    5487   3.492      0.6364E-03 SPRIN         11  -0.0%   165.0      0.1250E-03   0.000       115.0       0.000      0.5000E-01   0.000    
    5488   3.493      0.6364E-03 SPRIN         11  -0.0%   164.7      0.1250E-03   0.000       114.7       0.000      0.5000E-01   0.000    
    5489   3.493      0.6364E-03 SPRIN         11  -0.0%   164.4      0.1250E-03   0.000       114.4       0.000      0.5000E-01   0.000    
    5490   3.494      0.6364E-03 SPRIN         11  -0.0%   164.1      0.1250E-03   0.000       114.1       0.000      0.5000E-01   0.000    
    5491   3.494      0.6364E-03 SPRIN         11  -0.0%   163.7      0.1250E-03   0.000       113.7       0.000      0.5000E-01   0.000    
    5492   3.495      0.6364E-03 SPRIN         11  -0.0%   163.4      0.1250E-03   0.000       113.4       0.000      0.5000E-01   0.000    
    5493   3.496      0.6364E-03 SPRIN         11  -0.0%   163.1      0.1250E-03   0.000       113.1       0.000      0.5000E-01   0.000    
    5494   3.496      0.6364E-03 SPRIN         11  -0.0%   162.8      0.1250E-03   0.000       112.8       0.000      0.5000E-01   0.000    
    5495   3.497      0.6364E-03 SPRIN         11  -0.0%   162.4      0.1250E-03   0.000       112.4       0.000      0.5000E-01   0.000    
    5496   3.498      0.6364E-03 SPRIN         11  -0.0%   162.1      0.1250E-03   0.000       112.1       0.000      0.5000E-01   0.000    
    5497   3.498      0.6364E-03 SPRIN         11  -0.0%   161.8      0.1250E-03   0.000       111.8       0.000      0.5000E-01   0.000    
    5498   3.499      0.6364E-03 SPRIN         11  -0.0%   161.5      0.1250E-03   0.000       111.5       0.000      0.5000E-01   0.000    
    5499   3.500      0.6364E-03 SPRIN         11  -0.0%   161.1      0.1250E-03   0.000       111.1       0.000      0.5000E-01   0.000    
   CYCLE    TIME      TIME-STEP  ELEMENT          ERROR  I-ENERGY    K-ENERGY T  K-ENERGY R  EXT-WORK     MAS.ERR     TOTAL MASS  MASS ADDED
    5500   3.500      0.6364E-03 SPRIN         11  -0.0%   160.8      0.1250E-03   0.000       110.8       0.000      0.5000E-01   0.000    
    5501   3.501      0.6364E-03 SPRIN         11  -0.0%   160.5      0.1250E-03   0.000       110.5       0.000      0.5000E-01   0.000    
    5502   3.501      0.6364E-03 SPRIN         11  -0.0%   160.2      0.1250E-03   0.000       110.2       0.000      0.5000E-01   0.000    
    5503   3.502      0.6364E-03 SPRIN         11  -0.0%   159.8      0.1250E-03   0.000       109.8       0.000      0.5000E-01   0.000    
    5504   3.503      0.6364E-03 SPRIN         11  -0.0%   159.5      0.1250E-03   0.000       109.5       0.000      0.5000E-01   0.000    
    5505   3.503      0.6364E-03 SPRIN         11  -0.0%   159.2      0.1250E-03   0.000       109.2       0.000      0.5000E-01   0.000    
    5506   3.504      0.6364E-03 SPRIN         11  -0.0%   158.9      0.1250E-03   0.000       108.9       0.000      0.5000E-01   0.000    
    5507   3.505      0.6364E-03 SPRIN         11  -0.0%   158.6      0.1250E-03   0.000       108.6       0.000      0.5000E-01   0.000    
    5508   3.505      0.6364E-03 SPRIN         11  -0.0%   158.2      0.1250E-03   0.000       108.2       0.000      0.5000E-01   0.000    
    5509   3.506      0.6364E-03 SPRIN         11  -0.0%   157.9      0.1250E-03   0.000       107.9       0.000      0.5000E-01   0.000    
    5510   3.507      0.6364E-03 SPRIN         11  -0.0%   157.6      0.1250E-03   0.000       107.6       0.000      0.5000E-01   0.000    
    5511   3.507      0.6364E-03 SPRIN         11  -0.0%   157.3      0.1250E-03   0.000       107.3       0.000      0.5000E-01   0.000    
    5512   3.508      0.6364E-03 SPRIN         11  -0.0%   157.0      0.1250E-03   0.000       107.0       0.000      0.5000E-01   0.000    
    5513   3.508      0.6364E-03 SPRIN         11  -0.0%   156.6      0.1250E-03   0.000       106.6       0.000      0.5000E-01   0.000    
    5514   3.509      0.6364E-03 SPRIN         11  -0.0%   156.3      0.1250E-03   0.000       106.3       0.000      0.5000E-01   0.000    
    5515   3.510      0.6364E-03 SPRIN         11  -0.0%   156.0      0.1250E-03   0.000       106.0       0.000      0.5000E-01   0.000    
    5516   3.510      0.6364E-03 SPRIN         11  -0.0%   155.7      0.1250E-03   0.000       105.7       0.000      0.5000E-01   0.000    
    5517   3.511      0.6364E-03 SPRIN         11  -0.0%   155.4      0.1250E-03   0.000       105.4       0.000      0.5000E-01   0.000    
    5518   3.512      0.6364E-03 SPRIN         11  -0.0%   155.1      0.1250E-03   0.000       105.1       0.000      0.5000E-01   0.000    
    5519   3.512      0.6364E-03 SPRIN         11  -0.0%   154.7      0.1250E-03   0.000       104.7       0.000      0.5000E-01   0.000    
    5520   3.513      0.6364E-03 SPRIN         11  -0.0%   154.4      0.1250E-03   0.000       104.4       0.000      0.5000E-01   0.000    
    5521   3.514      0.6364E-03 SPRIN         11  -0.0%   154.1      0.1250E-03   0.000       104.1       0.000      0.5000E-01   0.000    
    5522   3.514      0.6364E-03 SPRIN         11  -0.0%   153.8      0.1250E-03   0.000       103.8       0.000      0.5000E-01   0.000    
    5523   3.515      0.6364E-03 SPRIN         11  -0.0%   153.5      0.1250E-03   0.000       103.5       0.000      0.5000E-01   0.000    
    5524   3.515      0.6364E-03 SPRIN         11  -0.0%   153.2      0.1250E-03   0.000       103.2       0.000      0.5000E-01   0.000    
    5525   3.516      0.6364E-03 SPRIN         11  -0.0%   152.9      0.1250E-03   0.000       102.9       0.000      0.5000E-01   0.000    
    5526   3.517      0.6364E-03 SPRIN         11  -0.0%   152.5      0.1250E-03   0.000       102.6       0.000      0.5000E-01   0.000    
    5527   3.517      0.6364E-03 SPRIN         11  -0.0%   152.2      0.1250E-03   0.000       102.2       0.000      0.5000E-01   0.000    
    5528   3.518      0.6364E-03 SPRIN         11  -0.0%   151.9      0.1250E-03   0.000       101.9       0.000      0.5000E-01   0.000    
    5529   3.519      0.6364E-03 SPRIN         11  -0.0%   151.6      0.1250E-03   0.000       101.6       0.000      0.5000E-01   0.000    
    5530   3.519      0.6364E-03 SPRIN         11  -0.0%   151.3      0.1250E-03   0.000       101.3       0.000      0.5000E-01   0.000    
    5531   3.520      0.6364E-03 SPRIN         11  -0.0%   151.0      0.1250E-03   0.000       101.0       0.000      0.5000E-01   0.000    
    5532   3.521      0.6364E-03 SPRIN         11  -0.0%   150.7      0.1250E-03   0.000       100.7       0.000      0.5000E-01   0.000    
    5533   3.521      0.6364E-03 SPRIN         11  -0.0%   150.4      0.1250E-03   0.000       100.4       0.000      0.5000E-01   0.000    
    5534   3.522      0.6364E-03 SPRIN         11  -0.0%   150.1      0.1250E-03   0.000       100.1       0.000      0.5000E-01   0.000    
    5535   3.522      0.6364E-03 SPRIN         11  -0.0%   149.8      0.1250E-03   0.000       99.75       0.000      0.5000E-01   0.000    
    5536   3.523      0.6364E-03 SPRIN         11  -0.0%   149.4      0.1250E-03   0.000       99.45       0.000      0.5000E-01   0.000    
    5537   3.524      0.6364E-03 SPRIN         11  -0.0%   149.1      0.1250E-03   0.000       99.14       0.000      0.5000E-01   0.000    
    5538   3.524      0.6364E-03 SPRIN         11  -0.0%   148.8      0.1250E-03   0.000       98.83       0.000      0.5000E-01   0.000    
    5539   3.525      0.6364E-03 SPRIN         11  -0.0%   148.5      0.1250E-03   0.000       98.52       0.000      0.5000E-01   0.000    
    5540   3.526      0.6364E-03 SPRIN         11  -0.0%   148.2      0.1250E-03   0.000       98.21       0.000      0.5000E-01   0.000    
    5541   3.526      0.6364E-03 SPRIN         11  -0.0%   147.9      0.1250E-03   0.000       97.91       0.000      0.5000E-01   0.000    
    5542   3.527      0.6364E-03 SPRIN         11  -0.0%   147.6      0.1250E-03   0.000       97.60       0.000      0.5000E-01   0.000    
    5543   3.528      0.6364E-03 SPRIN         11  -0.0%   147.3      0.1250E-03   0.000       97.30       0.000      0.5000E-01   0.000    
    5544   3.528      0.6364E-03 SPRIN         11  -0.0%   147.0      0.1250E-03   0.000       96.99       0.000      0.5000E-01   0.000    
    5545   3.529      0.6364E-03 SPRIN         11  -0.0%   146.7      0.1250E-03   0.000       96.69       0.000      0.5000E-01   0.000    
    5546   3.529      0.6364E-03 SPRIN         11  -0.0%   146.4      0.1250E-03   0.000       96.38       0.000      0.5000E-01   0.000    
    5547   3.530      0.6364E-03 SPRIN         11  -0.0%   146.1      0.1250E-03   0.000       96.08       0.000      0.5000E-01   0.000    
    5548   3.531      0.6364E-03 SPRIN         11  -0.0%   145.8      0.1250E-03   0.000       95.77       0.000      0.5000E-01   0.000    
    5549   3.531      0.6364E-03 SPRIN         11  -0.0%   145.5      0.1250E-03   0.000       95.47       0.000      0.5000E-01   0.000    
    5550   3.532      0.6364E-03 SPRIN         11  -0.0%   145.2      0.1250E-03   0.000       95.17       0.000      0.5000E-01   0.000    
    5551   3.533      0.6364E-03 SPRIN         11  -0.0%   144.9      0.1250E-03   0.000       94.86       0.000      0.5000E-01   0.000    
    5552   3.533      0.6364E-03 SPRIN         11  -0.0%   144.6      0.1250E-03   0.000       94.56       0.000      0.5000E-01   0.000    
    5553   3.534      0.6364E-03 SPRIN         11  -0.0%   144.3      0.1250E-03   0.000       94.26       0.000      0.5000E-01   0.000    
    5554   3.535      0.6364E-03 SPRIN         11  -0.0%   144.0      0.1250E-03   0.000       93.96       0.000      0.5000E-01   0.000    
   CYCLE    TIME      TIME-STEP  ELEMENT          ERROR  I-ENERGY    K-ENERGY T  K-ENERGY R  EXT-WORK     MAS.ERR     TOTAL MASS  MASS ADDED
    5555   3.535      0.6364E-03 SPRIN         11  -0.0%   143.7      0.1250E-03   0.000       93.66       0.000      0.5000E-01   0.000    
    5556   3.536      0.6364E-03 SPRIN         11  -0.0%   143.4      0.1250E-03   0.000       93.36       0.000      0.5000E-01   0.000    
    5557   3.536      0.6364E-03 SPRIN         11  -0.0%   143.1      0.1250E-03   0.000       93.06       0.000      0.5000E-01   0.000    
    5558   3.537      0.6364E-03 SPRIN         11   0.0%   142.8      0.1250E-03   0.000       92.76       0.000      0.5000E-01   0.000    
    5559   3.538      0.6364E-03 SPRIN         11  -0.0%   142.5      0.1250E-03   0.000       92.46       0.000      0.5000E-01   0.000    
    5560   3.538      0.6364E-03 SPRIN         11  -0.0%   142.2      0.1250E-03   0.000       92.16       0.000      0.5000E-01   0.000    
    5561   3.539      0.6364E-03 SPRIN         11   0.0%   141.9      0.1250E-03   0.000       91.86       0.000      0.5000E-01   0.000    
    5562   3.540      0.6364E-03 SPRIN         11   0.0%   141.6      0.1250E-03   0.000       91.56       0.000      0.5000E-01   0.000    
    5563   3.540      0.6364E-03 SPRIN         11   0.0%   141.3      0.1250E-03   0.000       91.26       0.000      0.5000E-01   0.000    
    5564   3.541      0.6364E-03 SPRIN         11   0.0%   141.0      0.1250E-03   0.000       90.97       0.000      0.5000E-01   0.000    
    5565   3.542      0.6364E-03 SPRIN         11   0.0%   140.7      0.1250E-03   0.000       90.67       0.000      0.5000E-01   0.000    
    5566   3.542      0.6364E-03 SPRIN         11   0.0%   140.4      0.1250E-03   0.000       90.37       0.000      0.5000E-01   0.000    
    5567   3.543      0.6364E-03 SPRIN         11  -0.0%   140.1      0.1250E-03   0.000       90.08       0.000      0.5000E-01   0.000    
    5568   3.543      0.6364E-03 SPRIN         11   0.0%   139.8      0.1250E-03   0.000       89.78       0.000      0.5000E-01   0.000    
    5569   3.544      0.6364E-03 SPRIN         11   0.0%   139.5      0.1250E-03   0.000       89.49       0.000      0.5000E-01   0.000    
    5570   3.545      0.6364E-03 SPRIN         11  -0.0%   139.2      0.1250E-03   0.000       89.19       0.000      0.5000E-01   0.000    
    5571   3.545      0.6364E-03 SPRIN         11   0.0%   138.9      0.1250E-03   0.000       88.90       0.000      0.5000E-01   0.000    
    5572   3.546      0.6364E-03 SPRIN         11  -0.0%   138.6      0.1250E-03   0.000       88.60       0.000      0.5000E-01   0.000    
    5573   3.547      0.6364E-03 SPRIN         11  -0.0%   138.3      0.1250E-03   0.000       88.31       0.000      0.5000E-01   0.000    
    5574   3.547      0.6364E-03 SPRIN         11  -0.0%   138.0      0.1250E-03   0.000       88.02       0.000      0.5000E-01   0.000    
    5575   3.548      0.6364E-03 SPRIN         11  -0.0%   137.7      0.1250E-03   0.000       87.72       0.000      0.5000E-01   0.000    
    5576   3.549      0.6364E-03 SPRIN         11  -0.0%   137.4      0.1250E-03   0.000       87.43       0.000      0.5000E-01   0.000    
    5577   3.549      0.6364E-03 SPRIN         11  -0.0%   137.1      0.1250E-03   0.000       87.14       0.000      0.5000E-01   0.000    
    5578   3.550      0.6364E-03 SPRIN         11  -0.0%   136.8      0.1250E-03   0.000       86.85       0.000      0.5000E-01   0.000    
    5579   3.550      0.6364E-03 SPRIN         11  -0.0%   136.6      0.1250E-03   0.000       86.56       0.000      0.5000E-01   0.000    
    5580   3.551      0.6364E-03 SPRIN         11  -0.0%   136.3      0.1250E-03   0.000       86.26       0.000      0.5000E-01   0.000    
    5581   3.552      0.6364E-03 SPRIN         11  -0.0%   136.0      0.1250E-03   0.000       85.97       0.000      0.5000E-01   0.000    
    5582   3.552      0.6364E-03 SPRIN         11  -0.0%   135.7      0.1250E-03   0.000       85.68       0.000      0.5000E-01   0.000    
    5583   3.553      0.6364E-03 SPRIN         11  -0.0%   135.4      0.1250E-03   0.000       85.39       0.000      0.5000E-01   0.000    
    5584   3.554      0.6364E-03 SPRIN         11  -0.0%   135.1      0.1250E-03   0.000       85.11       0.000      0.5000E-01   0.000    
    5585   3.554      0.6364E-03 SPRIN         11  -0.0%   134.8      0.1250E-03   0.000       84.82       0.000      0.5000E-01   0.000    
    5586   3.555      0.6364E-03 SPRIN         11  -0.0%   134.5      0.1250E-03   0.000       84.53       0.000      0.5000E-01   0.000    
    5587   3.556      0.6364E-03 SPRIN         11  -0.0%   134.2      0.1250E-03   0.000       84.24       0.000      0.5000E-01   0.000    
    5588   3.556      0.6364E-03 SPRIN         11  -0.0%   134.0      0.1250E-03   0.000       83.95       0.000      0.5000E-01   0.000    
    5589   3.557      0.6364E-03 SPRIN         11  -0.0%   133.7      0.1250E-03   0.000       83.67       0.000      0.5000E-01   0.000    
    5590   3.557      0.6364E-03 SPRIN         11  -0.0%   133.4      0.1250E-03   0.000       83.38       0.000      0.5000E-01   0.000    
    5591   3.558      0.6364E-03 SPRIN         11  -0.0%   133.1      0.1250E-03   0.000       83.09       0.000      0.5000E-01   0.000    
    5592   3.559      0.6364E-03 SPRIN         11  -0.0%   132.8      0.1250E-03   0.000       82.81       0.000      0.5000E-01   0.000    
    5593   3.559      0.6364E-03 SPRIN         11  -0.0%   132.5      0.1250E-03   0.000       82.52       0.000      0.5000E-01   0.000    
    5594   3.560      0.6364E-03 SPRIN         11  -0.0%   132.2      0.1250E-03   0.000       82.24       0.000      0.5000E-01   0.000    
    5595   3.561      0.6364E-03 SPRIN         11  -0.0%   132.0      0.1250E-03   0.000       81.95       0.000      0.5000E-01   0.000    
    5596   3.561      0.6364E-03 SPRIN         11  -0.0%   131.7      0.1250E-03   0.000       81.67       0.000      0.5000E-01   0.000    
    5597   3.562      0.6364E-03 SPRIN         11  -0.0%   131.4      0.1250E-03   0.000       81.38       0.000      0.5000E-01   0.000    
    5598   3.563      0.6364E-03 SPRIN         11  -0.0%   131.1      0.1250E-03   0.000       81.10       0.000      0.5000E-01   0.000    
    5599   3.563      0.6364E-03 SPRIN         11  -0.0%   130.8      0.1250E-03   0.000       80.82       0.000      0.5000E-01   0.000    
    5600   3.564      0.6364E-03 SPRIN         11  -0.0%   130.5      0.1250E-03   0.000       80.53       0.000      0.5000E-01   0.000    
    5601   3.564      0.6364E-03 SPRIN         11  -0.0%   130.3      0.1250E-03   0.000       80.25       0.000      0.5000E-01   0.000    
    5602   3.565      0.6364E-03 SPRIN         11  -0.0%   130.0      0.1250E-03   0.000       79.97       0.000      0.5000E-01   0.000    
    5603   3.566      0.6364E-03 SPRIN         11  -0.0%   129.7      0.1250E-03   0.000       79.69       0.000      0.5000E-01   0.000    
    5604   3.566      0.6364E-03 SPRIN         11  -0.0%   129.4      0.1250E-03   0.000       79.41       0.000      0.5000E-01   0.000    
    5605   3.567      0.6364E-03 SPRIN         11  -0.0%   129.1      0.1250E-03   0.000       79.13       0.000      0.5000E-01   0.000    
    5606   3.568      0.6364E-03 SPRIN         11  -0.0%   128.8      0.1250E-03   0.000       78.84       0.000      0.5000E-01   0.000    
    5607   3.568      0.6364E-03 SPRIN         11  -0.0%   128.6      0.1250E-03   0.000       78.57       0.000      0.5000E-01   0.000    
    5608   3.569      0.6364E-03 SPRIN         11  -0.0%   128.3      0.1250E-03   0.000       78.29       0.000      0.5000E-01   0.000    
    5609   3.570      0.6364E-03 SPRIN         11  -0.0%   128.0      0.1250E-03   0.000       78.01       0.000      0.5000E-01   0.000    
   CYCLE    TIME      TIME-STEP  ELEMENT          ERROR  I-ENERGY    K-ENERGY T  K-ENERGY R  EXT-WORK     MAS.ERR     TOTAL MASS  MASS ADDED
    5610   3.570      0.6364E-03 SPRIN         11  -0.0%   127.7      0.1250E-03   0.000       77.73       0.000      0.5000E-01   0.000    
    5611   3.571      0.6364E-03 SPRIN         11  -0.0%   127.4      0.1250E-03   0.000       77.45       0.000      0.5000E-01   0.000    
    5612   3.571      0.6364E-03 SPRIN         11  -0.0%   127.2      0.1250E-03   0.000       77.17       0.000      0.5000E-01   0.000    
    5613   3.572      0.6364E-03 SPRIN         11  -0.0%   126.9      0.1250E-03   0.000       76.89       0.000      0.5000E-01   0.000    
    5614   3.573      0.6364E-03 SPRIN         11  -0.0%   126.6      0.1250E-03   0.000       76.62       0.000      0.5000E-01   0.000    
    5615   3.573      0.6364E-03 SPRIN         11  -0.0%   126.3      0.1250E-03   0.000       76.34       0.000      0.5000E-01   0.000    
    5616   3.574      0.6364E-03 SPRIN         11  -0.0%   126.1      0.1250E-03   0.000       76.06       0.000      0.5000E-01   0.000    
    5617   3.575      0.6364E-03 SPRIN         11  -0.0%   125.8      0.1250E-03   0.000       75.79       0.000      0.5000E-01   0.000    
    5618   3.575      0.6364E-03 SPRIN         11  -0.0%   125.5      0.1250E-03   0.000       75.51       0.000      0.5000E-01   0.000    
    5619   3.576      0.6364E-03 SPRIN         11  -0.0%   125.2      0.1250E-03   0.000       75.24       0.000      0.5000E-01   0.000    
    5620   3.577      0.6364E-03 SPRIN         11  -0.0%   125.0      0.1250E-03   0.000       74.96       0.000      0.5000E-01   0.000    
    5621   3.577      0.6364E-03 SPRIN         11  -0.0%   124.7      0.1250E-03   0.000       74.69       0.000      0.5000E-01   0.000    
    5622   3.578      0.6364E-03 SPRIN         11  -0.0%   124.4      0.1250E-03   0.000       74.42       0.000      0.5000E-01   0.000    
    5623   3.578      0.6364E-03 SPRIN         11  -0.0%   124.1      0.1250E-03   0.000       74.14       0.000      0.5000E-01   0.000    
    5624   3.579      0.6364E-03 SPRIN         11  -0.0%   123.9      0.1250E-03   0.000       73.87       0.000      0.5000E-01   0.000    
    5625   3.580      0.6364E-03 SPRIN         11  -0.0%   123.6      0.1250E-03   0.000       73.60       0.000      0.5000E-01   0.000    
    5626   3.580      0.6364E-03 SPRIN         11  -0.0%   123.3      0.1250E-03   0.000       73.32       0.000      0.5000E-01   0.000    
    5627   3.581      0.6364E-03 SPRIN         11  -0.0%   123.1      0.1250E-03   0.000       73.05       0.000      0.5000E-01   0.000    
    5628   3.582      0.6364E-03 SPRIN         11  -0.0%   122.8      0.1250E-03   0.000       72.78       0.000      0.5000E-01   0.000    
    5629   3.582      0.6364E-03 SPRIN         11  -0.0%   122.5      0.1250E-03   0.000       72.51       0.000      0.5000E-01   0.000    
    5630   3.583      0.6364E-03 SPRIN         11  -0.0%   122.2      0.1250E-03   0.000       72.24       0.000      0.5000E-01   0.000    
    5631   3.584      0.6364E-03 SPRIN         11  -0.0%   122.0      0.1250E-03   0.000       71.97       0.000      0.5000E-01   0.000    
    5632   3.584      0.6364E-03 SPRIN         11  -0.0%   121.7      0.1250E-03   0.000       71.70       0.000      0.5000E-01   0.000    
    5633   3.585      0.6364E-03 SPRIN         11  -0.0%   121.4      0.1250E-03   0.000       71.43       0.000      0.5000E-01   0.000    
    5634   3.585      0.6364E-03 SPRIN         11  -0.0%   121.2      0.1250E-03   0.000       71.16       0.000      0.5000E-01   0.000    
    5635   3.586      0.6364E-03 SPRIN         11  -0.0%   120.9      0.1250E-03   0.000       70.89       0.000      0.5000E-01   0.000    
    5636   3.587      0.6364E-03 SPRIN         11  -0.0%   120.6      0.1250E-03   0.000       70.62       0.000      0.5000E-01   0.000    
    5637   3.587      0.6364E-03 SPRIN         11  -0.0%   120.4      0.1250E-03   0.000       70.36       0.000      0.5000E-01   0.000    
    5638   3.588      0.6364E-03 SPRIN         11  -0.0%   120.1      0.1250E-03   0.000       70.09       0.000      0.5000E-01   0.000    
    5639   3.589      0.6364E-03 SPRIN         11  -0.0%   119.8      0.1250E-03   0.000       69.82       0.000      0.5000E-01   0.000    
    5640   3.589      0.6364E-03 SPRIN         11  -0.0%   119.6      0.1250E-03   0.000       69.56       0.000      0.5000E-01   0.000    
    5641   3.590      0.6364E-03 SPRIN         11  -0.0%   119.3      0.1250E-03   0.000       69.29       0.000      0.5000E-01   0.000    
    5642   3.591      0.6364E-03 SPRIN         11  -0.0%   119.0      0.1250E-03   0.000       69.02       0.000      0.5000E-01   0.000    
    5643   3.591      0.6364E-03 SPRIN         11  -0.0%   118.8      0.1250E-03   0.000       68.76       0.000      0.5000E-01   0.000    
    5644   3.592      0.6364E-03 SPRIN         11  -0.0%   118.5      0.1250E-03   0.000       68.49       0.000      0.5000E-01   0.000    
    5645   3.592      0.6364E-03 SPRIN         11  -0.0%   118.2      0.1250E-03   0.000       68.23       0.000      0.5000E-01   0.000    
    5646   3.593      0.6364E-03 SPRIN         11  -0.0%   118.0      0.1250E-03   0.000       67.96       0.000      0.5000E-01   0.000    
    5647   3.594      0.6364E-03 SPRIN         11  -0.0%   117.7      0.1250E-03   0.000       67.70       0.000      0.5000E-01   0.000    
    5648   3.594      0.6364E-03 SPRIN         11  -0.0%   117.4      0.1250E-03   0.000       67.44       0.000      0.5000E-01   0.000    
    5649   3.595      0.6364E-03 SPRIN         11  -0.0%   117.2      0.1250E-03   0.000       67.17       0.000      0.5000E-01   0.000    
    5650   3.596      0.6364E-03 SPRIN         11  -0.0%   116.9      0.1250E-03   0.000       66.91       0.000      0.5000E-01   0.000    
    5651   3.596      0.6364E-03 SPRIN         11  -0.0%   116.6      0.1250E-03   0.000       66.65       0.000      0.5000E-01   0.000    
    5652   3.597      0.6364E-03 SPRIN         11  -0.0%   116.4      0.1250E-03   0.000       66.39       0.000      0.5000E-01   0.000    
    5653   3.598      0.6364E-03 SPRIN         11  -0.0%   116.1      0.1250E-03   0.000       66.13       0.000      0.5000E-01   0.000    
    5654   3.598      0.6364E-03 SPRIN         11  -0.0%   115.9      0.1250E-03   0.000       65.87       0.000      0.5000E-01   0.000    
    5655   3.599      0.6364E-03 SPRIN         11  -0.0%   115.6      0.1250E-03   0.000       65.61       0.000      0.5000E-01   0.000    
    5656   3.599      0.6364E-03 SPRIN         11  -0.0%   115.3      0.1250E-03   0.000       65.35       0.000      0.5000E-01   0.000    
    5657   3.600      0.6364E-03 SPRIN         11  -0.0%   115.1      0.1250E-03   0.000       65.09       0.000      0.5000E-01   0.000    
     ANIMATION FILE: SPR_PRE_2FLAGA019 WRITTEN
    5658   3.601      0.6364E-03 SPRIN         11  -0.0%   114.8      0.1250E-03   0.000       64.83       0.000      0.5000E-01   0.000    
    5659   3.601      0.6364E-03 SPRIN         11  -0.0%   114.6      0.1250E-03   0.000       64.57       0.000      0.5000E-01   0.000    
    5660   3.602      0.6364E-03 SPRIN         11  -0.0%   114.3      0.1250E-03   0.000       64.31       0.000      0.5000E-01   0.000    
    5661   3.603      0.6364E-03 SPRIN         11  -0.0%   114.1      0.1250E-03   0.000       64.05       0.000      0.5000E-01   0.000    
    5662   3.603      0.6364E-03 SPRIN         11  -0.0%   113.8      0.1250E-03   0.000       63.79       0.000      0.5000E-01   0.000    
    5663   3.604      0.6364E-03 SPRIN         11  -0.0%   113.5      0.1250E-03   0.000       63.54       0.000      0.5000E-01   0.000    
    5664   3.605      0.6364E-03 SPRIN         11  -0.0%   113.3      0.1250E-03   0.000       63.28       0.000      0.5000E-01   0.000    
   CYCLE    TIME      TIME-STEP  ELEMENT          ERROR  I-ENERGY    K-ENERGY T  K-ENERGY R  EXT-WORK     MAS.ERR     TOTAL MASS  MASS ADDED
    5665   3.605      0.6364E-03 SPRIN         11  -0.0%   113.0      0.1250E-03   0.000       63.02       0.000      0.5000E-01   0.000    
    5666   3.606      0.6364E-03 SPRIN         11  -0.0%   112.8      0.1250E-03   0.000       62.77       0.000      0.5000E-01   0.000    
    5667   3.606      0.6364E-03 SPRIN         11  -0.0%   112.5      0.1250E-03   0.000       62.51       0.000      0.5000E-01   0.000    
    5668   3.607      0.6364E-03 SPRIN         11  -0.0%   112.3      0.1250E-03   0.000       62.26       0.000      0.5000E-01   0.000    
    5669   3.608      0.6364E-03 SPRIN         11  -0.0%   112.0      0.1250E-03   0.000       62.00       0.000      0.5000E-01   0.000    
    5670   3.608      0.6364E-03 SPRIN         11  -0.0%   111.7      0.1250E-03   0.000       61.75       0.000      0.5000E-01   0.000    
    5671   3.609      0.6364E-03 SPRIN         11  -0.0%   111.5      0.1250E-03   0.000       61.49       0.000      0.5000E-01   0.000    
    5672   3.610      0.6364E-03 SPRIN         11  -0.0%   111.2      0.1250E-03   0.000       61.24       0.000      0.5000E-01   0.000    
    5673   3.610      0.6364E-03 SPRIN         11  -0.0%   111.0      0.1250E-03   0.000       60.99       0.000      0.5000E-01   0.000    
    5674   3.611      0.6364E-03 SPRIN         11  -0.0%   110.7      0.1250E-03   0.000       60.73       0.000      0.5000E-01   0.000    
    5675   3.612      0.6364E-03 SPRIN         11  -0.0%   110.5      0.1250E-03   0.000       60.48       0.000      0.5000E-01   0.000    
    5676   3.612      0.6364E-03 SPRIN         11  -0.0%   110.2      0.1250E-03   0.000       60.23       0.000      0.5000E-01   0.000    
    5677   3.613      0.6364E-03 SPRIN         11  -0.0%   110.0      0.1250E-03   0.000       59.98       0.000      0.5000E-01   0.000    
    5678   3.613      0.6364E-03 SPRIN         11  -0.0%   109.7      0.1250E-03   0.000       59.73       0.000      0.5000E-01   0.000    
    5679   3.614      0.6364E-03 SPRIN         11  -0.0%   109.5      0.1250E-03   0.000       59.48       0.000      0.5000E-01   0.000    
    5680   3.615      0.6364E-03 SPRIN         11  -0.0%   109.2      0.1250E-03   0.000       59.23       0.000      0.5000E-01   0.000    
    5681   3.615      0.6364E-03 SPRIN         11  -0.0%   109.0      0.1250E-03   0.000       58.98       0.000      0.5000E-01   0.000    
    5682   3.616      0.6364E-03 SPRIN         11  -0.0%   108.7      0.1250E-03   0.000       58.73       0.000      0.5000E-01   0.000    
    5683   3.617      0.6364E-03 SPRIN         11  -0.0%   108.5      0.1250E-03   0.000       58.48       0.000      0.5000E-01   0.000    
    5684   3.617      0.6364E-03 SPRIN         11  -0.0%   108.2      0.1250E-03   0.000       58.23       0.000      0.5000E-01   0.000    
    5685   3.618      0.6364E-03 SPRIN         11  -0.0%   108.0      0.1250E-03   0.000       57.98       0.000      0.5000E-01   0.000    
    5686   3.619      0.6364E-03 SPRIN         11  -0.0%   107.7      0.1250E-03   0.000       57.73       0.000      0.5000E-01   0.000    
    5687   3.619      0.6364E-03 SPRIN         11  -0.0%   107.5      0.1250E-03   0.000       57.48       0.000      0.5000E-01   0.000    
    5688   3.620      0.6364E-03 SPRIN         11  -0.0%   107.2      0.1250E-03   0.000       57.24       0.000      0.5000E-01   0.000    
    5689   3.620      0.6364E-03 SPRIN         11  -0.0%   107.0      0.1250E-03   0.000       56.99       0.000      0.5000E-01   0.000    
    5690   3.621      0.6364E-03 SPRIN         11  -0.0%   106.7      0.1250E-03   0.000       56.74       0.000      0.5000E-01   0.000    
    5691   3.622      0.6364E-03 SPRIN         11  -0.0%   106.5      0.1250E-03   0.000       56.50       0.000      0.5000E-01   0.000    
    5692   3.622      0.6364E-03 SPRIN         11  -0.0%   106.3      0.1250E-03   0.000       56.25       0.000      0.5000E-01   0.000    
    5693   3.623      0.6364E-03 SPRIN         11  -0.0%   106.0      0.1250E-03   0.000       56.01       0.000      0.5000E-01   0.000    
    5694   3.624      0.6364E-03 SPRIN         11  -0.0%   105.8      0.1250E-03   0.000       55.76       0.000      0.5000E-01   0.000    
    5695   3.624      0.6364E-03 SPRIN         11  -0.0%   105.5      0.1250E-03   0.000       55.52       0.000      0.5000E-01   0.000    
    5696   3.625      0.6364E-03 SPRIN         11  -0.0%   105.3      0.1250E-03   0.000       55.27       0.000      0.5000E-01   0.000    
    5697   3.626      0.6364E-03 SPRIN         11  -0.0%   105.0      0.1250E-03   0.000       55.03       0.000      0.5000E-01   0.000    
    5698   3.626      0.6364E-03 SPRIN         11  -0.0%   104.8      0.1250E-03   0.000       54.79       0.000      0.5000E-01   0.000    
    5699   3.627      0.6364E-03 SPRIN         11  -0.0%   104.5      0.1250E-03   0.000       54.55       0.000      0.5000E-01   0.000    
    5700   3.627      0.6364E-03 SPRIN         11  -0.0%   104.3      0.1250E-03   0.000       54.30       0.000      0.5000E-01   0.000    
    5701   3.628      0.6364E-03 SPRIN         11  -0.0%   104.1      0.1250E-03   0.000       54.06       0.000      0.5000E-01   0.000    
    5702   3.629      0.6364E-03 SPRIN         11  -0.0%   103.8      0.1250E-03   0.000       53.82       0.000      0.5000E-01   0.000    
    5703   3.629      0.6364E-03 SPRIN         11  -0.0%   103.6      0.1250E-03   0.000       53.58       0.000      0.5000E-01   0.000    
    5704   3.630      0.6364E-03 SPRIN         11  -0.0%   103.3      0.1250E-03   0.000       53.34       0.000      0.5000E-01   0.000    
    5705   3.631      0.6364E-03 SPRIN         11  -0.0%   103.1      0.1250E-03   0.000       53.10       0.000      0.5000E-01   0.000    
    5706   3.631      0.6364E-03 SPRIN         11  -0.0%   102.9      0.1250E-03   0.000       52.86       0.000      0.5000E-01   0.000    
    5707   3.632      0.6364E-03 SPRIN         11  -0.0%   102.6      0.1250E-03   0.000       52.62       0.000      0.5000E-01   0.000    
    5708   3.633      0.6364E-03 SPRIN         11  -0.0%   102.4      0.1250E-03   0.000       52.38       0.000      0.5000E-01   0.000    
    5709   3.633      0.6364E-03 SPRIN         11  -0.0%   102.1      0.1250E-03   0.000       52.14       0.000      0.5000E-01   0.000    
    5710   3.634      0.6364E-03 SPRIN         11  -0.0%   101.9      0.1250E-03   0.000       51.90       0.000      0.5000E-01   0.000    
    5711   3.634      0.6364E-03 SPRIN         11  -0.0%   101.7      0.1250E-03   0.000       51.67       0.000      0.5000E-01   0.000    
    5712   3.635      0.6364E-03 SPRIN         11  -0.0%   101.4      0.1250E-03   0.000       51.43       0.000      0.5000E-01   0.000    
    5713   3.636      0.6364E-03 SPRIN         11  -0.0%   101.2      0.1250E-03   0.000       51.19       0.000      0.5000E-01   0.000    
    5714   3.636      0.6364E-03 SPRIN         11  -0.0%   101.0      0.1250E-03   0.000       50.95       0.000      0.5000E-01   0.000    
    5715   3.637      0.6364E-03 SPRIN         11  -0.0%   100.7      0.1250E-03   0.000       50.72       0.000      0.5000E-01   0.000    
    5716   3.638      0.6364E-03 SPRIN         11  -0.0%   100.5      0.1250E-03   0.000       50.48       0.000      0.5000E-01   0.000    
    5717   3.638      0.6364E-03 SPRIN         11  -0.0%   100.2      0.1250E-03   0.000       50.25       0.000      0.5000E-01   0.000    
    5718   3.639      0.6364E-03 SPRIN         11  -0.0%   100.0      0.1250E-03   0.000       50.01       0.000      0.5000E-01   0.000    
    5719   3.640      0.6364E-03 SPRIN         11  -0.0%   99.78      0.1250E-03   0.000       49.78       0.000      0.5000E-01   0.000    
   CYCLE    TIME      TIME-STEP  ELEMENT          ERROR  I-ENERGY    K-ENERGY T  K-ENERGY R  EXT-WORK     MAS.ERR     TOTAL MASS  MASS ADDED
    5720   3.640      0.6364E-03 SPRIN         11  -0.0%   99.54      0.1250E-03   0.000       49.54       0.000      0.5000E-01   0.000    
    5721   3.641      0.6364E-03 SPRIN         11  -0.0%   99.31      0.1250E-03   0.000       49.31       0.000      0.5000E-01   0.000    
    5722   3.641      0.6364E-03 SPRIN         11  -0.0%   99.08      0.1250E-03   0.000       49.08       0.000      0.5000E-01   0.000    
    5723   3.642      0.6364E-03 SPRIN         11  -0.0%   98.84      0.1250E-03   0.000       48.84       0.000      0.5000E-01   0.000    
    5724   3.643      0.6364E-03 SPRIN         11  -0.0%   98.61      0.1250E-03   0.000       48.61       0.000      0.5000E-01   0.000    
    5725   3.643      0.6364E-03 SPRIN         11  -0.0%   98.38      0.1250E-03   0.000       48.38       0.000      0.5000E-01   0.000    
    5726   3.644      0.6364E-03 SPRIN         11  -0.0%   98.15      0.1250E-03   0.000       48.15       0.000      0.5000E-01   0.000    
    5727   3.645      0.6364E-03 SPRIN         11  -0.0%   97.92      0.1250E-03   0.000       47.92       0.000      0.5000E-01   0.000    
    5728   3.645      0.6364E-03 SPRIN         11  -0.0%   97.68      0.1250E-03   0.000       47.69       0.000      0.5000E-01   0.000    
    5729   3.646      0.6364E-03 SPRIN         11  -0.0%   97.45      0.1250E-03   0.000       47.45       0.000      0.5000E-01   0.000    
    5730   3.647      0.6364E-03 SPRIN         11  -0.0%   97.22      0.1250E-03   0.000       47.22       0.000      0.5000E-01   0.000    
    5731   3.647      0.6364E-03 SPRIN         11  -0.0%   96.99      0.1250E-03   0.000       46.99       0.000      0.5000E-01   0.000    
    5732   3.648      0.6364E-03 SPRIN         11  -0.0%   96.77      0.1250E-03   0.000       46.77       0.000      0.5000E-01   0.000    
    5733   3.648      0.6364E-03 SPRIN         11  -0.0%   96.54      0.1250E-03   0.000       46.54       0.000      0.5000E-01   0.000    
    5734   3.649      0.6364E-03 SPRIN         11  -0.0%   96.31      0.1250E-03   0.000       46.31       0.000      0.5000E-01   0.000    
    5735   3.650      0.6364E-03 SPRIN         11  -0.0%   96.08      0.1250E-03   0.000       46.08       0.000      0.5000E-01   0.000    
    5736   3.650      0.6364E-03 SPRIN         11  -0.0%   95.85      0.1250E-03   0.000       45.85       0.000      0.5000E-01   0.000    
    5737   3.651      0.6364E-03 SPRIN         11  -0.0%   95.63      0.1250E-03   0.000       45.63       0.000      0.5000E-01   0.000    
    5738   3.652      0.6364E-03 SPRIN         11  -0.0%   95.40      0.1250E-03   0.000       45.40       0.000      0.5000E-01   0.000    
    5739   3.652      0.6364E-03 SPRIN         11  -0.0%   95.17      0.1250E-03   0.000       45.17       0.000      0.5000E-01   0.000    
    5740   3.653      0.6364E-03 SPRIN         11  -0.0%   94.95      0.1250E-03   0.000       44.95       0.000      0.5000E-01   0.000    
    5741   3.654      0.6364E-03 SPRIN         11  -0.0%   94.72      0.1250E-03   0.000       44.72       0.000      0.5000E-01   0.000    
    5742   3.654      0.6364E-03 SPRIN         11  -0.0%   94.49      0.1250E-03   0.000       44.49       0.000      0.5000E-01   0.000    
    5743   3.655      0.6364E-03 SPRIN         11  -0.0%   94.27      0.1250E-03   0.000       44.27       0.000      0.5000E-01   0.000    
    5744   3.655      0.6364E-03 SPRIN         11  -0.0%   94.05      0.1250E-03   0.000       44.05       0.000      0.5000E-01   0.000    
    5745   3.656      0.6364E-03 SPRIN         11  -0.0%   93.82      0.1250E-03   0.000       43.82       0.000      0.5000E-01   0.000    
    5746   3.657      0.6364E-03 SPRIN         11  -0.0%   93.60      0.1250E-03   0.000       43.60       0.000      0.5000E-01   0.000    
    5747   3.657      0.6364E-03 SPRIN         11  -0.0%   93.37      0.1250E-03   0.000       43.37       0.000      0.5000E-01   0.000    
    5748   3.658      0.6364E-03 SPRIN         11  -0.0%   93.15      0.1250E-03   0.000       43.15       0.000      0.5000E-01   0.000    
    5749   3.659      0.6364E-03 SPRIN         11  -0.0%   92.93      0.1250E-03   0.000       42.93       0.000      0.5000E-01   0.000    
    5750   3.659      0.6364E-03 SPRIN         11  -0.0%   92.71      0.1250E-03   0.000       42.71       0.000      0.5000E-01   0.000    
    5751   3.660      0.6364E-03 SPRIN         11  -0.0%   92.49      0.1250E-03   0.000       42.49       0.000      0.5000E-01   0.000    
    5752   3.661      0.6364E-03 SPRIN         11  -0.0%   92.26      0.1250E-03   0.000       42.26       0.000      0.5000E-01   0.000    
    5753   3.661      0.6364E-03 SPRIN         11  -0.0%   92.04      0.1250E-03   0.000       42.04       0.000      0.5000E-01   0.000    
    5754   3.662      0.6364E-03 SPRIN         11  -0.0%   91.82      0.1250E-03   0.000       41.82       0.000      0.5000E-01   0.000    
    5755   3.662      0.6364E-03 SPRIN         11  -0.0%   91.60      0.1250E-03   0.000       41.60       0.000      0.5000E-01   0.000    
    5756   3.663      0.6364E-03 SPRIN         11  -0.0%   91.38      0.1250E-03   0.000       41.38       0.000      0.5000E-01   0.000    
    5757   3.664      0.6364E-03 SPRIN         11  -0.0%   91.16      0.1250E-03   0.000       41.16       0.000      0.5000E-01   0.000    
    5758   3.664      0.6364E-03 SPRIN         11  -0.0%   90.95      0.1250E-03   0.000       40.95       0.000      0.5000E-01   0.000    
    5759   3.665      0.6364E-03 SPRIN         11  -0.0%   90.73      0.1250E-03   0.000       40.73       0.000      0.5000E-01   0.000    
    5760   3.666      0.6364E-03 SPRIN         11  -0.0%   90.51      0.1250E-03   0.000       40.51       0.000      0.5000E-01   0.000    
    5761   3.666      0.6364E-03 SPRIN         11  -0.0%   90.29      0.1250E-03   0.000       40.29       0.000      0.5000E-01   0.000    
    5762   3.667      0.6364E-03 SPRIN         11  -0.0%   90.08      0.1250E-03   0.000       40.08       0.000      0.5000E-01   0.000    
    5763   3.668      0.6364E-03 SPRIN         11  -0.0%   89.86      0.1250E-03   0.000       39.86       0.000      0.5000E-01   0.000    
    5764   3.668      0.6364E-03 SPRIN         11  -0.0%   89.64      0.1250E-03   0.000       39.64       0.000      0.5000E-01   0.000    
    5765   3.669      0.6364E-03 SPRIN         11  -0.0%   89.43      0.1250E-03   0.000       39.43       0.000      0.5000E-01   0.000    
    5766   3.669      0.6364E-03 SPRIN         11  -0.0%   89.21      0.1250E-03   0.000       39.21       0.000      0.5000E-01   0.000    
    5767   3.670      0.6364E-03 SPRIN         11  -0.0%   89.00      0.1250E-03   0.000       39.00       0.000      0.5000E-01   0.000    
    5768   3.671      0.6364E-03 SPRIN         11  -0.0%   88.78      0.1250E-03   0.000       38.78       0.000      0.5000E-01   0.000    
    5769   3.671      0.6364E-03 SPRIN         11  -0.0%   88.57      0.1250E-03   0.000       38.57       0.000      0.5000E-01   0.000    
    5770   3.672      0.6364E-03 SPRIN         11  -0.0%   88.35      0.1250E-03   0.000       38.35       0.000      0.5000E-01   0.000    
    5771   3.673      0.6364E-03 SPRIN         11  -0.0%   88.14      0.1250E-03   0.000       38.14       0.000      0.5000E-01   0.000    
    5772   3.673      0.6364E-03 SPRIN         11  -0.0%   87.93      0.1250E-03   0.000       37.93       0.000      0.5000E-01   0.000    
    5773   3.674      0.6364E-03 SPRIN         11  -0.0%   87.71      0.1250E-03   0.000       37.71       0.000      0.5000E-01   0.000    
    5774   3.675      0.6364E-03 SPRIN         11  -0.0%   87.50      0.1250E-03   0.000       37.50       0.000      0.5000E-01   0.000    
   CYCLE    TIME      TIME-STEP  ELEMENT          ERROR  I-ENERGY    K-ENERGY T  K-ENERGY R  EXT-WORK     MAS.ERR     TOTAL MASS  MASS ADDED
    5775   3.675      0.6364E-03 SPRIN         11  -0.0%   87.29      0.1250E-03   0.000       37.29       0.000      0.5000E-01   0.000    
    5776   3.676      0.6364E-03 SPRIN         11  -0.0%   87.08      0.1250E-03   0.000       37.08       0.000      0.5000E-01   0.000    
    5777   3.676      0.6364E-03 SPRIN         11  -0.0%   86.87      0.1250E-03   0.000       36.87       0.000      0.5000E-01   0.000    
    5778   3.677      0.6364E-03 SPRIN         11  -0.0%   86.66      0.1250E-03   0.000       36.66       0.000      0.5000E-01   0.000    
    5779   3.678      0.6364E-03 SPRIN         11  -0.0%   86.45      0.1250E-03   0.000       36.45       0.000      0.5000E-01   0.000    
    5780   3.678      0.6364E-03 SPRIN         11  -0.0%   86.24      0.1250E-03   0.000       36.24       0.000      0.5000E-01   0.000    
    5781   3.679      0.6364E-03 SPRIN         11  -0.0%   86.03      0.1250E-03   0.000       36.03       0.000      0.5000E-01   0.000    
    5782   3.680      0.6364E-03 SPRIN         11  -0.0%   85.82      0.1250E-03   0.000       35.82       0.000      0.5000E-01   0.000    
    5783   3.680      0.6364E-03 SPRIN         11  -0.0%   85.61      0.1250E-03   0.000       35.61       0.000      0.5000E-01   0.000    
    5784   3.681      0.6364E-03 SPRIN         11  -0.0%   85.40      0.1250E-03   0.000       35.40       0.000      0.5000E-01   0.000    
    5785   3.682      0.6364E-03 SPRIN         11  -0.0%   85.19      0.1250E-03   0.000       35.19       0.000      0.5000E-01   0.000    
    5786   3.682      0.6364E-03 SPRIN         11  -0.0%   84.99      0.1250E-03   0.000       34.99       0.000      0.5000E-01   0.000    
    5787   3.683      0.6364E-03 SPRIN         11  -0.0%   84.78      0.1250E-03   0.000       34.78       0.000      0.5000E-01   0.000    
    5788   3.683      0.6364E-03 SPRIN         11  -0.0%   84.57      0.1250E-03   0.000       34.57       0.000      0.5000E-01   0.000    
    5789   3.684      0.6364E-03 SPRIN         11  -0.0%   84.37      0.1250E-03   0.000       34.37       0.000      0.5000E-01   0.000    
    5790   3.685      0.6364E-03 SPRIN         11  -0.0%   84.16      0.1250E-03   0.000       34.16       0.000      0.5000E-01   0.000    
    5791   3.685      0.6364E-03 SPRIN         11  -0.0%   83.95      0.1250E-03   0.000       33.95       0.000      0.5000E-01   0.000    
    5792   3.686      0.6364E-03 SPRIN         11  -0.0%   83.75      0.1250E-03   0.000       33.75       0.000      0.5000E-01   0.000    
    5793   3.687      0.6364E-03 SPRIN         11  -0.0%   83.54      0.1250E-03   0.000       33.54       0.000      0.5000E-01   0.000    
    5794   3.687      0.6364E-03 SPRIN         11  -0.0%   83.34      0.1250E-03   0.000       33.34       0.000      0.5000E-01   0.000    
    5795   3.688      0.6364E-03 SPRIN         11  -0.0%   83.14      0.1250E-03   0.000       33.14       0.000      0.5000E-01   0.000    
    5796   3.689      0.6364E-03 SPRIN         11  -0.0%   82.93      0.1250E-03   0.000       32.93       0.000      0.5000E-01   0.000    
    5797   3.689      0.6364E-03 SPRIN         11  -0.0%   82.73      0.1250E-03   0.000       32.73       0.000      0.5000E-01   0.000    
    5798   3.690      0.6364E-03 SPRIN         11  -0.0%   82.53      0.1250E-03   0.000       32.53       0.000      0.5000E-01   0.000    
    5799   3.690      0.6364E-03 SPRIN         11  -0.0%   82.33      0.1250E-03   0.000       32.33       0.000      0.5000E-01   0.000    
    5800   3.691      0.6364E-03 SPRIN         11  -0.0%   82.12      0.1250E-03   0.000       32.12       0.000      0.5000E-01   0.000    
    5801   3.692      0.6364E-03 SPRIN         11  -0.0%   81.92      0.1250E-03   0.000       31.92       0.000      0.5000E-01   0.000    
    5802   3.692      0.6364E-03 SPRIN         11  -0.0%   81.72      0.1250E-03   0.000       31.72       0.000      0.5000E-01   0.000    
    5803   3.693      0.6364E-03 SPRIN         11  -0.0%   81.52      0.1250E-03   0.000       31.52       0.000      0.5000E-01   0.000    
    5804   3.694      0.6364E-03 SPRIN         11  -0.0%   81.32      0.1250E-03   0.000       31.32       0.000      0.5000E-01   0.000    
    5805   3.694      0.6364E-03 SPRIN         11  -0.0%   81.12      0.1250E-03   0.000       31.12       0.000      0.5000E-01   0.000    
    5806   3.695      0.6364E-03 SPRIN         11  -0.0%   80.92      0.1250E-03   0.000       30.92       0.000      0.5000E-01   0.000    
    5807   3.696      0.6364E-03 SPRIN         11  -0.0%   80.72      0.1250E-03   0.000       30.72       0.000      0.5000E-01   0.000    
    5808   3.696      0.6364E-03 SPRIN         11  -0.0%   80.52      0.1250E-03   0.000       30.52       0.000      0.5000E-01   0.000    
    5809   3.697      0.6364E-03 SPRIN         11  -0.0%   80.33      0.1250E-03   0.000       30.33       0.000      0.5000E-01   0.000    
    5810   3.697      0.6364E-03 SPRIN         11  -0.0%   80.13      0.1250E-03   0.000       30.13       0.000      0.5000E-01   0.000    
    5811   3.698      0.6364E-03 SPRIN         11  -0.0%   79.93      0.1250E-03   0.000       29.93       0.000      0.5000E-01   0.000    
    5812   3.699      0.6364E-03 SPRIN         11  -0.0%   79.73      0.1250E-03   0.000       29.73       0.000      0.5000E-01   0.000    
    5813   3.699      0.6364E-03 SPRIN         11  -0.0%   79.54      0.1250E-03   0.000       29.54       0.000      0.5000E-01   0.000    
    5814   3.700      0.6364E-03 SPRIN         11  -0.0%   79.34      0.1250E-03   0.000       29.34       0.000      0.5000E-01   0.000    
    5815   3.701      0.6364E-03 SPRIN         11  -0.0%   79.15      0.1250E-03   0.000       29.15       0.000      0.5000E-01   0.000    
    5816   3.701      0.6364E-03 SPRIN         11  -0.0%   78.95      0.1250E-03   0.000       28.95       0.000      0.5000E-01   0.000    
    5817   3.702      0.6364E-03 SPRIN         11  -0.0%   78.76      0.1250E-03   0.000       28.76       0.000      0.5000E-01   0.000    
    5818   3.703      0.6364E-03 SPRIN         11  -0.0%   78.56      0.1250E-03   0.000       28.56       0.000      0.5000E-01   0.000    
    5819   3.703      0.6364E-03 SPRIN         11  -0.0%   78.37      0.1250E-03   0.000       28.37       0.000      0.5000E-01   0.000    
    5820   3.704      0.6364E-03 SPRIN         11  -0.0%   78.17      0.1250E-03   0.000       28.17       0.000      0.5000E-01   0.000    
    5821   3.704      0.6364E-03 SPRIN         11  -0.0%   77.98      0.1250E-03   0.000       27.98       0.000      0.5000E-01   0.000    
    5822   3.705      0.6364E-03 SPRIN         11  -0.0%   77.79      0.1250E-03   0.000       27.79       0.000      0.5000E-01   0.000    
    5823   3.706      0.6364E-03 SPRIN         11  -0.0%   77.60      0.1250E-03   0.000       27.60       0.000      0.5000E-01   0.000    
    5824   3.706      0.6364E-03 SPRIN         11  -0.0%   77.40      0.1250E-03   0.000       27.40       0.000      0.5000E-01   0.000    
    5825   3.707      0.6364E-03 SPRIN         11  -0.0%   77.21      0.1250E-03   0.000       27.21       0.000      0.5000E-01   0.000    
    5826   3.708      0.6364E-03 SPRIN         11  -0.0%   77.02      0.1250E-03   0.000       27.02       0.000      0.5000E-01   0.000    
    5827   3.708      0.6364E-03 SPRIN         11  -0.0%   76.83      0.1250E-03   0.000       26.83       0.000      0.5000E-01   0.000    
    5828   3.709      0.6364E-03 SPRIN         11  -0.0%   76.64      0.1250E-03   0.000       26.64       0.000      0.5000E-01   0.000    
    5829   3.710      0.6364E-03 SPRIN         11  -0.0%   76.45      0.1250E-03   0.000       26.45       0.000      0.5000E-01   0.000    
   CYCLE    TIME      TIME-STEP  ELEMENT          ERROR  I-ENERGY    K-ENERGY T  K-ENERGY R  EXT-WORK     MAS.ERR     TOTAL MASS  MASS ADDED
    5830   3.710      0.6364E-03 SPRIN         11  -0.0%   76.26      0.1250E-03   0.000       26.26       0.000      0.5000E-01   0.000    
    5831   3.711      0.6364E-03 SPRIN         11  -0.0%   76.07      0.1250E-03   0.000       26.07       0.000      0.5000E-01   0.000    
    5832   3.711      0.6364E-03 SPRIN         11  -0.0%   75.88      0.1250E-03   0.000       25.88       0.000      0.5000E-01   0.000    
    5833   3.712      0.6364E-03 SPRIN         11  -0.0%   75.69      0.1250E-03   0.000       25.69       0.000      0.5000E-01   0.000    
    5834   3.713      0.6364E-03 SPRIN         11  -0.0%   75.51      0.1250E-03   0.000       25.51       0.000      0.5000E-01   0.000    
    5835   3.713      0.6364E-03 SPRIN         11  -0.0%   75.32      0.1250E-03   0.000       25.32       0.000      0.5000E-01   0.000    
    5836   3.714      0.6364E-03 SPRIN         11  -0.0%   75.13      0.1250E-03   0.000       25.13       0.000      0.5000E-01   0.000    
    5837   3.715      0.6364E-03 SPRIN         11  -0.0%   74.94      0.1250E-03   0.000       24.94       0.000      0.5000E-01   0.000    
    5838   3.715      0.6364E-03 SPRIN         11  -0.0%   74.76      0.1250E-03   0.000       24.76       0.000      0.5000E-01   0.000    
    5839   3.716      0.6364E-03 SPRIN         11  -0.0%   74.57      0.1250E-03   0.000       24.57       0.000      0.5000E-01   0.000    
    5840   3.717      0.6364E-03 SPRIN         11  -0.0%   74.39      0.1250E-03   0.000       24.39       0.000      0.5000E-01   0.000    
    5841   3.717      0.6364E-03 SPRIN         11  -0.0%   74.20      0.1250E-03   0.000       24.20       0.000      0.5000E-01   0.000    
    5842   3.718      0.6364E-03 SPRIN         11  -0.0%   74.02      0.1250E-03   0.000       24.02       0.000      0.5000E-01   0.000    
    5843   3.718      0.6364E-03 SPRIN         11  -0.0%   73.83      0.1250E-03   0.000       23.83       0.000      0.5000E-01   0.000    
    5844   3.719      0.6364E-03 SPRIN         11  -0.0%   73.65      0.1250E-03   0.000       23.65       0.000      0.5000E-01   0.000    
    5845   3.720      0.6364E-03 SPRIN         11  -0.0%   73.46      0.1250E-03   0.000       23.46       0.000      0.5000E-01   0.000    
    5846   3.720      0.6364E-03 SPRIN         11  -0.0%   73.28      0.1250E-03   0.000       23.28       0.000      0.5000E-01   0.000    
    5847   3.721      0.6364E-03 SPRIN         11  -0.0%   73.10      0.1250E-03   0.000       23.10       0.000      0.5000E-01   0.000    
    5848   3.722      0.6364E-03 SPRIN         11  -0.0%   72.92      0.1250E-03   0.000       22.92       0.000      0.5000E-01   0.000    
    5849   3.722      0.6364E-03 SPRIN         11  -0.0%   72.73      0.1250E-03   0.000       22.73       0.000      0.5000E-01   0.000    
    5850   3.723      0.6364E-03 SPRIN         11  -0.0%   72.55      0.1250E-03   0.000       22.55       0.000      0.5000E-01   0.000    
    5851   3.724      0.6364E-03 SPRIN         11  -0.0%   72.37      0.1250E-03   0.000       22.37       0.000      0.5000E-01   0.000    
    5852   3.724      0.6364E-03 SPRIN         11  -0.0%   72.19      0.1250E-03   0.000       22.19       0.000      0.5000E-01   0.000    
    5853   3.725      0.6364E-03 SPRIN         11  -0.0%   72.01      0.1250E-03   0.000       22.01       0.000      0.5000E-01   0.000    
    5854   3.725      0.6364E-03 SPRIN         11  -0.0%   71.83      0.1250E-03   0.000       21.83       0.000      0.5000E-01   0.000    
    5855   3.726      0.6364E-03 SPRIN         11  -0.0%   71.65      0.1250E-03   0.000       21.65       0.000      0.5000E-01   0.000    
    5856   3.727      0.6364E-03 SPRIN         11  -0.0%   71.47      0.1250E-03   0.000       21.47       0.000      0.5000E-01   0.000    
    5857   3.727      0.6364E-03 SPRIN         11  -0.0%   71.29      0.1250E-03   0.000       21.29       0.000      0.5000E-01   0.000    
    5858   3.728      0.6364E-03 SPRIN         11  -0.0%   71.12      0.1250E-03   0.000       21.12       0.000      0.5000E-01   0.000    
    5859   3.729      0.6364E-03 SPRIN         11  -0.0%   70.94      0.1250E-03   0.000       20.94       0.000      0.5000E-01   0.000    
    5860   3.729      0.6364E-03 SPRIN         11  -0.0%   70.76      0.1250E-03   0.000       20.76       0.000      0.5000E-01   0.000    
    5861   3.730      0.6364E-03 SPRIN         11  -0.0%   70.58      0.1250E-03   0.000       20.58       0.000      0.5000E-01   0.000    
    5862   3.731      0.6364E-03 SPRIN         11  -0.0%   70.41      0.1250E-03   0.000       20.41       0.000      0.5000E-01   0.000    
    5863   3.731      0.6364E-03 SPRIN         11  -0.0%   70.23      0.1250E-03   0.000       20.23       0.000      0.5000E-01   0.000    
    5864   3.732      0.6364E-03 SPRIN         11  -0.0%   70.05      0.1250E-03   0.000       20.05       0.000      0.5000E-01   0.000    
    5865   3.732      0.6364E-03 SPRIN         11  -0.0%   69.88      0.1250E-03   0.000       19.88       0.000      0.5000E-01   0.000    
    5866   3.733      0.6364E-03 SPRIN         11  -0.0%   69.70      0.1250E-03   0.000       19.70       0.000      0.5000E-01   0.000    
    5867   3.734      0.6364E-03 SPRIN         11  -0.0%   69.53      0.1250E-03   0.000       19.53       0.000      0.5000E-01   0.000    
    5868   3.734      0.6364E-03 SPRIN         11  -0.0%   69.36      0.1250E-03   0.000       19.36       0.000      0.5000E-01   0.000    
    5869   3.735      0.6364E-03 SPRIN         11  -0.0%   69.18      0.1250E-03   0.000       19.18       0.000      0.5000E-01   0.000    
    5870   3.736      0.6364E-03 SPRIN         11  -0.0%   69.01      0.1250E-03   0.000       19.01       0.000      0.5000E-01   0.000    
    5871   3.736      0.6364E-03 SPRIN         11  -0.0%   68.84      0.1250E-03   0.000       18.84       0.000      0.5000E-01   0.000    
    5872   3.737      0.6364E-03 SPRIN         11  -0.0%   68.66      0.1250E-03   0.000       18.66       0.000      0.5000E-01   0.000    
    5873   3.738      0.6364E-03 SPRIN         11  -0.0%   68.49      0.1250E-03   0.000       18.49       0.000      0.5000E-01   0.000    
    5874   3.738      0.6364E-03 SPRIN         11  -0.0%   68.32      0.1250E-03   0.000       18.32       0.000      0.5000E-01   0.000    
    5875   3.739      0.6364E-03 SPRIN         11  -0.0%   68.15      0.1250E-03   0.000       18.15       0.000      0.5000E-01   0.000    
    5876   3.739      0.6364E-03 SPRIN         11  -0.0%   67.98      0.1250E-03   0.000       17.98       0.000      0.5000E-01   0.000    
    5877   3.740      0.6364E-03 SPRIN         11  -0.0%   67.81      0.1250E-03   0.000       17.81       0.000      0.5000E-01   0.000    
    5878   3.741      0.6364E-03 SPRIN         11  -0.0%   67.64      0.1250E-03   0.000       17.64       0.000      0.5000E-01   0.000    
    5879   3.741      0.6364E-03 SPRIN         11  -0.0%   67.47      0.1250E-03   0.000       17.47       0.000      0.5000E-01   0.000    
    5880   3.742      0.6364E-03 SPRIN         11  -0.0%   67.30      0.1250E-03   0.000       17.30       0.000      0.5000E-01   0.000    
    5881   3.743      0.6364E-03 SPRIN         11  -0.0%   67.13      0.1250E-03   0.000       17.13       0.000      0.5000E-01   0.000    
    5882   3.743      0.6364E-03 SPRIN         11  -0.0%   66.96      0.1250E-03   0.000       16.96       0.000      0.5000E-01   0.000    
    5883   3.744      0.6364E-03 SPRIN         11  -0.0%   66.79      0.1250E-03   0.000       16.79       0.000      0.5000E-01   0.000    
    5884   3.745      0.6364E-03 SPRIN         11  -0.0%   66.62      0.1250E-03   0.000       16.62       0.000      0.5000E-01   0.000    
   CYCLE    TIME      TIME-STEP  ELEMENT          ERROR  I-ENERGY    K-ENERGY T  K-ENERGY R  EXT-WORK     MAS.ERR     TOTAL MASS  MASS ADDED
    5885   3.745      0.6364E-03 SPRIN         11  -0.0%   66.46      0.1250E-03   0.000       16.46       0.000      0.5000E-01   0.000    
    5886   3.746      0.6364E-03 SPRIN         11  -0.0%   66.29      0.1250E-03   0.000       16.29       0.000      0.5000E-01   0.000    
    5887   3.746      0.6364E-03 SPRIN         11  -0.0%   66.12      0.1250E-03   0.000       16.12       0.000      0.5000E-01   0.000    
    5888   3.747      0.6364E-03 SPRIN         11  -0.0%   65.96      0.1250E-03   0.000       15.96       0.000      0.5000E-01   0.000    
    5889   3.748      0.6364E-03 SPRIN         11  -0.0%   65.79      0.1250E-03   0.000       15.79       0.000      0.5000E-01   0.000    
    5890   3.748      0.6364E-03 SPRIN         11  -0.0%   65.63      0.1250E-03   0.000       15.63       0.000      0.5000E-01   0.000    
    5891   3.749      0.6364E-03 SPRIN         11  -0.0%   65.46      0.1250E-03   0.000       15.46       0.000      0.5000E-01   0.000    
    5892   3.750      0.6364E-03 SPRIN         11  -0.0%   65.30      0.1250E-03   0.000       15.30       0.000      0.5000E-01   0.000    
    5893   3.750      0.6364E-03 SPRIN         11  -0.0%   65.13      0.1250E-03   0.000       15.13       0.000      0.5000E-01   0.000    
    5894   3.751      0.6364E-03 SPRIN         11  -0.0%   64.97      0.1250E-03   0.000       14.97       0.000      0.5000E-01   0.000    
    5895   3.752      0.6364E-03 SPRIN         11  -0.0%   64.80      0.1250E-03   0.000       14.81       0.000      0.5000E-01   0.000    
    5896   3.752      0.6364E-03 SPRIN         11  -0.0%   64.64      0.1250E-03   0.000       14.64       0.000      0.5000E-01   0.000    
    5897   3.753      0.6364E-03 SPRIN         11  -0.0%   64.48      0.1250E-03   0.000       14.48       0.000      0.5000E-01   0.000    
    5898   3.753      0.6364E-03 SPRIN         11  -0.0%   64.32      0.1250E-03   0.000       14.32       0.000      0.5000E-01   0.000    
    5899   3.754      0.6364E-03 SPRIN         11  -0.0%   64.16      0.1250E-03   0.000       14.16       0.000      0.5000E-01   0.000    
    5900   3.755      0.6364E-03 SPRIN         11  -0.0%   63.99      0.1250E-03   0.000       13.99       0.000      0.5000E-01   0.000    
    5901   3.755      0.6364E-03 SPRIN         11  -0.0%   63.83      0.1250E-03   0.000       13.83       0.000      0.5000E-01   0.000    
    5902   3.756      0.6364E-03 SPRIN         11  -0.0%   63.67      0.1250E-03   0.000       13.67       0.000      0.5000E-01   0.000    
    5903   3.757      0.6364E-03 SPRIN         11  -0.0%   63.51      0.1250E-03   0.000       13.51       0.000      0.5000E-01   0.000    
    5904   3.757      0.6364E-03 SPRIN         11  -0.0%   63.35      0.1250E-03   0.000       13.35       0.000      0.5000E-01   0.000    
    5905   3.758      0.6364E-03 SPRIN         11  -0.0%   63.19      0.1250E-03   0.000       13.19       0.000      0.5000E-01   0.000    
    5906   3.759      0.6364E-03 SPRIN         11  -0.0%   63.04      0.1250E-03   0.000       13.04       0.000      0.5000E-01   0.000    
    5907   3.759      0.6364E-03 SPRIN         11  -0.0%   62.88      0.1250E-03   0.000       12.88       0.000      0.5000E-01   0.000    
    5908   3.760      0.6364E-03 SPRIN         11  -0.0%   62.72      0.1250E-03   0.000       12.72       0.000      0.5000E-01   0.000    
    5909   3.760      0.6364E-03 SPRIN         11  -0.0%   62.56      0.1250E-03   0.000       12.56       0.000      0.5000E-01   0.000    
    5910   3.761      0.6364E-03 SPRIN         11  -0.0%   62.40      0.1250E-03   0.000       12.40       0.000      0.5000E-01   0.000    
    5911   3.762      0.6364E-03 SPRIN         11  -0.0%   62.25      0.1250E-03   0.000       12.25       0.000      0.5000E-01   0.000    
    5912   3.762      0.6364E-03 SPRIN         11  -0.0%   62.09      0.1250E-03   0.000       12.09       0.000      0.5000E-01   0.000    
    5913   3.763      0.6364E-03 SPRIN         11  -0.0%   61.94      0.1250E-03   0.000       11.94       0.000      0.5000E-01   0.000    
    5914   3.764      0.6364E-03 SPRIN         11  -0.0%   61.78      0.1250E-03   0.000       11.78       0.000      0.5000E-01   0.000    
    5915   3.764      0.6364E-03 SPRIN         11  -0.0%   61.62      0.1250E-03   0.000       11.62       0.000      0.5000E-01   0.000    
    5916   3.765      0.6364E-03 SPRIN         11  -0.0%   61.47      0.1250E-03   0.000       11.47       0.000      0.5000E-01   0.000    
    5917   3.766      0.6364E-03 SPRIN         11  -0.0%   61.32      0.1250E-03   0.000       11.32       0.000      0.5000E-01   0.000    
    5918   3.766      0.6364E-03 SPRIN         11  -0.0%   61.16      0.1250E-03   0.000       11.16       0.000      0.5000E-01   0.000    
    5919   3.767      0.6364E-03 SPRIN         11  -0.0%   61.01      0.1250E-03   0.000       11.01       0.000      0.5000E-01   0.000    
    5920   3.767      0.6364E-03 SPRIN         11  -0.0%   60.85      0.1250E-03   0.000       10.85       0.000      0.5000E-01   0.000    
    5921   3.768      0.6364E-03 SPRIN         11  -0.0%   60.70      0.1250E-03   0.000       10.70       0.000      0.5000E-01   0.000    
    5922   3.769      0.6364E-03 SPRIN         11  -0.0%   60.55      0.1250E-03   0.000       10.55       0.000      0.5000E-01   0.000    
    5923   3.769      0.6364E-03 SPRIN         11  -0.0%   60.40      0.1250E-03   0.000       10.40       0.000      0.5000E-01   0.000    
    5924   3.770      0.6364E-03 SPRIN         11  -0.0%   60.25      0.1250E-03   0.000       10.25       0.000      0.5000E-01   0.000    
    5925   3.771      0.6364E-03 SPRIN         11  -0.0%   60.10      0.1250E-03   0.000       10.10       0.000      0.5000E-01   0.000    
    5926   3.771      0.6364E-03 SPRIN         11  -0.0%   59.94      0.1250E-03   0.000       9.945       0.000      0.5000E-01   0.000    
    5927   3.772      0.6364E-03 SPRIN         11  -0.0%   59.79      0.1250E-03   0.000       9.794       0.000      0.5000E-01   0.000    
    5928   3.773      0.6364E-03 SPRIN         11  -0.0%   59.64      0.1250E-03   0.000       9.644       0.000      0.5000E-01   0.000    
    5929   3.773      0.6364E-03 SPRIN         11  -0.0%   59.49      0.1250E-03   0.000       9.495       0.000      0.5000E-01   0.000    
    5930   3.774      0.6364E-03 SPRIN         11  -0.0%   59.35      0.1250E-03   0.000       9.346       0.000      0.5000E-01   0.000    
    5931   3.774      0.6364E-03 SPRIN         11  -0.0%   59.20      0.1250E-03   0.000       9.197       0.000      0.5000E-01   0.000    
    5932   3.775      0.6364E-03 SPRIN         11  -0.0%   59.05      0.1250E-03   0.000       9.049       0.000      0.5000E-01   0.000    
    5933   3.776      0.6364E-03 SPRIN         11  -0.0%   58.90      0.1250E-03   0.000       8.901       0.000      0.5000E-01   0.000    
    5934   3.776      0.6364E-03 SPRIN         11  -0.0%   58.75      0.1250E-03   0.000       8.753       0.000      0.5000E-01   0.000    
    5935   3.777      0.6364E-03 SPRIN         11  -0.0%   58.61      0.1250E-03   0.000       8.606       0.000      0.5000E-01   0.000    
    5936   3.778      0.6364E-03 SPRIN         11  -0.0%   58.46      0.1250E-03   0.000       8.460       0.000      0.5000E-01   0.000    
    5937   3.778      0.6364E-03 SPRIN         11  -0.0%   58.31      0.1250E-03   0.000       8.313       0.000      0.5000E-01   0.000    
    5938   3.779      0.6364E-03 SPRIN         11  -0.0%   58.17      0.1250E-03   0.000       8.168       0.000      0.5000E-01   0.000    
    5939   3.780      0.6364E-03 SPRIN         11  -0.0%   58.02      0.1250E-03   0.000       8.022       0.000      0.5000E-01   0.000    
   CYCLE    TIME      TIME-STEP  ELEMENT          ERROR  I-ENERGY    K-ENERGY T  K-ENERGY R  EXT-WORK     MAS.ERR     TOTAL MASS  MASS ADDED
    5940   3.780      0.6364E-03 SPRIN         11  -0.0%   57.88      0.1250E-03   0.000       7.877       0.000      0.5000E-01   0.000    
    5941   3.781      0.6364E-03 SPRIN         11  -0.0%   57.73      0.1250E-03   0.000       7.732       0.000      0.5000E-01   0.000    
    5942   3.781      0.6364E-03 SPRIN         11  -0.0%   57.59      0.1250E-03   0.000       7.588       0.000      0.5000E-01   0.000    
    5943   3.782      0.6364E-03 SPRIN         11  -0.0%   57.44      0.1250E-03   0.000       7.444       0.000      0.5000E-01   0.000    
    5944   3.783      0.6364E-03 SPRIN         11  -0.0%   57.30      0.1250E-03   0.000       7.301       0.000      0.5000E-01   0.000    
    5945   3.783      0.6364E-03 SPRIN         11  -0.0%   57.16      0.1250E-03   0.000       7.158       0.000      0.5000E-01   0.000    
    5946   3.784      0.6364E-03 SPRIN         11  -0.0%   57.02      0.1250E-03   0.000       7.015       0.000      0.5000E-01   0.000    
    5947   3.785      0.6364E-03 SPRIN         11  -0.0%   56.87      0.1250E-03   0.000       6.873       0.000      0.5000E-01   0.000    
    5948   3.785      0.6364E-03 SPRIN         11  -0.0%   56.73      0.1250E-03   0.000       6.731       0.000      0.5000E-01   0.000    
    5949   3.786      0.6364E-03 SPRIN         11  -0.0%   56.59      0.1250E-03   0.000       6.590       0.000      0.5000E-01   0.000    
    5950   3.787      0.6364E-03 SPRIN         11  -0.0%   56.45      0.1250E-03   0.000       6.449       0.000      0.5000E-01   0.000    
    5951   3.787      0.6364E-03 SPRIN         11  -0.0%   56.31      0.1250E-03   0.000       6.308       0.000      0.5000E-01   0.000    
    5952   3.788      0.6364E-03 SPRIN         11  -0.0%   56.17      0.1250E-03   0.000       6.168       0.000      0.5000E-01   0.000    
    5953   3.788      0.6364E-03 SPRIN         11  -0.0%   56.03      0.1250E-03   0.000       6.028       0.000      0.5000E-01   0.000    
    5954   3.789      0.6364E-03 SPRIN         11  -0.0%   55.89      0.1250E-03   0.000       5.889       0.000      0.5000E-01   0.000    
    5955   3.790      0.6364E-03 SPRIN         11  -0.0%   55.75      0.1250E-03   0.000       5.750       0.000      0.5000E-01   0.000    
    5956   3.790      0.6364E-03 SPRIN         11  -0.0%   55.61      0.1250E-03   0.000       5.611       0.000      0.5000E-01   0.000    
    5957   3.791      0.6364E-03 SPRIN         11  -0.0%   55.47      0.1250E-03   0.000       5.473       0.000      0.5000E-01   0.000    
    5958   3.792      0.6364E-03 SPRIN         11  -0.0%   55.34      0.1250E-03   0.000       5.335       0.000      0.5000E-01   0.000    
    5959   3.792      0.6364E-03 SPRIN         11  -0.0%   55.20      0.1250E-03   0.000       5.198       0.000      0.5000E-01   0.000    
    5960   3.793      0.6364E-03 SPRIN         11  -0.0%   55.06      0.1250E-03   0.000       5.061       0.000      0.5000E-01   0.000    
    5961   3.794      0.6364E-03 SPRIN         11  -0.0%   54.92      0.1250E-03   0.000       4.925       0.000      0.5000E-01   0.000    
    5962   3.794      0.6364E-03 SPRIN         11  -0.0%   54.79      0.1250E-03   0.000       4.789       0.000      0.5000E-01   0.000    
    5963   3.795      0.6364E-03 SPRIN         11  -0.0%   54.65      0.1250E-03   0.000       4.653       0.000      0.5000E-01   0.000    
    5964   3.795      0.6364E-03 SPRIN         11  -0.0%   54.52      0.1250E-03   0.000       4.517       0.000      0.5000E-01   0.000    
    5965   3.796      0.6364E-03 SPRIN         11  -0.0%   54.38      0.1250E-03   0.000       4.383       0.000      0.5000E-01   0.000    
    5966   3.797      0.6364E-03 SPRIN         11  -0.0%   54.25      0.1250E-03   0.000       4.248       0.000      0.5000E-01   0.000    
    5967   3.797      0.6364E-03 SPRIN         11  -0.0%   54.11      0.1250E-03   0.000       4.114       0.000      0.5000E-01   0.000    
    5968   3.798      0.6364E-03 SPRIN         11  -0.0%   53.98      0.1250E-03   0.000       3.980       0.000      0.5000E-01   0.000    
    5969   3.799      0.6364E-03 SPRIN         11  -0.0%   53.85      0.1250E-03   0.000       3.847       0.000      0.5000E-01   0.000    
    5970   3.799      0.6364E-03 SPRIN         11  -0.0%   53.71      0.1250E-03   0.000       3.714       0.000      0.5000E-01   0.000    
    5971   3.800      0.6364E-03 SPRIN         11  -0.0%   53.58      0.1250E-03   0.000       3.581       0.000      0.5000E-01   0.000    
    5972   3.801      0.6364E-03 SPRIN         11  -0.0%   53.45      0.1250E-03   0.000       3.449       0.000      0.5000E-01   0.000    
     ANIMATION FILE: SPR_PRE_2FLAGA020 WRITTEN
    5973   3.801      0.6364E-03 SPRIN         11  -0.0%   53.32      0.1250E-03   0.000       3.318       0.000      0.5000E-01   0.000    
    5974   3.802      0.6364E-03 SPRIN         11  -0.0%   53.19      0.1250E-03   0.000       3.186       0.000      0.5000E-01   0.000    
    5975   3.802      0.6364E-03 SPRIN         11  -0.0%   53.06      0.1250E-03   0.000       3.056       0.000      0.5000E-01   0.000    
    5976   3.803      0.6364E-03 SPRIN         11  -0.0%   52.92      0.1250E-03   0.000       2.925       0.000      0.5000E-01   0.000    
    5977   3.804      0.6364E-03 SPRIN         11  -0.0%   52.79      0.1250E-03   0.000       2.795       0.000      0.5000E-01   0.000    
    5978   3.804      0.6364E-03 SPRIN         11  -0.0%   52.67      0.1250E-03   0.000       2.665       0.000      0.5000E-01   0.000    
    5979   3.805      0.6364E-03 SPRIN         11  -0.0%   52.54      0.1250E-03   0.000       2.536       0.000      0.5000E-01   0.000    
    5980   3.806      0.6364E-03 SPRIN         11  -0.0%   52.41      0.1250E-03   0.000       2.407       0.000      0.5000E-01   0.000    
    5981   3.806      0.6364E-03 SPRIN         11  -0.0%   52.28      0.1250E-03   0.000       2.279       0.000      0.5000E-01   0.000    
    5982   3.807      0.6364E-03 SPRIN         11  -0.0%   52.15      0.1250E-03   0.000       2.151       0.000      0.5000E-01   0.000    
    5983   3.808      0.6364E-03 SPRIN         11  -0.0%   52.02      0.1250E-03   0.000       2.023       0.000      0.5000E-01   0.000    
    5984   3.808      0.6364E-03 SPRIN         11  -0.0%   51.90      0.1250E-03   0.000       1.896       0.000      0.5000E-01   0.000    
    5985   3.809      0.6364E-03 SPRIN         11  -0.0%   51.77      0.1250E-03   0.000       1.769       0.000      0.5000E-01   0.000    
    5986   3.809      0.6364E-03 SPRIN         11  -0.0%   51.64      0.1250E-03   0.000       1.643       0.000      0.5000E-01   0.000    
    5987   3.810      0.6364E-03 SPRIN         11  -0.0%   51.52      0.1250E-03   0.000       1.517       0.000      0.5000E-01   0.000    
    5988   3.811      0.6364E-03 SPRIN         11  -0.0%   51.39      0.1250E-03   0.000       1.391       0.000      0.5000E-01   0.000    
    5989   3.811      0.6364E-03 SPRIN         11  -0.0%   51.27      0.1250E-03   0.000       1.266       0.000      0.5000E-01   0.000    
    5990   3.812      0.6364E-03 SPRIN         11  -0.0%   51.14      0.1250E-03   0.000       1.141       0.000      0.5000E-01   0.000    
    5991   3.813      0.6364E-03 SPRIN         11  -0.0%   51.02      0.1250E-03   0.000       1.017       0.000      0.5000E-01   0.000    
    5992   3.813      0.6364E-03 SPRIN         11  -0.0%   50.89      0.1250E-03   0.000      0.8927       0.000      0.5000E-01   0.000    
    5993   3.814      0.6364E-03 SPRIN         11  -0.0%   50.77      0.1250E-03   0.000      0.7692       0.000      0.5000E-01   0.000    
    5994   3.815      0.6364E-03 SPRIN         11  -0.0%   50.65      0.1250E-03   0.000      0.6460       0.000      0.5000E-01   0.000    
   CYCLE    TIME      TIME-STEP  ELEMENT          ERROR  I-ENERGY    K-ENERGY T  K-ENERGY R  EXT-WORK     MAS.ERR     TOTAL MASS  MASS ADDED
    5995   3.815      0.6364E-03 SPRIN         11  -0.0%   50.52      0.1250E-03   0.000      0.5232       0.000      0.5000E-01   0.000    
    5996   3.816      0.6364E-03 SPRIN         11  -0.0%   50.40      0.1250E-03   0.000      0.4008       0.000      0.5000E-01   0.000    
    5997   3.816      0.6364E-03 SPRIN         11  -0.0%   50.28      0.1250E-03   0.000      0.2789       0.000      0.5000E-01   0.000    
    5998   3.817      0.6364E-03 SPRIN         11  -0.0%   50.16      0.1250E-03   0.000      0.1573       0.000      0.5000E-01   0.000    
    5999   3.818      0.6364E-03 SPRIN         11  -0.0%   50.04      0.1250E-03   0.000      0.3617E-01   0.000      0.5000E-01   0.000    
    6000   3.818      0.6364E-03 SPRIN         11  -0.0%   49.92      0.1250E-03   0.000     -0.8457E-01   0.000      0.5000E-01   0.000    
    6001   3.819      0.6364E-03 SPRIN         11  -0.0%   49.79      0.1250E-03   0.000     -0.2049       0.000      0.5000E-01   0.000    
    6002   3.820      0.6364E-03 SPRIN         11  -0.0%   49.68      0.1250E-03   0.000     -0.3249       0.000      0.5000E-01   0.000    
    6003   3.820      0.6364E-03 SPRIN         11  -0.0%   49.56      0.1250E-03   0.000     -0.4444       0.000      0.5000E-01   0.000    
    6004   3.821      0.6364E-03 SPRIN         11  -0.0%   49.44      0.1250E-03   0.000     -0.5635       0.000      0.5000E-01   0.000    
    6005   3.822      0.6364E-03 SPRIN         11  -0.0%   49.32      0.1250E-03   0.000     -0.6822       0.000      0.5000E-01   0.000    
    6006   3.822      0.6364E-03 SPRIN         11  -0.0%   49.20      0.1250E-03   0.000     -0.8005       0.000      0.5000E-01   0.000    
    6007   3.823      0.6364E-03 SPRIN         11  -0.0%   49.08      0.1250E-03   0.000     -0.9185       0.000      0.5000E-01   0.000    
    6008   3.823      0.6364E-03 SPRIN         11  -0.0%   48.96      0.1250E-03   0.000      -1.036       0.000      0.5000E-01   0.000    
    6009   3.824      0.6364E-03 SPRIN         11  -0.0%   48.85      0.1250E-03   0.000      -1.153       0.000      0.5000E-01   0.000    
    6010   3.825      0.6364E-03 SPRIN         11  -0.0%   48.73      0.1250E-03   0.000      -1.270       0.000      0.5000E-01   0.000    
    6011   3.825      0.6364E-03 SPRIN         11  -0.0%   48.61      0.1250E-03   0.000      -1.386       0.000      0.5000E-01   0.000    
    6012   3.826      0.6364E-03 SPRIN         11  -0.0%   48.50      0.1250E-03   0.000      -1.502       0.000      0.5000E-01   0.000    
    6013   3.827      0.6364E-03 SPRIN         11  -0.0%   48.38      0.1250E-03   0.000      -1.617       0.000      0.5000E-01   0.000    
    6014   3.827      0.6364E-03 SPRIN         11  -0.0%   48.27      0.1250E-03   0.000      -1.732       0.000      0.5000E-01   0.000    
    6015   3.828      0.6364E-03 SPRIN         11  -0.0%   48.15      0.1250E-03   0.000      -1.847       0.000      0.5000E-01   0.000    
    6016   3.829      0.6364E-03 SPRIN         11  -0.0%   48.04      0.1250E-03   0.000      -1.961       0.000      0.5000E-01   0.000    
    6017   3.829      0.6364E-03 SPRIN         11  -0.0%   47.92      0.1250E-03   0.000      -2.075       0.000      0.5000E-01   0.000    
    6018   3.830      0.6364E-03 SPRIN         11  -0.0%   47.81      0.1250E-03   0.000      -2.189       0.000      0.5000E-01   0.000    
    6019   3.830      0.6364E-03 SPRIN         11  -0.0%   47.70      0.1250E-03   0.000      -2.302       0.000      0.5000E-01   0.000    
    6020   3.831      0.6364E-03 SPRIN         11  -0.0%   47.59      0.1250E-03   0.000      -2.414       0.000      0.5000E-01   0.000    
    6021   3.832      0.6364E-03 SPRIN         11  -0.0%   47.47      0.1250E-03   0.000      -2.527       0.000      0.5000E-01   0.000    
    6022   3.832      0.6364E-03 SPRIN         11  -0.0%   47.36      0.1250E-03   0.000      -2.639       0.000      0.5000E-01   0.000    
    6023   3.833      0.6364E-03 SPRIN         11  -0.0%   47.25      0.1250E-03   0.000      -2.750       0.000      0.5000E-01   0.000    
    6024   3.834      0.6364E-03 SPRIN         11  -0.0%   47.14      0.1250E-03   0.000      -2.861       0.000      0.5000E-01   0.000    
    6025   3.834      0.6364E-03 SPRIN         11  -0.0%   47.03      0.1250E-03   0.000      -2.972       0.000      0.5000E-01   0.000    
    6026   3.835      0.6364E-03 SPRIN         11  -0.0%   46.92      0.1250E-03   0.000      -3.082       0.000      0.5000E-01   0.000    
    6027   3.836      0.6364E-03 SPRIN         11  -0.0%   46.81      0.1250E-03   0.000      -3.192       0.000      0.5000E-01   0.000    
    6028   3.836      0.6364E-03 SPRIN         11  -0.0%   46.70      0.1250E-03   0.000      -3.301       0.000      0.5000E-01   0.000    
    6029   3.837      0.6364E-03 SPRIN         11  -0.0%   46.59      0.1250E-03   0.000      -3.410       0.000      0.5000E-01   0.000    
    6030   3.837      0.6364E-03 SPRIN         11  -0.0%   46.48      0.1250E-03   0.000      -3.519       0.000      0.5000E-01   0.000    
    6031   3.838      0.6364E-03 SPRIN         11  -0.0%   46.37      0.1250E-03   0.000      -3.627       0.000      0.5000E-01   0.000    
    6032   3.839      0.6364E-03 SPRIN         11  -0.0%   46.27      0.1250E-03   0.000      -3.735       0.000      0.5000E-01   0.000    
    6033   3.839      0.6364E-03 SPRIN         11  -0.0%   46.16      0.1250E-03   0.000      -3.842       0.000      0.5000E-01   0.000    
    6034   3.840      0.6364E-03 SPRIN         11  -0.0%   46.05      0.1250E-03   0.000      -3.949       0.000      0.5000E-01   0.000    
    6035   3.841      0.6364E-03 SPRIN         11  -0.0%   45.94      0.1250E-03   0.000      -4.056       0.000      0.5000E-01   0.000    
    6036   3.841      0.6364E-03 SPRIN         11  -0.0%   45.84      0.1250E-03   0.000      -4.162       0.000      0.5000E-01   0.000    
    6037   3.842      0.6364E-03 SPRIN         11  -0.0%   45.73      0.1250E-03   0.000      -4.267       0.000      0.5000E-01   0.000    
    6038   3.843      0.6364E-03 SPRIN         11  -0.0%   45.63      0.1250E-03   0.000      -4.373       0.000      0.5000E-01   0.000    
    6039   3.843      0.6364E-03 SPRIN         11  -0.0%   45.52      0.1250E-03   0.000      -4.478       0.000      0.5000E-01   0.000    
    6040   3.844      0.6364E-03 SPRIN         11  -0.0%   45.42      0.1250E-03   0.000      -4.582       0.000      0.5000E-01   0.000    
    6041   3.844      0.6364E-03 SPRIN         11  -0.0%   45.31      0.1250E-03   0.000      -4.686       0.000      0.5000E-01   0.000    
    6042   3.845      0.6364E-03 SPRIN         11  -0.0%   45.21      0.1250E-03   0.000      -4.790       0.000      0.5000E-01   0.000    
    6043   3.846      0.6364E-03 SPRIN         11  -0.0%   45.11      0.1250E-03   0.000      -4.894       0.000      0.5000E-01   0.000    
    6044   3.846      0.6364E-03 SPRIN         11  -0.0%   45.00      0.1250E-03   0.000      -4.996       0.000      0.5000E-01   0.000    
    6045   3.847      0.6364E-03 SPRIN         11  -0.0%   44.90      0.1250E-03   0.000      -5.099       0.000      0.5000E-01   0.000    
    6046   3.848      0.6364E-03 SPRIN         11  -0.0%   44.80      0.1250E-03   0.000      -5.201       0.000      0.5000E-01   0.000    
    6047   3.848      0.6364E-03 SPRIN         11  -0.0%   44.70      0.1250E-03   0.000      -5.303       0.000      0.5000E-01   0.000    
    6048   3.849      0.6364E-03 SPRIN         11  -0.0%   44.60      0.1250E-03   0.000      -5.404       0.000      0.5000E-01   0.000    
    6049   3.850      0.6364E-03 SPRIN         11  -0.0%   44.49      0.1250E-03   0.000      -5.505       0.000      0.5000E-01   0.000    
   CYCLE    TIME      TIME-STEP  ELEMENT          ERROR  I-ENERGY    K-ENERGY T  K-ENERGY R  EXT-WORK     MAS.ERR     TOTAL MASS  MASS ADDED
    6050   3.850      0.6364E-03 SPRIN         11  -0.0%   44.39      0.1250E-03   0.000      -5.606       0.000      0.5000E-01   0.000    
    6051   3.851      0.6364E-03 SPRIN         11  -0.0%   44.29      0.1250E-03   0.000      -5.706       0.000      0.5000E-01   0.000    
    6052   3.851      0.6364E-03 SPRIN         11  -0.0%   44.19      0.1250E-03   0.000      -5.805       0.000      0.5000E-01   0.000    
    6053   3.852      0.6364E-03 SPRIN         11  -0.0%   44.10      0.1250E-03   0.000      -5.905       0.000      0.5000E-01   0.000    
    6054   3.853      0.6364E-03 SPRIN         11  -0.0%   44.00      0.1250E-03   0.000      -6.003       0.000      0.5000E-01   0.000    
    6055   3.853      0.6364E-03 SPRIN         11  -0.0%   43.90      0.1250E-03   0.000      -6.102       0.000      0.5000E-01   0.000    
    6056   3.854      0.6364E-03 SPRIN         11  -0.0%   43.80      0.1250E-03   0.000      -6.200       0.000      0.5000E-01   0.000    
    6057   3.855      0.6364E-03 SPRIN         11  -0.0%   43.70      0.1250E-03   0.000      -6.298       0.000      0.5000E-01   0.000    
    6058   3.855      0.6364E-03 SPRIN         11  -0.0%   43.60      0.1250E-03   0.000      -6.395       0.000      0.5000E-01   0.000    
    6059   3.856      0.6364E-03 SPRIN         11  -0.0%   43.51      0.1250E-03   0.000      -6.492       0.000      0.5000E-01   0.000    
    6060   3.857      0.6364E-03 SPRIN         11  -0.0%   43.41      0.1250E-03   0.000      -6.588       0.000      0.5000E-01   0.000    
    6061   3.857      0.6364E-03 SPRIN         11  -0.0%   43.32      0.1250E-03   0.000      -6.684       0.000      0.5000E-01   0.000    
    6062   3.858      0.6364E-03 SPRIN         11  -0.0%   43.22      0.1250E-03   0.000      -6.780       0.000      0.5000E-01   0.000    
    6063   3.858      0.6364E-03 SPRIN         11  -0.0%   43.12      0.1250E-03   0.000      -6.875       0.000      0.5000E-01   0.000    
    6064   3.859      0.6364E-03 SPRIN         11  -0.0%   43.03      0.1250E-03   0.000      -6.970       0.000      0.5000E-01   0.000    
    6065   3.860      0.6364E-03 SPRIN         11  -0.0%   42.94      0.1250E-03   0.000      -7.064       0.000      0.5000E-01   0.000    
    6066   3.860      0.6364E-03 SPRIN         11  -0.0%   42.84      0.1250E-03   0.000      -7.158       0.000      0.5000E-01   0.000    
    6067   3.861      0.6364E-03 SPRIN         11  -0.0%   42.75      0.1250E-03   0.000      -7.252       0.000      0.5000E-01   0.000    
    6068   3.862      0.6364E-03 SPRIN         11  -0.0%   42.65      0.1250E-03   0.000      -7.345       0.000      0.5000E-01   0.000    
    6069   3.862      0.6364E-03 SPRIN         11  -0.0%   42.56      0.1250E-03   0.000      -7.438       0.000      0.5000E-01   0.000    
    6070   3.863      0.6364E-03 SPRIN         11  -0.0%   42.47      0.1250E-03   0.000      -7.530       0.000      0.5000E-01   0.000    
    6071   3.864      0.6364E-03 SPRIN         11  -0.0%   42.38      0.1250E-03   0.000      -7.622       0.000      0.5000E-01   0.000    
    6072   3.864      0.6364E-03 SPRIN         11  -0.0%   42.29      0.1250E-03   0.000      -7.714       0.000      0.5000E-01   0.000    
    6073   3.865      0.6364E-03 SPRIN         11  -0.0%   42.19      0.1250E-03   0.000      -7.805       0.000      0.5000E-01   0.000    
    6074   3.865      0.6364E-03 SPRIN         11  -0.0%   42.10      0.1250E-03   0.000      -7.896       0.000      0.5000E-01   0.000    
    6075   3.866      0.6364E-03 SPRIN         11  -0.0%   42.01      0.1250E-03   0.000      -7.986       0.000      0.5000E-01   0.000    
    6076   3.867      0.6364E-03 SPRIN         11  -0.0%   41.92      0.1250E-03   0.000      -8.076       0.000      0.5000E-01   0.000    
    6077   3.867      0.6364E-03 SPRIN         11  -0.0%   41.83      0.1250E-03   0.000      -8.166       0.000      0.5000E-01   0.000    
    6078   3.868      0.6364E-03 SPRIN         11  -0.0%   41.74      0.1250E-03   0.000      -8.255       0.000      0.5000E-01   0.000    
    6079   3.869      0.6364E-03 SPRIN         11  -0.0%   41.66      0.1250E-03   0.000      -8.344       0.000      0.5000E-01   0.000    
    6080   3.869      0.6364E-03 SPRIN         11  -0.0%   41.57      0.1250E-03   0.000      -8.432       0.000      0.5000E-01   0.000    
    6081   3.870      0.6364E-03 SPRIN         11  -0.0%   41.48      0.1250E-03   0.000      -8.520       0.000      0.5000E-01   0.000    
    6082   3.871      0.6364E-03 SPRIN         11  -0.0%   41.39      0.1250E-03   0.000      -8.608       0.000      0.5000E-01   0.000    
    6083   3.871      0.6364E-03 SPRIN         11  -0.0%   41.31      0.1250E-03   0.000      -8.695       0.000      0.5000E-01   0.000    
    6084   3.872      0.6364E-03 SPRIN         11  -0.0%   41.22      0.1250E-03   0.000      -8.781       0.000      0.5000E-01   0.000    
    6085   3.872      0.6364E-03 SPRIN         11  -0.0%   41.13      0.1250E-03   0.000      -8.868       0.000      0.5000E-01   0.000    
    6086   3.873      0.6364E-03 SPRIN         11  -0.0%   41.05      0.1250E-03   0.000      -8.954       0.000      0.5000E-01   0.000    
    6087   3.874      0.6364E-03 SPRIN         11  -0.0%   40.96      0.1250E-03   0.000      -9.039       0.000      0.5000E-01   0.000    
    6088   3.874      0.6364E-03 SPRIN         11  -0.0%   40.88      0.1250E-03   0.000      -9.124       0.000      0.5000E-01   0.000    
    6089   3.875      0.6364E-03 SPRIN         11  -0.0%   40.79      0.1250E-03   0.000      -9.209       0.000      0.5000E-01   0.000    
    6090   3.876      0.6364E-03 SPRIN         11  -0.0%   40.71      0.1250E-03   0.000      -9.293       0.000      0.5000E-01   0.000    
    6091   3.876      0.6364E-03 SPRIN         11  -0.0%   40.62      0.1250E-03   0.000      -9.377       0.000      0.5000E-01   0.000    
    6092   3.877      0.6364E-03 SPRIN         11  -0.0%   40.54      0.1250E-03   0.000      -9.461       0.000      0.5000E-01   0.000    
    6093   3.878      0.6364E-03 SPRIN         11  -0.0%   40.46      0.1250E-03   0.000      -9.544       0.000      0.5000E-01   0.000    
    6094   3.878      0.6364E-03 SPRIN         11  -0.0%   40.37      0.1250E-03   0.000      -9.626       0.000      0.5000E-01   0.000    
    6095   3.879      0.6364E-03 SPRIN         11  -0.0%   40.29      0.1250E-03   0.000      -9.709       0.000      0.5000E-01   0.000    
    6096   3.879      0.6364E-03 SPRIN         11  -0.0%   40.21      0.1250E-03   0.000      -9.791       0.000      0.5000E-01   0.000    
    6097   3.880      0.6364E-03 SPRIN         11  -0.0%   40.13      0.1250E-03   0.000      -9.872       0.000      0.5000E-01   0.000    
    6098   3.881      0.6364E-03 SPRIN         11  -0.0%   40.05      0.1250E-03   0.000      -9.953       0.000      0.5000E-01   0.000    
    6099   3.881      0.6364E-03 SPRIN         11  -0.0%   39.97      0.1250E-03   0.000      -10.03       0.000      0.5000E-01   0.000    
    6100   3.882      0.6364E-03 SPRIN         11  -0.0%   39.89      0.1250E-03   0.000      -10.11       0.000      0.5000E-01   0.000    
    6101   3.883      0.6364E-03 SPRIN         11  -0.0%   39.81      0.1250E-03   0.000      -10.19       0.000      0.5000E-01   0.000    
    6102   3.883      0.6364E-03 SPRIN         11  -0.0%   39.73      0.1250E-03   0.000      -10.27       0.000      0.5000E-01   0.000    
    6103   3.884      0.6364E-03 SPRIN         11  -0.0%   39.65      0.1250E-03   0.000      -10.35       0.000      0.5000E-01   0.000    
    6104   3.885      0.6364E-03 SPRIN         11  -0.0%   39.57      0.1250E-03   0.000      -10.43       0.000      0.5000E-01   0.000    
   CYCLE    TIME      TIME-STEP  ELEMENT          ERROR  I-ENERGY    K-ENERGY T  K-ENERGY R  EXT-WORK     MAS.ERR     TOTAL MASS  MASS ADDED
    6105   3.885      0.6364E-03 SPRIN         11  -0.0%   39.49      0.1250E-03   0.000      -10.51       0.000      0.5000E-01   0.000    
    6106   3.886      0.6364E-03 SPRIN         11  -0.0%   39.41      0.1250E-03   0.000      -10.59       0.000      0.5000E-01   0.000    
    6107   3.886      0.6364E-03 SPRIN         11  -0.0%   39.34      0.1250E-03   0.000      -10.66       0.000      0.5000E-01   0.000    
    6108   3.887      0.6364E-03 SPRIN         11  -0.0%   39.26      0.1250E-03   0.000      -10.74       0.000      0.5000E-01   0.000    
    6109   3.888      0.6364E-03 SPRIN         11  -0.0%   39.18      0.1250E-03   0.000      -10.82       0.000      0.5000E-01   0.000    
    6110   3.888      0.6364E-03 SPRIN         11  -0.0%   39.11      0.1250E-03   0.000      -10.89       0.000      0.5000E-01   0.000    
    6111   3.889      0.6364E-03 SPRIN         11  -0.0%   39.03      0.1250E-03   0.000      -10.97       0.000      0.5000E-01   0.000    
    6112   3.890      0.6364E-03 SPRIN         11  -0.0%   38.95      0.1250E-03   0.000      -11.05       0.000      0.5000E-01   0.000    
    6113   3.890      0.6364E-03 SPRIN         11  -0.0%   38.88      0.1250E-03   0.000      -11.12       0.000      0.5000E-01   0.000    
    6114   3.891      0.6364E-03 SPRIN         11  -0.0%   38.80      0.1250E-03   0.000      -11.19       0.000      0.5000E-01   0.000    
    6115   3.892      0.6364E-03 SPRIN         11  -0.0%   38.73      0.1250E-03   0.000      -11.27       0.000      0.5000E-01   0.000    
    6116   3.892      0.6364E-03 SPRIN         11  -0.0%   38.66      0.1250E-03   0.000      -11.34       0.000      0.5000E-01   0.000    
    6117   3.893      0.6364E-03 SPRIN         11  -0.0%   38.58      0.1250E-03   0.000      -11.42       0.000      0.5000E-01   0.000    
    6118   3.893      0.6364E-03 SPRIN         11  -0.0%   38.51      0.1250E-03   0.000      -11.49       0.000      0.5000E-01   0.000    
    6119   3.894      0.6364E-03 SPRIN         11  -0.0%   38.44      0.1250E-03   0.000      -11.56       0.000      0.5000E-01   0.000    
    6120   3.895      0.6364E-03 SPRIN         11  -0.0%   38.37      0.1250E-03   0.000      -11.63       0.000      0.5000E-01   0.000    
    6121   3.895      0.6364E-03 SPRIN         11  -0.0%   38.29      0.1250E-03   0.000      -11.71       0.000      0.5000E-01   0.000    
    6122   3.896      0.6364E-03 SPRIN         11  -0.0%   38.22      0.1250E-03   0.000      -11.78       0.000      0.5000E-01   0.000    
    6123   3.897      0.6364E-03 SPRIN         11  -0.0%   38.15      0.1250E-03   0.000      -11.85       0.000      0.5000E-01   0.000    
    6124   3.897      0.6364E-03 SPRIN         11  -0.0%   38.08      0.1250E-03   0.000      -11.92       0.000      0.5000E-01   0.000    
    6125   3.898      0.6364E-03 SPRIN         11  -0.0%   38.01      0.1250E-03   0.000      -11.99       0.000      0.5000E-01   0.000    
    6126   3.899      0.6364E-03 SPRIN         11  -0.0%   37.94      0.1250E-03   0.000      -12.06       0.000      0.5000E-01   0.000    
    6127   3.899      0.6364E-03 SPRIN         11  -0.0%   37.87      0.1250E-03   0.000      -12.13       0.000      0.5000E-01   0.000    
    6128   3.900      0.6364E-03 SPRIN         11  -0.0%   37.80      0.1250E-03   0.000      -12.20       0.000      0.5000E-01   0.000    
    6129   3.900      0.6364E-03 SPRIN         11  -0.0%   37.73      0.1250E-03   0.000      -12.26       0.000      0.5000E-01   0.000    
    6130   3.901      0.6364E-03 SPRIN         11  -0.0%   37.67      0.1250E-03   0.000      -12.33       0.000      0.5000E-01   0.000    
    6131   3.902      0.6364E-03 SPRIN         11  -0.0%   37.60      0.1250E-03   0.000      -12.40       0.000      0.5000E-01   0.000    
    6132   3.902      0.6364E-03 SPRIN         11  -0.0%   37.53      0.1250E-03   0.000      -12.47       0.000      0.5000E-01   0.000    
    6133   3.903      0.6364E-03 SPRIN         11  -0.0%   37.46      0.1250E-03   0.000      -12.53       0.000      0.5000E-01   0.000    
    6134   3.904      0.6364E-03 SPRIN         11  -0.0%   37.40      0.1250E-03   0.000      -12.60       0.000      0.5000E-01   0.000    
    6135   3.904      0.6364E-03 SPRIN         11  -0.0%   37.33      0.1250E-03   0.000      -12.67       0.000      0.5000E-01   0.000    
    6136   3.905      0.6364E-03 SPRIN         11  -0.0%   37.27      0.1250E-03   0.000      -12.73       0.000      0.5000E-01   0.000    
    6137   3.906      0.6364E-03 SPRIN         11  -0.0%   37.20      0.1250E-03   0.000      -12.80       0.000      0.5000E-01   0.000    
    6138   3.906      0.6364E-03 SPRIN         11  -0.0%   37.14      0.1250E-03   0.000      -12.86       0.000      0.5000E-01   0.000    
    6139   3.907      0.6364E-03 SPRIN         11  -0.0%   37.07      0.1250E-03   0.000      -12.93       0.000      0.5000E-01   0.000    
    6140   3.907      0.6364E-03 SPRIN         11  -0.0%   37.01      0.1250E-03   0.000      -12.99       0.000      0.5000E-01   0.000    
    6141   3.908      0.6364E-03 SPRIN         11  -0.0%   36.94      0.1250E-03   0.000      -13.06       0.000      0.5000E-01   0.000    
    6142   3.909      0.6364E-03 SPRIN         11  -0.0%   36.88      0.1250E-03   0.000      -13.12       0.000      0.5000E-01   0.000    
    6143   3.909      0.6364E-03 SPRIN         11  -0.0%   36.82      0.1250E-03   0.000      -13.18       0.000      0.5000E-01   0.000    
    6144   3.910      0.6364E-03 SPRIN         11  -0.0%   36.76      0.1250E-03   0.000      -13.24       0.000      0.5000E-01   0.000    
    6145   3.911      0.6364E-03 SPRIN         11  -0.0%   36.69      0.1250E-03   0.000      -13.31       0.000      0.5000E-01   0.000    
    6146   3.911      0.6364E-03 SPRIN         11  -0.0%   36.63      0.1250E-03   0.000      -13.37       0.000      0.5000E-01   0.000    
    6147   3.912      0.6364E-03 SPRIN         11  -0.0%   36.57      0.1250E-03   0.000      -13.43       0.000      0.5000E-01   0.000    
    6148   3.913      0.6364E-03 SPRIN         11  -0.0%   36.51      0.1250E-03   0.000      -13.49       0.000      0.5000E-01   0.000    
    6149   3.913      0.6364E-03 SPRIN         11  -0.0%   36.45      0.1250E-03   0.000      -13.55       0.000      0.5000E-01   0.000    
    6150   3.914      0.6364E-03 SPRIN         11  -0.0%   36.39      0.1250E-03   0.000      -13.61       0.000      0.5000E-01   0.000    
    6151   3.914      0.6364E-03 SPRIN         11  -0.0%   36.33      0.1250E-03   0.000      -13.67       0.000      0.5000E-01   0.000    
    6152   3.915      0.6364E-03 SPRIN         11  -0.0%   36.27      0.1250E-03   0.000      -13.73       0.000      0.5000E-01   0.000    
    6153   3.916      0.6364E-03 SPRIN         11  -0.0%   36.21      0.1250E-03   0.000      -13.79       0.000      0.5000E-01   0.000    
    6154   3.916      0.6364E-03 SPRIN         11  -0.0%   36.15      0.1250E-03   0.000      -13.85       0.000      0.5000E-01   0.000    
    6155   3.917      0.6364E-03 SPRIN         11  -0.0%   36.10      0.1250E-03   0.000      -13.90       0.000      0.5000E-01   0.000    
    6156   3.918      0.6364E-03 SPRIN         11  -0.0%   36.04      0.1250E-03   0.000      -13.96       0.000      0.5000E-01   0.000    
    6157   3.918      0.6364E-03 SPRIN         11  -0.0%   35.98      0.1250E-03   0.000      -14.02       0.000      0.5000E-01   0.000    
    6158   3.919      0.6364E-03 SPRIN         11  -0.0%   35.92      0.1250E-03   0.000      -14.08       0.000      0.5000E-01   0.000    
    6159   3.920      0.6364E-03 SPRIN         11  -0.0%   35.87      0.1250E-03   0.000      -14.13       0.000      0.5000E-01   0.000    
   CYCLE    TIME      TIME-STEP  ELEMENT          ERROR  I-ENERGY    K-ENERGY T  K-ENERGY R  EXT-WORK     MAS.ERR     TOTAL MASS  MASS ADDED
    6160   3.920      0.6364E-03 SPRIN         11  -0.0%   35.81      0.1250E-03   0.000      -14.19       0.000      0.5000E-01   0.000    
    6161   3.921      0.6364E-03 SPRIN         11  -0.0%   35.76      0.1250E-03   0.000      -14.24       0.000      0.5000E-01   0.000    
    6162   3.921      0.6364E-03 SPRIN         11  -0.0%   35.70      0.1250E-03   0.000      -14.30       0.000      0.5000E-01   0.000    
    6163   3.922      0.6364E-03 SPRIN         11  -0.0%   35.65      0.1250E-03   0.000      -14.35       0.000      0.5000E-01   0.000    
    6164   3.923      0.6364E-03 SPRIN         11  -0.0%   35.59      0.1250E-03   0.000      -14.41       0.000      0.5000E-01   0.000    
    6165   3.923      0.6364E-03 SPRIN         11  -0.0%   35.54      0.1250E-03   0.000      -14.46       0.000      0.5000E-01   0.000    
    6166   3.924      0.6364E-03 SPRIN         11  -0.0%   35.49      0.1250E-03   0.000      -14.51       0.000      0.5000E-01   0.000    
    6167   3.925      0.6364E-03 SPRIN         11  -0.0%   35.43      0.1250E-03   0.000      -14.57       0.000      0.5000E-01   0.000    
    6168   3.925      0.6364E-03 SPRIN         11  -0.0%   35.38      0.1250E-03   0.000      -14.62       0.000      0.5000E-01   0.000    
    6169   3.926      0.6364E-03 SPRIN         11  -0.0%   35.33      0.1250E-03   0.000      -14.67       0.000      0.5000E-01   0.000    
    6170   3.927      0.6364E-03 SPRIN         11  -0.0%   35.28      0.1250E-03   0.000      -14.72       0.000      0.5000E-01   0.000    
    6171   3.927      0.6364E-03 SPRIN         11  -0.0%   35.22      0.1250E-03   0.000      -14.78       0.000      0.5000E-01   0.000    
    6172   3.928      0.6364E-03 SPRIN         11  -0.0%   35.17      0.1250E-03   0.000      -14.83       0.000      0.5000E-01   0.000    
    6173   3.928      0.6364E-03 SPRIN         11  -0.0%   35.12      0.1250E-03   0.000      -14.88       0.000      0.5000E-01   0.000    
    6174   3.929      0.6364E-03 SPRIN         11  -0.0%   35.07      0.1250E-03   0.000      -14.93       0.000      0.5000E-01   0.000    
    6175   3.930      0.6364E-03 SPRIN         11  -0.0%   35.02      0.1250E-03   0.000      -14.98       0.000      0.5000E-01   0.000    
    6176   3.930      0.6364E-03 SPRIN         11  -0.0%   34.97      0.1250E-03   0.000      -15.03       0.000      0.5000E-01   0.000    
    6177   3.931      0.6364E-03 SPRIN         11  -0.0%   34.92      0.1250E-03   0.000      -15.08       0.000      0.5000E-01   0.000    
    6178   3.932      0.6364E-03 SPRIN         11  -0.0%   34.87      0.1250E-03   0.000      -15.13       0.000      0.5000E-01   0.000    
    6179   3.932      0.6364E-03 SPRIN         11  -0.0%   34.83      0.1250E-03   0.000      -15.17       0.000      0.5000E-01   0.000    
    6180   3.933      0.6364E-03 SPRIN         11  -0.0%   34.78      0.1250E-03   0.000      -15.22       0.000      0.5000E-01   0.000    
    6181   3.934      0.6364E-03 SPRIN         11  -0.0%   34.73      0.1250E-03   0.000      -15.27       0.000      0.5000E-01   0.000    
    6182   3.934      0.6364E-03 SPRIN         11  -0.0%   34.68      0.1250E-03   0.000      -15.32       0.000      0.5000E-01   0.000    
    6183   3.935      0.6364E-03 SPRIN         11  -0.0%   34.64      0.1250E-03   0.000      -15.36       0.000      0.5000E-01   0.000    
    6184   3.935      0.6364E-03 SPRIN         11  -0.0%   34.59      0.1250E-03   0.000      -15.41       0.000      0.5000E-01   0.000    
    6185   3.936      0.6364E-03 SPRIN         11  -0.0%   34.55      0.1250E-03   0.000      -15.45       0.000      0.5000E-01   0.000    
    6186   3.937      0.6364E-03 SPRIN         11  -0.0%   34.50      0.1250E-03   0.000      -15.50       0.000      0.5000E-01   0.000    
    6187   3.937      0.6364E-03 SPRIN         11  -0.0%   34.45      0.1250E-03   0.000      -15.55       0.000      0.5000E-01   0.000    
    6188   3.938      0.6364E-03 SPRIN         11  -0.0%   34.41      0.1250E-03   0.000      -15.59       0.000      0.5000E-01   0.000    
    6189   3.939      0.6364E-03 SPRIN         11  -0.0%   34.37      0.1250E-03   0.000      -15.63       0.000      0.5000E-01   0.000    
    6190   3.939      0.6364E-03 SPRIN         11  -0.0%   34.32      0.1250E-03   0.000      -15.68       0.000      0.5000E-01   0.000    
    6191   3.940      0.6364E-03 SPRIN         11  -0.0%   34.28      0.1250E-03   0.000      -15.72       0.000      0.5000E-01   0.000    
    6192   3.941      0.6364E-03 SPRIN         11  -0.0%   34.24      0.1250E-03   0.000      -15.76       0.000      0.5000E-01   0.000    
    6193   3.941      0.6364E-03 SPRIN         11  -0.0%   34.19      0.1250E-03   0.000      -15.81       0.000      0.5000E-01   0.000    
    6194   3.942      0.6364E-03 SPRIN         11  -0.0%   34.15      0.1250E-03   0.000      -15.85       0.000      0.5000E-01   0.000    
    6195   3.942      0.6364E-03 SPRIN         11  -0.0%   34.11      0.1250E-03   0.000      -15.89       0.000      0.5000E-01   0.000    
    6196   3.943      0.6364E-03 SPRIN         11  -0.0%   34.07      0.1250E-03   0.000      -15.93       0.000      0.5000E-01   0.000    
    6197   3.944      0.6364E-03 SPRIN         11  -0.0%   34.03      0.1250E-03   0.000      -15.97       0.000      0.5000E-01   0.000    
    6198   3.944      0.6364E-03 SPRIN         11  -0.0%   33.99      0.1250E-03   0.000      -16.01       0.000      0.5000E-01   0.000    
    6199   3.945      0.6364E-03 SPRIN         11  -0.0%   33.95      0.1250E-03   0.000      -16.05       0.000      0.5000E-01   0.000    
    6200   3.946      0.6364E-03 SPRIN         11  -0.0%   33.91      0.1250E-03   0.000      -16.09       0.000      0.5000E-01   0.000    
    6201   3.946      0.6364E-03 SPRIN         11  -0.0%   33.87      0.1250E-03   0.000      -16.13       0.000      0.5000E-01   0.000    
    6202   3.947      0.6364E-03 SPRIN         11  -0.0%   33.83      0.1250E-03   0.000      -16.17       0.000      0.5000E-01   0.000    
    6203   3.948      0.6364E-03 SPRIN         11  -0.0%   33.79      0.1250E-03   0.000      -16.21       0.000      0.5000E-01   0.000    
    6204   3.948      0.6364E-03 SPRIN         11  -0.0%   33.75      0.1250E-03   0.000      -16.25       0.000      0.5000E-01   0.000    
    6205   3.949      0.6364E-03 SPRIN         11  -0.0%   33.71      0.1250E-03   0.000      -16.29       0.000      0.5000E-01   0.000    
    6206   3.949      0.6364E-03 SPRIN         11  -0.0%   33.68      0.1250E-03   0.000      -16.32       0.000      0.5000E-01   0.000    
    6207   3.950      0.6364E-03 SPRIN         11  -0.0%   33.64      0.1250E-03   0.000      -16.36       0.000      0.5000E-01   0.000    
    6208   3.951      0.6364E-03 SPRIN         11  -0.0%   33.60      0.1250E-03   0.000      -16.40       0.000      0.5000E-01   0.000    
    6209   3.951      0.6364E-03 SPRIN         11  -0.0%   33.57      0.1250E-03   0.000      -16.43       0.000      0.5000E-01   0.000    
    6210   3.952      0.6364E-03 SPRIN         11  -0.0%   33.53      0.1250E-03   0.000      -16.47       0.000      0.5000E-01   0.000    
    6211   3.953      0.6364E-03 SPRIN         11  -0.0%   33.50      0.1250E-03   0.000      -16.50       0.000      0.5000E-01   0.000    
    6212   3.953      0.6364E-03 SPRIN         11  -0.0%   33.46      0.1250E-03   0.000      -16.54       0.000      0.5000E-01   0.000    
    6213   3.954      0.6364E-03 SPRIN         11  -0.0%   33.43      0.1250E-03   0.000      -16.57       0.000      0.5000E-01   0.000    
    6214   3.955      0.6364E-03 SPRIN         11  -0.0%   33.39      0.1250E-03   0.000      -16.61       0.000      0.5000E-01   0.000    
   CYCLE    TIME      TIME-STEP  ELEMENT          ERROR  I-ENERGY    K-ENERGY T  K-ENERGY R  EXT-WORK     MAS.ERR     TOTAL MASS  MASS ADDED
    6215   3.955      0.6364E-03 SPRIN         11  -0.0%   33.36      0.1250E-03   0.000      -16.64       0.000      0.5000E-01   0.000    
    6216   3.956      0.6364E-03 SPRIN         11  -0.0%   33.33      0.1250E-03   0.000      -16.67       0.000      0.5000E-01   0.000    
    6217   3.956      0.6364E-03 SPRIN         11  -0.0%   33.29      0.1250E-03   0.000      -16.71       0.000      0.5000E-01   0.000    
    6218   3.957      0.6364E-03 SPRIN         11  -0.0%   33.26      0.1250E-03   0.000      -16.74       0.000      0.5000E-01   0.000    
    6219   3.958      0.6364E-03 SPRIN         11  -0.0%   33.23      0.1250E-03   0.000      -16.77       0.000      0.5000E-01   0.000    
    6220   3.958      0.6364E-03 SPRIN         11  -0.0%   33.20      0.1250E-03   0.000      -16.80       0.000      0.5000E-01   0.000    
    6221   3.959      0.6364E-03 SPRIN         11  -0.0%   33.17      0.1250E-03   0.000      -16.83       0.000      0.5000E-01   0.000    
    6222   3.960      0.6364E-03 SPRIN         11  -0.0%   33.13      0.1250E-03   0.000      -16.87       0.000      0.5000E-01   0.000    
    6223   3.960      0.6364E-03 SPRIN         11  -0.0%   33.10      0.1250E-03   0.000      -16.90       0.000      0.5000E-01   0.000    
    6224   3.961      0.6364E-03 SPRIN         11  -0.0%   33.07      0.1250E-03   0.000      -16.93       0.000      0.5000E-01   0.000    
    6225   3.962      0.6364E-03 SPRIN         11  -0.0%   33.04      0.1250E-03   0.000      -16.96       0.000      0.5000E-01   0.000    
    6226   3.962      0.6364E-03 SPRIN         11  -0.0%   33.02      0.1250E-03   0.000      -16.98       0.000      0.5000E-01   0.000    
    6227   3.963      0.6364E-03 SPRIN         11  -0.0%   32.99      0.1250E-03   0.000      -17.01       0.000      0.5000E-01   0.000    
    6228   3.963      0.6364E-03 SPRIN         11  -0.0%   32.96      0.1250E-03   0.000      -17.04       0.000      0.5000E-01   0.000    
    6229   3.964      0.6364E-03 SPRIN         11  -0.0%   32.93      0.1250E-03   0.000      -17.07       0.000      0.5000E-01   0.000    
    6230   3.965      0.6364E-03 SPRIN         11  -0.0%   32.90      0.1250E-03   0.000      -17.10       0.000      0.5000E-01   0.000    
    6231   3.965      0.6364E-03 SPRIN         11  -0.0%   32.88      0.1250E-03   0.000      -17.12       0.000      0.5000E-01   0.000    
    6232   3.966      0.6364E-03 SPRIN         11  -0.0%   32.85      0.1250E-03   0.000      -17.15       0.000      0.5000E-01   0.000    
    6233   3.967      0.6364E-03 SPRIN         11  -0.0%   32.82      0.1250E-03   0.000      -17.18       0.000      0.5000E-01   0.000    
    6234   3.967      0.6364E-03 SPRIN         11  -0.0%   32.80      0.1250E-03   0.000      -17.20       0.000      0.5000E-01   0.000    
    6235   3.968      0.6364E-03 SPRIN         11  -0.0%   32.77      0.1250E-03   0.000      -17.23       0.000      0.5000E-01   0.000    
    6236   3.969      0.6364E-03 SPRIN         11  -0.0%   32.75      0.1250E-03   0.000      -17.25       0.000      0.5000E-01   0.000    
    6237   3.969      0.6364E-03 SPRIN         11  -0.0%   32.72      0.1250E-03   0.000      -17.28       0.000      0.5000E-01   0.000    
    6238   3.970      0.6364E-03 SPRIN         11  -0.0%   32.70      0.1250E-03   0.000      -17.30       0.000      0.5000E-01   0.000    
    6239   3.970      0.6364E-03 SPRIN         11  -0.0%   32.67      0.1250E-03   0.000      -17.33       0.000      0.5000E-01   0.000    
    6240   3.971      0.6364E-03 SPRIN         11  -0.0%   32.65      0.1250E-03   0.000      -17.35       0.000      0.5000E-01   0.000    
    6241   3.972      0.6364E-03 SPRIN         11  -0.0%   32.63      0.1250E-03   0.000      -17.37       0.000      0.5000E-01   0.000    
    6242   3.972      0.6364E-03 SPRIN         11  -0.0%   32.60      0.1250E-03   0.000      -17.40       0.000      0.5000E-01   0.000    
    6243   3.973      0.6364E-03 SPRIN         11  -0.0%   32.58      0.1250E-03   0.000      -17.42       0.000      0.5000E-01   0.000    
    6244   3.974      0.6364E-03 SPRIN         11  -0.0%   32.56      0.1250E-03   0.000      -17.44       0.000      0.5000E-01   0.000    
    6245   3.974      0.6364E-03 SPRIN         11  -0.0%   32.54      0.1250E-03   0.000      -17.46       0.000      0.5000E-01   0.000    
    6246   3.975      0.6364E-03 SPRIN         11  -0.0%   32.52      0.1250E-03   0.000      -17.48       0.000      0.5000E-01   0.000    
    6247   3.976      0.6364E-03 SPRIN         11  -0.0%   32.50      0.1250E-03   0.000      -17.50       0.000      0.5000E-01   0.000    
    6248   3.976      0.6364E-03 SPRIN         11  -0.0%   32.47      0.1250E-03   0.000      -17.52       0.000      0.5000E-01   0.000    
    6249   3.977      0.6364E-03 SPRIN         11  -0.0%   32.46      0.1250E-03   0.000      -17.54       0.000      0.5000E-01   0.000    
    6250   3.977      0.6364E-03 SPRIN         11  -0.0%   32.44      0.1250E-03   0.000      -17.56       0.000      0.5000E-01   0.000    
    6251   3.978      0.6364E-03 SPRIN         11  -0.0%   32.42      0.1250E-03   0.000      -17.58       0.000      0.5000E-01   0.000    
    6252   3.979      0.6364E-03 SPRIN         11  -0.0%   32.40      0.1250E-03   0.000      -17.60       0.000      0.5000E-01   0.000    
    6253   3.979      0.6364E-03 SPRIN         11  -0.0%   32.38      0.1250E-03   0.000      -17.62       0.000      0.5000E-01   0.000    
    6254   3.980      0.6364E-03 SPRIN         11  -0.0%   32.36      0.1250E-03   0.000      -17.64       0.000      0.5000E-01   0.000    
    6255   3.981      0.6364E-03 SPRIN         11  -0.0%   32.34      0.1250E-03   0.000      -17.66       0.000      0.5000E-01   0.000    
    6256   3.981      0.6364E-03 SPRIN         11  -0.0%   32.33      0.1250E-03   0.000      -17.67       0.000      0.5000E-01   0.000    
    6257   3.982      0.6364E-03 SPRIN         11  -0.0%   32.31      0.1250E-03   0.000      -17.69       0.000      0.5000E-01   0.000    
    6258   3.983      0.6364E-03 SPRIN         11  -0.0%   32.29      0.1250E-03   0.000      -17.71       0.000      0.5000E-01   0.000    
    6259   3.983      0.6364E-03 SPRIN         11  -0.0%   32.28      0.1250E-03   0.000      -17.72       0.000      0.5000E-01   0.000    
    6260   3.984      0.6364E-03 SPRIN         11  -0.0%   32.26      0.1250E-03   0.000      -17.74       0.000      0.5000E-01   0.000    
    6261   3.984      0.6364E-03 SPRIN         11  -0.0%   32.25      0.1250E-03   0.000      -17.75       0.000      0.5000E-01   0.000    
    6262   3.985      0.6364E-03 SPRIN         11  -0.0%   32.23      0.1250E-03   0.000      -17.77       0.000      0.5000E-01   0.000    
    6263   3.986      0.6364E-03 SPRIN         11  -0.0%   32.22      0.1250E-03   0.000      -17.78       0.000      0.5000E-01   0.000    
    6264   3.986      0.6364E-03 SPRIN         11  -0.0%   32.21      0.1250E-03   0.000      -17.79       0.000      0.5000E-01   0.000    
    6265   3.987      0.6364E-03 SPRIN         11  -0.0%   32.19      0.1250E-03   0.000      -17.81       0.000      0.5000E-01   0.000    
    6266   3.988      0.6364E-03 SPRIN         11  -0.0%   32.18      0.1250E-03   0.000      -17.82       0.000      0.5000E-01   0.000    
    6267   3.988      0.6364E-03 SPRIN         11  -0.0%   32.17      0.1250E-03   0.000      -17.83       0.000      0.5000E-01   0.000    
    6268   3.989      0.6364E-03 SPRIN         11  -0.0%   32.15      0.1250E-03   0.000      -17.85       0.000      0.5000E-01   0.000    
    6269   3.990      0.6364E-03 SPRIN         11  -0.0%   32.14      0.1250E-03   0.000      -17.86       0.000      0.5000E-01   0.000    
   CYCLE    TIME      TIME-STEP  ELEMENT          ERROR  I-ENERGY    K-ENERGY T  K-ENERGY R  EXT-WORK     MAS.ERR     TOTAL MASS  MASS ADDED
    6270   3.990      0.6364E-03 SPRIN         11  -0.0%   32.13      0.1250E-03   0.000      -17.87       0.000      0.5000E-01   0.000    
    6271   3.991      0.6364E-03 SPRIN         11  -0.0%   32.12      0.1250E-03   0.000      -17.88       0.000      0.5000E-01   0.000    
    6272   3.991      0.6364E-03 SPRIN         11  -0.0%   32.11      0.1250E-03   0.000      -17.89       0.000      0.5000E-01   0.000    
    6273   3.992      0.6364E-03 SPRIN         11  -0.0%   32.10      0.1250E-03   0.000      -17.90       0.000      0.5000E-01   0.000    
    6274   3.993      0.6364E-03 SPRIN         11  -0.0%   32.09      0.1250E-03   0.000      -17.91       0.000      0.5000E-01   0.000    
    6275   3.993      0.6364E-03 SPRIN         11  -0.0%   32.08      0.1250E-03   0.000      -17.92       0.000      0.5000E-01   0.000    
    6276   3.994      0.6364E-03 SPRIN         11  -0.0%   32.07      0.1250E-03   0.000      -17.93       0.000      0.5000E-01   0.000    
    6277   3.995      0.6364E-03 SPRIN         11  -0.0%   32.06      0.1250E-03   0.000      -17.94       0.000      0.5000E-01   0.000    
    6278   3.995      0.6364E-03 SPRIN         11  -0.0%   32.05      0.1250E-03   0.000      -17.95       0.000      0.5000E-01   0.000    
    6279   3.996      0.6364E-03 SPRIN         11  -0.0%   32.05      0.1250E-03   0.000      -17.95       0.000      0.5000E-01   0.000    
    6280   3.997      0.6364E-03 SPRIN         11  -0.0%   32.04      0.1250E-03   0.000      -17.96       0.000      0.5000E-01   0.000    
    6281   3.997      0.6364E-03 SPRIN         11  -0.0%   32.03      0.1250E-03   0.000      -17.97       0.000      0.5000E-01   0.000    
    6282   3.998      0.6364E-03 SPRIN         11  -0.0%   32.03      0.1250E-03   0.000      -17.97       0.000      0.5000E-01   0.000    
    6283   3.998      0.6364E-03 SPRIN         11  -0.0%   32.02      0.1250E-03   0.000      -17.98       0.000      0.5000E-01   0.000    
    6284   3.999      0.6364E-03 SPRIN         11  -0.0%   32.01      0.1250E-03   0.000      -17.99       0.000      0.5000E-01   0.000    
    6285   4.000      0.6364E-03 SPRIN         11  -0.0%   32.01      0.1250E-03   0.000      -17.99       0.000      0.5000E-01   0.000    
    6286   4.000      0.6364E-03 SPRIN         11  -0.0%   32.00      0.1250E-03   0.000      -18.00       0.000      0.5000E-01   0.000    
     ANIMATION FILE: SPR_PRE_2FLAGA021 WRITTEN
    6287   4.001      0.6364E-03 SPRIN         11  -0.0%   32.00      0.1250E-03   0.000      -18.00       0.000      0.5000E-01   0.000    
    6288   4.002      0.6364E-03 SPRIN         11  -0.0%   31.99      0.1250E-03   0.000      -18.01       0.000      0.5000E-01   0.000    
    6289   4.002      0.6364E-03 SPRIN         11  -0.0%   31.99      0.1250E-03   0.000      -18.01       0.000      0.5000E-01   0.000    
    6290   4.003      0.6364E-03 SPRIN         11  -0.0%   31.99      0.1250E-03   0.000      -18.01       0.000      0.5000E-01   0.000    
    6291   4.004      0.6364E-03 SPRIN         11  -0.0%   31.98      0.1250E-03   0.000      -18.01       0.000      0.5000E-01   0.000    
    6292   4.004      0.6364E-03 SPRIN         11  -0.0%   31.98      0.1250E-03   0.000      -18.02       0.000      0.5000E-01   0.000    
    6293   4.005      0.6364E-03 SPRIN         11  -0.0%   31.98      0.1250E-03   0.000      -18.02       0.000      0.5000E-01   0.000    
    6294   4.005      0.6364E-03 SPRIN         11  -0.0%   31.98      0.1250E-03   0.000      -18.02       0.000      0.5000E-01   0.000    
    6295   4.006      0.6364E-03 SPRIN         11  -0.0%   31.98      0.1250E-03   0.000      -18.02       0.000      0.5000E-01   0.000    
    6296   4.007      0.6364E-03 SPRIN         11  -0.0%   31.98      0.1250E-03   0.000      -18.02       0.000      0.5000E-01   0.000    
    6297   4.007      0.6364E-03 SPRIN         11  -0.0%   31.98      0.1250E-03   0.000      -18.02       0.000      0.5000E-01   0.000    
    6298   4.008      0.6364E-03 SPRIN         11  -0.0%   31.98      0.1250E-03   0.000      -18.02       0.000      0.5000E-01   0.000    
    6299   4.009      0.6364E-03 SPRIN         11  -0.0%   31.98      0.1250E-03   0.000      -18.02       0.000      0.5000E-01   0.000    
    6300   4.009      0.6364E-03 SPRIN         11  -0.0%   31.98      0.1250E-03   0.000      -18.02       0.000      0.5000E-01   0.000    
    6301   4.010      0.6364E-03 SPRIN         11  -0.0%   31.98      0.1250E-03   0.000      -18.02       0.000      0.5000E-01   0.000    
    6302   4.011      0.6364E-03 SPRIN         11  -0.0%   31.98      0.1250E-03   0.000      -18.02       0.000      0.5000E-01   0.000    
    6303   4.011      0.6364E-03 SPRIN         11  -0.0%   31.98      0.1250E-03   0.000      -18.02       0.000      0.5000E-01   0.000    
    6304   4.012      0.6364E-03 SPRIN         11  -0.0%   31.98      0.1250E-03   0.000      -18.02       0.000      0.5000E-01   0.000    
    6305   4.012      0.6364E-03 SPRIN         11  -0.0%   31.99      0.1250E-03   0.000      -18.01       0.000      0.5000E-01   0.000    
    6306   4.013      0.6364E-03 SPRIN         11  -0.0%   31.99      0.1250E-03   0.000      -18.01       0.000      0.5000E-01   0.000    
    6307   4.014      0.6364E-03 SPRIN         11  -0.0%   31.99      0.1250E-03   0.000      -18.01       0.000      0.5000E-01   0.000    
    6308   4.014      0.6364E-03 SPRIN         11  -0.0%   32.00      0.1250E-03   0.000      -18.00       0.000      0.5000E-01   0.000    
    6309   4.015      0.6364E-03 SPRIN         11  -0.0%   32.00      0.1250E-03   0.000      -18.00       0.000      0.5000E-01   0.000    
    6310   4.016      0.6364E-03 SPRIN         11  -0.0%   32.01      0.1250E-03   0.000      -17.99       0.000      0.5000E-01   0.000    
    6311   4.016      0.6364E-03 SPRIN         11  -0.0%   32.01      0.1250E-03   0.000      -17.99       0.000      0.5000E-01   0.000    
    6312   4.017      0.6364E-03 SPRIN         11  -0.0%   32.02      0.1250E-03   0.000      -17.98       0.000      0.5000E-01   0.000    
    6313   4.018      0.6364E-03 SPRIN         11  -0.0%   32.02      0.1250E-03   0.000      -17.98       0.000      0.5000E-01   0.000    
    6314   4.018      0.6364E-03 SPRIN         11  -0.0%   32.03      0.1250E-03   0.000      -17.97       0.000      0.5000E-01   0.000    
    6315   4.019      0.6364E-03 SPRIN         11  -0.0%   32.04      0.1250E-03   0.000      -17.96       0.000      0.5000E-01   0.000    
    6316   4.019      0.6364E-03 SPRIN         11  -0.0%   32.04      0.1250E-03   0.000      -17.96       0.000      0.5000E-01   0.000    
    6317   4.020      0.6364E-03 SPRIN         11  -0.0%   32.05      0.1250E-03   0.000      -17.95       0.000      0.5000E-01   0.000    
    6318   4.021      0.6364E-03 SPRIN         11  -0.0%   32.06      0.1250E-03   0.000      -17.94       0.000      0.5000E-01   0.000    
    6319   4.021      0.6364E-03 SPRIN         11  -0.0%   32.07      0.1250E-03   0.000      -17.93       0.000      0.5000E-01   0.000    
    6320   4.022      0.6364E-03 SPRIN         11  -0.0%   32.08      0.1250E-03   0.000      -17.92       0.000      0.5000E-01   0.000    
    6321   4.023      0.6364E-03 SPRIN         11  -0.0%   32.09      0.1250E-03   0.000      -17.91       0.000      0.5000E-01   0.000    
    6322   4.023      0.6364E-03 SPRIN         11  -0.0%   32.10      0.1250E-03   0.000      -17.90       0.000      0.5000E-01   0.000    
    6323   4.024      0.6364E-03 SPRIN         11  -0.0%   32.11      0.1250E-03   0.000      -17.89       0.000      0.5000E-01   0.000    
    6324   4.025      0.6364E-03 SPRIN         11  -0.0%   32.12      0.1250E-03   0.000      -17.88       0.000      0.5000E-01   0.000    
   CYCLE    TIME      TIME-STEP  ELEMENT          ERROR  I-ENERGY    K-ENERGY T  K-ENERGY R  EXT-WORK     MAS.ERR     TOTAL MASS  MASS ADDED
    6325   4.025      0.6364E-03 SPRIN         11  -0.0%   32.13      0.1250E-03   0.000      -17.87       0.000      0.5000E-01   0.000    
    6326   4.026      0.6364E-03 SPRIN         11  -0.0%   32.14      0.1250E-03   0.000      -17.86       0.000      0.5000E-01   0.000    
    6327   4.026      0.6364E-03 SPRIN         11  -0.0%   32.15      0.1250E-03   0.000      -17.85       0.000      0.5000E-01   0.000    
    6328   4.027      0.6364E-03 SPRIN         11  -0.0%   32.16      0.1250E-03   0.000      -17.84       0.000      0.5000E-01   0.000    
    6329   4.028      0.6364E-03 SPRIN         11  -0.0%   32.18      0.1250E-03   0.000      -17.82       0.000      0.5000E-01   0.000    
    6330   4.028      0.6364E-03 SPRIN         11  -0.0%   32.19      0.1250E-03   0.000      -17.81       0.000      0.5000E-01   0.000    
    6331   4.029      0.6364E-03 SPRIN         11  -0.0%   32.20      0.1250E-03   0.000      -17.80       0.000      0.5000E-01   0.000    
    6332   4.030      0.6364E-03 SPRIN         11  -0.0%   32.22      0.1250E-03   0.000      -17.78       0.000      0.5000E-01   0.000    
    6333   4.030      0.6364E-03 SPRIN         11  -0.0%   32.23      0.1250E-03   0.000      -17.77       0.000      0.5000E-01   0.000    
    6334   4.031      0.6364E-03 SPRIN         11  -0.0%   32.24      0.1250E-03   0.000      -17.76       0.000      0.5000E-01   0.000    
    6335   4.032      0.6364E-03 SPRIN         11  -0.0%   32.26      0.1250E-03   0.000      -17.74       0.000      0.5000E-01   0.000    
    6336   4.032      0.6364E-03 SPRIN         11  -0.0%   32.27      0.1250E-03   0.000      -17.73       0.000      0.5000E-01   0.000    
    6337   4.033      0.6364E-03 SPRIN         11  -0.0%   32.29      0.1250E-03   0.000      -17.71       0.000      0.5000E-01   0.000    
    6338   4.033      0.6364E-03 SPRIN         11  -0.0%   32.31      0.1250E-03   0.000      -17.69       0.000      0.5000E-01   0.000    
    6339   4.034      0.6364E-03 SPRIN         11  -0.0%   32.32      0.1250E-03   0.000      -17.68       0.000      0.5000E-01   0.000    
    6340   4.035      0.6364E-03 SPRIN         11  -0.0%   32.34      0.1250E-03   0.000      -17.66       0.000      0.5000E-01   0.000    
    6341   4.035      0.6364E-03 SPRIN         11  -0.0%   32.36      0.1250E-03   0.000      -17.64       0.000      0.5000E-01   0.000    
    6342   4.036      0.6364E-03 SPRIN         11  -0.0%   32.37      0.1250E-03   0.000      -17.63       0.000      0.5000E-01   0.000    
    6343   4.037      0.6364E-03 SPRIN         11  -0.0%   32.39      0.1250E-03   0.000      -17.61       0.000      0.5000E-01   0.000    
    6344   4.037      0.6364E-03 SPRIN         11  -0.0%   32.41      0.1250E-03   0.000      -17.59       0.000      0.5000E-01   0.000    
    6345   4.038      0.6364E-03 SPRIN         11  -0.0%   32.43      0.1250E-03   0.000      -17.57       0.000      0.5000E-01   0.000    
    6346   4.039      0.6364E-03 SPRIN         11  -0.0%   32.45      0.1250E-03   0.000      -17.55       0.000      0.5000E-01   0.000    
    6347   4.039      0.6364E-03 SPRIN         11  -0.0%   32.47      0.1250E-03   0.000      -17.53       0.000      0.5000E-01   0.000    
    6348   4.040      0.6364E-03 SPRIN         11  -0.0%   32.49      0.1250E-03   0.000      -17.51       0.000      0.5000E-01   0.000    
    6349   4.040      0.6364E-03 SPRIN         11  -0.0%   32.51      0.1250E-03   0.000      -17.49       0.000      0.5000E-01   0.000    
    6350   4.041      0.6364E-03 SPRIN         11  -0.0%   32.53      0.1250E-03   0.000      -17.47       0.000      0.5000E-01   0.000    
    6351   4.042      0.6364E-03 SPRIN         11  -0.0%   32.55      0.1250E-03   0.000      -17.45       0.000      0.5000E-01   0.000    
    6352   4.042      0.6364E-03 SPRIN         11  -0.0%   32.57      0.1250E-03   0.000      -17.43       0.000      0.5000E-01   0.000    
    6353   4.043      0.6364E-03 SPRIN         11  -0.0%   32.60      0.1250E-03   0.000      -17.40       0.000      0.5000E-01   0.000    
    6354   4.044      0.6364E-03 SPRIN         11  -0.0%   32.62      0.1250E-03   0.000      -17.38       0.000      0.5000E-01   0.000    
    6355   4.044      0.6364E-03 SPRIN         11  -0.0%   32.64      0.1250E-03   0.000      -17.36       0.000      0.5000E-01   0.000    
    6356   4.045      0.6364E-03 SPRIN         11  -0.0%   32.67      0.1250E-03   0.000      -17.33       0.000      0.5000E-01   0.000    
    6357   4.046      0.6364E-03 SPRIN         11  -0.0%   32.69      0.1250E-03   0.000      -17.31       0.000      0.5000E-01   0.000    
    6358   4.046      0.6364E-03 SPRIN         11  -0.0%   32.71      0.1250E-03   0.000      -17.29       0.000      0.5000E-01   0.000    
    6359   4.047      0.6364E-03 SPRIN         11  -0.0%   32.74      0.1250E-03   0.000      -17.26       0.000      0.5000E-01   0.000    
    6360   4.047      0.6364E-03 SPRIN         11  -0.0%   32.76      0.1250E-03   0.000      -17.24       0.000      0.5000E-01   0.000    
    6361   4.048      0.6364E-03 SPRIN         11  -0.0%   32.79      0.1250E-03   0.000      -17.21       0.000      0.5000E-01   0.000    
    6362   4.049      0.6364E-03 SPRIN         11  -0.0%   32.81      0.1250E-03   0.000      -17.19       0.000      0.5000E-01   0.000    
    6363   4.049      0.6364E-03 SPRIN         11  -0.0%   32.84      0.1250E-03   0.000      -17.16       0.000      0.5000E-01   0.000    
    6364   4.050      0.6364E-03 SPRIN         11  -0.0%   32.87      0.1250E-03   0.000      -17.13       0.000      0.5000E-01   0.000    
    6365   4.051      0.6364E-03 SPRIN         11  -0.0%   32.89      0.1250E-03   0.000      -17.11       0.000      0.5000E-01   0.000    
    6366   4.051      0.6364E-03 SPRIN         11  -0.0%   32.92      0.1250E-03   0.000      -17.08       0.000      0.5000E-01   0.000    
    6367   4.052      0.6364E-03 SPRIN         11  -0.0%   32.95      0.1250E-03   0.000      -17.05       0.000      0.5000E-01   0.000    
    6368   4.053      0.6364E-03 SPRIN         11  -0.0%   32.98      0.1250E-03   0.000      -17.02       0.000      0.5000E-01   0.000    
    6369   4.053      0.6364E-03 SPRIN         11  -0.0%   33.01      0.1250E-03   0.000      -16.99       0.000      0.5000E-01   0.000    
    6370   4.054      0.6364E-03 SPRIN         11  -0.0%   33.04      0.1250E-03   0.000      -16.96       0.000      0.5000E-01   0.000    
    6371   4.054      0.6364E-03 SPRIN         11  -0.0%   33.07      0.1250E-03   0.000      -16.93       0.000      0.5000E-01   0.000    
    6372   4.055      0.6364E-03 SPRIN         11  -0.0%   33.10      0.1250E-03   0.000      -16.90       0.000      0.5000E-01   0.000    
    6373   4.056      0.6364E-03 SPRIN         11  -0.0%   33.13      0.1250E-03   0.000      -16.87       0.000      0.5000E-01   0.000    
    6374   4.056      0.6364E-03 SPRIN         11  -0.0%   33.16      0.1250E-03   0.000      -16.84       0.000      0.5000E-01   0.000    
    6375   4.057      0.6364E-03 SPRIN         11  -0.0%   33.19      0.1250E-03   0.000      -16.81       0.000      0.5000E-01   0.000    
    6376   4.058      0.6364E-03 SPRIN         11  -0.0%   33.22      0.1250E-03   0.000      -16.78       0.000      0.5000E-01   0.000    
    6377   4.058      0.6364E-03 SPRIN         11  -0.0%   33.25      0.1250E-03   0.000      -16.75       0.000      0.5000E-01   0.000    
    6378   4.059      0.6364E-03 SPRIN         11  -0.0%   33.28      0.1250E-03   0.000      -16.72       0.000      0.5000E-01   0.000    
    6379   4.060      0.6364E-03 SPRIN         11  -0.0%   33.32      0.1250E-03   0.000      -16.68       0.000      0.5000E-01   0.000    
   CYCLE    TIME      TIME-STEP  ELEMENT          ERROR  I-ENERGY    K-ENERGY T  K-ENERGY R  EXT-WORK     MAS.ERR     TOTAL MASS  MASS ADDED
    6380   4.060      0.6364E-03 SPRIN         11  -0.0%   33.35      0.1250E-03   0.000      -16.65       0.000      0.5000E-01   0.000    
    6381   4.061      0.6364E-03 SPRIN         11  -0.0%   33.38      0.1250E-03   0.000      -16.62       0.000      0.5000E-01   0.000    
    6382   4.061      0.6364E-03 SPRIN         11  -0.0%   33.42      0.1250E-03   0.000      -16.58       0.000      0.5000E-01   0.000    
    6383   4.062      0.6364E-03 SPRIN         11  -0.0%   33.45      0.1250E-03   0.000      -16.55       0.000      0.5000E-01   0.000    
    6384   4.063      0.6364E-03 SPRIN         11  -0.0%   33.49      0.1250E-03   0.000      -16.51       0.000      0.5000E-01   0.000    
    6385   4.063      0.6364E-03 SPRIN         11  -0.0%   33.52      0.1250E-03   0.000      -16.48       0.000      0.5000E-01   0.000    
    6386   4.064      0.6364E-03 SPRIN         11  -0.0%   33.56      0.1250E-03   0.000      -16.44       0.000      0.5000E-01   0.000    
    6387   4.065      0.6364E-03 SPRIN         11  -0.0%   33.59      0.1250E-03   0.000      -16.41       0.000      0.5000E-01   0.000    
    6388   4.065      0.6364E-03 SPRIN         11  -0.0%   33.63      0.1250E-03   0.000      -16.37       0.000      0.5000E-01   0.000    
    6389   4.066      0.6364E-03 SPRIN         11  -0.0%   33.67      0.1250E-03   0.000      -16.33       0.000      0.5000E-01   0.000    
    6390   4.067      0.6364E-03 SPRIN         11  -0.0%   33.70      0.1250E-03   0.000      -16.30       0.000      0.5000E-01   0.000    
    6391   4.067      0.6364E-03 SPRIN         11  -0.0%   33.74      0.1250E-03   0.000      -16.26       0.000      0.5000E-01   0.000    
    6392   4.068      0.6364E-03 SPRIN         11  -0.0%   33.78      0.1250E-03   0.000      -16.22       0.000      0.5000E-01   0.000    
    6393   4.068      0.6364E-03 SPRIN         11  -0.0%   33.82      0.1250E-03   0.000      -16.18       0.000      0.5000E-01   0.000    
    6394   4.069      0.6364E-03 SPRIN         11  -0.0%   33.86      0.1250E-03   0.000      -16.14       0.000      0.5000E-01   0.000    
    6395   4.070      0.6364E-03 SPRIN         11  -0.0%   33.90      0.1250E-03   0.000      -16.10       0.000      0.5000E-01   0.000    
    6396   4.070      0.6364E-03 SPRIN         11  -0.0%   33.94      0.1250E-03   0.000      -16.06       0.000      0.5000E-01   0.000    
    6397   4.071      0.6364E-03 SPRIN         11  -0.0%   33.98      0.1250E-03   0.000      -16.02       0.000      0.5000E-01   0.000    
    6398   4.072      0.6364E-03 SPRIN         11  -0.0%   34.02      0.1250E-03   0.000      -15.98       0.000      0.5000E-01   0.000    
    6399   4.072      0.6364E-03 SPRIN         11  -0.0%   34.06      0.1250E-03   0.000      -15.94       0.000      0.5000E-01   0.000    
    6400   4.073      0.6364E-03 SPRIN         11  -0.0%   34.10      0.1250E-03   0.000      -15.90       0.000      0.5000E-01   0.000    
    6401   4.074      0.6364E-03 SPRIN         11  -0.0%   34.14      0.1250E-03   0.000      -15.86       0.000      0.5000E-01   0.000    
    6402   4.074      0.6364E-03 SPRIN         11  -0.0%   34.18      0.1250E-03   0.000      -15.82       0.000      0.5000E-01   0.000    
    6403   4.075      0.6364E-03 SPRIN         11  -0.0%   34.22      0.1250E-03   0.000      -15.78       0.000      0.5000E-01   0.000    
    6404   4.075      0.6364E-03 SPRIN         11  -0.0%   34.27      0.1250E-03   0.000      -15.73       0.000      0.5000E-01   0.000    
    6405   4.076      0.6364E-03 SPRIN         11  -0.0%   34.31      0.1250E-03   0.000      -15.69       0.000      0.5000E-01   0.000    
    6406   4.077      0.6364E-03 SPRIN         11  -0.0%   34.35      0.1250E-03   0.000      -15.65       0.000      0.5000E-01   0.000    
    6407   4.077      0.6364E-03 SPRIN         11  -0.0%   34.40      0.1250E-03   0.000      -15.60       0.000      0.5000E-01   0.000    
    6408   4.078      0.6364E-03 SPRIN         11  -0.0%   34.44      0.1250E-03   0.000      -15.56       0.000      0.5000E-01   0.000    
    6409   4.079      0.6364E-03 SPRIN         11  -0.0%   34.49      0.1250E-03   0.000      -15.51       0.000      0.5000E-01   0.000    
    6410   4.079      0.6364E-03 SPRIN         11  -0.0%   34.53      0.1250E-03   0.000      -15.47       0.000      0.5000E-01   0.000    
    6411   4.080      0.6364E-03 SPRIN         11  -0.0%   34.58      0.1250E-03   0.000      -15.42       0.000      0.5000E-01   0.000    
    6412   4.081      0.6364E-03 SPRIN         11  -0.0%   34.62      0.1250E-03   0.000      -15.38       0.000      0.5000E-01   0.000    
    6413   4.081      0.6364E-03 SPRIN         11  -0.0%   34.67      0.1250E-03   0.000      -15.33       0.000      0.5000E-01   0.000    
    6414   4.082      0.6364E-03 SPRIN         11  -0.0%   34.72      0.1250E-03   0.000      -15.28       0.000      0.5000E-01   0.000    
    6415   4.082      0.6364E-03 SPRIN         11  -0.0%   34.77      0.1250E-03   0.000      -15.23       0.000      0.5000E-01   0.000    
    6416   4.083      0.6364E-03 SPRIN         11  -0.0%   34.81      0.1250E-03   0.000      -15.19       0.000      0.5000E-01   0.000    
    6417   4.084      0.6364E-03 SPRIN         11  -0.0%   34.86      0.1250E-03   0.000      -15.14       0.000      0.5000E-01   0.000    
    6418   4.084      0.6364E-03 SPRIN         11  -0.0%   34.91      0.1250E-03   0.000      -15.09       0.000      0.5000E-01   0.000    
    6419   4.085      0.6364E-03 SPRIN         11  -0.0%   34.96      0.1250E-03   0.000      -15.04       0.000      0.5000E-01   0.000    
    6420   4.086      0.6364E-03 SPRIN         11  -0.0%   35.01      0.1250E-03   0.000      -14.99       0.000      0.5000E-01   0.000    
    6421   4.086      0.6364E-03 SPRIN         11  -0.0%   35.06      0.1250E-03   0.000      -14.94       0.000      0.5000E-01   0.000    
    6422   4.087      0.6364E-03 SPRIN         11  -0.0%   35.11      0.1250E-03   0.000      -14.89       0.000      0.5000E-01   0.000    
    6423   4.088      0.6364E-03 SPRIN         11  -0.0%   35.16      0.1250E-03   0.000      -14.84       0.000      0.5000E-01   0.000    
    6424   4.088      0.6364E-03 SPRIN         11  -0.0%   35.21      0.1250E-03   0.000      -14.79       0.000      0.5000E-01   0.000    
    6425   4.089      0.6364E-03 SPRIN         11  -0.0%   35.26      0.1250E-03   0.000      -14.74       0.000      0.5000E-01   0.000    
    6426   4.089      0.6364E-03 SPRIN         11  -0.0%   35.31      0.1250E-03   0.000      -14.69       0.000      0.5000E-01   0.000    
    6427   4.090      0.6364E-03 SPRIN         11  -0.0%   35.36      0.1250E-03   0.000      -14.64       0.000      0.5000E-01   0.000    
    6428   4.091      0.6364E-03 SPRIN         11  -0.0%   35.42      0.1250E-03   0.000      -14.58       0.000      0.5000E-01   0.000    
    6429   4.091      0.6364E-03 SPRIN         11  -0.0%   35.47      0.1250E-03   0.000      -14.53       0.000      0.5000E-01   0.000    
    6430   4.092      0.6364E-03 SPRIN         11  -0.0%   35.52      0.1250E-03   0.000      -14.48       0.000      0.5000E-01   0.000    
    6431   4.093      0.6364E-03 SPRIN         11  -0.0%   35.58      0.1250E-03   0.000      -14.42       0.000      0.5000E-01   0.000    
    6432   4.093      0.6364E-03 SPRIN         11  -0.0%   35.63      0.1250E-03   0.000      -14.37       0.000      0.5000E-01   0.000    
    6433   4.094      0.6364E-03 SPRIN         11  -0.0%   35.69      0.1250E-03   0.000      -14.31       0.000      0.5000E-01   0.000    
    6434   4.095      0.6364E-03 SPRIN         11  -0.0%   35.74      0.1250E-03   0.000      -14.26       0.000      0.5000E-01   0.000    
   CYCLE    TIME      TIME-STEP  ELEMENT          ERROR  I-ENERGY    K-ENERGY T  K-ENERGY R  EXT-WORK     MAS.ERR     TOTAL MASS  MASS ADDED
    6435   4.095      0.6364E-03 SPRIN         11  -0.0%   35.80      0.1250E-03   0.000      -14.20       0.000      0.5000E-01   0.000    
    6436   4.096      0.6364E-03 SPRIN         11  -0.0%   35.85      0.1250E-03   0.000      -14.15       0.000      0.5000E-01   0.000    
    6437   4.096      0.6364E-03 SPRIN         11  -0.0%   35.91      0.1250E-03   0.000      -14.09       0.000      0.5000E-01   0.000    
    6438   4.097      0.6364E-03 SPRIN         11  -0.0%   35.97      0.1250E-03   0.000      -14.03       0.000      0.5000E-01   0.000    
    6439   4.098      0.6364E-03 SPRIN         11  -0.0%   36.02      0.1250E-03   0.000      -13.98       0.000      0.5000E-01   0.000    
    6440   4.098      0.6364E-03 SPRIN         11  -0.0%   36.08      0.1250E-03   0.000      -13.92       0.000      0.5000E-01   0.000    
    6441   4.099      0.6364E-03 SPRIN         11  -0.0%   36.14      0.1250E-03   0.000      -13.86       0.000      0.5000E-01   0.000    
    6442   4.100      0.6364E-03 SPRIN         11  -0.0%   36.20      0.1250E-03   0.000      -13.80       0.000      0.5000E-01   0.000    
    6443   4.100      0.6364E-03 SPRIN         11  -0.0%   36.25      0.1250E-03   0.000      -13.75       0.000      0.5000E-01   0.000    
    6444   4.101      0.6364E-03 SPRIN         11  -0.0%   36.31      0.1250E-03   0.000      -13.69       0.000      0.5000E-01   0.000    
    6445   4.102      0.6364E-03 SPRIN         11  -0.0%   36.37      0.1250E-03   0.000      -13.63       0.000      0.5000E-01   0.000    
    6446   4.102      0.6364E-03 SPRIN         11  -0.0%   36.43      0.1250E-03   0.000      -13.57       0.000      0.5000E-01   0.000    
    6447   4.103      0.6364E-03 SPRIN         11  -0.0%   36.49      0.1250E-03   0.000      -13.51       0.000      0.5000E-01   0.000    
    6448   4.103      0.6364E-03 SPRIN         11  -0.0%   36.55      0.1250E-03   0.000      -13.45       0.000      0.5000E-01   0.000    
    6449   4.104      0.6364E-03 SPRIN         11  -0.0%   36.62      0.1250E-03   0.000      -13.38       0.000      0.5000E-01   0.000    
    6450   4.105      0.6364E-03 SPRIN         11  -0.0%   36.68      0.1250E-03   0.000      -13.32       0.000      0.5000E-01   0.000    
    6451   4.105      0.6364E-03 SPRIN         11  -0.0%   36.74      0.1250E-03   0.000      -13.26       0.000      0.5000E-01   0.000    
    6452   4.106      0.6364E-03 SPRIN         11  -0.0%   36.80      0.1250E-03   0.000      -13.20       0.000      0.5000E-01   0.000    
    6453   4.107      0.6364E-03 SPRIN         11  -0.0%   36.86      0.1250E-03   0.000      -13.14       0.000      0.5000E-01   0.000    
    6454   4.107      0.6364E-03 SPRIN         11  -0.0%   36.93      0.1250E-03   0.000      -13.07       0.000      0.5000E-01   0.000    
    6455   4.108      0.6364E-03 SPRIN         11  -0.0%   36.99      0.1250E-03   0.000      -13.01       0.000      0.5000E-01   0.000    
    6456   4.109      0.6364E-03 SPRIN         11  -0.0%   37.05      0.1250E-03   0.000      -12.95       0.000      0.5000E-01   0.000    
    6457   4.109      0.6364E-03 SPRIN         11  -0.0%   37.12      0.1250E-03   0.000      -12.88       0.000      0.5000E-01   0.000    
    6458   4.110      0.6364E-03 SPRIN         11  -0.0%   37.18      0.1250E-03   0.000      -12.82       0.000      0.5000E-01   0.000    
    6459   4.110      0.6364E-03 SPRIN         11  -0.0%   37.25      0.1250E-03   0.000      -12.75       0.000      0.5000E-01   0.000    
    6460   4.111      0.6364E-03 SPRIN         11  -0.0%   37.31      0.1250E-03   0.000      -12.69       0.000      0.5000E-01   0.000    
    6461   4.112      0.6364E-03 SPRIN         11  -0.0%   37.38      0.1250E-03   0.000      -12.62       0.000      0.5000E-01   0.000    
    6462   4.112      0.6364E-03 SPRIN         11  -0.0%   37.45      0.1250E-03   0.000      -12.55       0.000      0.5000E-01   0.000    
    6463   4.113      0.6364E-03 SPRIN         11  -0.0%   37.51      0.1250E-03   0.000      -12.49       0.000      0.5000E-01   0.000    
    6464   4.114      0.6364E-03 SPRIN         11  -0.0%   37.58      0.1250E-03   0.000      -12.42       0.000      0.5000E-01   0.000    
    6465   4.114      0.6364E-03 SPRIN         11  -0.0%   37.65      0.1250E-03   0.000      -12.35       0.000      0.5000E-01   0.000    
    6466   4.115      0.6364E-03 SPRIN         11  -0.0%   37.72      0.1250E-03   0.000      -12.28       0.000      0.5000E-01   0.000    
    6467   4.116      0.6364E-03 SPRIN         11  -0.0%   37.78      0.1250E-03   0.000      -12.22       0.000      0.5000E-01   0.000    
    6468   4.116      0.6364E-03 SPRIN         11  -0.0%   37.85      0.1250E-03   0.000      -12.15       0.000      0.5000E-01   0.000    
    6469   4.117      0.6364E-03 SPRIN         11  -0.0%   37.92      0.1250E-03   0.000      -12.08       0.000      0.5000E-01   0.000    
    6470   4.117      0.6364E-03 SPRIN         11  -0.0%   37.99      0.1250E-03   0.000      -12.01       0.000      0.5000E-01   0.000    
    6471   4.118      0.6364E-03 SPRIN         11  -0.0%   38.06      0.1250E-03   0.000      -11.94       0.000      0.5000E-01   0.000    
    6472   4.119      0.6364E-03 SPRIN         11  -0.0%   38.13      0.1250E-03   0.000      -11.87       0.000      0.5000E-01   0.000    
    6473   4.119      0.6364E-03 SPRIN         11  -0.0%   38.20      0.1250E-03   0.000      -11.80       0.000      0.5000E-01   0.000    
    6474   4.120      0.6364E-03 SPRIN         11  -0.0%   38.27      0.1250E-03   0.000      -11.73       0.000      0.5000E-01   0.000    
    6475   4.121      0.6364E-03 SPRIN         11  -0.0%   38.35      0.1250E-03   0.000      -11.65       0.000      0.5000E-01   0.000    
    6476   4.121      0.6364E-03 SPRIN         11  -0.0%   38.42      0.1250E-03   0.000      -11.58       0.000      0.5000E-01   0.000    
    6477   4.122      0.6364E-03 SPRIN         11  -0.0%   38.49      0.1250E-03   0.000      -11.51       0.000      0.5000E-01   0.000    
    6478   4.123      0.6364E-03 SPRIN         11  -0.0%   38.56      0.1250E-03   0.000      -11.44       0.000      0.5000E-01   0.000    
    6479   4.123      0.6364E-03 SPRIN         11  -0.0%   38.64      0.1250E-03   0.000      -11.36       0.000      0.5000E-01   0.000    
    6480   4.124      0.6364E-03 SPRIN         11  -0.0%   38.71      0.1250E-03   0.000      -11.29       0.000      0.5000E-01   0.000    
    6481   4.124      0.6364E-03 SPRIN         11  -0.0%   38.78      0.1250E-03   0.000      -11.22       0.000      0.5000E-01   0.000    
    6482   4.125      0.6364E-03 SPRIN         11  -0.0%   38.86      0.1250E-03   0.000      -11.14       0.000      0.5000E-01   0.000    
    6483   4.126      0.6364E-03 SPRIN         11  -0.0%   38.93      0.1250E-03   0.000      -11.07       0.000      0.5000E-01   0.000    
    6484   4.126      0.6364E-03 SPRIN         11  -0.0%   39.01      0.1250E-03   0.000      -10.99       0.000      0.5000E-01   0.000    
    6485   4.127      0.6364E-03 SPRIN         11  -0.0%   39.08      0.1250E-03   0.000      -10.92       0.000      0.5000E-01   0.000    
    6486   4.128      0.6364E-03 SPRIN         11  -0.0%   39.16      0.1250E-03   0.000      -10.84       0.000      0.5000E-01   0.000    
    6487   4.128      0.6364E-03 SPRIN         11  -0.0%   39.24      0.1250E-03   0.000      -10.76       0.000      0.5000E-01   0.000    
    6488   4.129      0.6364E-03 SPRIN         11  -0.0%   39.31      0.1250E-03   0.000      -10.69       0.000      0.5000E-01   0.000    
    6489   4.130      0.6364E-03 SPRIN         11  -0.0%   39.39      0.1250E-03   0.000      -10.61       0.000      0.5000E-01   0.000    
   CYCLE    TIME      TIME-STEP  ELEMENT          ERROR  I-ENERGY    K-ENERGY T  K-ENERGY R  EXT-WORK     MAS.ERR     TOTAL MASS  MASS ADDED
    6490   4.130      0.6364E-03 SPRIN         11  -0.0%   39.47      0.1250E-03   0.000      -10.53       0.000      0.5000E-01   0.000    
    6491   4.131      0.6364E-03 SPRIN         11  -0.0%   39.55      0.1250E-03   0.000      -10.45       0.000      0.5000E-01   0.000    
    6492   4.131      0.6364E-03 SPRIN         11  -0.0%   39.63      0.1250E-03   0.000      -10.37       0.000      0.5000E-01   0.000    
    6493   4.132      0.6364E-03 SPRIN         11  -0.0%   39.70      0.1250E-03   0.000      -10.30       0.000      0.5000E-01   0.000    
    6494   4.133      0.6364E-03 SPRIN         11  -0.0%   39.78      0.1250E-03   0.000      -10.22       0.000      0.5000E-01   0.000    
    6495   4.133      0.6364E-03 SPRIN         11  -0.0%   39.86      0.1250E-03   0.000      -10.14       0.000      0.5000E-01   0.000    
    6496   4.134      0.6364E-03 SPRIN         11  -0.0%   39.94      0.1250E-03   0.000      -10.06       0.000      0.5000E-01   0.000    
    6497   4.135      0.6364E-03 SPRIN         11  -0.0%   40.02      0.1250E-03   0.000      -9.976       0.000      0.5000E-01   0.000    
    6498   4.135      0.6364E-03 SPRIN         11  -0.0%   40.11      0.1250E-03   0.000      -9.895       0.000      0.5000E-01   0.000    
    6499   4.136      0.6364E-03 SPRIN         11  -0.0%   40.19      0.1250E-03   0.000      -9.813       0.000      0.5000E-01   0.000    
    6500   4.137      0.6364E-03 SPRIN         11  -0.0%   40.27      0.1250E-03   0.000      -9.731       0.000      0.5000E-01   0.000    
    6501   4.137      0.6364E-03 SPRIN         11  -0.0%   40.35      0.1250E-03   0.000      -9.649       0.000      0.5000E-01   0.000    
    6502   4.138      0.6364E-03 SPRIN         11  -0.0%   40.43      0.1250E-03   0.000      -9.567       0.000      0.5000E-01   0.000    
    6503   4.138      0.6364E-03 SPRIN         11  -0.0%   40.52      0.1250E-03   0.000      -9.484       0.000      0.5000E-01   0.000    
    6504   4.139      0.6364E-03 SPRIN         11  -0.0%   40.60      0.1250E-03   0.000      -9.400       0.000      0.5000E-01   0.000    
    6505   4.140      0.6364E-03 SPRIN         11  -0.0%   40.68      0.1250E-03   0.000      -9.317       0.000      0.5000E-01   0.000    
    6506   4.140      0.6364E-03 SPRIN         11  -0.0%   40.77      0.1250E-03   0.000      -9.232       0.000      0.5000E-01   0.000    
    6507   4.141      0.6364E-03 SPRIN         11  -0.0%   40.85      0.1250E-03   0.000      -9.148       0.000      0.5000E-01   0.000    
    6508   4.142      0.6364E-03 SPRIN         11  -0.0%   40.94      0.1250E-03   0.000      -9.063       0.000      0.5000E-01   0.000    
    6509   4.142      0.6364E-03 SPRIN         11  -0.0%   41.02      0.1250E-03   0.000      -8.977       0.000      0.5000E-01   0.000    
    6510   4.143      0.6364E-03 SPRIN         11  -0.0%   41.11      0.1250E-03   0.000      -8.892       0.000      0.5000E-01   0.000    
    6511   4.144      0.6364E-03 SPRIN         11  -0.0%   41.19      0.1250E-03   0.000      -8.805       0.000      0.5000E-01   0.000    
    6512   4.144      0.6364E-03 SPRIN         11  -0.0%   41.28      0.1250E-03   0.000      -8.719       0.000      0.5000E-01   0.000    
    6513   4.145      0.6364E-03 SPRIN         11  -0.0%   41.37      0.1250E-03   0.000      -8.632       0.000      0.5000E-01   0.000    
    6514   4.145      0.6364E-03 SPRIN         11  -0.0%   41.46      0.1250E-03   0.000      -8.544       0.000      0.5000E-01   0.000    
    6515   4.146      0.6364E-03 SPRIN         11  -0.0%   41.54      0.1250E-03   0.000      -8.457       0.000      0.5000E-01   0.000    
    6516   4.147      0.6364E-03 SPRIN         11  -0.0%   41.63      0.1250E-03   0.000      -8.368       0.000      0.5000E-01   0.000    
    6517   4.147      0.6364E-03 SPRIN         11  -0.0%   41.72      0.1250E-03   0.000      -8.280       0.000      0.5000E-01   0.000    
    6518   4.148      0.6364E-03 SPRIN         11  -0.0%   41.81      0.1250E-03   0.000      -8.191       0.000      0.5000E-01   0.000    
    6519   4.149      0.6364E-03 SPRIN         11  -0.0%   41.90      0.1250E-03   0.000      -8.101       0.000      0.5000E-01   0.000    
    6520   4.149      0.6364E-03 SPRIN         11  -0.0%   41.99      0.1250E-03   0.000      -8.011       0.000      0.5000E-01   0.000    
    6521   4.150      0.6364E-03 SPRIN         11  -0.0%   42.08      0.1250E-03   0.000      -7.921       0.000      0.5000E-01   0.000    
    6522   4.151      0.6364E-03 SPRIN         11  -0.0%   42.17      0.1250E-03   0.000      -7.830       0.000      0.5000E-01   0.000    
    6523   4.151      0.6364E-03 SPRIN         11  -0.0%   42.26      0.1250E-03   0.000      -7.739       0.000      0.5000E-01   0.000    
    6524   4.152      0.6364E-03 SPRIN         11  -0.0%   42.35      0.1250E-03   0.000      -7.648       0.000      0.5000E-01   0.000    
    6525   4.152      0.6364E-03 SPRIN         11  -0.0%   42.44      0.1250E-03   0.000      -7.556       0.000      0.5000E-01   0.000    
    6526   4.153      0.6364E-03 SPRIN         11  -0.0%   42.54      0.1250E-03   0.000      -7.464       0.000      0.5000E-01   0.000    
    6527   4.154      0.6364E-03 SPRIN         11  -0.0%   42.63      0.1250E-03   0.000      -7.371       0.000      0.5000E-01   0.000    
    6528   4.154      0.6364E-03 SPRIN         11  -0.0%   42.72      0.1250E-03   0.000      -7.278       0.000      0.5000E-01   0.000    
    6529   4.155      0.6364E-03 SPRIN         11  -0.0%   42.82      0.1250E-03   0.000      -7.184       0.000      0.5000E-01   0.000    
    6530   4.156      0.6364E-03 SPRIN         11  -0.0%   42.91      0.1250E-03   0.000      -7.091       0.000      0.5000E-01   0.000    
    6531   4.156      0.6364E-03 SPRIN         11  -0.0%   43.00      0.1250E-03   0.000      -6.996       0.000      0.5000E-01   0.000    
    6532   4.157      0.6364E-03 SPRIN         11  -0.0%   43.10      0.1250E-03   0.000      -6.902       0.000      0.5000E-01   0.000    
    6533   4.158      0.6364E-03 SPRIN         11  -0.0%   43.19      0.1250E-03   0.000      -6.806       0.000      0.5000E-01   0.000    
    6534   4.158      0.6364E-03 SPRIN         11  -0.0%   43.29      0.1250E-03   0.000      -6.711       0.000      0.5000E-01   0.000    
    6535   4.159      0.6364E-03 SPRIN         11  -0.0%   43.38      0.1250E-03   0.000      -6.615       0.000      0.5000E-01   0.000    
    6536   4.159      0.6364E-03 SPRIN         11  -0.0%   43.48      0.1250E-03   0.000      -6.519       0.000      0.5000E-01   0.000    
    6537   4.160      0.6364E-03 SPRIN         11  -0.0%   43.58      0.1250E-03   0.000      -6.422       0.000      0.5000E-01   0.000    
    6538   4.161      0.6364E-03 SPRIN         11  -0.0%   43.68      0.1250E-03   0.000      -6.325       0.000      0.5000E-01   0.000    
    6539   4.161      0.6364E-03 SPRIN         11  -0.0%   43.77      0.1250E-03   0.000      -6.227       0.000      0.5000E-01   0.000    
    6540   4.162      0.6364E-03 SPRIN         11  -0.0%   43.87      0.1250E-03   0.000      -6.129       0.000      0.5000E-01   0.000    
    6541   4.163      0.6364E-03 SPRIN         11  -0.0%   43.97      0.1250E-03   0.000      -6.031       0.000      0.5000E-01   0.000    
    6542   4.163      0.6364E-03 SPRIN         11  -0.0%   44.07      0.1250E-03   0.000      -5.932       0.000      0.5000E-01   0.000    
    6543   4.164      0.6364E-03 SPRIN         11  -0.0%   44.17      0.1250E-03   0.000      -5.833       0.000      0.5000E-01   0.000    
    6544   4.165      0.6364E-03 SPRIN         11  -0.0%   44.27      0.1250E-03   0.000      -5.733       0.000      0.5000E-01   0.000    
   CYCLE    TIME      TIME-STEP  ELEMENT          ERROR  I-ENERGY    K-ENERGY T  K-ENERGY R  EXT-WORK     MAS.ERR     TOTAL MASS  MASS ADDED
    6545   4.165      0.6364E-03 SPRIN         11  -0.0%   44.37      0.1250E-03   0.000      -5.633       0.000      0.5000E-01   0.000    
    6546   4.166      0.6364E-03 SPRIN         11  -0.0%   44.47      0.1250E-03   0.000      -5.533       0.000      0.5000E-01   0.000    
    6547   4.166      0.6364E-03 SPRIN         11  -0.0%   44.57      0.1250E-03   0.000      -5.432       0.000      0.5000E-01   0.000    
    6548   4.167      0.6364E-03 SPRIN         11  -0.0%   44.67      0.1250E-03   0.000      -5.331       0.000      0.5000E-01   0.000    
    6549   4.168      0.6364E-03 SPRIN         11  -0.0%   44.77      0.1250E-03   0.000      -5.229       0.000      0.5000E-01   0.000    
    6550   4.168      0.6364E-03 SPRIN         11  -0.0%   44.87      0.1250E-03   0.000      -5.127       0.000      0.5000E-01   0.000    
    6551   4.169      0.6364E-03 SPRIN         11  -0.0%   44.97      0.1250E-03   0.000      -5.025       0.000      0.5000E-01   0.000    
    6552   4.170      0.6364E-03 SPRIN         11  -0.0%   45.08      0.1250E-03   0.000      -4.922       0.000      0.5000E-01   0.000    
    6553   4.170      0.6364E-03 SPRIN         11  -0.0%   45.18      0.1250E-03   0.000      -4.819       0.000      0.5000E-01   0.000    
    6554   4.171      0.6364E-03 SPRIN         11  -0.0%   45.28      0.1250E-03   0.000      -4.715       0.000      0.5000E-01   0.000    
    6555   4.172      0.6364E-03 SPRIN         11  -0.0%   45.39      0.1250E-03   0.000      -4.611       0.000      0.5000E-01   0.000    
    6556   4.172      0.6364E-03 SPRIN         11  -0.0%   45.49      0.1250E-03   0.000      -4.507       0.000      0.5000E-01   0.000    
    6557   4.173      0.6364E-03 SPRIN         11  -0.0%   45.60      0.1250E-03   0.000      -4.402       0.000      0.5000E-01   0.000    
    6558   4.173      0.6364E-03 SPRIN         11  -0.0%   45.70      0.1250E-03   0.000      -4.297       0.000      0.5000E-01   0.000    
    6559   4.174      0.6364E-03 SPRIN         11  -0.0%   45.81      0.1250E-03   0.000      -4.191       0.000      0.5000E-01   0.000    
    6560   4.175      0.6364E-03 SPRIN         11  -0.0%   45.91      0.1250E-03   0.000      -4.085       0.000      0.5000E-01   0.000    
    6561   4.175      0.6364E-03 SPRIN         11  -0.0%   46.02      0.1250E-03   0.000      -3.979       0.000      0.5000E-01   0.000    
    6562   4.176      0.6364E-03 SPRIN         11  -0.0%   46.13      0.1250E-03   0.000      -3.872       0.000      0.5000E-01   0.000    
    6563   4.177      0.6364E-03 SPRIN         11  -0.0%   46.24      0.1250E-03   0.000      -3.765       0.000      0.5000E-01   0.000    
    6564   4.177      0.6364E-03 SPRIN         11  -0.0%   46.34      0.1250E-03   0.000      -3.657       0.000      0.5000E-01   0.000    
    6565   4.178      0.6364E-03 SPRIN         11  -0.0%   46.45      0.1250E-03   0.000      -3.549       0.000      0.5000E-01   0.000    
    6566   4.179      0.6364E-03 SPRIN         11  -0.0%   46.56      0.1250E-03   0.000      -3.440       0.000      0.5000E-01   0.000    
    6567   4.179      0.6364E-03 SPRIN         11  -0.0%   46.67      0.1250E-03   0.000      -3.331       0.000      0.5000E-01   0.000    
    6568   4.180      0.6364E-03 SPRIN         11  -0.0%   46.78      0.1250E-03   0.000      -3.222       0.000      0.5000E-01   0.000    
    6569   4.180      0.6364E-03 SPRIN         11  -0.0%   46.89      0.1250E-03   0.000      -3.112       0.000      0.5000E-01   0.000    
    6570   4.181      0.6364E-03 SPRIN         11  -0.0%   47.00      0.1250E-03   0.000      -3.002       0.000      0.5000E-01   0.000    
    6571   4.182      0.6364E-03 SPRIN         11  -0.0%   47.11      0.1250E-03   0.000      -2.892       0.000      0.5000E-01   0.000    
    6572   4.182      0.6364E-03 SPRIN         11  -0.0%   47.22      0.1250E-03   0.000      -2.781       0.000      0.5000E-01   0.000    
    6573   4.183      0.6364E-03 SPRIN         11  -0.0%   47.33      0.1250E-03   0.000      -2.670       0.000      0.5000E-01   0.000    
    6574   4.184      0.6364E-03 SPRIN         11  -0.0%   47.44      0.1250E-03   0.000      -2.558       0.000      0.5000E-01   0.000    
    6575   4.184      0.6364E-03 SPRIN         11  -0.0%   47.55      0.1250E-03   0.000      -2.446       0.000      0.5000E-01   0.000    
    6576   4.185      0.6364E-03 SPRIN         11  -0.0%   47.67      0.1250E-03   0.000      -2.333       0.000      0.5000E-01   0.000    
    6577   4.186      0.6364E-03 SPRIN         11  -0.0%   47.78      0.1250E-03   0.000      -2.220       0.000      0.5000E-01   0.000    
    6578   4.186      0.6364E-03 SPRIN         11  -0.0%   47.89      0.1250E-03   0.000      -2.107       0.000      0.5000E-01   0.000    
    6579   4.187      0.6364E-03 SPRIN         11  -0.0%   48.01      0.1250E-03   0.000      -1.993       0.000      0.5000E-01   0.000    
    6580   4.187      0.6364E-03 SPRIN         11  -0.0%   48.12      0.1250E-03   0.000      -1.879       0.000      0.5000E-01   0.000    
    6581   4.188      0.6364E-03 SPRIN         11  -0.0%   48.24      0.1250E-03   0.000      -1.764       0.000      0.5000E-01   0.000    
    6582   4.189      0.6364E-03 SPRIN         11  -0.0%   48.35      0.1250E-03   0.000      -1.649       0.000      0.5000E-01   0.000    
    6583   4.189      0.6364E-03 SPRIN         11  -0.0%   48.47      0.1250E-03   0.000      -1.534       0.000      0.5000E-01   0.000    
    6584   4.190      0.6364E-03 SPRIN         11  -0.0%   48.58      0.1250E-03   0.000      -1.418       0.000      0.5000E-01   0.000    
    6585   4.191      0.6364E-03 SPRIN         11  -0.0%   48.70      0.1250E-03   0.000      -1.302       0.000      0.5000E-01   0.000    
    6586   4.191      0.6364E-03 SPRIN         11  -0.0%   48.81      0.1250E-03   0.000      -1.186       0.000      0.5000E-01   0.000    
    6587   4.192      0.6364E-03 SPRIN         11  -0.0%   48.93      0.1250E-03   0.000      -1.069       0.000      0.5000E-01   0.000    
    6588   4.193      0.6364E-03 SPRIN         11  -0.0%   49.05      0.1250E-03   0.000     -0.9512       0.000      0.5000E-01   0.000    
    6589   4.193      0.6364E-03 SPRIN         11  -0.0%   49.17      0.1250E-03   0.000     -0.8334       0.000      0.5000E-01   0.000    
    6590   4.194      0.6364E-03 SPRIN         11  -0.0%   49.28      0.1250E-03   0.000     -0.7152       0.000      0.5000E-01   0.000    
    6591   4.194      0.6364E-03 SPRIN         11  -0.0%   49.40      0.1250E-03   0.000     -0.5966       0.000      0.5000E-01   0.000    
    6592   4.195      0.6364E-03 SPRIN         11  -0.0%   49.52      0.1250E-03   0.000     -0.4776       0.000      0.5000E-01   0.000    
    6593   4.196      0.6364E-03 SPRIN         11  -0.0%   49.64      0.1250E-03   0.000     -0.3581       0.000      0.5000E-01   0.000    
    6594   4.196      0.6364E-03 SPRIN         11  -0.0%   49.76      0.1250E-03   0.000     -0.2383       0.000      0.5000E-01   0.000    
    6595   4.197      0.6364E-03 SPRIN         11  -0.0%   49.88      0.1250E-03   0.000     -0.1181       0.000      0.5000E-01   0.000    
    6596   4.198      0.6364E-03 SPRIN         11  -0.0%   50.00      0.1250E-03   0.000      0.2537E-02   0.000      0.5000E-01   0.000    
    6597   4.198      0.6364E-03 SPRIN         11  -0.0%   50.12      0.1250E-03   0.000      0.1236       0.000      0.5000E-01   0.000    
    6598   4.199      0.6364E-03 SPRIN         11  -0.0%   50.24      0.1250E-03   0.000      0.2450       0.000      0.5000E-01   0.000    
    6599   4.200      0.6364E-03 SPRIN         11  -0.0%   50.37      0.1250E-03   0.000      0.3669       0.000      0.5000E-01   0.000    
   CYCLE    TIME      TIME-STEP  ELEMENT          ERROR  I-ENERGY    K-ENERGY T  K-ENERGY R  EXT-WORK     MAS.ERR     TOTAL MASS  MASS ADDED
    6600   4.200      0.6364E-03 SPRIN         11  -0.0%   50.49      0.1250E-03   0.000      0.4891       0.000      0.5000E-01   0.000    
     ANIMATION FILE: SPR_PRE_2FLAGA022 WRITTEN
    6601   4.201      0.6364E-03 SPRIN         11  -0.0%   50.61      0.1250E-03   0.000      0.6118       0.000      0.5000E-01   0.000    
    6602   4.201      0.6364E-03 SPRIN         11  -0.0%   50.73      0.1250E-03   0.000      0.7348       0.000      0.5000E-01   0.000    
    6603   4.202      0.6364E-03 SPRIN         11  -0.0%   50.86      0.1250E-03   0.000      0.8583       0.000      0.5000E-01   0.000    
    6604   4.203      0.6364E-03 SPRIN         11  -0.0%   50.98      0.1250E-03   0.000      0.9822       0.000      0.5000E-01   0.000    
    6605   4.203      0.6364E-03 SPRIN         11  -0.0%   51.11      0.1250E-03   0.000       1.106       0.000      0.5000E-01   0.000    
    6606   4.204      0.6364E-03 SPRIN         11  -0.0%   51.23      0.1250E-03   0.000       1.231       0.000      0.5000E-01   0.000    
    6607   4.205      0.6364E-03 SPRIN         11  -0.0%   51.36      0.1250E-03   0.000       1.356       0.000      0.5000E-01   0.000    
    6608   4.205      0.6364E-03 SPRIN         11  -0.0%   51.48      0.1250E-03   0.000       1.482       0.000      0.5000E-01   0.000    
    6609   4.206      0.6364E-03 SPRIN         11  -0.0%   51.61      0.1250E-03   0.000       1.608       0.000      0.5000E-01   0.000    
    6610   4.207      0.6364E-03 SPRIN         11  -0.0%   51.73      0.1250E-03   0.000       1.734       0.000      0.5000E-01   0.000    
    6611   4.207      0.6364E-03 SPRIN         11  -0.0%   51.86      0.1250E-03   0.000       1.861       0.000      0.5000E-01   0.000    
    6612   4.208      0.6364E-03 SPRIN         11  -0.0%   51.99      0.1250E-03   0.000       1.988       0.000      0.5000E-01   0.000    
    6613   4.208      0.6364E-03 SPRIN         11  -0.0%   52.12      0.1250E-03   0.000       2.115       0.000      0.5000E-01   0.000    
    6614   4.209      0.6364E-03 SPRIN         11  -0.0%   52.24      0.1250E-03   0.000       2.243       0.000      0.5000E-01   0.000    
    6615   4.210      0.6364E-03 SPRIN         11  -0.0%   52.37      0.1250E-03   0.000       2.372       0.000      0.5000E-01   0.000    
    6616   4.210      0.6364E-03 SPRIN         11  -0.0%   52.50      0.1250E-03   0.000       2.500       0.000      0.5000E-01   0.000    
    6617   4.211      0.6364E-03 SPRIN         11  -0.0%   52.63      0.1250E-03   0.000       2.629       0.000      0.5000E-01   0.000    
    6618   4.212      0.6364E-03 SPRIN         11  -0.0%   52.76      0.1250E-03   0.000       2.759       0.000      0.5000E-01   0.000    
    6619   4.212      0.6364E-03 SPRIN         11  -0.0%   52.89      0.1250E-03   0.000       2.889       0.000      0.5000E-01   0.000    
    6620   4.213      0.6364E-03 SPRIN         11  -0.0%   53.02      0.1250E-03   0.000       3.019       0.000      0.5000E-01   0.000    
    6621   4.214      0.6364E-03 SPRIN         11  -0.0%   53.15      0.1250E-03   0.000       3.150       0.000      0.5000E-01   0.000    
    6622   4.214      0.6364E-03 SPRIN         11  -0.0%   53.28      0.1250E-03   0.000       3.281       0.000      0.5000E-01   0.000    
    6623   4.215      0.6364E-03 SPRIN         11  -0.0%   53.41      0.1250E-03   0.000       3.413       0.000      0.5000E-01   0.000    
    6624   4.215      0.6364E-03 SPRIN         11  -0.0%   53.54      0.1250E-03   0.000       3.545       0.000      0.5000E-01   0.000    
    6625   4.216      0.6364E-03 SPRIN         11  -0.0%   53.68      0.1250E-03   0.000       3.677       0.000      0.5000E-01   0.000    
    6626   4.217      0.6364E-03 SPRIN         11  -0.0%   53.81      0.1250E-03   0.000       3.810       0.000      0.5000E-01   0.000    
    6627   4.217      0.6364E-03 SPRIN         11  -0.0%   53.94      0.1250E-03   0.000       3.943       0.000      0.5000E-01   0.000    
    6628   4.218      0.6364E-03 SPRIN         11  -0.0%   54.08      0.1250E-03   0.000       4.077       0.000      0.5000E-01   0.000    
    6629   4.219      0.6364E-03 SPRIN         11  -0.0%   54.21      0.1250E-03   0.000       4.211       0.000      0.5000E-01   0.000    
    6630   4.219      0.6364E-03 SPRIN         11  -0.0%   54.34      0.1250E-03   0.000       4.345       0.000      0.5000E-01   0.000    
    6631   4.220      0.6364E-03 SPRIN         11  -0.0%   54.48      0.1250E-03   0.000       4.480       0.000      0.5000E-01   0.000    
    6632   4.221      0.6364E-03 SPRIN         11  -0.0%   54.61      0.1250E-03   0.000       4.615       0.000      0.5000E-01   0.000    
    6633   4.221      0.6364E-03 SPRIN         11  -0.0%   54.75      0.1250E-03   0.000       4.751       0.000      0.5000E-01   0.000    
    6634   4.222      0.6364E-03 SPRIN         11  -0.0%   54.89      0.1250E-03   0.000       4.887       0.000      0.5000E-01   0.000    
    6635   4.222      0.6364E-03 SPRIN         11  -0.0%   55.02      0.1250E-03   0.000       5.023       0.000      0.5000E-01   0.000    
    6636   4.223      0.6364E-03 SPRIN         11  -0.0%   55.16      0.1250E-03   0.000       5.160       0.000      0.5000E-01   0.000    
    6637   4.224      0.6364E-03 SPRIN         11  -0.0%   55.30      0.1250E-03   0.000       5.297       0.000      0.5000E-01   0.000    
    6638   4.224      0.6364E-03 SPRIN         11  -0.0%   55.43      0.1250E-03   0.000       5.435       0.000      0.5000E-01   0.000    
    6639   4.225      0.6364E-03 SPRIN         11  -0.0%   55.57      0.1250E-03   0.000       5.573       0.000      0.5000E-01   0.000    
    6640   4.226      0.6364E-03 SPRIN         11  -0.0%   55.71      0.1250E-03   0.000       5.711       0.000      0.5000E-01   0.000    
    6641   4.226      0.6364E-03 SPRIN         11  -0.0%   55.85      0.1250E-03   0.000       5.850       0.000      0.5000E-01   0.000    
    6642   4.227      0.6364E-03 SPRIN         11  -0.0%   55.99      0.1250E-03   0.000       5.989       0.000      0.5000E-01   0.000    
    6643   4.228      0.6364E-03 SPRIN         11  -0.0%   56.13      0.1250E-03   0.000       6.129       0.000      0.5000E-01   0.000    
    6644   4.228      0.6364E-03 SPRIN         11  -0.0%   56.27      0.1250E-03   0.000       6.269       0.000      0.5000E-01   0.000    
    6645   4.229      0.6364E-03 SPRIN         11  -0.0%   56.41      0.1250E-03   0.000       6.410       0.000      0.5000E-01   0.000    
    6646   4.229      0.6364E-03 SPRIN         11  -0.0%   56.55      0.1250E-03   0.000       6.551       0.000      0.5000E-01   0.000    
    6647   4.230      0.6364E-03 SPRIN         11  -0.0%   56.69      0.1250E-03   0.000       6.692       0.000      0.5000E-01   0.000    
    6648   4.231      0.6364E-03 SPRIN         11  -0.0%   56.83      0.1250E-03   0.000       6.834       0.000      0.5000E-01   0.000    
    6649   4.231      0.6364E-03 SPRIN         11  -0.0%   56.98      0.1250E-03   0.000       6.976       0.000      0.5000E-01   0.000    
    6650   4.232      0.6364E-03 SPRIN         11  -0.0%   57.12      0.1250E-03   0.000       7.118       0.000      0.5000E-01   0.000    
    6651   4.233      0.6364E-03 SPRIN         11  -0.0%   57.26      0.1250E-03   0.000       7.261       0.000      0.5000E-01   0.000    
    6652   4.233      0.6364E-03 SPRIN         11  -0.0%   57.40      0.1250E-03   0.000       7.404       0.000      0.5000E-01   0.000    
    6653   4.234      0.6364E-03 SPRIN         11  -0.0%   57.55      0.1250E-03   0.000       7.548       0.000      0.5000E-01   0.000    
    6654   4.235      0.6364E-03 SPRIN         11  -0.0%   57.69      0.1250E-03   0.000       7.692       0.000      0.5000E-01   0.000    
   CYCLE    TIME      TIME-STEP  ELEMENT          ERROR  I-ENERGY    K-ENERGY T  K-ENERGY R  EXT-WORK     MAS.ERR     TOTAL MASS  MASS ADDED
    6655   4.235      0.6364E-03 SPRIN         11  -0.0%   57.84      0.1250E-03   0.000       7.837       0.000      0.5000E-01   0.000    
    6656   4.236      0.6364E-03 SPRIN         11  -0.0%   57.98      0.1250E-03   0.000       7.982       0.000      0.5000E-01   0.000    
    6657   4.236      0.6364E-03 SPRIN         11  -0.0%   58.13      0.1250E-03   0.000       8.127       0.000      0.5000E-01   0.000    
    6658   4.237      0.6364E-03 SPRIN         11  -0.0%   58.27      0.1250E-03   0.000       8.273       0.000      0.5000E-01   0.000    
    6659   4.238      0.6364E-03 SPRIN         11  -0.0%   58.42      0.1250E-03   0.000       8.419       0.000      0.5000E-01   0.000    
    6660   4.238      0.6364E-03 SPRIN         11  -0.0%   58.57      0.1250E-03   0.000       8.565       0.000      0.5000E-01   0.000    
    6661   4.239      0.6364E-03 SPRIN         11  -0.0%   58.71      0.1250E-03   0.000       8.712       0.000      0.5000E-01   0.000    
    6662   4.240      0.6364E-03 SPRIN         11  -0.0%   58.86      0.1250E-03   0.000       8.860       0.000      0.5000E-01   0.000    
    6663   4.240      0.6364E-03 SPRIN         11  -0.0%   59.01      0.1250E-03   0.000       9.008       0.000      0.5000E-01   0.000    
    6664   4.241      0.6364E-03 SPRIN         11  -0.0%   59.16      0.1250E-03   0.000       9.156       0.000      0.5000E-01   0.000    
    6665   4.242      0.6364E-03 SPRIN         11  -0.0%   59.30      0.1250E-03   0.000       9.304       0.000      0.5000E-01   0.000    
    6666   4.242      0.6364E-03 SPRIN         11  -0.0%   59.45      0.1250E-03   0.000       9.453       0.000      0.5000E-01   0.000    
    6667   4.243      0.6364E-03 SPRIN         11  -0.0%   59.60      0.1250E-03   0.000       9.603       0.000      0.5000E-01   0.000    
    6668   4.243      0.6364E-03 SPRIN         11  -0.0%   59.75      0.1250E-03   0.000       9.752       0.000      0.5000E-01   0.000    
    6669   4.244      0.6364E-03 SPRIN         11  -0.0%   59.90      0.1250E-03   0.000       9.903       0.000      0.5000E-01   0.000    
    6670   4.245      0.6364E-03 SPRIN         11  -0.0%   60.05      0.1250E-03   0.000       10.05       0.000      0.5000E-01   0.000    
    6671   4.245      0.6364E-03 SPRIN         11  -0.0%   60.20      0.1250E-03   0.000       10.20       0.000      0.5000E-01   0.000    
    6672   4.246      0.6364E-03 SPRIN         11  -0.0%   60.36      0.1250E-03   0.000       10.36       0.000      0.5000E-01   0.000    
    6673   4.247      0.6364E-03 SPRIN         11  -0.0%   60.51      0.1250E-03   0.000       10.51       0.000      0.5000E-01   0.000    
    6674   4.247      0.6364E-03 SPRIN         11  -0.0%   60.66      0.1250E-03   0.000       10.66       0.000      0.5000E-01   0.000    
    6675   4.248      0.6364E-03 SPRIN         11  -0.0%   60.81      0.1250E-03   0.000       10.81       0.000      0.5000E-01   0.000    
    6676   4.249      0.6364E-03 SPRIN         11  -0.0%   60.97      0.1250E-03   0.000       10.97       0.000      0.5000E-01   0.000    
    6677   4.249      0.6364E-03 SPRIN         11  -0.0%   61.12      0.1250E-03   0.000       11.12       0.000      0.5000E-01   0.000    
    6678   4.250      0.6364E-03 SPRIN         11  -0.0%   61.27      0.1250E-03   0.000       11.27       0.000      0.5000E-01   0.000    
    6679   4.250      0.6364E-03 SPRIN         11  -0.0%   61.43      0.1250E-03   0.000       11.43       0.000      0.5000E-01   0.000    
    6680   4.251      0.6364E-03 SPRIN         11  -0.0%   61.58      0.1250E-03   0.000       11.58       0.000      0.5000E-01   0.000    
    6681   4.252      0.6364E-03 SPRIN         11  -0.0%   61.74      0.1250E-03   0.000       11.74       0.000      0.5000E-01   0.000    
    6682   4.252      0.6364E-03 SPRIN         11  -0.0%   61.89      0.1250E-03   0.000       11.89       0.000      0.5000E-01   0.000    
    6683   4.253      0.6364E-03 SPRIN         11  -0.0%   62.05      0.1250E-03   0.000       12.05       0.000      0.5000E-01   0.000    
    6684   4.254      0.6364E-03 SPRIN         11  -0.0%   62.20      0.1250E-03   0.000       12.20       0.000      0.5000E-01   0.000    
    6685   4.254      0.6364E-03 SPRIN         11  -0.0%   62.36      0.1250E-03   0.000       12.36       0.000      0.5000E-01   0.000    
    6686   4.255      0.6364E-03 SPRIN         11  -0.0%   62.52      0.1250E-03   0.000       12.52       0.000      0.5000E-01   0.000    
    6687   4.256      0.6364E-03 SPRIN         11  -0.0%   62.68      0.1250E-03   0.000       12.68       0.000      0.5000E-01   0.000    
    6688   4.256      0.6364E-03 SPRIN         11  -0.0%   62.83      0.1250E-03   0.000       12.83       0.000      0.5000E-01   0.000    
    6689   4.257      0.6364E-03 SPRIN         11  -0.0%   62.99      0.1250E-03   0.000       12.99       0.000      0.5000E-01   0.000    
    6690   4.257      0.6364E-03 SPRIN         11  -0.0%   63.15      0.1250E-03   0.000       13.15       0.000      0.5000E-01   0.000    
    6691   4.258      0.6364E-03 SPRIN         11  -0.0%   63.31      0.1250E-03   0.000       13.31       0.000      0.5000E-01   0.000    
    6692   4.259      0.6364E-03 SPRIN         11  -0.0%   63.47      0.1250E-03   0.000       13.47       0.000      0.5000E-01   0.000    
    6693   4.259      0.6364E-03 SPRIN         11  -0.0%   63.63      0.1250E-03   0.000       13.63       0.000      0.5000E-01   0.000    
    6694   4.260      0.6364E-03 SPRIN         11  -0.0%   63.79      0.1250E-03   0.000       13.79       0.000      0.5000E-01   0.000    
    6695   4.261      0.6364E-03 SPRIN         11  -0.0%   63.95      0.1250E-03   0.000       13.95       0.000      0.5000E-01   0.000    
    6696   4.261      0.6364E-03 SPRIN         11  -0.0%   64.11      0.1250E-03   0.000       14.11       0.000      0.5000E-01   0.000    
    6697   4.262      0.6364E-03 SPRIN         11  -0.0%   64.27      0.1250E-03   0.000       14.27       0.000      0.5000E-01   0.000    
    6698   4.263      0.6364E-03 SPRIN         11  -0.0%   64.43      0.1250E-03   0.000       14.43       0.000      0.5000E-01   0.000    
    6699   4.263      0.6364E-03 SPRIN         11  -0.0%   64.60      0.1250E-03   0.000       14.60       0.000      0.5000E-01   0.000    
    6700   4.264      0.6364E-03 SPRIN         11  -0.0%   64.76      0.1250E-03   0.000       14.76       0.000      0.5000E-01   0.000    
    6701   4.264      0.6364E-03 SPRIN         11  -0.0%   64.92      0.1250E-03   0.000       14.92       0.000      0.5000E-01   0.000    
    6702   4.265      0.6364E-03 SPRIN         11  -0.0%   65.09      0.1250E-03   0.000       15.09       0.000      0.5000E-01   0.000    
    6703   4.266      0.6364E-03 SPRIN         11  -0.0%   65.25      0.1250E-03   0.000       15.25       0.000      0.5000E-01   0.000    
    6704   4.266      0.6364E-03 SPRIN         11  -0.0%   65.41      0.1250E-03   0.000       15.41       0.000      0.5000E-01   0.000    
    6705   4.267      0.6364E-03 SPRIN         11  -0.0%   65.58      0.1250E-03   0.000       15.58       0.000      0.5000E-01   0.000    
    6706   4.268      0.6364E-03 SPRIN         11  -0.0%   65.74      0.1250E-03   0.000       15.74       0.000      0.5000E-01   0.000    
    6707   4.268      0.6364E-03 SPRIN         11  -0.0%   65.91      0.1250E-03   0.000       15.91       0.000      0.5000E-01   0.000    
    6708   4.269      0.6364E-03 SPRIN         11  -0.0%   66.08      0.1250E-03   0.000       16.08       0.000      0.5000E-01   0.000    
    6709   4.270      0.6364E-03 SPRIN         11  -0.0%   66.24      0.1250E-03   0.000       16.24       0.000      0.5000E-01   0.000    
   CYCLE    TIME      TIME-STEP  ELEMENT          ERROR  I-ENERGY    K-ENERGY T  K-ENERGY R  EXT-WORK     MAS.ERR     TOTAL MASS  MASS ADDED
    6710   4.270      0.6364E-03 SPRIN         11  -0.0%   66.41      0.1250E-03   0.000       16.41       0.000      0.5000E-01   0.000    
    6711   4.271      0.6364E-03 SPRIN         11  -0.0%   66.58      0.1250E-03   0.000       16.58       0.000      0.5000E-01   0.000    
    6712   4.271      0.6364E-03 SPRIN         11  -0.0%   66.74      0.1250E-03   0.000       16.74       0.000      0.5000E-01   0.000    
    6713   4.272      0.6364E-03 SPRIN         11  -0.0%   66.91      0.1250E-03   0.000       16.91       0.000      0.5000E-01   0.000    
    6714   4.273      0.6364E-03 SPRIN         11  -0.0%   67.08      0.1250E-03   0.000       17.08       0.000      0.5000E-01   0.000    
    6715   4.273      0.6364E-03 SPRIN         11  -0.0%   67.25      0.1250E-03   0.000       17.25       0.000      0.5000E-01   0.000    
    6716   4.274      0.6364E-03 SPRIN         11  -0.0%   67.42      0.1250E-03   0.000       17.42       0.000      0.5000E-01   0.000    
    6717   4.275      0.6364E-03 SPRIN         11  -0.0%   67.59      0.1250E-03   0.000       17.59       0.000      0.5000E-01   0.000    
    6718   4.275      0.6364E-03 SPRIN         11  -0.0%   67.76      0.1250E-03   0.000       17.76       0.000      0.5000E-01   0.000    
    6719   4.276      0.6364E-03 SPRIN         11  -0.0%   67.93      0.1250E-03   0.000       17.93       0.000      0.5000E-01   0.000    
    6720   4.277      0.6364E-03 SPRIN         11  -0.0%   68.10      0.1250E-03   0.000       18.10       0.000      0.5000E-01   0.000    
    6721   4.277      0.6364E-03 SPRIN         11  -0.0%   68.27      0.1250E-03   0.000       18.27       0.000      0.5000E-01   0.000    
    6722   4.278      0.6364E-03 SPRIN         11  -0.0%   68.44      0.1250E-03   0.000       18.44       0.000      0.5000E-01   0.000    
    6723   4.278      0.6364E-03 SPRIN         11  -0.0%   68.61      0.1250E-03   0.000       18.61       0.000      0.5000E-01   0.000    
    6724   4.279      0.6364E-03 SPRIN         11  -0.0%   68.79      0.1250E-03   0.000       18.79       0.000      0.5000E-01   0.000    
    6725   4.280      0.6364E-03 SPRIN         11  -0.0%   68.96      0.1250E-03   0.000       18.96       0.000      0.5000E-01   0.000    
    6726   4.280      0.6364E-03 SPRIN         11  -0.0%   69.13      0.1250E-03   0.000       19.13       0.000      0.5000E-01   0.000    
    6727   4.281      0.6364E-03 SPRIN         11  -0.0%   69.31      0.1250E-03   0.000       19.31       0.000      0.5000E-01   0.000    
    6728   4.282      0.6364E-03 SPRIN         11  -0.0%   69.48      0.1250E-03   0.000       19.48       0.000      0.5000E-01   0.000    
    6729   4.282      0.6364E-03 SPRIN         11  -0.0%   69.66      0.1250E-03   0.000       19.66       0.000      0.5000E-01   0.000    
    6730   4.283      0.6364E-03 SPRIN         11  -0.0%   69.83      0.1250E-03   0.000       19.83       0.000      0.5000E-01   0.000    
    6731   4.284      0.6364E-03 SPRIN         11  -0.0%   70.01      0.1250E-03   0.000       20.01       0.000      0.5000E-01   0.000    
    6732   4.284      0.6364E-03 SPRIN         11  -0.0%   70.18      0.1250E-03   0.000       20.18       0.000      0.5000E-01   0.000    
    6733   4.285      0.6364E-03 SPRIN         11  -0.0%   70.36      0.1250E-03   0.000       20.36       0.000      0.5000E-01   0.000    
    6734   4.285      0.6364E-03 SPRIN         11  -0.0%   70.53      0.1250E-03   0.000       20.53       0.000      0.5000E-01   0.000    
    6735   4.286      0.6364E-03 SPRIN         11  -0.0%   70.71      0.1250E-03   0.000       20.71       0.000      0.5000E-01   0.000    
    6736   4.287      0.6364E-03 SPRIN         11  -0.0%   70.89      0.1250E-03   0.000       20.89       0.000      0.5000E-01   0.000    
    6737   4.287      0.6364E-03 SPRIN         11  -0.0%   71.07      0.1250E-03   0.000       21.07       0.000      0.5000E-01   0.000    
    6738   4.288      0.6364E-03 SPRIN         11  -0.0%   71.24      0.1250E-03   0.000       21.24       0.000      0.5000E-01   0.000    
    6739   4.289      0.6364E-03 SPRIN         11  -0.0%   71.42      0.1250E-03   0.000       21.42       0.000      0.5000E-01   0.000    
    6740   4.289      0.6364E-03 SPRIN         11  -0.0%   71.60      0.1250E-03   0.000       21.60       0.000      0.5000E-01   0.000    
    6741   4.290      0.6364E-03 SPRIN         11  -0.0%   71.78      0.1250E-03   0.000       21.78       0.000      0.5000E-01   0.000    
    6742   4.291      0.6364E-03 SPRIN         11  -0.0%   71.96      0.1250E-03   0.000       21.96       0.000      0.5000E-01   0.000    
    6743   4.291      0.6364E-03 SPRIN         11  -0.0%   72.14      0.1250E-03   0.000       22.14       0.000      0.5000E-01   0.000    
    6744   4.292      0.6364E-03 SPRIN         11  -0.0%   72.32      0.1250E-03   0.000       22.32       0.000      0.5000E-01   0.000    
    6745   4.292      0.6364E-03 SPRIN         11  -0.0%   72.50      0.1250E-03   0.000       22.50       0.000      0.5000E-01   0.000    
    6746   4.293      0.6364E-03 SPRIN         11  -0.0%   72.68      0.1250E-03   0.000       22.68       0.000      0.5000E-01   0.000    
    6747   4.294      0.6364E-03 SPRIN         11  -0.0%   72.87      0.1250E-03   0.000       22.87       0.000      0.5000E-01   0.000    
    6748   4.294      0.6364E-03 SPRIN         11  -0.0%   73.05      0.1250E-03   0.000       23.05       0.000      0.5000E-01   0.000    
    6749   4.295      0.6364E-03 SPRIN         11  -0.0%   73.23      0.1250E-03   0.000       23.23       0.000      0.5000E-01   0.000    
    6750   4.296      0.6364E-03 SPRIN         11  -0.0%   73.41      0.1250E-03   0.000       23.41       0.000      0.5000E-01   0.000    
    6751   4.296      0.6364E-03 SPRIN         11  -0.0%   73.60      0.1250E-03   0.000       23.60       0.000      0.5000E-01   0.000    
    6752   4.297      0.6364E-03 SPRIN         11  -0.0%   73.78      0.1250E-03   0.000       23.78       0.000      0.5000E-01   0.000    
    6753   4.298      0.6364E-03 SPRIN         11  -0.0%   73.97      0.1250E-03   0.000       23.97       0.000      0.5000E-01   0.000    
    6754   4.298      0.6364E-03 SPRIN         11  -0.0%   74.15      0.1250E-03   0.000       24.15       0.000      0.5000E-01   0.000    
    6755   4.299      0.6364E-03 SPRIN         11  -0.0%   74.33      0.1250E-03   0.000       24.33       0.000      0.5000E-01   0.000    
    6756   4.299      0.6364E-03 SPRIN         11  -0.0%   74.52      0.1250E-03   0.000       24.52       0.000      0.5000E-01   0.000    
    6757   4.300      0.6364E-03 SPRIN         11  -0.0%   74.71      0.1250E-03   0.000       24.71       0.000      0.5000E-01   0.000    
    6758   4.301      0.6364E-03 SPRIN         11  -0.0%   74.89      0.1250E-03   0.000       24.89       0.000      0.5000E-01   0.000    
    6759   4.301      0.6364E-03 SPRIN         11  -0.0%   75.08      0.1250E-03   0.000       25.08       0.000      0.5000E-01   0.000    
    6760   4.302      0.6364E-03 SPRIN         11  -0.0%   75.27      0.1250E-03   0.000       25.27       0.000      0.5000E-01   0.000    
    6761   4.303      0.6364E-03 SPRIN         11  -0.0%   75.45      0.1250E-03   0.000       25.45       0.000      0.5000E-01   0.000    
    6762   4.303      0.6364E-03 SPRIN         11  -0.0%   75.64      0.1250E-03   0.000       25.64       0.000      0.5000E-01   0.000    
    6763   4.304      0.6364E-03 SPRIN         11  -0.0%   75.83      0.1250E-03   0.000       25.83       0.000      0.5000E-01   0.000    
    6764   4.305      0.6364E-03 SPRIN         11  -0.0%   76.02      0.1250E-03   0.000       26.02       0.000      0.5000E-01   0.000    
   CYCLE    TIME      TIME-STEP  ELEMENT          ERROR  I-ENERGY    K-ENERGY T  K-ENERGY R  EXT-WORK     MAS.ERR     TOTAL MASS  MASS ADDED
    6765   4.305      0.6364E-03 SPRIN         11  -0.0%   76.21      0.1250E-03   0.000       26.21       0.000      0.5000E-01   0.000    
    6766   4.306      0.6364E-03 SPRIN         11  -0.0%   76.40      0.1250E-03   0.000       26.40       0.000      0.5000E-01   0.000    
    6767   4.306      0.6364E-03 SPRIN         11  -0.0%   76.59      0.1250E-03   0.000       26.59       0.000      0.5000E-01   0.000    
    6768   4.307      0.6364E-03 SPRIN         11  -0.0%   76.78      0.1250E-03   0.000       26.78       0.000      0.5000E-01   0.000    
    6769   4.308      0.6364E-03 SPRIN         11  -0.0%   76.97      0.1250E-03   0.000       26.97       0.000      0.5000E-01   0.000    
    6770   4.308      0.6364E-03 SPRIN         11  -0.0%   77.16      0.1250E-03   0.000       27.16       0.000      0.5000E-01   0.000    
    6771   4.309      0.6364E-03 SPRIN         11  -0.0%   77.35      0.1250E-03   0.000       27.35       0.000      0.5000E-01   0.000    
    6772   4.310      0.6364E-03 SPRIN         11  -0.0%   77.54      0.1250E-03   0.000       27.54       0.000      0.5000E-01   0.000    
    6773   4.310      0.6364E-03 SPRIN         11  -0.0%   77.73      0.1250E-03   0.000       27.73       0.000      0.5000E-01   0.000    
    6774   4.311      0.6364E-03 SPRIN         11  -0.0%   77.93      0.1250E-03   0.000       27.93       0.000      0.5000E-01   0.000    
    6775   4.312      0.6364E-03 SPRIN         11  -0.0%   78.12      0.1250E-03   0.000       28.12       0.000      0.5000E-01   0.000    
    6776   4.312      0.6364E-03 SPRIN         11  -0.0%   78.31      0.1250E-03   0.000       28.31       0.000      0.5000E-01   0.000    
    6777   4.313      0.6364E-03 SPRIN         11  -0.0%   78.51      0.1250E-03   0.000       28.51       0.000      0.5000E-01   0.000    
    6778   4.313      0.6364E-03 SPRIN         11  -0.0%   78.70      0.1250E-03   0.000       28.70       0.000      0.5000E-01   0.000    
    6779   4.314      0.6364E-03 SPRIN         11  -0.0%   78.90      0.1250E-03   0.000       28.90       0.000      0.5000E-01   0.000    
    6780   4.315      0.6364E-03 SPRIN         11  -0.0%   79.09      0.1250E-03   0.000       29.09       0.000      0.5000E-01   0.000    
    6781   4.315      0.6364E-03 SPRIN         11  -0.0%   79.29      0.1250E-03   0.000       29.29       0.000      0.5000E-01   0.000    
    6782   4.316      0.6364E-03 SPRIN         11  -0.0%   79.48      0.1250E-03   0.000       29.48       0.000      0.5000E-01   0.000    
    6783   4.317      0.6364E-03 SPRIN         11  -0.0%   79.68      0.1250E-03   0.000       29.68       0.000      0.5000E-01   0.000    
    6784   4.317      0.6364E-03 SPRIN         11  -0.0%   79.88      0.1250E-03   0.000       29.88       0.000      0.5000E-01   0.000    
    6785   4.318      0.6364E-03 SPRIN         11  -0.0%   80.07      0.1250E-03   0.000       30.07       0.000      0.5000E-01   0.000    
    6786   4.319      0.6364E-03 SPRIN         11  -0.0%   80.27      0.1250E-03   0.000       30.27       0.000      0.5000E-01   0.000    
    6787   4.319      0.6364E-03 SPRIN         11  -0.0%   80.47      0.1250E-03   0.000       30.47       0.000      0.5000E-01   0.000    
    6788   4.320      0.6364E-03 SPRIN         11  -0.0%   80.67      0.1250E-03   0.000       30.67       0.000      0.5000E-01   0.000    
    6789   4.320      0.6364E-03 SPRIN         11  -0.0%   80.87      0.1250E-03   0.000       30.87       0.000      0.5000E-01   0.000    
    6790   4.321      0.6364E-03 SPRIN         11  -0.0%   81.07      0.1250E-03   0.000       31.07       0.000      0.5000E-01   0.000    
    6791   4.322      0.6364E-03 SPRIN         11  -0.0%   81.27      0.1250E-03   0.000       31.27       0.000      0.5000E-01   0.000    
    6792   4.322      0.6364E-03 SPRIN         11  -0.0%   81.47      0.1250E-03   0.000       31.47       0.000      0.5000E-01   0.000    
    6793   4.323      0.6364E-03 SPRIN         11  -0.0%   81.67      0.1250E-03   0.000       31.67       0.000      0.5000E-01   0.000    
    6794   4.324      0.6364E-03 SPRIN         11  -0.0%   81.87      0.1250E-03   0.000       31.87       0.000      0.5000E-01   0.000    
    6795   4.324      0.6364E-03 SPRIN         11  -0.0%   82.07      0.1250E-03   0.000       32.07       0.000      0.5000E-01   0.000    
    6796   4.325      0.6364E-03 SPRIN         11  -0.0%   82.27      0.1250E-03   0.000       32.27       0.000      0.5000E-01   0.000    
    6797   4.326      0.6364E-03 SPRIN         11  -0.0%   82.47      0.1250E-03   0.000       32.47       0.000      0.5000E-01   0.000    
    6798   4.326      0.6364E-03 SPRIN         11  -0.0%   82.67      0.1250E-03   0.000       32.67       0.000      0.5000E-01   0.000    
    6799   4.327      0.6364E-03 SPRIN         11  -0.0%   82.88      0.1250E-03   0.000       32.88       0.000      0.5000E-01   0.000    
    6800   4.327      0.6364E-03 SPRIN         11  -0.0%   83.08      0.1250E-03   0.000       33.08       0.000      0.5000E-01   0.000    
    6801   4.328      0.6364E-03 SPRIN         11  -0.0%   83.28      0.1250E-03   0.000       33.28       0.000      0.5000E-01   0.000    
    6802   4.329      0.6364E-03 SPRIN         11  -0.0%   83.49      0.1250E-03   0.000       33.49       0.000      0.5000E-01   0.000    
    6803   4.329      0.6364E-03 SPRIN         11  -0.0%   83.69      0.1250E-03   0.000       33.69       0.000      0.5000E-01   0.000    
    6804   4.330      0.6364E-03 SPRIN         11  -0.0%   83.90      0.1250E-03   0.000       33.90       0.000      0.5000E-01   0.000    
    6805   4.331      0.6364E-03 SPRIN         11  -0.0%   84.10      0.1250E-03   0.000       34.10       0.000      0.5000E-01   0.000    
    6806   4.331      0.6364E-03 SPRIN         11  -0.0%   84.31      0.1250E-03   0.000       34.31       0.000      0.5000E-01   0.000    
    6807   4.332      0.6364E-03 SPRIN         11  -0.0%   84.51      0.1250E-03   0.000       34.51       0.000      0.5000E-01   0.000    
    6808   4.333      0.6364E-03 SPRIN         11  -0.0%   84.72      0.1250E-03   0.000       34.72       0.000      0.5000E-01   0.000    
    6809   4.333      0.6364E-03 SPRIN         11  -0.0%   84.93      0.1250E-03   0.000       34.93       0.000      0.5000E-01   0.000    
    6810   4.334      0.6364E-03 SPRIN         11  -0.0%   85.14      0.1250E-03   0.000       35.14       0.000      0.5000E-01   0.000    
    6811   4.334      0.6364E-03 SPRIN         11  -0.0%   85.34      0.1250E-03   0.000       35.34       0.000      0.5000E-01   0.000    
    6812   4.335      0.6364E-03 SPRIN         11  -0.0%   85.55      0.1250E-03   0.000       35.55       0.000      0.5000E-01   0.000    
    6813   4.336      0.6364E-03 SPRIN         11  -0.0%   85.76      0.1250E-03   0.000       35.76       0.000      0.5000E-01   0.000    
    6814   4.336      0.6364E-03 SPRIN         11  -0.0%   85.97      0.1250E-03   0.000       35.97       0.000      0.5000E-01   0.000    
    6815   4.337      0.6364E-03 SPRIN         11  -0.0%   86.18      0.1250E-03   0.000       36.18       0.000      0.5000E-01   0.000    
    6816   4.338      0.6364E-03 SPRIN         11  -0.0%   86.39      0.1250E-03   0.000       36.39       0.000      0.5000E-01   0.000    
    6817   4.338      0.6364E-03 SPRIN         11  -0.0%   86.60      0.1250E-03   0.000       36.60       0.000      0.5000E-01   0.000    
    6818   4.339      0.6364E-03 SPRIN         11  -0.0%   86.81      0.1250E-03   0.000       36.81       0.000      0.5000E-01   0.000    
    6819   4.340      0.6364E-03 SPRIN         11  -0.0%   87.02      0.1250E-03   0.000       37.02       0.000      0.5000E-01   0.000    
   CYCLE    TIME      TIME-STEP  ELEMENT          ERROR  I-ENERGY    K-ENERGY T  K-ENERGY R  EXT-WORK     MAS.ERR     TOTAL MASS  MASS ADDED
    6820   4.340      0.6364E-03 SPRIN         11  -0.0%   87.23      0.1250E-03   0.000       37.23       0.000      0.5000E-01   0.000    
    6821   4.341      0.6364E-03 SPRIN         11  -0.0%   87.44      0.1250E-03   0.000       37.44       0.000      0.5000E-01   0.000    
    6822   4.341      0.6364E-03 SPRIN         11  -0.0%   87.65      0.1250E-03   0.000       37.65       0.000      0.5000E-01   0.000    
    6823   4.342      0.6364E-03 SPRIN         11  -0.0%   87.87      0.1250E-03   0.000       37.87       0.000      0.5000E-01   0.000    
    6824   4.343      0.6364E-03 SPRIN         11  -0.0%   88.08      0.1250E-03   0.000       38.08       0.000      0.5000E-01   0.000    
    6825   4.343      0.6364E-03 SPRIN         11  -0.0%   88.29      0.1250E-03   0.000       38.29       0.000      0.5000E-01   0.000    
    6826   4.344      0.6364E-03 SPRIN         11  -0.0%   88.51      0.1250E-03   0.000       38.51       0.000      0.5000E-01   0.000    
    6827   4.345      0.6364E-03 SPRIN         11  -0.0%   88.72      0.1250E-03   0.000       38.72       0.000      0.5000E-01   0.000    
    6828   4.345      0.6364E-03 SPRIN         11  -0.0%   88.94      0.1250E-03   0.000       38.94       0.000      0.5000E-01   0.000    
    6829   4.346      0.6364E-03 SPRIN         11  -0.0%   89.15      0.1250E-03   0.000       39.15       0.000      0.5000E-01   0.000    
    6830   4.347      0.6364E-03 SPRIN         11  -0.0%   89.37      0.1250E-03   0.000       39.37       0.000      0.5000E-01   0.000    
    6831   4.347      0.6364E-03 SPRIN         11  -0.0%   89.58      0.1250E-03   0.000       39.58       0.000      0.5000E-01   0.000    
    6832   4.348      0.6364E-03 SPRIN         11  -0.0%   89.80      0.1250E-03   0.000       39.80       0.000      0.5000E-01   0.000    
    6833   4.348      0.6364E-03 SPRIN         11  -0.0%   90.01      0.1250E-03   0.000       40.01       0.000      0.5000E-01   0.000    
    6834   4.349      0.6364E-03 SPRIN         11  -0.0%   90.23      0.1250E-03   0.000       40.23       0.000      0.5000E-01   0.000    
    6835   4.350      0.6364E-03 SPRIN         11  -0.0%   90.45      0.1250E-03   0.000       40.45       0.000      0.5000E-01   0.000    
    6836   4.350      0.6364E-03 SPRIN         11  -0.0%   90.67      0.1250E-03   0.000       40.67       0.000      0.5000E-01   0.000    
    6837   4.351      0.6364E-03 SPRIN         11  -0.0%   90.89      0.1250E-03   0.000       40.89       0.000      0.5000E-01   0.000    
    6838   4.352      0.6364E-03 SPRIN         11  -0.0%   91.10      0.1250E-03   0.000       41.10       0.000      0.5000E-01   0.000    
    6839   4.352      0.6364E-03 SPRIN         11  -0.0%   91.32      0.1250E-03   0.000       41.32       0.000      0.5000E-01   0.000    
    6840   4.353      0.6364E-03 SPRIN         11  -0.0%   91.54      0.1250E-03   0.000       41.54       0.000      0.5000E-01   0.000    
    6841   4.354      0.6364E-03 SPRIN         11  -0.0%   91.76      0.1250E-03   0.000       41.76       0.000      0.5000E-01   0.000    
    6842   4.354      0.6364E-03 SPRIN         11  -0.0%   91.98      0.1250E-03   0.000       41.98       0.000      0.5000E-01   0.000    
    6843   4.355      0.6364E-03 SPRIN         11  -0.0%   92.20      0.1250E-03   0.000       42.20       0.000      0.5000E-01   0.000    
    6844   4.355      0.6364E-03 SPRIN         11  -0.0%   92.42      0.1250E-03   0.000       42.42       0.000      0.5000E-01   0.000    
    6845   4.356      0.6364E-03 SPRIN         11  -0.0%   92.65      0.1250E-03   0.000       42.65       0.000      0.5000E-01   0.000    
    6846   4.357      0.6364E-03 SPRIN         11  -0.0%   92.87      0.1250E-03   0.000       42.87       0.000      0.5000E-01   0.000    
    6847   4.357      0.6364E-03 SPRIN         11  -0.0%   93.09      0.1250E-03   0.000       43.09       0.000      0.5000E-01   0.000    
    6848   4.358      0.6364E-03 SPRIN         11  -0.0%   93.31      0.1250E-03   0.000       43.31       0.000      0.5000E-01   0.000    
    6849   4.359      0.6364E-03 SPRIN         11  -0.0%   93.54      0.1250E-03   0.000       43.54       0.000      0.5000E-01   0.000    
    6850   4.359      0.6364E-03 SPRIN         11  -0.0%   93.76      0.1250E-03   0.000       43.76       0.000      0.5000E-01   0.000    
    6851   4.360      0.6364E-03 SPRIN         11  -0.0%   93.98      0.1250E-03   0.000       43.98       0.000      0.5000E-01   0.000    
    6852   4.361      0.6364E-03 SPRIN         11  -0.0%   94.21      0.1250E-03   0.000       44.21       0.000      0.5000E-01   0.000    
    6853   4.361      0.6364E-03 SPRIN         11  -0.0%   94.43      0.1250E-03   0.000       44.43       0.000      0.5000E-01   0.000    
    6854   4.362      0.6364E-03 SPRIN         11  -0.0%   94.66      0.1250E-03   0.000       44.66       0.000      0.5000E-01   0.000    
    6855   4.362      0.6364E-03 SPRIN         11  -0.0%   94.88      0.1250E-03   0.000       44.88       0.000      0.5000E-01   0.000    
    6856   4.363      0.6364E-03 SPRIN         11  -0.0%   95.11      0.1250E-03   0.000       45.11       0.000      0.5000E-01   0.000    
    6857   4.364      0.6364E-03 SPRIN         11  -0.0%   95.34      0.1250E-03   0.000       45.34       0.000      0.5000E-01   0.000    
    6858   4.364      0.6364E-03 SPRIN         11  -0.0%   95.56      0.1250E-03   0.000       45.56       0.000      0.5000E-01   0.000    
    6859   4.365      0.6364E-03 SPRIN         11  -0.0%   95.79      0.1250E-03   0.000       45.79       0.000      0.5000E-01   0.000    
    6860   4.366      0.6364E-03 SPRIN         11  -0.0%   96.02      0.1250E-03   0.000       46.02       0.000      0.5000E-01   0.000    
    6861   4.366      0.6364E-03 SPRIN         11  -0.0%   96.24      0.1250E-03   0.000       46.24       0.000      0.5000E-01   0.000    
    6862   4.367      0.6364E-03 SPRIN         11  -0.0%   96.47      0.1250E-03   0.000       46.47       0.000      0.5000E-01   0.000    
    6863   4.368      0.6364E-03 SPRIN         11  -0.0%   96.70      0.1250E-03   0.000       46.70       0.000      0.5000E-01   0.000    
    6864   4.368      0.6364E-03 SPRIN         11  -0.0%   96.93      0.1250E-03   0.000       46.93       0.000      0.5000E-01   0.000    
    6865   4.369      0.6364E-03 SPRIN         11  -0.0%   97.16      0.1250E-03   0.000       47.16       0.000      0.5000E-01   0.000    
    6866   4.369      0.6364E-03 SPRIN         11  -0.0%   97.39      0.1250E-03   0.000       47.39       0.000      0.5000E-01   0.000    
    6867   4.370      0.6364E-03 SPRIN         11  -0.0%   97.62      0.1250E-03   0.000       47.62       0.000      0.5000E-01   0.000    
    6868   4.371      0.6364E-03 SPRIN         11  -0.0%   97.85      0.1250E-03   0.000       47.85       0.000      0.5000E-01   0.000    
    6869   4.371      0.6364E-03 SPRIN         11  -0.0%   98.08      0.1250E-03   0.000       48.08       0.000      0.5000E-01   0.000    
    6870   4.372      0.6364E-03 SPRIN         11  -0.0%   98.31      0.1250E-03   0.000       48.31       0.000      0.5000E-01   0.000    
    6871   4.373      0.6364E-03 SPRIN         11  -0.0%   98.55      0.1250E-03   0.000       48.55       0.000      0.5000E-01   0.000    
    6872   4.373      0.6364E-03 SPRIN         11  -0.0%   98.78      0.1250E-03   0.000       48.78       0.000      0.5000E-01   0.000    
    6873   4.374      0.6364E-03 SPRIN         11  -0.0%   99.01      0.1250E-03   0.000       49.01       0.000      0.5000E-01   0.000    
    6874   4.375      0.6364E-03 SPRIN         11  -0.0%   99.24      0.1250E-03   0.000       49.24       0.000      0.5000E-01   0.000    
   CYCLE    TIME      TIME-STEP  ELEMENT          ERROR  I-ENERGY    K-ENERGY T  K-ENERGY R  EXT-WORK     MAS.ERR     TOTAL MASS  MASS ADDED
    6875   4.375      0.6364E-03 SPRIN         11  -0.0%   99.48      0.1250E-03   0.000       49.48       0.000      0.5000E-01   0.000    
    6876   4.376      0.6364E-03 SPRIN         11  -0.0%   99.71      0.1250E-03   0.000       49.71       0.000      0.5000E-01   0.000    
    6877   4.376      0.6364E-03 SPRIN         11  -0.0%   99.95      0.1250E-03   0.000       49.95       0.000      0.5000E-01   0.000    
    6878   4.377      0.6364E-03 SPRIN         11  -0.0%   100.2      0.1250E-03   0.000       50.18       0.000      0.5000E-01   0.000    
    6879   4.378      0.6364E-03 SPRIN         11  -0.0%   100.4      0.1250E-03   0.000       50.42       0.000      0.5000E-01   0.000    
    6880   4.378      0.6364E-03 SPRIN         11  -0.0%   100.7      0.1250E-03   0.000       50.65       0.000      0.5000E-01   0.000    
    6881   4.379      0.6364E-03 SPRIN         11  -0.0%   100.9      0.1250E-03   0.000       50.89       0.000      0.5000E-01   0.000    
    6882   4.380      0.6364E-03 SPRIN         11  -0.0%   101.1      0.1250E-03   0.000       51.13       0.000      0.5000E-01   0.000    
    6883   4.380      0.6364E-03 SPRIN         11  -0.0%   101.4      0.1250E-03   0.000       51.36       0.000      0.5000E-01   0.000    
    6884   4.381      0.6364E-03 SPRIN         11  -0.0%   101.6      0.1250E-03   0.000       51.60       0.000      0.5000E-01   0.000    
    6885   4.382      0.6364E-03 SPRIN         11  -0.0%   101.8      0.1250E-03   0.000       51.84       0.000      0.5000E-01   0.000    
    6886   4.382      0.6364E-03 SPRIN         11  -0.0%   102.1      0.1250E-03   0.000       52.08       0.000      0.5000E-01   0.000    
    6887   4.383      0.6364E-03 SPRIN         11  -0.0%   102.3      0.1250E-03   0.000       52.31       0.000      0.5000E-01   0.000    
    6888   4.383      0.6364E-03 SPRIN         11  -0.0%   102.6      0.1250E-03   0.000       52.55       0.000      0.5000E-01   0.000    
    6889   4.384      0.6364E-03 SPRIN         11  -0.0%   102.8      0.1250E-03   0.000       52.79       0.000      0.5000E-01   0.000    
    6890   4.385      0.6364E-03 SPRIN         11  -0.0%   103.0      0.1250E-03   0.000       53.03       0.000      0.5000E-01   0.000    
    6891   4.385      0.6364E-03 SPRIN         11  -0.0%   103.3      0.1250E-03   0.000       53.27       0.000      0.5000E-01   0.000    
    6892   4.386      0.6364E-03 SPRIN         11  -0.0%   103.5      0.1250E-03   0.000       53.51       0.000      0.5000E-01   0.000    
    6893   4.387      0.6364E-03 SPRIN         11  -0.0%   103.8      0.1250E-03   0.000       53.75       0.000      0.5000E-01   0.000    
    6894   4.387      0.6364E-03 SPRIN         11  -0.0%   104.0      0.1250E-03   0.000       53.99       0.000      0.5000E-01   0.000    
    6895   4.388      0.6364E-03 SPRIN         11  -0.0%   104.2      0.1250E-03   0.000       54.24       0.000      0.5000E-01   0.000    
    6896   4.389      0.6364E-03 SPRIN         11  -0.0%   104.5      0.1250E-03   0.000       54.48       0.000      0.5000E-01   0.000    
    6897   4.389      0.6364E-03 SPRIN         11  -0.0%   104.7      0.1250E-03   0.000       54.72       0.000      0.5000E-01   0.000    
    6898   4.390      0.6364E-03 SPRIN         11  -0.0%   105.0      0.1250E-03   0.000       54.96       0.000      0.5000E-01   0.000    
    6899   4.390      0.6364E-03 SPRIN         11  -0.0%   105.2      0.1250E-03   0.000       55.21       0.000      0.5000E-01   0.000    
    6900   4.391      0.6364E-03 SPRIN         11  -0.0%   105.5      0.1250E-03   0.000       55.45       0.000      0.5000E-01   0.000    
    6901   4.392      0.6364E-03 SPRIN         11  -0.0%   105.7      0.1250E-03   0.000       55.70       0.000      0.5000E-01   0.000    
    6902   4.392      0.6364E-03 SPRIN         11  -0.0%   105.9      0.1250E-03   0.000       55.94       0.000      0.5000E-01   0.000    
    6903   4.393      0.6364E-03 SPRIN         11  -0.0%   106.2      0.1250E-03   0.000       56.18       0.000      0.5000E-01   0.000    
    6904   4.394      0.6364E-03 SPRIN         11  -0.0%   106.4      0.1250E-03   0.000       56.43       0.000      0.5000E-01   0.000    
    6905   4.394      0.6364E-03 SPRIN         11  -0.0%   106.7      0.1250E-03   0.000       56.68       0.000      0.5000E-01   0.000    
    6906   4.395      0.6364E-03 SPRIN         11  -0.0%   106.9      0.1250E-03   0.000       56.92       0.000      0.5000E-01   0.000    
    6907   4.396      0.6364E-03 SPRIN         11  -0.0%   107.2      0.1250E-03   0.000       57.17       0.000      0.5000E-01   0.000    
    6908   4.396      0.6364E-03 SPRIN         11  -0.0%   107.4      0.1250E-03   0.000       57.42       0.000      0.5000E-01   0.000    
    6909   4.397      0.6364E-03 SPRIN         11  -0.0%   107.7      0.1250E-03   0.000       57.66       0.000      0.5000E-01   0.000    
    6910   4.397      0.6364E-03 SPRIN         11  -0.0%   107.9      0.1250E-03   0.000       57.91       0.000      0.5000E-01   0.000    
    6911   4.398      0.6364E-03 SPRIN         11  -0.0%   108.2      0.1250E-03   0.000       58.16       0.000      0.5000E-01   0.000    
    6912   4.399      0.6364E-03 SPRIN         11  -0.0%   108.4      0.1250E-03   0.000       58.41       0.000      0.5000E-01   0.000    
    6913   4.399      0.6364E-03 SPRIN         11  -0.0%   108.7      0.1250E-03   0.000       58.66       0.000      0.5000E-01   0.000    
    6914   4.400      0.6364E-03 SPRIN         11  -0.0%   108.9      0.1250E-03   0.000       58.91       0.000      0.5000E-01   0.000    
     ANIMATION FILE: SPR_PRE_2FLAGA023 WRITTEN
    6915   4.401      0.6364E-03 SPRIN         11  -0.0%   109.2      0.1250E-03   0.000       59.16       0.000      0.5000E-01   0.000    
    6916   4.401      0.6364E-03 SPRIN         11  -0.0%   109.4      0.1250E-03   0.000       59.41       0.000      0.5000E-01   0.000    
    6917   4.402      0.6364E-03 SPRIN         11  -0.0%   109.7      0.1250E-03   0.000       59.66       0.000      0.5000E-01   0.000    
    6918   4.403      0.6364E-03 SPRIN         11  -0.0%   109.9      0.1250E-03   0.000       59.91       0.000      0.5000E-01   0.000    
    6919   4.403      0.6364E-03 SPRIN         11  -0.0%   110.2      0.1250E-03   0.000       60.16       0.000      0.5000E-01   0.000    
    6920   4.404      0.6364E-03 SPRIN         11  -0.0%   110.4      0.1250E-03   0.000       60.41       0.000      0.5000E-01   0.000    
    6921   4.404      0.6364E-03 SPRIN         11  -0.0%   110.7      0.1250E-03   0.000       60.66       0.000      0.5000E-01   0.000    
    6922   4.405      0.6364E-03 SPRIN         11  -0.0%   110.9      0.1250E-03   0.000       60.92       0.000      0.5000E-01   0.000    
    6923   4.406      0.6364E-03 SPRIN         11  -0.0%   111.2      0.1250E-03   0.000       61.17       0.000      0.5000E-01   0.000    
    6924   4.406      0.6364E-03 SPRIN         11  -0.0%   111.4      0.1250E-03   0.000       61.42       0.000      0.5000E-01   0.000    
    6925   4.407      0.6364E-03 SPRIN         11  -0.0%   111.7      0.1250E-03   0.000       61.68       0.000      0.5000E-01   0.000    
    6926   4.408      0.6364E-03 SPRIN         11  -0.0%   111.9      0.1250E-03   0.000       61.93       0.000      0.5000E-01   0.000    
    6927   4.408      0.6364E-03 SPRIN         11  -0.0%   112.2      0.1250E-03   0.000       62.19       0.000      0.5000E-01   0.000    
    6928   4.409      0.6364E-03 SPRIN         11  -0.0%   112.4      0.1250E-03   0.000       62.44       0.000      0.5000E-01   0.000    
    6929   4.410      0.6364E-03 SPRIN         11  -0.0%   112.7      0.1250E-03   0.000       62.70       0.000      0.5000E-01   0.000    
   CYCLE    TIME      TIME-STEP  ELEMENT          ERROR  I-ENERGY    K-ENERGY T  K-ENERGY R  EXT-WORK     MAS.ERR     TOTAL MASS  MASS ADDED
    6930   4.410      0.6364E-03 SPRIN         11  -0.0%   113.0      0.1250E-03   0.000       62.95       0.000      0.5000E-01   0.000    
    6931   4.411      0.6364E-03 SPRIN         11  -0.0%   113.2      0.1250E-03   0.000       63.21       0.000      0.5000E-01   0.000    
    6932   4.411      0.6364E-03 SPRIN         11  -0.0%   113.5      0.1250E-03   0.000       63.46       0.000      0.5000E-01   0.000    
    6933   4.412      0.6364E-03 SPRIN         11  -0.0%   113.7      0.1250E-03   0.000       63.72       0.000      0.5000E-01   0.000    
    6934   4.413      0.6364E-03 SPRIN         11  -0.0%   114.0      0.1250E-03   0.000       63.98       0.000      0.5000E-01   0.000    
    6935   4.413      0.6364E-03 SPRIN         11  -0.0%   114.2      0.1250E-03   0.000       64.24       0.000      0.5000E-01   0.000    
    6936   4.414      0.6364E-03 SPRIN         11  -0.0%   114.5      0.1250E-03   0.000       64.50       0.000      0.5000E-01   0.000    
    6937   4.415      0.6364E-03 SPRIN         11  -0.0%   114.8      0.1250E-03   0.000       64.75       0.000      0.5000E-01   0.000    
    6938   4.415      0.6364E-03 SPRIN         11  -0.0%   115.0      0.1250E-03   0.000       65.01       0.000      0.5000E-01   0.000    
    6939   4.416      0.6364E-03 SPRIN         11  -0.0%   115.3      0.1250E-03   0.000       65.27       0.000      0.5000E-01   0.000    
    6940   4.417      0.6364E-03 SPRIN         11  -0.0%   115.5      0.1250E-03   0.000       65.53       0.000      0.5000E-01   0.000    
    6941   4.417      0.6364E-03 SPRIN         11  -0.0%   115.8      0.1250E-03   0.000       65.79       0.000      0.5000E-01   0.000    
    6942   4.418      0.6364E-03 SPRIN         11  -0.0%   116.1      0.1250E-03   0.000       66.05       0.000      0.5000E-01   0.000    
    6943   4.418      0.6364E-03 SPRIN         11  -0.0%   116.3      0.1250E-03   0.000       66.32       0.000      0.5000E-01   0.000    
    6944   4.419      0.6364E-03 SPRIN         11  -0.0%   116.6      0.1250E-03   0.000       66.58       0.000      0.5000E-01   0.000    
    6945   4.420      0.6364E-03 SPRIN         11  -0.0%   116.8      0.1250E-03   0.000       66.84       0.000      0.5000E-01   0.000    
    6946   4.420      0.6364E-03 SPRIN         11  -0.0%   117.1      0.1250E-03   0.000       67.10       0.000      0.5000E-01   0.000    
    6947   4.421      0.6364E-03 SPRIN         11  -0.0%   117.4      0.1250E-03   0.000       67.36       0.000      0.5000E-01   0.000    
    6948   4.422      0.6364E-03 SPRIN         11  -0.0%   117.6      0.1250E-03   0.000       67.63       0.000      0.5000E-01   0.000    
    6949   4.422      0.6364E-03 SPRIN         11  -0.0%   117.9      0.1250E-03   0.000       67.89       0.000      0.5000E-01   0.000    
    6950   4.423      0.6364E-03 SPRIN         11  -0.0%   118.2      0.1250E-03   0.000       68.16       0.000      0.5000E-01   0.000    
    6951   4.424      0.6364E-03 SPRIN         11  -0.0%   118.4      0.1250E-03   0.000       68.42       0.000      0.5000E-01   0.000    
    6952   4.424      0.6364E-03 SPRIN         11  -0.0%   118.7      0.1250E-03   0.000       68.68       0.000      0.5000E-01   0.000    
    6953   4.425      0.6364E-03 SPRIN         11  -0.0%   118.9      0.1250E-03   0.000       68.95       0.000      0.5000E-01   0.000    
    6954   4.425      0.6364E-03 SPRIN         11  -0.0%   119.2      0.1250E-03   0.000       69.22       0.000      0.5000E-01   0.000    
    6955   4.426      0.6364E-03 SPRIN         11  -0.0%   119.5      0.1250E-03   0.000       69.48       0.000      0.5000E-01   0.000    
    6956   4.427      0.6364E-03 SPRIN         11  -0.0%   119.7      0.1250E-03   0.000       69.75       0.000      0.5000E-01   0.000    
    6957   4.427      0.6364E-03 SPRIN         11  -0.0%   120.0      0.1250E-03   0.000       70.01       0.000      0.5000E-01   0.000    
    6958   4.428      0.6364E-03 SPRIN         11  -0.0%   120.3      0.1250E-03   0.000       70.28       0.000      0.5000E-01   0.000    
    6959   4.429      0.6364E-03 SPRIN         11  -0.0%   120.5      0.1250E-03   0.000       70.55       0.000      0.5000E-01   0.000    
    6960   4.429      0.6364E-03 SPRIN         11  -0.0%   120.8      0.1250E-03   0.000       70.82       0.000      0.5000E-01   0.000    
    6961   4.430      0.6364E-03 SPRIN         11  -0.0%   121.1      0.1250E-03   0.000       71.09       0.000      0.5000E-01   0.000    
    6962   4.431      0.6364E-03 SPRIN         11  -0.0%   121.4      0.1250E-03   0.000       71.35       0.000      0.5000E-01   0.000    
    6963   4.431      0.6364E-03 SPRIN         11  -0.0%   121.6      0.1250E-03   0.000       71.62       0.000      0.5000E-01   0.000    
    6964   4.432      0.6364E-03 SPRIN         11  -0.0%   121.9      0.1250E-03   0.000       71.89       0.000      0.5000E-01   0.000    
    6965   4.432      0.6364E-03 SPRIN         11  -0.0%   122.2      0.1250E-03   0.000       72.16       0.000      0.5000E-01   0.000    
    6966   4.433      0.6364E-03 SPRIN         11  -0.0%   122.4      0.1250E-03   0.000       72.43       0.000      0.5000E-01   0.000    
    6967   4.434      0.6364E-03 SPRIN         11  -0.0%   122.7      0.1250E-03   0.000       72.71       0.000      0.5000E-01   0.000    
    6968   4.434      0.6364E-03 SPRIN         11  -0.0%   123.0      0.1250E-03   0.000       72.98       0.000      0.5000E-01   0.000    
    6969   4.435      0.6364E-03 SPRIN         11  -0.0%   123.2      0.1250E-03   0.000       73.25       0.000      0.5000E-01   0.000    
    6970   4.436      0.6364E-03 SPRIN         11  -0.0%   123.5      0.1250E-03   0.000       73.52       0.000      0.5000E-01   0.000    
    6971   4.436      0.6364E-03 SPRIN         11  -0.0%   123.8      0.1250E-03   0.000       73.79       0.000      0.5000E-01   0.000    
    6972   4.437      0.6364E-03 SPRIN         11  -0.0%   124.1      0.1250E-03   0.000       74.07       0.000      0.5000E-01   0.000    
    6973   4.438      0.6364E-03 SPRIN         11  -0.0%   124.3      0.1250E-03   0.000       74.34       0.000      0.5000E-01   0.000    
    6974   4.438      0.6364E-03 SPRIN         11  -0.0%   124.6      0.1250E-03   0.000       74.61       0.000      0.5000E-01   0.000    
    6975   4.439      0.6364E-03 SPRIN         11  -0.0%   124.9      0.1250E-03   0.000       74.89       0.000      0.5000E-01   0.000    
    6976   4.439      0.6364E-03 SPRIN         11  -0.0%   125.2      0.1250E-03   0.000       75.16       0.000      0.5000E-01   0.000    
    6977   4.440      0.6364E-03 SPRIN         11  -0.0%   125.4      0.1250E-03   0.000       75.44       0.000      0.5000E-01   0.000    
    6978   4.441      0.6364E-03 SPRIN         11  -0.0%   125.7      0.1250E-03   0.000       75.71       0.000      0.5000E-01   0.000    
    6979   4.441      0.6364E-03 SPRIN         11  -0.0%   126.0      0.1250E-03   0.000       75.99       0.000      0.5000E-01   0.000    
    6980   4.442      0.6364E-03 SPRIN         11  -0.0%   126.3      0.1250E-03   0.000       76.26       0.000      0.5000E-01   0.000    
    6981   4.443      0.6364E-03 SPRIN         11  -0.0%   126.5      0.1250E-03   0.000       76.54       0.000      0.5000E-01   0.000    
    6982   4.443      0.6364E-03 SPRIN         11  -0.0%   126.8      0.1250E-03   0.000       76.82       0.000      0.5000E-01   0.000    
    6983   4.444      0.6364E-03 SPRIN         11  -0.0%   127.1      0.1250E-03   0.000       77.09       0.000      0.5000E-01   0.000    
    6984   4.445      0.6364E-03 SPRIN         11  -0.0%   127.4      0.1250E-03   0.000       77.37       0.000      0.5000E-01   0.000    
   CYCLE    TIME      TIME-STEP  ELEMENT          ERROR  I-ENERGY    K-ENERGY T  K-ENERGY R  EXT-WORK     MAS.ERR     TOTAL MASS  MASS ADDED
    6985   4.445      0.6364E-03 SPRIN         11  -0.0%   127.7      0.1250E-03   0.000       77.65       0.000      0.5000E-01   0.000    
    6986   4.446      0.6364E-03 SPRIN         11  -0.0%   127.9      0.1250E-03   0.000       77.93       0.000      0.5000E-01   0.000    
    6987   4.446      0.6364E-03 SPRIN         11  -0.0%   128.2      0.1250E-03   0.000       78.21       0.000      0.5000E-01   0.000    
    6988   4.447      0.6364E-03 SPRIN         11  -0.0%   128.5      0.1250E-03   0.000       78.49       0.000      0.5000E-01   0.000    
    6989   4.448      0.6364E-03 SPRIN         11  -0.0%   128.8      0.1250E-03   0.000       78.77       0.000      0.5000E-01   0.000    
    6990   4.448      0.6364E-03 SPRIN         11  -0.0%   129.0      0.1250E-03   0.000       79.05       0.000      0.5000E-01   0.000    
    6991   4.449      0.6364E-03 SPRIN         11  -0.0%   129.3      0.1250E-03   0.000       79.33       0.000      0.5000E-01   0.000    
    6992   4.450      0.6364E-03 SPRIN         11  -0.0%   129.6      0.1250E-03   0.000       79.61       0.000      0.5000E-01   0.000    
    6993   4.450      0.6364E-03 SPRIN         11  -0.0%   129.9      0.1250E-03   0.000       79.89       0.000      0.5000E-01   0.000    
    6994   4.451      0.6364E-03 SPRIN         11  -0.0%   130.2      0.1250E-03   0.000       80.17       0.000      0.5000E-01   0.000    
    6995   4.452      0.6364E-03 SPRIN         11  -0.0%   130.5      0.1250E-03   0.000       80.45       0.000      0.5000E-01   0.000    
    6996   4.452      0.6364E-03 SPRIN         11  -0.0%   130.7      0.1250E-03   0.000       80.74       0.000      0.5000E-01   0.000    
    6997   4.453      0.6364E-03 SPRIN         11  -0.0%   131.0      0.1250E-03   0.000       81.02       0.000      0.5000E-01   0.000    
    6998   4.453      0.6364E-03 SPRIN         11  -0.0%   131.3      0.1250E-03   0.000       81.30       0.000      0.5000E-01   0.000    
    6999   4.454      0.6364E-03 SPRIN         11  -0.0%   131.6      0.1250E-03   0.000       81.59       0.000      0.5000E-01   0.000    
    7000   4.455      0.6364E-03 SPRIN         11  -0.0%   131.9      0.1250E-03   0.000       81.87       0.000      0.5000E-01   0.000    
    7001   4.455      0.6364E-03 SPRIN         11  -0.0%   132.2      0.1250E-03   0.000       82.16       0.000      0.5000E-01   0.000    
    7002   4.456      0.6364E-03 SPRIN         11  -0.0%   132.4      0.1250E-03   0.000       82.44       0.000      0.5000E-01   0.000    
    7003   4.457      0.6364E-03 SPRIN         11  -0.0%   132.7      0.1250E-03   0.000       82.73       0.000      0.5000E-01   0.000    
    7004   4.457      0.6364E-03 SPRIN         11  -0.0%   133.0      0.1250E-03   0.000       83.01       0.000      0.5000E-01   0.000    
    7005   4.458      0.6364E-03 SPRIN         11  -0.0%   133.3      0.1250E-03   0.000       83.30       0.000      0.5000E-01   0.000    
    7006   4.459      0.6364E-03 SPRIN         11  -0.0%   133.6      0.1250E-03   0.000       83.59       0.000      0.5000E-01   0.000    
    7007   4.459      0.6364E-03 SPRIN         11  -0.0%   133.9      0.1250E-03   0.000       83.87       0.000      0.5000E-01   0.000    
    7008   4.460      0.6364E-03 SPRIN         11  -0.0%   134.2      0.1250E-03   0.000       84.16       0.000      0.5000E-01   0.000    
    7009   4.461      0.6364E-03 SPRIN         11  -0.0%   134.4      0.1250E-03   0.000       84.45       0.000      0.5000E-01   0.000    
    7010   4.461      0.6364E-03 SPRIN         11  -0.0%   134.7      0.1250E-03   0.000       84.74       0.000      0.5000E-01   0.000    
    7011   4.462      0.6364E-03 SPRIN         11  -0.0%   135.0      0.1250E-03   0.000       85.03       0.000      0.5000E-01   0.000    
    7012   4.462      0.6364E-03 SPRIN         11  -0.0%   135.3      0.1250E-03   0.000       85.31       0.000      0.5000E-01   0.000    
    7013   4.463      0.6364E-03 SPRIN         11  -0.0%   135.6      0.1250E-03   0.000       85.60       0.000      0.5000E-01   0.000    
    7014   4.464      0.6364E-03 SPRIN         11  -0.0%   135.9      0.1250E-03   0.000       85.89       0.000      0.5000E-01   0.000    
    7015   4.464      0.6364E-03 SPRIN         11  -0.0%   136.2      0.1250E-03   0.000       86.18       0.000      0.5000E-01   0.000    
    7016   4.465      0.6364E-03 SPRIN         11  -0.0%   136.5      0.1250E-03   0.000       86.47       0.000      0.5000E-01   0.000    
    7017   4.466      0.6364E-03 SPRIN         11  -0.0%   136.8      0.1250E-03   0.000       86.77       0.000      0.5000E-01   0.000    
    7018   4.466      0.6364E-03 SPRIN         11  -0.0%   137.1      0.1250E-03   0.000       87.06       0.000      0.5000E-01   0.000    
    7019   4.467      0.6364E-03 SPRIN         11  -0.0%   137.3      0.1250E-03   0.000       87.35       0.000      0.5000E-01   0.000    
    7020   4.468      0.6364E-03 SPRIN         11  -0.0%   137.6      0.1250E-03   0.000       87.64       0.000      0.5000E-01   0.000    
    7021   4.468      0.6364E-03 SPRIN         11  -0.0%   137.9      0.1250E-03   0.000       87.93       0.000      0.5000E-01   0.000    
    7022   4.469      0.6364E-03 SPRIN         11  -0.0%   138.2      0.1250E-03   0.000       88.23       0.000      0.5000E-01   0.000    
    7023   4.469      0.6364E-03 SPRIN         11  -0.0%   138.5      0.1250E-03   0.000       88.52       0.000      0.5000E-01   0.000    
    7024   4.470      0.6364E-03 SPRIN         11  -0.0%   138.8      0.1250E-03   0.000       88.82       0.000      0.5000E-01   0.000    
    7025   4.471      0.6364E-03 SPRIN         11  -0.0%   139.1      0.1250E-03   0.000       89.11       0.000      0.5000E-01   0.000    
    7026   4.471      0.6364E-03 SPRIN         11  -0.0%   139.4      0.1250E-03   0.000       89.40       0.000      0.5000E-01   0.000    
    7027   4.472      0.6364E-03 SPRIN         11  -0.0%   139.7      0.1250E-03   0.000       89.70       0.000      0.5000E-01   0.000    
    7028   4.473      0.6364E-03 SPRIN         11  -0.0%   140.0      0.1250E-03   0.000       90.00       0.000      0.5000E-01   0.000    
    7029   4.473      0.6364E-03 SPRIN         11  -0.0%   140.3      0.1250E-03   0.000       90.29       0.000      0.5000E-01   0.000    
    7030   4.474      0.6364E-03 SPRIN         11  -0.0%   140.6      0.1250E-03   0.000       90.59       0.000      0.5000E-01   0.000    
    7031   4.475      0.6364E-03 SPRIN         11  -0.0%   140.9      0.1250E-03   0.000       90.88       0.000      0.5000E-01   0.000    
    7032   4.475      0.6364E-03 SPRIN         11  -0.0%   141.2      0.1250E-03   0.000       91.18       0.000      0.5000E-01   0.000    
    7033   4.476      0.6364E-03 SPRIN         11  -0.0%   141.5      0.1250E-03   0.000       91.48       0.000      0.5000E-01   0.000    
    7034   4.476      0.6364E-03 SPRIN         11  -0.0%   141.8      0.1250E-03   0.000       91.78       0.000      0.5000E-01   0.000    
    7035   4.477      0.6364E-03 SPRIN         11  -0.0%   142.1      0.1250E-03   0.000       92.08       0.000      0.5000E-01   0.000    
    7036   4.478      0.6364E-03 SPRIN         11  -0.0%   142.4      0.1250E-03   0.000       92.37       0.000      0.5000E-01   0.000    
    7037   4.478      0.6364E-03 SPRIN         11  -0.0%   142.7      0.1250E-03   0.000       92.67       0.000      0.5000E-01   0.000    
    7038   4.479      0.6364E-03 SPRIN         11  -0.0%   143.0      0.1250E-03   0.000       92.97       0.000      0.5000E-01   0.000    
    7039   4.480      0.6364E-03 SPRIN         11  -0.0%   143.3      0.1250E-03   0.000       93.27       0.000      0.5000E-01   0.000    
   CYCLE    TIME      TIME-STEP  ELEMENT          ERROR  I-ENERGY    K-ENERGY T  K-ENERGY R  EXT-WORK     MAS.ERR     TOTAL MASS  MASS ADDED
    7040   4.480      0.6364E-03 SPRIN         11  -0.0%   143.6      0.1250E-03   0.000       93.57       0.000      0.5000E-01   0.000    
    7041   4.481      0.6364E-03 SPRIN         11  -0.0%   143.9      0.1250E-03   0.000       93.87       0.000      0.5000E-01   0.000    
    7042   4.482      0.6364E-03 SPRIN         11  -0.0%   144.2      0.1250E-03   0.000       94.18       0.000      0.5000E-01   0.000    
    7043   4.482      0.6364E-03 SPRIN         11  -0.0%   144.5      0.1250E-03   0.000       94.48       0.000      0.5000E-01   0.000    
    7044   4.483      0.6364E-03 SPRIN         11  -0.0%   144.8      0.1250E-03   0.000       94.78       0.000      0.5000E-01   0.000    
    7045   4.483      0.6364E-03 SPRIN         11  -0.0%   145.1      0.1250E-03   0.000       95.08       0.000      0.5000E-01   0.000    
    7046   4.484      0.6364E-03 SPRIN         11  -0.0%   145.4      0.1250E-03   0.000       95.39       0.000      0.5000E-01   0.000    
    7047   4.485      0.6364E-03 SPRIN         11  -0.0%   145.7      0.1250E-03   0.000       95.69       0.000      0.5000E-01   0.000    
    7048   4.485      0.6364E-03 SPRIN         11  -0.0%   146.0      0.1250E-03   0.000       95.99       0.000      0.5000E-01   0.000    
    7049   4.486      0.6364E-03 SPRIN         11  -0.0%   146.3      0.1250E-03   0.000       96.30       0.000      0.5000E-01   0.000    
    7050   4.487      0.6364E-03 SPRIN         11  -0.0%   146.6      0.1250E-03   0.000       96.60       0.000      0.5000E-01   0.000    
    7051   4.487      0.6364E-03 SPRIN         11  -0.0%   146.9      0.1250E-03   0.000       96.91       0.000      0.5000E-01   0.000    
    7052   4.488      0.6364E-03 SPRIN         11  -0.0%   147.2      0.1250E-03   0.000       97.21       0.000      0.5000E-01   0.000    
    7053   4.489      0.6364E-03 SPRIN         11  -0.0%   147.5      0.1250E-03   0.000       97.52       0.000      0.5000E-01   0.000    
    7054   4.489      0.6364E-03 SPRIN         11  -0.0%   147.8      0.1250E-03   0.000       97.82       0.000      0.5000E-01   0.000    
    7055   4.490      0.6364E-03 SPRIN         11  -0.0%   148.1      0.1250E-03   0.000       98.13       0.000      0.5000E-01   0.000    
    7056   4.490      0.6364E-03 SPRIN         11  -0.0%   148.4      0.1250E-03   0.000       98.44       0.000      0.5000E-01   0.000    
    7057   4.491      0.6364E-03 SPRIN         11  -0.0%   148.7      0.1250E-03   0.000       98.74       0.000      0.5000E-01   0.000    
    7058   4.492      0.6364E-03 SPRIN         11  -0.0%   149.1      0.1250E-03   0.000       99.05       0.000      0.5000E-01   0.000    
    7059   4.492      0.6364E-03 SPRIN         11  -0.0%   149.4      0.1250E-03   0.000       99.36       0.000      0.5000E-01   0.000    
    7060   4.493      0.6364E-03 SPRIN         11  -0.0%   149.7      0.1250E-03   0.000       99.67       0.000      0.5000E-01   0.000    
    7061   4.494      0.6364E-03 SPRIN         11  -0.0%   150.0      0.1250E-03   0.000       99.98       0.000      0.5000E-01   0.000    
    7062   4.494      0.6364E-03 SPRIN         11  -0.0%   150.3      0.1250E-03   0.000       100.3       0.000      0.5000E-01   0.000    
    7063   4.495      0.6364E-03 SPRIN         11  -0.0%   150.6      0.1250E-03   0.000       100.6       0.000      0.5000E-01   0.000    
    7064   4.496      0.6364E-03 SPRIN         11  -0.0%   150.9      0.1250E-03   0.000       100.9       0.000      0.5000E-01   0.000    
    7065   4.496      0.6364E-03 SPRIN         11  -0.0%   151.2      0.1250E-03   0.000       101.2       0.000      0.5000E-01   0.000    
    7066   4.497      0.6364E-03 SPRIN         11  -0.0%   151.5      0.1250E-03   0.000       101.5       0.000      0.5000E-01   0.000    
    7067   4.497      0.6364E-03 SPRIN         11  -0.0%   151.8      0.1250E-03   0.000       101.8       0.000      0.5000E-01   0.000    
    7068   4.498      0.6364E-03 SPRIN         11  -0.0%   152.2      0.1250E-03   0.000       102.2       0.000      0.5000E-01   0.000    
    7069   4.499      0.6364E-03 SPRIN         11  -0.0%   152.5      0.1250E-03   0.000       102.5       0.000      0.5000E-01   0.000    
    7070   4.499      0.6364E-03 SPRIN         11  -0.0%   152.8      0.1250E-03   0.000       102.8       0.000      0.5000E-01   0.000    
    7071   4.500      0.6364E-03 SPRIN         11  -0.0%   153.1      0.1250E-03   0.000       103.1       0.000      0.5000E-01   0.000    
    7072   4.501      0.6364E-03 SPRIN         11  -0.0%   153.4      0.1250E-03   0.000       103.4       0.000      0.5000E-01   0.000    
    7073   4.501      0.6364E-03 SPRIN         11  -0.0%   153.7      0.1250E-03   0.000       103.7       0.000      0.5000E-01   0.000    
    7074   4.502      0.6364E-03 SPRIN         11  -0.0%   154.0      0.1250E-03   0.000       104.0       0.000      0.5000E-01   0.000    
    7075   4.503      0.6364E-03 SPRIN         11  -0.0%   154.3      0.1250E-03   0.000       104.3       0.000      0.5000E-01   0.000    
    7076   4.503      0.6364E-03 SPRIN         11  -0.0%   154.7      0.1250E-03   0.000       104.7       0.000      0.5000E-01   0.000    
    7077   4.504      0.6364E-03 SPRIN         11  -0.0%   155.0      0.1250E-03   0.000       105.0       0.000      0.5000E-01   0.000    
    7078   4.504      0.6364E-03 SPRIN         11  -0.0%   155.3      0.1250E-03   0.000       105.3       0.000      0.5000E-01   0.000    
    7079   4.505      0.6364E-03 SPRIN         11  -0.0%   155.6      0.1250E-03   0.000       105.6       0.000      0.5000E-01   0.000    
    7080   4.506      0.6364E-03 SPRIN         11  -0.0%   155.9      0.1250E-03   0.000       105.9       0.000      0.5000E-01   0.000    
    7081   4.506      0.6364E-03 SPRIN         11  -0.0%   156.2      0.1250E-03   0.000       106.2       0.000      0.5000E-01   0.000    
    7082   4.507      0.6364E-03 SPRIN         11  -0.0%   156.6      0.1250E-03   0.000       106.6       0.000      0.5000E-01   0.000    
    7083   4.508      0.6364E-03 SPRIN         11  -0.0%   156.9      0.1250E-03   0.000       106.9       0.000      0.5000E-01   0.000    
    7084   4.508      0.6364E-03 SPRIN         11  -0.0%   157.2      0.1250E-03   0.000       107.2       0.000      0.5000E-01   0.000    
    7085   4.509      0.6364E-03 SPRIN         11  -0.0%   157.5      0.1250E-03   0.000       107.5       0.000      0.5000E-01   0.000    
    7086   4.510      0.6364E-03 SPRIN         11  -0.0%   157.8      0.1250E-03   0.000       107.8       0.000      0.5000E-01   0.000    
    7087   4.510      0.6364E-03 SPRIN         11  -0.0%   158.2      0.1250E-03   0.000       108.2       0.000      0.5000E-01   0.000    
    7088   4.511      0.6364E-03 SPRIN         11  -0.0%   158.5      0.1250E-03   0.000       108.5       0.000      0.5000E-01   0.000    
    7089   4.511      0.6364E-03 SPRIN         11  -0.0%   158.8      0.1250E-03   0.000       108.8       0.000      0.5000E-01   0.000    
    7090   4.512      0.6364E-03 SPRIN         11  -0.0%   159.1      0.1250E-03   0.000       109.1       0.000      0.5000E-01   0.000    
    7091   4.513      0.6364E-03 SPRIN         11  -0.0%   159.4      0.1250E-03   0.000       109.4       0.000      0.5000E-01   0.000    
    7092   4.513      0.6364E-03 SPRIN         11  -0.0%   159.8      0.1250E-03   0.000       109.8       0.000      0.5000E-01   0.000    
    7093   4.514      0.6364E-03 SPRIN         11  -0.0%   160.1      0.1250E-03   0.000       110.1       0.000      0.5000E-01   0.000    
    7094   4.515      0.6364E-03 SPRIN         11  -0.0%   160.4      0.1250E-03   0.000       110.4       0.000      0.5000E-01   0.000    
   CYCLE    TIME      TIME-STEP  ELEMENT          ERROR  I-ENERGY    K-ENERGY T  K-ENERGY R  EXT-WORK     MAS.ERR     TOTAL MASS  MASS ADDED
    7095   4.515      0.6364E-03 SPRIN         11  -0.0%   160.7      0.1250E-03   0.000       110.7       0.000      0.5000E-01   0.000    
    7096   4.516      0.6364E-03 SPRIN         11  -0.0%   161.0      0.1250E-03   0.000       111.0       0.000      0.5000E-01   0.000    
    7097   4.517      0.6364E-03 SPRIN         11  -0.0%   161.4      0.1250E-03   0.000       111.4       0.000      0.5000E-01   0.000    
    7098   4.517      0.6364E-03 SPRIN         11  -0.0%   161.7      0.1250E-03   0.000       111.7       0.000      0.5000E-01   0.000    
    7099   4.518      0.6364E-03 SPRIN         11  -0.0%   162.0      0.1250E-03   0.000       112.0       0.000      0.5000E-01   0.000    
    7100   4.518      0.6364E-03 SPRIN         11  -0.0%   162.3      0.1250E-03   0.000       112.3       0.000      0.5000E-01   0.000    
    7101   4.519      0.6364E-03 SPRIN         11  -0.0%   162.7      0.1250E-03   0.000       112.7       0.000      0.5000E-01   0.000    
    7102   4.520      0.6364E-03 SPRIN         11  -0.0%   163.0      0.1250E-03   0.000       113.0       0.000      0.5000E-01   0.000    
    7103   4.520      0.6364E-03 SPRIN         11  -0.0%   163.3      0.1250E-03   0.000       113.3       0.000      0.5000E-01   0.000    
    7104   4.521      0.6364E-03 SPRIN         11  -0.0%   163.6      0.1250E-03   0.000       113.6       0.000      0.5000E-01   0.000    
    7105   4.522      0.6364E-03 SPRIN         11  -0.0%   164.0      0.1250E-03   0.000       114.0       0.000      0.5000E-01   0.000    
    7106   4.522      0.6364E-03 SPRIN         11  -0.0%   164.3      0.1250E-03   0.000       114.3       0.000      0.5000E-01   0.000    
    7107   4.523      0.6364E-03 SPRIN         11  -0.0%   164.6      0.1250E-03   0.000       114.6       0.000      0.5000E-01   0.000    
    7108   4.524      0.6364E-03 SPRIN         11  -0.0%   165.0      0.1250E-03   0.000       115.0       0.000      0.5000E-01   0.000    
    7109   4.524      0.6364E-03 SPRIN         11  -0.0%   165.3      0.1250E-03   0.000       115.3       0.000      0.5000E-01   0.000    
    7110   4.525      0.6364E-03 SPRIN         11  -0.0%   165.6      0.1250E-03   0.000       115.6       0.000      0.5000E-01   0.000    
    7111   4.525      0.6364E-03 SPRIN         11  -0.0%   165.9      0.1250E-03   0.000       115.9       0.000      0.5000E-01   0.000    
    7112   4.526      0.6364E-03 SPRIN         11  -0.0%   166.3      0.1250E-03   0.000       116.3       0.000      0.5000E-01   0.000    
    7113   4.527      0.6364E-03 SPRIN         11  -0.0%   166.6      0.1250E-03   0.000       116.6       0.000      0.5000E-01   0.000    
    7114   4.527      0.6364E-03 SPRIN         11  -0.0%   166.9      0.1250E-03   0.000       116.9       0.000      0.5000E-01   0.000    
    7115   4.528      0.6364E-03 SPRIN         11  -0.0%   167.3      0.1250E-03   0.000       117.3       0.000      0.5000E-01   0.000    
    7116   4.529      0.6364E-03 SPRIN         11  -0.0%   167.6      0.1250E-03   0.000       117.6       0.000      0.5000E-01   0.000    
    7117   4.529      0.6364E-03 SPRIN         11  -0.0%   167.9      0.1250E-03   0.000       117.9       0.000      0.5000E-01   0.000    
    7118   4.530      0.6364E-03 SPRIN         11  -0.0%   168.3      0.1250E-03   0.000       118.3       0.000      0.5000E-01   0.000    
    7119   4.531      0.6364E-03 SPRIN         11  -0.0%   168.6      0.1250E-03   0.000       118.6       0.000      0.5000E-01   0.000    
    7120   4.531      0.6364E-03 SPRIN         11  -0.0%   168.9      0.1250E-03   0.000       118.9       0.000      0.5000E-01   0.000    
    7121   4.532      0.6364E-03 SPRIN         11  -0.0%   169.3      0.1250E-03   0.000       119.3       0.000      0.5000E-01   0.000    
    7122   4.532      0.6364E-03 SPRIN         11  -0.0%   169.6      0.1250E-03   0.000       119.6       0.000      0.5000E-01   0.000    
    7123   4.533      0.6364E-03 SPRIN         11  -0.0%   169.9      0.1250E-03   0.000       119.9       0.000      0.5000E-01   0.000    
    7124   4.534      0.6364E-03 SPRIN         11  -0.0%   170.3      0.1250E-03   0.000       120.3       0.000      0.5000E-01   0.000    
    7125   4.534      0.6364E-03 SPRIN         11  -0.0%   170.6      0.1250E-03   0.000       120.6       0.000      0.5000E-01   0.000    
    7126   4.535      0.6364E-03 SPRIN         11  -0.0%   170.9      0.1250E-03   0.000       120.9       0.000      0.5000E-01   0.000    
    7127   4.536      0.6364E-03 SPRIN         11  -0.0%   171.3      0.1250E-03   0.000       121.3       0.000      0.5000E-01   0.000    
    7128   4.536      0.6364E-03 SPRIN         11  -0.0%   171.6      0.1250E-03   0.000       121.6       0.000      0.5000E-01   0.000    
    7129   4.537      0.6364E-03 SPRIN         11  -0.0%   171.9      0.1250E-03   0.000       121.9       0.000      0.5000E-01   0.000    
    7130   4.538      0.6364E-03 SPRIN         11  -0.0%   172.3      0.1250E-03   0.000       122.3       0.000      0.5000E-01   0.000    
    7131   4.538      0.6364E-03 SPRIN         11  -0.0%   172.6      0.1250E-03   0.000       122.6       0.000      0.5000E-01   0.000    
    7132   4.539      0.6364E-03 SPRIN         11  -0.0%   172.9      0.1250E-03   0.000       122.9       0.000      0.5000E-01   0.000    
    7133   4.539      0.6364E-03 SPRIN         11  -0.0%   173.3      0.1250E-03   0.000       123.3       0.000      0.5000E-01   0.000    
    7134   4.540      0.6364E-03 SPRIN         11  -0.0%   173.6      0.1250E-03   0.000       123.6       0.000      0.5000E-01   0.000    
    7135   4.541      0.6364E-03 SPRIN         11  -0.0%   174.0      0.1250E-03   0.000       124.0       0.000      0.5000E-01   0.000    
    7136   4.541      0.6364E-03 SPRIN         11  -0.0%   174.3      0.1250E-03   0.000       124.3       0.000      0.5000E-01   0.000    
    7137   4.542      0.6364E-03 SPRIN         11  -0.0%   174.6      0.1250E-03   0.000       124.6       0.000      0.5000E-01   0.000    
    7138   4.543      0.6364E-03 SPRIN         11  -0.0%   175.0      0.1250E-03   0.000       125.0       0.000      0.5000E-01   0.000    
    7139   4.543      0.6364E-03 SPRIN         11  -0.0%   175.3      0.1250E-03   0.000       125.3       0.000      0.5000E-01   0.000    
    7140   4.544      0.6364E-03 SPRIN         11  -0.0%   175.7      0.1250E-03   0.000       125.7       0.000      0.5000E-01   0.000    
    7141   4.545      0.6364E-03 SPRIN         11  -0.0%   176.0      0.1250E-03   0.000       126.0       0.000      0.5000E-01   0.000    
    7142   4.545      0.6364E-03 SPRIN         11  -0.0%   176.3      0.1250E-03   0.000       126.3       0.000      0.5000E-01   0.000    
    7143   4.546      0.6364E-03 SPRIN         11  -0.0%   176.7      0.1250E-03   0.000       126.7       0.000      0.5000E-01   0.000    
    7144   4.546      0.6364E-03 SPRIN         11  -0.0%   177.0      0.1250E-03   0.000       127.0       0.000      0.5000E-01   0.000    
    7145   4.547      0.6364E-03 SPRIN         11  -0.0%   177.4      0.1250E-03   0.000       127.4       0.000      0.5000E-01   0.000    
    7146   4.548      0.6364E-03 SPRIN         11  -0.0%   177.7      0.1250E-03   0.000       127.7       0.000      0.5000E-01   0.000    
    7147   4.548      0.6364E-03 SPRIN         11  -0.0%   178.1      0.1250E-03   0.000       128.1       0.000      0.5000E-01   0.000    
    7148   4.549      0.6364E-03 SPRIN         11  -0.0%   178.4      0.1250E-03   0.000       128.4       0.000      0.5000E-01   0.000    
    7149   4.550      0.6364E-03 SPRIN         11  -0.0%   178.8      0.1250E-03   0.000       128.8       0.000      0.5000E-01   0.000    
   CYCLE    TIME      TIME-STEP  ELEMENT          ERROR  I-ENERGY    K-ENERGY T  K-ENERGY R  EXT-WORK     MAS.ERR     TOTAL MASS  MASS ADDED
    7150   4.550      0.6364E-03 SPRIN         11  -0.0%   179.1      0.1250E-03   0.000       129.1       0.000      0.5000E-01   0.000    
    7151   4.551      0.6364E-03 SPRIN         11  -0.0%   179.4      0.1250E-03   0.000       129.4       0.000      0.5000E-01   0.000    
    7152   4.552      0.6364E-03 SPRIN         11  -0.0%   179.8      0.1250E-03   0.000       129.8       0.000      0.5000E-01   0.000    
    7153   4.552      0.6364E-03 SPRIN         11  -0.0%   180.1      0.1250E-03   0.000       130.1       0.000      0.5000E-01   0.000    
    7154   4.553      0.6364E-03 SPRIN         11  -0.0%   180.5      0.1250E-03   0.000       130.5       0.000      0.5000E-01   0.000    
    7155   4.553      0.6364E-03 SPRIN         11  -0.0%   180.8      0.1250E-03   0.000       130.8       0.000      0.5000E-01   0.000    
    7156   4.554      0.6364E-03 SPRIN         11  -0.0%   181.2      0.1250E-03   0.000       131.2       0.000      0.5000E-01   0.000    
    7157   4.555      0.6364E-03 SPRIN         11  -0.0%   181.5      0.1250E-03   0.000       131.5       0.000      0.5000E-01   0.000    
    7158   4.555      0.6364E-03 SPRIN         11  -0.0%   181.9      0.1250E-03   0.000       131.9       0.000      0.5000E-01   0.000    
    7159   4.556      0.6364E-03 SPRIN         11  -0.0%   182.2      0.1250E-03   0.000       132.2       0.000      0.5000E-01   0.000    
    7160   4.557      0.6364E-03 SPRIN         11  -0.0%   182.6      0.1250E-03   0.000       132.6       0.000      0.5000E-01   0.000    
    7161   4.557      0.6364E-03 SPRIN         11  -0.0%   182.9      0.1250E-03   0.000       132.9       0.000      0.5000E-01   0.000    
    7162   4.558      0.6364E-03 SPRIN         11  -0.0%   183.3      0.1250E-03   0.000       133.3       0.000      0.5000E-01   0.000    
    7163   4.559      0.6364E-03 SPRIN         11  -0.0%   183.6      0.1250E-03   0.000       133.6       0.000      0.5000E-01   0.000    
    7164   4.559      0.6364E-03 SPRIN         11  -0.0%   184.0      0.1250E-03   0.000       134.0       0.000      0.5000E-01   0.000    
    7165   4.560      0.6364E-03 SPRIN         11  -0.0%   184.3      0.1250E-03   0.000       134.3       0.000      0.5000E-01   0.000    
    7166   4.560      0.6364E-03 SPRIN         11  -0.0%   184.7      0.1250E-03   0.000       134.7       0.000      0.5000E-01   0.000    
    7167   4.561      0.6364E-03 SPRIN         11  -0.0%   185.0      0.1250E-03   0.000       135.0       0.000      0.5000E-01   0.000    
    7168   4.562      0.6364E-03 SPRIN         11  -0.0%   185.4      0.1250E-03   0.000       135.4       0.000      0.5000E-01   0.000    
    7169   4.562      0.6364E-03 SPRIN         11  -0.0%   185.7      0.1250E-03   0.000       135.7       0.000      0.5000E-01   0.000    
    7170   4.563      0.6364E-03 SPRIN         11  -0.0%   186.1      0.1250E-03   0.000       136.1       0.000      0.5000E-01   0.000    
    7171   4.564      0.6364E-03 SPRIN         11  -0.0%   186.4      0.1250E-03   0.000       136.4       0.000      0.5000E-01   0.000    
    7172   4.564      0.6364E-03 SPRIN         11  -0.0%   186.8      0.1250E-03   0.000       136.8       0.000      0.5000E-01   0.000    
    7173   4.565      0.6364E-03 SPRIN         11  -0.0%   187.1      0.1250E-03   0.000       137.1       0.000      0.5000E-01   0.000    
    7174   4.566      0.6364E-03 SPRIN         11  -0.0%   187.5      0.1250E-03   0.000       137.5       0.000      0.5000E-01   0.000    
    7175   4.566      0.6364E-03 SPRIN         11  -0.0%   187.9      0.1250E-03   0.000       137.9       0.000      0.5000E-01   0.000    
    7176   4.567      0.6364E-03 SPRIN         11  -0.0%   188.2      0.1250E-03   0.000       138.2       0.000      0.5000E-01   0.000    
    7177   4.567      0.6364E-03 SPRIN         11  -0.0%   188.6      0.1250E-03   0.000       138.6       0.000      0.5000E-01   0.000    
    7178   4.568      0.6364E-03 SPRIN         11  -0.0%   188.9      0.1250E-03   0.000       138.9       0.000      0.5000E-01   0.000    
    7179   4.569      0.6364E-03 SPRIN         11  -0.0%   189.3      0.1250E-03   0.000       139.3       0.000      0.5000E-01   0.000    
    7180   4.569      0.6364E-03 SPRIN         11  -0.0%   189.6      0.1250E-03   0.000       139.6       0.000      0.5000E-01   0.000    
    7181   4.570      0.6364E-03 SPRIN         11  -0.0%   190.0      0.1250E-03   0.000       140.0       0.000      0.5000E-01   0.000    
    7182   4.571      0.6364E-03 SPRIN         11  -0.0%   190.4      0.1250E-03   0.000       140.4       0.000      0.5000E-01   0.000    
    7183   4.571      0.6364E-03 SPRIN         11  -0.0%   190.7      0.1250E-03   0.000       140.7       0.000      0.5000E-01   0.000    
    7184   4.572      0.6364E-03 SPRIN         11  -0.0%   191.1      0.1250E-03   0.000       141.1       0.000      0.5000E-01   0.000    
    7185   4.573      0.6364E-03 SPRIN         11  -0.0%   191.4      0.1250E-03   0.000       141.4       0.000      0.5000E-01   0.000    
    7186   4.573      0.6364E-03 SPRIN         11  -0.0%   191.8      0.1250E-03   0.000       141.8       0.000      0.5000E-01   0.000    
    7187   4.574      0.6364E-03 SPRIN         11  -0.0%   192.1      0.1250E-03   0.000       142.1       0.000      0.5000E-01   0.000    
    7188   4.574      0.6364E-03 SPRIN         11  -0.0%   192.5      0.1250E-03   0.000       142.5       0.000      0.5000E-01   0.000    
    7189   4.575      0.6364E-03 SPRIN         11  -0.0%   192.9      0.1250E-03   0.000       142.9       0.000      0.5000E-01   0.000    
    7190   4.576      0.6364E-03 SPRIN         11  -0.0%   193.2      0.1250E-03   0.000       143.2       0.000      0.5000E-01   0.000    
    7191   4.576      0.6364E-03 SPRIN         11  -0.0%   193.6      0.1250E-03   0.000       143.6       0.000      0.5000E-01   0.000    
    7192   4.577      0.6364E-03 SPRIN         11  -0.0%   194.0      0.1250E-03   0.000       144.0       0.000      0.5000E-01   0.000    
    7193   4.578      0.6364E-03 SPRIN         11  -0.0%   194.3      0.1250E-03   0.000       144.3       0.000      0.5000E-01   0.000    
    7194   4.578      0.6364E-03 SPRIN         11  -0.0%   194.7      0.1250E-03   0.000       144.7       0.000      0.5000E-01   0.000    
    7195   4.579      0.6364E-03 SPRIN         11  -0.0%   195.0      0.1250E-03   0.000       145.0       0.000      0.5000E-01   0.000    
    7196   4.580      0.6364E-03 SPRIN         11  -0.0%   195.4      0.1250E-03   0.000       145.4       0.000      0.5000E-01   0.000    
    7197   4.580      0.6364E-03 SPRIN         11  -0.0%   195.8      0.1250E-03   0.000       145.8       0.000      0.5000E-01   0.000    
    7198   4.581      0.6364E-03 SPRIN         11  -0.0%   196.1      0.1250E-03   0.000       146.1       0.000      0.5000E-01   0.000    
    7199   4.581      0.6364E-03 SPRIN         11  -0.0%   196.5      0.1250E-03   0.000       146.5       0.000      0.5000E-01   0.000    
    7200   4.582      0.6364E-03 SPRIN         11  -0.0%   196.9      0.1250E-03   0.000       146.9       0.000      0.5000E-01   0.000    
    7201   4.583      0.6364E-03 SPRIN         11  -0.0%   197.2      0.1250E-03   0.000       147.2       0.000      0.5000E-01   0.000    
    7202   4.583      0.6364E-03 SPRIN         11  -0.0%   197.6      0.1250E-03   0.000       147.6       0.000      0.5000E-01   0.000    
    7203   4.584      0.6364E-03 SPRIN         11  -0.0%   198.0      0.1250E-03   0.000       148.0       0.000      0.5000E-01   0.000    
    7204   4.585      0.6364E-03 SPRIN         11  -0.0%   198.3      0.1250E-03   0.000       148.3       0.000      0.5000E-01   0.000    
   CYCLE    TIME      TIME-STEP  ELEMENT          ERROR  I-ENERGY    K-ENERGY T  K-ENERGY R  EXT-WORK     MAS.ERR     TOTAL MASS  MASS ADDED
    7205   4.585      0.6364E-03 SPRIN         11  -0.0%   198.7      0.1250E-03   0.000       148.7       0.000      0.5000E-01   0.000    
    7206   4.586      0.6364E-03 SPRIN         11  -0.0%   199.1      0.1250E-03   0.000       149.1       0.000      0.5000E-01   0.000    
    7207   4.587      0.6364E-03 SPRIN         11  -0.0%   199.4      0.1250E-03   0.000       149.4       0.000      0.5000E-01   0.000    
    7208   4.587      0.6364E-03 SPRIN         11  -0.0%   199.8      0.1250E-03   0.000       149.8       0.000      0.5000E-01   0.000    
    7209   4.588      0.6364E-03 SPRIN         11  -0.0%   200.2      0.1250E-03   0.000       150.2       0.000      0.5000E-01   0.000    
    7210   4.588      0.6364E-03 SPRIN         11  -0.0%   200.5      0.1250E-03   0.000       150.5       0.000      0.5000E-01   0.000    
    7211   4.589      0.6364E-03 SPRIN         11  -0.0%   200.9      0.1250E-03   0.000       150.9       0.000      0.5000E-01   0.000    
    7212   4.590      0.6364E-03 SPRIN         11  -0.0%   201.3      0.1250E-03   0.000       151.3       0.000      0.5000E-01   0.000    
    7213   4.590      0.6364E-03 SPRIN         11  -0.0%   201.6      0.1250E-03   0.000       151.6       0.000      0.5000E-01   0.000    
    7214   4.591      0.6364E-03 SPRIN         11  -0.0%   202.0      0.1250E-03   0.000       152.0       0.000      0.5000E-01   0.000    
    7215   4.592      0.6364E-03 SPRIN         11  -0.0%   202.4      0.1250E-03   0.000       152.4       0.000      0.5000E-01   0.000    
    7216   4.592      0.6364E-03 SPRIN         11  -0.0%   202.8      0.1250E-03   0.000       152.8       0.000      0.5000E-01   0.000    
    7217   4.593      0.6364E-03 SPRIN         11  -0.0%   203.1      0.1250E-03   0.000       153.1       0.000      0.5000E-01   0.000    
    7218   4.594      0.6364E-03 SPRIN         11  -0.0%   203.5      0.1250E-03   0.000       153.5       0.000      0.5000E-01   0.000    
    7219   4.594      0.6364E-03 SPRIN         11  -0.0%   203.9      0.1250E-03   0.000       153.9       0.000      0.5000E-01   0.000    
    7220   4.595      0.6364E-03 SPRIN         11  -0.0%   204.3      0.1250E-03   0.000       154.3       0.000      0.5000E-01   0.000    
    7221   4.595      0.6364E-03 SPRIN         11  -0.0%   204.6      0.1250E-03   0.000       154.6       0.000      0.5000E-01   0.000    
    7222   4.596      0.6364E-03 SPRIN         11  -0.0%   205.0      0.1250E-03   0.000       155.0       0.000      0.5000E-01   0.000    
    7223   4.597      0.6364E-03 SPRIN         11  -0.0%   205.4      0.1250E-03   0.000       155.4       0.000      0.5000E-01   0.000    
    7224   4.597      0.6364E-03 SPRIN         11  -0.0%   205.8      0.1250E-03   0.000       155.8       0.000      0.5000E-01   0.000    
    7225   4.598      0.6364E-03 SPRIN         11  -0.0%   206.1      0.1250E-03   0.000       156.1       0.000      0.5000E-01   0.000    
    7226   4.599      0.6364E-03 SPRIN         11  -0.0%   206.5      0.1250E-03   0.000       156.5       0.000      0.5000E-01   0.000    
    7227   4.599      0.6364E-03 SPRIN         11  -0.0%   206.9      0.1250E-03   0.000       156.9       0.000      0.5000E-01   0.000    
    7228   4.600      0.6364E-03 SPRIN         11  -0.0%   207.3      0.1250E-03   0.000       157.3       0.000      0.5000E-01   0.000    
    7229   4.601      0.6364E-03 SPRIN         11  -0.0%   207.6      0.1250E-03   0.000       157.6       0.000      0.5000E-01   0.000    
     ANIMATION FILE: SPR_PRE_2FLAGA024 WRITTEN
    7230   4.601      0.6364E-03 SPRIN         11  -0.0%   208.0      0.1250E-03   0.000       158.0       0.000      0.5000E-01   0.000    
    7231   4.602      0.6364E-03 SPRIN         11  -0.0%   208.4      0.1250E-03   0.000       158.4       0.000      0.5000E-01   0.000    
    7232   4.602      0.6364E-03 SPRIN         11  -0.0%   208.8      0.1250E-03   0.000       158.8       0.000      0.5000E-01   0.000    
    7233   4.603      0.6364E-03 SPRIN         11  -0.0%   209.1      0.1250E-03   0.000       159.1       0.000      0.5000E-01   0.000    
    7234   4.604      0.6364E-03 SPRIN         11  -0.0%   209.5      0.1250E-03   0.000       159.5       0.000      0.5000E-01   0.000    
    7235   4.604      0.6364E-03 SPRIN         11  -0.0%   209.9      0.1250E-03   0.000       159.9       0.000      0.5000E-01   0.000    
    7236   4.605      0.6364E-03 SPRIN         11  -0.0%   210.3      0.1250E-03   0.000       160.3       0.000      0.5000E-01   0.000    
    7237   4.606      0.6364E-03 SPRIN         11  -0.0%   210.7      0.1250E-03   0.000       160.7       0.000      0.5000E-01   0.000    
    7238   4.606      0.6364E-03 SPRIN         11  -0.0%   211.0      0.1250E-03   0.000       161.0       0.000      0.5000E-01   0.000    
    7239   4.607      0.6364E-03 SPRIN         11  -0.0%   211.4      0.1250E-03   0.000       161.4       0.000      0.5000E-01   0.000    
    7240   4.608      0.6364E-03 SPRIN         11  -0.0%   211.8      0.1250E-03   0.000       161.8       0.000      0.5000E-01   0.000    
    7241   4.608      0.6364E-03 SPRIN         11  -0.0%   212.2      0.1250E-03   0.000       162.2       0.000      0.5000E-01   0.000    
    7242   4.609      0.6364E-03 SPRIN         11  -0.0%   212.6      0.1250E-03   0.000       162.6       0.000      0.5000E-01   0.000    
    7243   4.609      0.6364E-03 SPRIN         11  -0.0%   213.0      0.1250E-03   0.000       163.0       0.000      0.5000E-01   0.000    
    7244   4.610      0.6364E-03 SPRIN         11  -0.0%   213.3      0.1250E-03   0.000       163.3       0.000      0.5000E-01   0.000    
    7245   4.611      0.6364E-03 SPRIN         11  -0.0%   213.7      0.1250E-03   0.000       163.7       0.000      0.5000E-01   0.000    
    7246   4.611      0.6364E-03 SPRIN         11  -0.0%   214.1      0.1250E-03   0.000       164.1       0.000      0.5000E-01   0.000    
    7247   4.612      0.6364E-03 SPRIN         11  -0.0%   214.5      0.1250E-03   0.000       164.5       0.000      0.5000E-01   0.000    
    7248   4.613      0.6364E-03 SPRIN         11  -0.0%   214.9      0.1250E-03   0.000       164.9       0.000      0.5000E-01   0.000    
    7249   4.613      0.6364E-03 SPRIN         11  -0.0%   215.3      0.1250E-03   0.000       165.3       0.000      0.5000E-01   0.000    
    7250   4.614      0.6364E-03 SPRIN         11  -0.0%   215.6      0.1250E-03   0.000       165.6       0.000      0.5000E-01   0.000    
    7251   4.615      0.6364E-03 SPRIN         11  -0.0%   216.0      0.1250E-03   0.000       166.0       0.000      0.5000E-01   0.000    
    7252   4.615      0.6364E-03 SPRIN         11  -0.0%   216.4      0.1250E-03   0.000       166.4       0.000      0.5000E-01   0.000    
    7253   4.616      0.6364E-03 SPRIN         11  -0.0%   216.8      0.1250E-03   0.000       166.8       0.000      0.5000E-01   0.000    
    7254   4.616      0.6364E-03 SPRIN         11  -0.0%   217.2      0.1250E-03   0.000       167.2       0.000      0.5000E-01   0.000    
    7255   4.617      0.6364E-03 SPRIN         11  -0.0%   217.6      0.1250E-03   0.000       167.6       0.000      0.5000E-01   0.000    
    7256   4.618      0.6364E-03 SPRIN         11  -0.0%   218.0      0.1250E-03   0.000       168.0       0.000      0.5000E-01   0.000    
    7257   4.618      0.6364E-03 SPRIN         11  -0.0%   218.4      0.1250E-03   0.000       168.4       0.000      0.5000E-01   0.000    
    7258   4.619      0.6364E-03 SPRIN         11  -0.0%   218.7      0.1250E-03   0.000       168.7       0.000      0.5000E-01   0.000    
    7259   4.620      0.6364E-03 SPRIN         11  -0.0%   219.1      0.1250E-03   0.000       169.1       0.000      0.5000E-01   0.000    
   CYCLE    TIME      TIME-STEP  ELEMENT          ERROR  I-ENERGY    K-ENERGY T  K-ENERGY R  EXT-WORK     MAS.ERR     TOTAL MASS  MASS ADDED
    7260   4.620      0.6364E-03 SPRIN         11  -0.0%   219.5      0.1250E-03   0.000       169.5       0.000      0.5000E-01   0.000    
    7261   4.621      0.6364E-03 SPRIN         11  -0.0%   219.9      0.1250E-03   0.000       169.9       0.000      0.5000E-01   0.000    
    7262   4.622      0.6364E-03 SPRIN         11  -0.0%   220.3      0.1250E-03   0.000       170.3       0.000      0.5000E-01   0.000    
    7263   4.622      0.6364E-03 SPRIN         11  -0.0%   220.7      0.1250E-03   0.000       170.7       0.000      0.5000E-01   0.000    
    7264   4.623      0.6364E-03 SPRIN         11  -0.0%   221.1      0.1250E-03   0.000       171.1       0.000      0.5000E-01   0.000    
    7265   4.623      0.6364E-03 SPRIN         11  -0.0%   221.5      0.1250E-03   0.000       171.5       0.000      0.5000E-01   0.000    
    7266   4.624      0.6364E-03 SPRIN         11  -0.0%   221.9      0.1250E-03   0.000       171.9       0.000      0.5000E-01   0.000    
    7267   4.625      0.6364E-03 SPRIN         11  -0.0%   222.3      0.1250E-03   0.000       172.3       0.000      0.5000E-01   0.000    
    7268   4.625      0.6364E-03 SPRIN         11  -0.0%   222.7      0.1250E-03   0.000       172.7       0.000      0.5000E-01   0.000    
    7269   4.626      0.6364E-03 SPRIN         11  -0.0%   223.0      0.1250E-03   0.000       173.0       0.000      0.5000E-01   0.000    
    7270   4.627      0.6364E-03 SPRIN         11  -0.0%   223.4      0.1250E-03   0.000       173.4       0.000      0.5000E-01   0.000    
    7271   4.627      0.6364E-03 SPRIN         11  -0.0%   223.8      0.1250E-03   0.000       173.8       0.000      0.5000E-01   0.000    
    7272   4.628      0.6364E-03 SPRIN         11  -0.0%   224.2      0.1250E-03   0.000       174.2       0.000      0.5000E-01   0.000    
    7273   4.629      0.6364E-03 SPRIN         11  -0.0%   224.6      0.1250E-03   0.000       174.6       0.000      0.5000E-01   0.000    
    7274   4.629      0.6364E-03 SPRIN         11  -0.0%   225.0      0.1250E-03   0.000       175.0       0.000      0.5000E-01   0.000    
    7275   4.630      0.6364E-03 SPRIN         11  -0.0%   225.4      0.1250E-03   0.000       175.4       0.000      0.5000E-01   0.000    
    7276   4.630      0.6364E-03 SPRIN         11  -0.0%   225.8      0.1250E-03   0.000       175.8       0.000      0.5000E-01   0.000    
    7277   4.631      0.6364E-03 SPRIN         11  -0.0%   226.2      0.1250E-03   0.000       176.2       0.000      0.5000E-01   0.000    
    7278   4.632      0.6364E-03 SPRIN         11  -0.0%   226.6      0.1250E-03   0.000       176.6       0.000      0.5000E-01   0.000    
    7279   4.632      0.6364E-03 SPRIN         11  -0.0%   227.0      0.1250E-03   0.000       177.0       0.000      0.5000E-01   0.000    
    7280   4.633      0.6364E-03 SPRIN         11  -0.0%   227.4      0.1250E-03   0.000       177.4       0.000      0.5000E-01   0.000    
    7281   4.634      0.6364E-03 SPRIN         11  -0.0%   227.8      0.1250E-03   0.000       177.8       0.000      0.5000E-01   0.000    
    7282   4.634      0.6364E-03 SPRIN         11  -0.0%   228.2      0.1250E-03   0.000       178.2       0.000      0.5000E-01   0.000    
    7283   4.635      0.6364E-03 SPRIN         11  -0.0%   228.6      0.1250E-03   0.000       178.6       0.000      0.5000E-01   0.000    
    7284   4.636      0.6364E-03 SPRIN         11  -0.0%   229.0      0.1250E-03   0.000       179.0       0.000      0.5000E-01   0.000    
    7285   4.636      0.6364E-03 SPRIN         11  -0.0%   229.4      0.1250E-03   0.000       179.4       0.000      0.5000E-01   0.000    
    7286   4.637      0.6364E-03 SPRIN         11  -0.0%   229.8      0.1250E-03   0.000       179.8       0.000      0.5000E-01   0.000    
    7287   4.637      0.6364E-03 SPRIN         11  -0.0%   230.2      0.1250E-03   0.000       180.2       0.000      0.5000E-01   0.000    
    7288   4.638      0.6364E-03 SPRIN         11  -0.0%   230.6      0.1250E-03   0.000       180.6       0.000      0.5000E-01   0.000    
    7289   4.639      0.6364E-03 SPRIN         11  -0.0%   231.0      0.1250E-03   0.000       181.0       0.000      0.5000E-01   0.000    
    7290   4.639      0.6364E-03 SPRIN         11  -0.0%   231.4      0.1250E-03   0.000       181.4       0.000      0.5000E-01   0.000    
    7291   4.640      0.6364E-03 SPRIN         11  -0.0%   231.8      0.1250E-03   0.000       181.8       0.000      0.5000E-01   0.000    
    7292   4.641      0.6364E-03 SPRIN         11  -0.0%   232.2      0.1250E-03   0.000       182.2       0.000      0.5000E-01   0.000    
    7293   4.641      0.6364E-03 SPRIN         11  -0.0%   232.6      0.1250E-03   0.000       182.6       0.000      0.5000E-01   0.000    
    7294   4.642      0.6364E-03 SPRIN         11  -0.0%   233.0      0.1250E-03   0.000       183.0       0.000      0.5000E-01   0.000    
    7295   4.643      0.6364E-03 SPRIN         11  -0.0%   233.4      0.1250E-03   0.000       183.4       0.000      0.5000E-01   0.000    
    7296   4.643      0.6364E-03 SPRIN         11  -0.0%   233.8      0.1250E-03   0.000       183.8       0.000      0.5000E-01   0.000    
    7297   4.644      0.6364E-03 SPRIN         11  -0.0%   234.2      0.1250E-03   0.000       184.2       0.000      0.5000E-01   0.000    
    7298   4.644      0.6364E-03 SPRIN         11  -0.0%   234.6      0.1250E-03   0.000       184.6       0.000      0.5000E-01   0.000    
    7299   4.645      0.6364E-03 SPRIN         11  -0.0%   235.0      0.1250E-03   0.000       185.0       0.000      0.5000E-01   0.000    
    7300   4.646      0.6364E-03 SPRIN         11  -0.0%   235.4      0.1250E-03   0.000       185.4       0.000      0.5000E-01   0.000    
    7301   4.646      0.6364E-03 SPRIN         11  -0.0%   235.8      0.1250E-03   0.000       185.8       0.000      0.5000E-01   0.000    
    7302   4.647      0.6364E-03 SPRIN         11  -0.0%   236.2      0.1250E-03   0.000       186.2       0.000      0.5000E-01   0.000    
    7303   4.648      0.6364E-03 SPRIN         11  -0.0%   236.7      0.1250E-03   0.000       186.7       0.000      0.5000E-01   0.000    
    7304   4.648      0.6364E-03 SPRIN         11  -0.0%   237.1      0.1250E-03   0.000       187.1       0.000      0.5000E-01   0.000    
    7305   4.649      0.6364E-03 SPRIN         11  -0.0%   237.5      0.1250E-03   0.000       187.5       0.000      0.5000E-01   0.000    
    7306   4.650      0.6364E-03 SPRIN         11  -0.0%   237.9      0.1250E-03   0.000       187.9       0.000      0.5000E-01   0.000    
    7307   4.650      0.6364E-03 SPRIN         11  -0.0%   238.3      0.1250E-03   0.000       188.3       0.000      0.5000E-01   0.000    
    7308   4.651      0.6364E-03 SPRIN         11  -0.0%   238.7      0.1250E-03   0.000       188.7       0.000      0.5000E-01   0.000    
    7309   4.651      0.6364E-03 SPRIN         11  -0.0%   239.1      0.1250E-03   0.000       189.1       0.000      0.5000E-01   0.000    
    7310   4.652      0.6364E-03 SPRIN         11  -0.0%   239.5      0.1250E-03   0.000       189.5       0.000      0.5000E-01   0.000    
    7311   4.653      0.6364E-03 SPRIN         11  -0.0%   239.9      0.1250E-03   0.000       189.9       0.000      0.5000E-01   0.000    
    7312   4.653      0.6364E-03 SPRIN         11  -0.0%   240.3      0.1250E-03   0.000       190.3       0.000      0.5000E-01   0.000    
    7313   4.654      0.6364E-03 SPRIN         11  -0.0%   240.7      0.1250E-03   0.000       190.7       0.000      0.5000E-01   0.000    
    7314   4.655      0.6364E-03 SPRIN         11  -0.0%   241.2      0.1250E-03   0.000       191.2       0.000      0.5000E-01   0.000    
   CYCLE    TIME      TIME-STEP  ELEMENT          ERROR  I-ENERGY    K-ENERGY T  K-ENERGY R  EXT-WORK     MAS.ERR     TOTAL MASS  MASS ADDED
    7315   4.655      0.6364E-03 SPRIN         11  -0.0%   241.6      0.1250E-03   0.000       191.6       0.000      0.5000E-01   0.000    
    7316   4.656      0.6364E-03 SPRIN         11  -0.0%   242.0      0.1250E-03   0.000       192.0       0.000      0.5000E-01   0.000    
    7317   4.657      0.6364E-03 SPRIN         11  -0.0%   242.4      0.1250E-03   0.000       192.4       0.000      0.5000E-01   0.000    
    7318   4.657      0.6364E-03 SPRIN         11  -0.0%   242.8      0.1250E-03   0.000       192.8       0.000      0.5000E-01   0.000    
    7319   4.658      0.6364E-03 SPRIN         11  -0.0%   243.2      0.1250E-03   0.000       193.2       0.000      0.5000E-01   0.000    
    7320   4.658      0.6364E-03 SPRIN         11  -0.0%   243.6      0.1250E-03   0.000       193.6       0.000      0.5000E-01   0.000    
    7321   4.659      0.6364E-03 SPRIN         11  -0.0%   244.0      0.1250E-03   0.000       194.0       0.000      0.5000E-01   0.000    
    7322   4.660      0.6364E-03 SPRIN         11  -0.0%   244.5      0.1250E-03   0.000       194.5       0.000      0.5000E-01   0.000    
    7323   4.660      0.6364E-03 SPRIN         11  -0.0%   244.9      0.1250E-03   0.000       194.9       0.000      0.5000E-01   0.000    
    7324   4.661      0.6364E-03 SPRIN         11  -0.0%   245.3      0.1250E-03   0.000       195.3       0.000      0.5000E-01   0.000    
    7325   4.662      0.6364E-03 SPRIN         11  -0.0%   245.7      0.1250E-03   0.000       195.7       0.000      0.5000E-01   0.000    
    7326   4.662      0.6364E-03 SPRIN         11  -0.0%   246.1      0.1250E-03   0.000       196.1       0.000      0.5000E-01   0.000    
    7327   4.663      0.6364E-03 SPRIN         11  -0.0%   246.5      0.1250E-03   0.000       196.5       0.000      0.5000E-01   0.000    
    7328   4.664      0.6364E-03 SPRIN         11  -0.0%   247.0      0.1250E-03   0.000       197.0       0.000      0.5000E-01   0.000    
    7329   4.664      0.6364E-03 SPRIN         11  -0.0%   247.4      0.1250E-03   0.000       197.4       0.000      0.5000E-01   0.000    
    7330   4.665      0.6364E-03 SPRIN         11  -0.0%   247.8      0.1250E-03   0.000       197.8       0.000      0.5000E-01   0.000    
    7331   4.665      0.6364E-03 SPRIN         11  -0.0%   248.2      0.1250E-03   0.000       198.2       0.000      0.5000E-01   0.000    
    7332   4.666      0.6364E-03 SPRIN         11  -0.0%   248.6      0.1250E-03   0.000       198.6       0.000      0.5000E-01   0.000    
    7333   4.667      0.6364E-03 SPRIN         11  -0.0%   249.1      0.1250E-03   0.000       199.1       0.000      0.5000E-01   0.000    
    7334   4.667      0.6364E-03 SPRIN         11  -0.0%   249.5      0.1250E-03   0.000       199.5       0.000      0.5000E-01   0.000    
    7335   4.668      0.6364E-03 SPRIN         11  -0.0%   249.9      0.1250E-03   0.000       199.9       0.000      0.5000E-01   0.000    
    7336   4.669      0.6364E-03 SPRIN         11  -0.0%   250.3      0.1250E-03   0.000       200.3       0.000      0.5000E-01   0.000    
    7337   4.669      0.6364E-03 SPRIN         11  -0.0%   250.7      0.1250E-03   0.000       200.7       0.000      0.5000E-01   0.000    
    7338   4.670      0.6364E-03 SPRIN         11  -0.0%   251.2      0.1250E-03   0.000       201.2       0.000      0.5000E-01   0.000    
    7339   4.671      0.6364E-03 SPRIN         11  -0.0%   251.6      0.1250E-03   0.000       201.6       0.000      0.5000E-01   0.000    
    7340   4.671      0.6364E-03 SPRIN         11  -0.0%   252.0      0.1250E-03   0.000       202.0       0.000      0.5000E-01   0.000    
    7341   4.672      0.6364E-03 SPRIN         11  -0.0%   252.4      0.1250E-03   0.000       202.4       0.000      0.5000E-01   0.000    
    7342   4.672      0.6364E-03 SPRIN         11  -0.0%   252.8      0.1250E-03   0.000       202.8       0.000      0.5000E-01   0.000    
    7343   4.673      0.6364E-03 SPRIN         11  -0.0%   253.3      0.1250E-03   0.000       203.3       0.000      0.5000E-01   0.000    
    7344   4.674      0.6364E-03 SPRIN         11  -0.0%   253.7      0.1250E-03   0.000       203.7       0.000      0.5000E-01   0.000    
    7345   4.674      0.6364E-03 SPRIN         11  -0.0%   254.1      0.1250E-03   0.000       204.1       0.000      0.5000E-01   0.000    
    7346   4.675      0.6364E-03 SPRIN         11  -0.0%   254.5      0.1250E-03   0.000       204.5       0.000      0.5000E-01   0.000    
    7347   4.676      0.6364E-03 SPRIN         11  -0.0%   255.0      0.1250E-03   0.000       205.0       0.000      0.5000E-01   0.000    
    7348   4.676      0.6364E-03 SPRIN         11  -0.0%   255.4      0.1250E-03   0.000       205.4       0.000      0.5000E-01   0.000    
    7349   4.677      0.6364E-03 SPRIN         11  -0.0%   255.8      0.1250E-03   0.000       205.8       0.000      0.5000E-01   0.000    
    7350   4.678      0.6364E-03 SPRIN         11  -0.0%   256.2      0.1250E-03   0.000       206.2       0.000      0.5000E-01   0.000    
    7351   4.678      0.6364E-03 SPRIN         11  -0.0%   256.7      0.1250E-03   0.000       206.7       0.000      0.5000E-01   0.000    
    7352   4.679      0.6364E-03 SPRIN         11  -0.0%   257.1      0.1250E-03   0.000       207.1       0.000      0.5000E-01   0.000    
    7353   4.679      0.6364E-03 SPRIN         11  -0.0%   257.5      0.1250E-03   0.000       207.5       0.000      0.5000E-01   0.000    
    7354   4.680      0.6364E-03 SPRIN         11  -0.0%   257.9      0.1250E-03   0.000       207.9       0.000      0.5000E-01   0.000    
    7355   4.681      0.6364E-03 SPRIN         11  -0.0%   258.4      0.1250E-03   0.000       208.4       0.000      0.5000E-01   0.000    
    7356   4.681      0.6364E-03 SPRIN         11  -0.0%   258.8      0.1250E-03   0.000       208.8       0.000      0.5000E-01   0.000    
    7357   4.682      0.6364E-03 SPRIN         11  -0.0%   259.2      0.1250E-03   0.000       209.2       0.000      0.5000E-01   0.000    
    7358   4.683      0.6364E-03 SPRIN         11  -0.0%   259.7      0.1250E-03   0.000       209.7       0.000      0.5000E-01   0.000    
    7359   4.683      0.6364E-03 SPRIN         11  -0.0%   260.1      0.1250E-03   0.000       210.1       0.000      0.5000E-01   0.000    
    7360   4.684      0.6364E-03 SPRIN         11  -0.0%   260.5      0.1250E-03   0.000       210.5       0.000      0.5000E-01   0.000    
    7361   4.685      0.6364E-03 SPRIN         11  -0.0%   261.0      0.1250E-03   0.000       211.0       0.000      0.5000E-01   0.000    
    7362   4.685      0.6364E-03 SPRIN         11  -0.0%   261.4      0.1250E-03   0.000       211.4       0.000      0.5000E-01   0.000    
    7363   4.686      0.6364E-03 SPRIN         11  -0.0%   261.8      0.1250E-03   0.000       211.8       0.000      0.5000E-01   0.000    
    7364   4.686      0.6364E-03 SPRIN         11  -0.0%   262.2      0.1250E-03   0.000       212.2       0.000      0.5000E-01   0.000    
    7365   4.687      0.6364E-03 SPRIN         11  -0.0%   262.7      0.1250E-03   0.000       212.7       0.000      0.5000E-01   0.000    
    7366   4.688      0.6364E-03 SPRIN         11  -0.0%   263.1      0.1250E-03   0.000       213.1       0.000      0.5000E-01   0.000    
    7367   4.688      0.6364E-03 SPRIN         11  -0.0%   263.5      0.1250E-03   0.000       213.5       0.000      0.5000E-01   0.000    
    7368   4.689      0.6364E-03 SPRIN         11  -0.0%   264.0      0.1250E-03   0.000       214.0       0.000      0.5000E-01   0.000    
    7369   4.690      0.6364E-03 SPRIN         11  -0.0%   264.4      0.1250E-03   0.000       214.4       0.000      0.5000E-01   0.000    
   CYCLE    TIME      TIME-STEP  ELEMENT          ERROR  I-ENERGY    K-ENERGY T  K-ENERGY R  EXT-WORK     MAS.ERR     TOTAL MASS  MASS ADDED
    7370   4.690      0.6364E-03 SPRIN         11  -0.0%   264.8      0.1250E-03   0.000       214.8       0.000      0.5000E-01   0.000    
    7371   4.691      0.6364E-03 SPRIN         11  -0.0%   265.3      0.1250E-03   0.000       215.3       0.000      0.5000E-01   0.000    
    7372   4.692      0.6364E-03 SPRIN         11  -0.0%   265.7      0.1250E-03   0.000       215.7       0.000      0.5000E-01   0.000    
    7373   4.692      0.6364E-03 SPRIN         11  -0.0%   266.1      0.1250E-03   0.000       216.1       0.000      0.5000E-01   0.000    
    7374   4.693      0.6364E-03 SPRIN         11  -0.0%   266.6      0.1250E-03   0.000       216.6       0.000      0.5000E-01   0.000    
    7375   4.693      0.6364E-03 SPRIN         11  -0.0%   267.0      0.1250E-03   0.000       217.0       0.000      0.5000E-01   0.000    
    7376   4.694      0.6364E-03 SPRIN         11  -0.0%   267.5      0.1250E-03   0.000       217.5       0.000      0.5000E-01   0.000    
    7377   4.695      0.6364E-03 SPRIN         11  -0.0%   267.9      0.1250E-03   0.000       217.9       0.000      0.5000E-01   0.000    
    7378   4.695      0.6364E-03 SPRIN         11  -0.0%   268.3      0.1250E-03   0.000       218.3       0.000      0.5000E-01   0.000    
    7379   4.696      0.6364E-03 SPRIN         11  -0.0%   268.8      0.1250E-03   0.000       218.8       0.000      0.5000E-01   0.000    
    7380   4.697      0.6364E-03 SPRIN         11  -0.0%   269.2      0.1250E-03   0.000       219.2       0.000      0.5000E-01   0.000    
    7381   4.697      0.6364E-03 SPRIN         11  -0.0%   269.6      0.1250E-03   0.000       219.6       0.000      0.5000E-01   0.000    
    7382   4.698      0.6364E-03 SPRIN         11  -0.0%   270.1      0.1250E-03   0.000       220.1       0.000      0.5000E-01   0.000    
    7383   4.699      0.6364E-03 SPRIN         11  -0.0%   270.5      0.1250E-03   0.000       220.5       0.000      0.5000E-01   0.000    
    7384   4.699      0.6364E-03 SPRIN         11  -0.0%   271.0      0.1250E-03   0.000       221.0       0.000      0.5000E-01   0.000    
    7385   4.700      0.6364E-03 SPRIN         11  -0.0%   271.4      0.1250E-03   0.000       221.4       0.000      0.5000E-01   0.000    
    7386   4.700      0.6364E-03 SPRIN         11  -0.0%   271.8      0.1250E-03   0.000       221.8       0.000      0.5000E-01   0.000    
    7387   4.701      0.6364E-03 SPRIN         11  -0.0%   272.3      0.1250E-03   0.000       222.3       0.000      0.5000E-01   0.000    
    7388   4.702      0.6364E-03 SPRIN         11  -0.0%   272.7      0.1250E-03   0.000       222.7       0.000      0.5000E-01   0.000    
    7389   4.702      0.6364E-03 SPRIN         11  -0.0%   273.2      0.1250E-03   0.000       223.2       0.000      0.5000E-01   0.000    
    7390   4.703      0.6364E-03 SPRIN         11  -0.0%   273.6      0.1250E-03   0.000       223.6       0.000      0.5000E-01   0.000    
    7391   4.704      0.6364E-03 SPRIN         11  -0.0%   274.1      0.1250E-03   0.000       224.1       0.000      0.5000E-01   0.000    
    7392   4.704      0.6364E-03 SPRIN         11  -0.0%   274.5      0.1250E-03   0.000       224.5       0.000      0.5000E-01   0.000    
    7393   4.705      0.6364E-03 SPRIN         11  -0.0%   274.9      0.1250E-03   0.000       224.9       0.000      0.5000E-01   0.000    
    7394   4.706      0.6364E-03 SPRIN         11  -0.0%   275.4      0.1250E-03   0.000       225.4       0.000      0.5000E-01   0.000    
    7395   4.706      0.6364E-03 SPRIN         11  -0.0%   275.8      0.1250E-03   0.000       225.8       0.000      0.5000E-01   0.000    
    7396   4.707      0.6364E-03 SPRIN         11  -0.0%   276.3      0.1250E-03   0.000       226.3       0.000      0.5000E-01   0.000    
    7397   4.707      0.6364E-03 SPRIN         11  -0.0%   276.7      0.1250E-03   0.000       226.7       0.000      0.5000E-01   0.000    
    7398   4.708      0.6364E-03 SPRIN         11  -0.0%   277.2      0.1250E-03   0.000       227.2       0.000      0.5000E-01   0.000    
    7399   4.709      0.6364E-03 SPRIN         11  -0.0%   277.6      0.1250E-03   0.000       227.6       0.000      0.5000E-01   0.000    
    7400   4.709      0.6364E-03 SPRIN         11  -0.0%   278.1      0.1250E-03   0.000       228.1       0.000      0.5000E-01   0.000    
    7401   4.710      0.6364E-03 SPRIN         11  -0.0%   278.5      0.1250E-03   0.000       228.5       0.000      0.5000E-01   0.000    
    7402   4.711      0.6364E-03 SPRIN         11  -0.0%   278.9      0.1250E-03   0.000       228.9       0.000      0.5000E-01   0.000    
    7403   4.711      0.6364E-03 SPRIN         11  -0.0%   279.4      0.1250E-03   0.000       229.4       0.000      0.5000E-01   0.000    
    7404   4.712      0.6364E-03 SPRIN         11  -0.0%   279.8      0.1250E-03   0.000       229.8       0.000      0.5000E-01   0.000    
    7405   4.713      0.6364E-03 SPRIN         11  -0.0%   280.3      0.1250E-03   0.000       230.3       0.000      0.5000E-01   0.000    
    7406   4.713      0.6364E-03 SPRIN         11  -0.0%   280.7      0.1250E-03   0.000       230.7       0.000      0.5000E-01   0.000    
    7407   4.714      0.6364E-03 SPRIN         11  -0.0%   281.2      0.1250E-03   0.000       231.2       0.000      0.5000E-01   0.000    
    7408   4.714      0.6364E-03 SPRIN         11  -0.0%   281.6      0.1250E-03   0.000       231.6       0.000      0.5000E-01   0.000    
    7409   4.715      0.6364E-03 SPRIN         11  -0.0%   282.1      0.1250E-03   0.000       232.1       0.000      0.5000E-01   0.000    
    7410   4.716      0.6364E-03 SPRIN         11  -0.0%   282.5      0.1250E-03   0.000       232.5       0.000      0.5000E-01   0.000    
    7411   4.716      0.6364E-03 SPRIN         11  -0.0%   283.0      0.1250E-03   0.000       233.0       0.000      0.5000E-01   0.000    
    7412   4.717      0.6364E-03 SPRIN         11  -0.0%   283.4      0.1250E-03   0.000       233.4       0.000      0.5000E-01   0.000    
    7413   4.718      0.6364E-03 SPRIN         11  -0.0%   283.9      0.1250E-03   0.000       233.9       0.000      0.5000E-01   0.000    
    7414   4.718      0.6364E-03 SPRIN         11  -0.0%   284.3      0.1250E-03   0.000       234.3       0.000      0.5000E-01   0.000    
    7415   4.719      0.6364E-03 SPRIN         11  -0.0%   284.8      0.1250E-03   0.000       234.8       0.000      0.5000E-01   0.000    
    7416   4.720      0.6364E-03 SPRIN         11  -0.0%   285.2      0.1250E-03   0.000       235.2       0.000      0.5000E-01   0.000    
    7417   4.720      0.6364E-03 SPRIN         11  -0.0%   285.7      0.1250E-03   0.000       235.7       0.000      0.5000E-01   0.000    
    7418   4.721      0.6364E-03 SPRIN         11  -0.0%   286.2      0.1250E-03   0.000       236.2       0.000      0.5000E-01   0.000    
    7419   4.721      0.6364E-03 SPRIN         11  -0.0%   286.6      0.1250E-03   0.000       236.6       0.000      0.5000E-01   0.000    
    7420   4.722      0.6364E-03 SPRIN         11  -0.0%   287.1      0.1250E-03   0.000       237.1       0.000      0.5000E-01   0.000    
    7421   4.723      0.6364E-03 SPRIN         11  -0.0%   287.5      0.1250E-03   0.000       237.5       0.000      0.5000E-01   0.000    
    7422   4.723      0.6364E-03 SPRIN         11  -0.0%   288.0      0.1250E-03   0.000       238.0       0.000      0.5000E-01   0.000    
    7423   4.724      0.6364E-03 SPRIN         11  -0.0%   288.4      0.1250E-03   0.000       238.4       0.000      0.5000E-01   0.000    
    7424   4.725      0.6364E-03 SPRIN         11  -0.0%   288.9      0.1250E-03   0.000       238.9       0.000      0.5000E-01   0.000    
   CYCLE    TIME      TIME-STEP  ELEMENT          ERROR  I-ENERGY    K-ENERGY T  K-ENERGY R  EXT-WORK     MAS.ERR     TOTAL MASS  MASS ADDED
    7425   4.725      0.6364E-03 SPRIN         11  -0.0%   289.3      0.1250E-03   0.000       239.3       0.000      0.5000E-01   0.000    
    7426   4.726      0.6364E-03 SPRIN         11  -0.0%   289.8      0.1250E-03   0.000       239.8       0.000      0.5000E-01   0.000    
    7427   4.727      0.6364E-03 SPRIN         11  -0.0%   290.3      0.1250E-03   0.000       240.3       0.000      0.5000E-01   0.000    
    7428   4.727      0.6364E-03 SPRIN         11  -0.0%   290.7      0.1250E-03   0.000       240.7       0.000      0.5000E-01   0.000    
    7429   4.728      0.6364E-03 SPRIN         11  -0.0%   291.2      0.1250E-03   0.000       241.2       0.000      0.5000E-01   0.000    
    7430   4.728      0.6364E-03 SPRIN         11  -0.0%   291.6      0.1250E-03   0.000       241.6       0.000      0.5000E-01   0.000    
    7431   4.729      0.6364E-03 SPRIN         11  -0.0%   292.1      0.1250E-03   0.000       242.1       0.000      0.5000E-01   0.000    
    7432   4.730      0.6364E-03 SPRIN         11  -0.0%   292.5      0.1250E-03   0.000       242.5       0.000      0.5000E-01   0.000    
    7433   4.730      0.6364E-03 SPRIN         11  -0.0%   293.0      0.1250E-03   0.000       243.0       0.000      0.5000E-01   0.000    
    7434   4.731      0.6364E-03 SPRIN         11  -0.0%   293.5      0.1250E-03   0.000       243.5       0.000      0.5000E-01   0.000    
    7435   4.732      0.6364E-03 SPRIN         11  -0.0%   293.9      0.1250E-03   0.000       243.9       0.000      0.5000E-01   0.000    
    7436   4.732      0.6364E-03 SPRIN         11  -0.0%   294.4      0.1250E-03   0.000       244.4       0.000      0.5000E-01   0.000    
    7437   4.733      0.6364E-03 SPRIN         11  -0.0%   294.9      0.1250E-03   0.000       244.9       0.000      0.5000E-01   0.000    
    7438   4.734      0.6364E-03 SPRIN         11  -0.0%   295.3      0.1250E-03   0.000       245.3       0.000      0.5000E-01   0.000    
    7439   4.734      0.6364E-03 SPRIN         11  -0.0%   295.8      0.1250E-03   0.000       245.8       0.000      0.5000E-01   0.000    
    7440   4.735      0.6364E-03 SPRIN         11  -0.0%   296.2      0.1250E-03   0.000       246.2       0.000      0.5000E-01   0.000    
    7441   4.735      0.6364E-03 SPRIN         11  -0.0%   296.7      0.1250E-03   0.000       246.7       0.000      0.5000E-01   0.000    
    7442   4.736      0.6364E-03 SPRIN         11  -0.0%   297.2      0.1250E-03   0.000       247.2       0.000      0.5000E-01   0.000    
    7443   4.737      0.6364E-03 SPRIN         11  -0.0%   297.6      0.1250E-03   0.000       247.6       0.000      0.5000E-01   0.000    
    7444   4.737      0.6364E-03 SPRIN         11  -0.0%   298.1      0.1250E-03   0.000       248.1       0.000      0.5000E-01   0.000    
    7445   4.738      0.6364E-03 SPRIN         11  -0.0%   298.6      0.1250E-03   0.000       248.6       0.000      0.5000E-01   0.000    
    7446   4.739      0.6364E-03 SPRIN         11  -0.0%   299.0      0.1250E-03   0.000       249.0       0.000      0.5000E-01   0.000    
    7447   4.739      0.6364E-03 SPRIN         11  -0.0%   299.5      0.1250E-03   0.000       249.5       0.000      0.5000E-01   0.000    
    7448   4.740      0.6364E-03 SPRIN         11  -0.0%   300.0      0.1250E-03   0.000       250.0       0.000      0.5000E-01   0.000    
    7449   4.741      0.6364E-03 SPRIN         11  -0.0%   300.4      0.1250E-03   0.000       250.4       0.000      0.5000E-01   0.000    
    7450   4.741      0.6364E-03 SPRIN         11  -0.0%   300.9      0.1250E-03   0.000       250.9       0.000      0.5000E-01   0.000    
    7451   4.742      0.6364E-03 SPRIN         11  -0.0%   301.3      0.1250E-03   0.000       251.4       0.000      0.5000E-01   0.000    
    7452   4.742      0.6364E-03 SPRIN         11  -0.0%   301.8      0.1250E-03   0.000       251.8       0.000      0.5000E-01   0.000    
    7453   4.743      0.6364E-03 SPRIN         11  -0.0%   302.3      0.1250E-03   0.000       252.3       0.000      0.5000E-01   0.000    
    7454   4.744      0.6364E-03 SPRIN         11  -0.0%   302.8      0.1250E-03   0.000       252.8       0.000      0.5000E-01   0.000    
    7455   4.744      0.6364E-03 SPRIN         11  -0.0%   303.2      0.1250E-03   0.000       253.2       0.000      0.5000E-01   0.000    
    7456   4.745      0.6364E-03 SPRIN         11  -0.0%   303.7      0.1250E-03   0.000       253.7       0.000      0.5000E-01   0.000    
    7457   4.746      0.6364E-03 SPRIN         11  -0.0%   304.2      0.1250E-03   0.000       254.2       0.000      0.5000E-01   0.000    
    7458   4.746      0.6364E-03 SPRIN         11  -0.0%   304.6      0.1250E-03   0.000       254.6       0.000      0.5000E-01   0.000    
    7459   4.747      0.6364E-03 SPRIN         11  -0.0%   305.1      0.1250E-03   0.000       255.1       0.000      0.5000E-01   0.000    
    7460   4.748      0.6364E-03 SPRIN         11  -0.0%   305.6      0.1250E-03   0.000       255.6       0.000      0.5000E-01   0.000    
    7461   4.748      0.6364E-03 SPRIN         11  -0.0%   306.0      0.1250E-03   0.000       256.0       0.000      0.5000E-01   0.000    
    7462   4.749      0.6364E-03 SPRIN         11  -0.0%   306.5      0.1250E-03   0.000       256.5       0.000      0.5000E-01   0.000    
    7463   4.749      0.6364E-03 SPRIN         11  -0.0%   307.0      0.1250E-03   0.000       257.0       0.000      0.5000E-01   0.000    
    7464   4.750      0.6364E-03 SPRIN         11  -0.0%   307.5      0.1250E-03   0.000       257.5       0.000      0.5000E-01   0.000    
    7465   4.751      0.6364E-03 SPRIN         11  -0.0%   307.9      0.1250E-03   0.000       257.9       0.000      0.5000E-01   0.000    
    7466   4.751      0.6364E-03 SPRIN         11  -0.0%   308.4      0.1250E-03   0.000       258.4       0.000      0.5000E-01   0.000    
    7467   4.752      0.6364E-03 SPRIN         11  -0.0%   308.9      0.1250E-03   0.000       258.9       0.000      0.5000E-01   0.000    
    7468   4.753      0.6364E-03 SPRIN         11  -0.0%   309.3      0.1250E-03   0.000       259.3       0.000      0.5000E-01   0.000    
    7469   4.753      0.6364E-03 SPRIN         11  -0.0%   309.8      0.1250E-03   0.000       259.8       0.000      0.5000E-01   0.000    
    7470   4.754      0.6364E-03 SPRIN         11  -0.0%   310.3      0.1250E-03   0.000       260.3       0.000      0.5000E-01   0.000    
    7471   4.755      0.6364E-03 SPRIN         11  -0.0%   310.8      0.1250E-03   0.000       260.8       0.000      0.5000E-01   0.000    
    7472   4.755      0.6364E-03 SPRIN         11  -0.0%   311.2      0.1250E-03   0.000       261.2       0.000      0.5000E-01   0.000    
    7473   4.756      0.6364E-03 SPRIN         11  -0.0%   311.7      0.1250E-03   0.000       261.7       0.000      0.5000E-01   0.000    
    7474   4.756      0.6364E-03 SPRIN         11  -0.0%   312.2      0.1250E-03   0.000       262.2       0.000      0.5000E-01   0.000    
    7475   4.757      0.6364E-03 SPRIN         11  -0.0%   312.7      0.1250E-03   0.000       262.7       0.000      0.5000E-01   0.000    
    7476   4.758      0.6364E-03 SPRIN         11  -0.0%   313.2      0.1250E-03   0.000       263.2       0.000      0.5000E-01   0.000    
    7477   4.758      0.6364E-03 SPRIN         11  -0.0%   313.6      0.1250E-03   0.000       263.6       0.000      0.5000E-01   0.000    
    7478   4.759      0.6364E-03 SPRIN         11  -0.0%   314.1      0.1250E-03   0.000       264.1       0.000      0.5000E-01   0.000    
    7479   4.760      0.6364E-03 SPRIN         11  -0.0%   314.6      0.1250E-03   0.000       264.6       0.000      0.5000E-01   0.000    
   CYCLE    TIME      TIME-STEP  ELEMENT          ERROR  I-ENERGY    K-ENERGY T  K-ENERGY R  EXT-WORK     MAS.ERR     TOTAL MASS  MASS ADDED
    7480   4.760      0.6364E-03 SPRIN         11  -0.0%   315.1      0.1250E-03   0.000       265.1       0.000      0.5000E-01   0.000    
    7481   4.761      0.6364E-03 SPRIN         11  -0.0%   315.5      0.1250E-03   0.000       265.5       0.000      0.5000E-01   0.000    
    7482   4.762      0.6364E-03 SPRIN         11  -0.0%   316.0      0.1250E-03   0.000       266.0       0.000      0.5000E-01   0.000    
    7483   4.762      0.6364E-03 SPRIN         11  -0.0%   316.5      0.1250E-03   0.000       266.5       0.000      0.5000E-01   0.000    
    7484   4.763      0.6364E-03 SPRIN         11  -0.0%   317.0      0.1250E-03   0.000       267.0       0.000      0.5000E-01   0.000    
    7485   4.763      0.6364E-03 SPRIN         11  -0.0%   317.5      0.1250E-03   0.000       267.5       0.000      0.5000E-01   0.000    
    7486   4.764      0.6364E-03 SPRIN         11  -0.0%   317.9      0.1250E-03   0.000       267.9       0.000      0.5000E-01   0.000    
    7487   4.765      0.6364E-03 SPRIN         11  -0.0%   318.4      0.1250E-03   0.000       268.4       0.000      0.5000E-01   0.000    
    7488   4.765      0.6364E-03 SPRIN         11  -0.0%   318.9      0.1250E-03   0.000       268.9       0.000      0.5000E-01   0.000    
    7489   4.766      0.6364E-03 SPRIN         11  -0.0%   319.4      0.1250E-03   0.000       269.4       0.000      0.5000E-01   0.000    
    7490   4.767      0.6364E-03 SPRIN         11  -0.0%   319.9      0.1250E-03   0.000       269.9       0.000      0.5000E-01   0.000    
    7491   4.767      0.6364E-03 SPRIN         11  -0.0%   320.4      0.1250E-03   0.000       270.4       0.000      0.5000E-01   0.000    
    7492   4.768      0.6364E-03 SPRIN         11  -0.0%   320.8      0.1250E-03   0.000       270.8       0.000      0.5000E-01   0.000    
    7493   4.769      0.6364E-03 SPRIN         11  -0.0%   321.3      0.1250E-03   0.000       271.3       0.000      0.5000E-01   0.000    
    7494   4.769      0.6364E-03 SPRIN         11  -0.0%   321.8      0.1250E-03   0.000       271.8       0.000      0.5000E-01   0.000    
    7495   4.770      0.6364E-03 SPRIN         11  -0.0%   322.3      0.1250E-03   0.000       272.3       0.000      0.5000E-01   0.000    
    7496   4.770      0.6364E-03 SPRIN         11  -0.0%   322.8      0.1250E-03   0.000       272.8       0.000      0.5000E-01   0.000    
    7497   4.771      0.6364E-03 SPRIN         11  -0.0%   323.3      0.1250E-03   0.000       273.3       0.000      0.5000E-01   0.000    
    7498   4.772      0.6364E-03 SPRIN         11  -0.0%   323.8      0.1250E-03   0.000       273.8       0.000      0.5000E-01   0.000    
    7499   4.772      0.6364E-03 SPRIN         11  -0.0%   324.2      0.1250E-03   0.000       274.2       0.000      0.5000E-01   0.000    
    7500   4.773      0.6364E-03 SPRIN         11  -0.0%   324.7      0.1250E-03   0.000       274.7       0.000      0.5000E-01   0.000    
    7501   4.774      0.6364E-03 SPRIN         11  -0.0%   325.2      0.1250E-03   0.000       275.2       0.000      0.5000E-01   0.000    
    7502   4.774      0.6364E-03 SPRIN         11  -0.0%   325.7      0.1250E-03   0.000       275.7       0.000      0.5000E-01   0.000    
    7503   4.775      0.6364E-03 SPRIN         11  -0.0%   326.2      0.1250E-03   0.000       276.2       0.000      0.5000E-01   0.000    
    7504   4.776      0.6364E-03 SPRIN         11  -0.0%   326.7      0.1250E-03   0.000       276.7       0.000      0.5000E-01   0.000    
    7505   4.776      0.6364E-03 SPRIN         11  -0.0%   327.2      0.1250E-03   0.000       277.2       0.000      0.5000E-01   0.000    
    7506   4.777      0.6364E-03 SPRIN         11  -0.0%   327.7      0.1250E-03   0.000       277.7       0.000      0.5000E-01   0.000    
    7507   4.777      0.6364E-03 SPRIN         11  -0.0%   328.1      0.1250E-03   0.000       278.1       0.000      0.5000E-01   0.000    
    7508   4.778      0.6364E-03 SPRIN         11  -0.0%   328.6      0.1250E-03   0.000       278.6       0.000      0.5000E-01   0.000    
    7509   4.779      0.6364E-03 SPRIN         11  -0.0%   329.1      0.1250E-03   0.000       279.1       0.000      0.5000E-01   0.000    
    7510   4.779      0.6364E-03 SPRIN         11  -0.0%   329.6      0.1250E-03   0.000       279.6       0.000      0.5000E-01   0.000    
    7511   4.780      0.6364E-03 SPRIN         11  -0.0%   330.1      0.1250E-03   0.000       280.1       0.000      0.5000E-01   0.000    
    7512   4.781      0.6364E-03 SPRIN         11  -0.0%   330.6      0.1250E-03   0.000       280.6       0.000      0.5000E-01   0.000    
    7513   4.781      0.6364E-03 SPRIN         11  -0.0%   331.1      0.1250E-03   0.000       281.1       0.000      0.5000E-01   0.000    
    7514   4.782      0.6364E-03 SPRIN         11  -0.0%   331.6      0.1250E-03   0.000       281.6       0.000      0.5000E-01   0.000    
    7515   4.783      0.6364E-03 SPRIN         11  -0.0%   332.1      0.1250E-03   0.000       282.1       0.000      0.5000E-01   0.000    
    7516   4.783      0.6364E-03 SPRIN         11  -0.0%   332.6      0.1250E-03   0.000       282.6       0.000      0.5000E-01   0.000    
    7517   4.784      0.6364E-03 SPRIN         11  -0.0%   333.1      0.1250E-03   0.000       283.1       0.000      0.5000E-01   0.000    
    7518   4.784      0.6364E-03 SPRIN         11  -0.0%   333.6      0.1250E-03   0.000       283.6       0.000      0.5000E-01   0.000    
    7519   4.785      0.6364E-03 SPRIN         11  -0.0%   334.0      0.1250E-03   0.000       284.0       0.000      0.5000E-01   0.000    
    7520   4.786      0.6364E-03 SPRIN         11  -0.0%   334.5      0.1250E-03   0.000       284.5       0.000      0.5000E-01   0.000    
    7521   4.786      0.6364E-03 SPRIN         11  -0.0%   335.0      0.1250E-03   0.000       285.0       0.000      0.5000E-01   0.000    
    7522   4.787      0.6364E-03 SPRIN         11  -0.0%   335.5      0.1250E-03   0.000       285.5       0.000      0.5000E-01   0.000    
    7523   4.788      0.6364E-03 SPRIN         11  -0.0%   336.0      0.1250E-03   0.000       286.0       0.000      0.5000E-01   0.000    
    7524   4.788      0.6364E-03 SPRIN         11  -0.0%   336.5      0.1250E-03   0.000       286.5       0.000      0.5000E-01   0.000    
    7525   4.789      0.6364E-03 SPRIN         11  -0.0%   337.0      0.1250E-03   0.000       287.0       0.000      0.5000E-01   0.000    
    7526   4.790      0.6364E-03 SPRIN         11  -0.0%   337.5      0.1250E-03   0.000       287.5       0.000      0.5000E-01   0.000    
    7527   4.790      0.6364E-03 SPRIN         11  -0.0%   338.0      0.1250E-03   0.000       288.0       0.000      0.5000E-01   0.000    
    7528   4.791      0.6364E-03 SPRIN         11  -0.0%   338.5      0.1250E-03   0.000       288.5       0.000      0.5000E-01   0.000    
    7529   4.791      0.6364E-03 SPRIN         11  -0.0%   339.0      0.1250E-03   0.000       289.0       0.000      0.5000E-01   0.000    
    7530   4.792      0.6364E-03 SPRIN         11  -0.0%   339.5      0.1250E-03   0.000       289.5       0.000      0.5000E-01   0.000    
    7531   4.793      0.6364E-03 SPRIN         11  -0.0%   340.0      0.1250E-03   0.000       290.0       0.000      0.5000E-01   0.000    
    7532   4.793      0.6364E-03 SPRIN         11  -0.0%   340.5      0.1250E-03   0.000       290.5       0.000      0.5000E-01   0.000    
    7533   4.794      0.6364E-03 SPRIN         11  -0.0%   341.0      0.1250E-03   0.000       291.0       0.000      0.5000E-01   0.000    
    7534   4.795      0.6364E-03 SPRIN         11  -0.0%   341.5      0.1250E-03   0.000       291.5       0.000      0.5000E-01   0.000    
   CYCLE    TIME      TIME-STEP  ELEMENT          ERROR  I-ENERGY    K-ENERGY T  K-ENERGY R  EXT-WORK     MAS.ERR     TOTAL MASS  MASS ADDED
    7535   4.795      0.6364E-03 SPRIN         11  -0.0%   342.0      0.1250E-03   0.000       292.0       0.000      0.5000E-01   0.000    
    7536   4.796      0.6364E-03 SPRIN         11  -0.0%   342.5      0.1250E-03   0.000       292.5       0.000      0.5000E-01   0.000    
    7537   4.797      0.6364E-03 SPRIN         11  -0.0%   343.0      0.1250E-03   0.000       293.0       0.000      0.5000E-01   0.000    
    7538   4.797      0.6364E-03 SPRIN         11  -0.0%   343.5      0.1250E-03   0.000       293.5       0.000      0.5000E-01   0.000    
    7539   4.798      0.6364E-03 SPRIN         11  -0.0%   344.0      0.1250E-03   0.000       294.0       0.000      0.5000E-01   0.000    
    7540   4.798      0.6364E-03 SPRIN         11  -0.0%   344.5      0.1250E-03   0.000       294.5       0.000      0.5000E-01   0.000    
    7541   4.799      0.6364E-03 SPRIN         11  -0.0%   345.0      0.1250E-03   0.000       295.0       0.000      0.5000E-01   0.000    
    7542   4.800      0.6364E-03 SPRIN         11  -0.0%   345.5      0.1250E-03   0.000       295.5       0.000      0.5000E-01   0.000    
    7543   4.800      0.6364E-03 SPRIN         11  -0.0%   346.0      0.1250E-03   0.000       296.0       0.000      0.5000E-01   0.000    
     ANIMATION FILE: SPR_PRE_2FLAGA025 WRITTEN
    7544   4.801      0.6364E-03 SPRIN         11  -0.0%   346.5      0.1250E-03   0.000       296.5       0.000      0.5000E-01   0.000    
    7545   4.802      0.6364E-03 SPRIN         11  -0.0%   347.0      0.1250E-03   0.000       297.0       0.000      0.5000E-01   0.000    
    7546   4.802      0.6364E-03 SPRIN         11  -0.0%   347.6      0.1250E-03   0.000       297.6       0.000      0.5000E-01   0.000    
    7547   4.803      0.6364E-03 SPRIN         11  -0.0%   348.1      0.1250E-03   0.000       298.1       0.000      0.5000E-01   0.000    
    7548   4.804      0.6364E-03 SPRIN         11  -0.0%   348.6      0.1250E-03   0.000       298.6       0.000      0.5000E-01   0.000    
    7549   4.804      0.6364E-03 SPRIN         11  -0.0%   349.1      0.1250E-03   0.000       299.1       0.000      0.5000E-01   0.000    
    7550   4.805      0.6364E-03 SPRIN         11  -0.0%   349.6      0.1250E-03   0.000       299.6       0.000      0.5000E-01   0.000    
    7551   4.805      0.6364E-03 SPRIN         11  -0.0%   350.1      0.1250E-03   0.000       300.1       0.000      0.5000E-01   0.000    
    7552   4.806      0.6364E-03 SPRIN         11  -0.0%   350.6      0.1250E-03   0.000       300.6       0.000      0.5000E-01   0.000    
    7553   4.807      0.6364E-03 SPRIN         11  -0.0%   351.1      0.1250E-03   0.000       301.1       0.000      0.5000E-01   0.000    
    7554   4.807      0.6364E-03 SPRIN         11  -0.0%   351.6      0.1250E-03   0.000       301.6       0.000      0.5000E-01   0.000    
    7555   4.808      0.6364E-03 SPRIN         11  -0.0%   352.1      0.1250E-03   0.000       302.1       0.000      0.5000E-01   0.000    
    7556   4.809      0.6364E-03 SPRIN         11  -0.0%   352.6      0.1250E-03   0.000       302.6       0.000      0.5000E-01   0.000    
    7557   4.809      0.6364E-03 SPRIN         11  -0.0%   353.1      0.1250E-03   0.000       303.1       0.000      0.5000E-01   0.000    
    7558   4.810      0.6364E-03 SPRIN         11  -0.0%   353.6      0.1250E-03   0.000       303.6       0.000      0.5000E-01   0.000    
    7559   4.811      0.6364E-03 SPRIN         11  -0.0%   354.2      0.1250E-03   0.000       304.2       0.000      0.5000E-01   0.000    
    7560   4.811      0.6364E-03 SPRIN         11  -0.0%   354.7      0.1250E-03   0.000       304.7       0.000      0.5000E-01   0.000    
    7561   4.812      0.6364E-03 SPRIN         11  -0.0%   355.2      0.1250E-03   0.000       305.2       0.000      0.5000E-01   0.000    
    7562   4.812      0.6364E-03 SPRIN         11  -0.0%   355.7      0.1250E-03   0.000       305.7       0.000      0.5000E-01   0.000    
    7563   4.813      0.6364E-03 SPRIN         11  -0.0%   356.2      0.1250E-03   0.000       306.2       0.000      0.5000E-01   0.000    
    7564   4.814      0.6364E-03 SPRIN         11  -0.0%   356.7      0.1250E-03   0.000       306.7       0.000      0.5000E-01   0.000    
    7565   4.814      0.6364E-03 SPRIN         11  -0.0%   357.2      0.1250E-03   0.000       307.2       0.000      0.5000E-01   0.000    
    7566   4.815      0.6364E-03 SPRIN         11  -0.0%   357.7      0.1250E-03   0.000       307.7       0.000      0.5000E-01   0.000    
    7567   4.816      0.6364E-03 SPRIN         11  -0.0%   358.3      0.1250E-03   0.000       308.3       0.000      0.5000E-01   0.000    
    7568   4.816      0.6364E-03 SPRIN         11  -0.0%   358.8      0.1250E-03   0.000       308.8       0.000      0.5000E-01   0.000    
    7569   4.817      0.6364E-03 SPRIN         11  -0.0%   359.3      0.1250E-03   0.000       309.3       0.000      0.5000E-01   0.000    
    7570   4.818      0.6364E-03 SPRIN         11  -0.0%   359.8      0.1250E-03   0.000       309.8       0.000      0.5000E-01   0.000    
    7571   4.818      0.6364E-03 SPRIN         11  -0.0%   360.3      0.1250E-03   0.000       310.3       0.000      0.5000E-01   0.000    
    7572   4.819      0.6364E-03 SPRIN         11  -0.0%   360.8      0.1250E-03   0.000       310.8       0.000      0.5000E-01   0.000    
    7573   4.819      0.6364E-03 SPRIN         11  -0.0%   361.4      0.1250E-03   0.000       311.4       0.000      0.5000E-01   0.000    
    7574   4.820      0.6364E-03 SPRIN         11  -0.0%   361.9      0.1250E-03   0.000       311.9       0.000      0.5000E-01   0.000    
    7575   4.821      0.6364E-03 SPRIN         11  -0.0%   362.4      0.1250E-03   0.000       312.4       0.000      0.5000E-01   0.000    
    7576   4.821      0.6364E-03 SPRIN         11  -0.0%   362.9      0.1250E-03   0.000       312.9       0.000      0.5000E-01   0.000    
    7577   4.822      0.6364E-03 SPRIN         11  -0.0%   363.4      0.1250E-03   0.000       313.4       0.000      0.5000E-01   0.000    
    7578   4.823      0.6364E-03 SPRIN         11  -0.0%   363.9      0.1250E-03   0.000       313.9       0.000      0.5000E-01   0.000    
    7579   4.823      0.6364E-03 SPRIN         11  -0.0%   364.5      0.1250E-03   0.000       314.5       0.000      0.5000E-01   0.000    
    7580   4.824      0.6364E-03 SPRIN         11  -0.0%   365.0      0.1250E-03   0.000       315.0       0.000      0.5000E-01   0.000    
    7581   4.825      0.6364E-03 SPRIN         11  -0.0%   365.5      0.1250E-03   0.000       315.5       0.000      0.5000E-01   0.000    
    7582   4.825      0.6364E-03 SPRIN         11  -0.0%   366.0      0.1250E-03   0.000       316.0       0.000      0.5000E-01   0.000    
    7583   4.826      0.6364E-03 SPRIN         11  -0.0%   366.5      0.1250E-03   0.000       316.5       0.000      0.5000E-01   0.000    
    7584   4.826      0.6364E-03 SPRIN         11  -0.0%   367.1      0.1250E-03   0.000       317.1       0.000      0.5000E-01   0.000    
    7585   4.827      0.6364E-03 SPRIN         11  -0.0%   367.6      0.1250E-03   0.000       317.6       0.000      0.5000E-01   0.000    
    7586   4.828      0.6364E-03 SPRIN         11  -0.0%   368.1      0.1250E-03   0.000       318.1       0.000      0.5000E-01   0.000    
    7587   4.828      0.6364E-03 SPRIN         11  -0.0%   368.6      0.1250E-03   0.000       318.6       0.000      0.5000E-01   0.000    
    7588   4.829      0.6364E-03 SPRIN         11  -0.0%   369.1      0.1250E-03   0.000       319.1       0.000      0.5000E-01   0.000    
    7589   4.830      0.6364E-03 SPRIN         11  -0.0%   369.7      0.1250E-03   0.000       319.7       0.000      0.5000E-01   0.000    
   CYCLE    TIME      TIME-STEP  ELEMENT          ERROR  I-ENERGY    K-ENERGY T  K-ENERGY R  EXT-WORK     MAS.ERR     TOTAL MASS  MASS ADDED
    7590   4.830      0.6364E-03 SPRIN         11  -0.0%   370.2      0.1250E-03   0.000       320.2       0.000      0.5000E-01   0.000    
    7591   4.831      0.6364E-03 SPRIN         11  -0.0%   370.7      0.1250E-03   0.000       320.7       0.000      0.5000E-01   0.000    
    7592   4.832      0.6364E-03 SPRIN         11  -0.0%   371.2      0.1250E-03   0.000       321.2       0.000      0.5000E-01   0.000    
    7593   4.832      0.6364E-03 SPRIN         11  -0.0%   371.8      0.1250E-03   0.000       321.8       0.000      0.5000E-01   0.000    
    7594   4.833      0.6364E-03 SPRIN         11  -0.0%   372.3      0.1250E-03   0.000       322.3       0.000      0.5000E-01   0.000    
    7595   4.833      0.6364E-03 SPRIN         11  -0.0%   372.8      0.1250E-03   0.000       322.8       0.000      0.5000E-01   0.000    
    7596   4.834      0.6364E-03 SPRIN         11  -0.0%   373.3      0.1250E-03   0.000       323.3       0.000      0.5000E-01   0.000    
    7597   4.835      0.6364E-03 SPRIN         11  -0.0%   373.9      0.1250E-03   0.000       323.9       0.000      0.5000E-01   0.000    
    7598   4.835      0.6364E-03 SPRIN         11  -0.0%   374.4      0.1250E-03   0.000       324.4       0.000      0.5000E-01   0.000    
    7599   4.836      0.6364E-03 SPRIN         11  -0.0%   374.9      0.1250E-03   0.000       324.9       0.000      0.5000E-01   0.000    
    7600   4.837      0.6364E-03 SPRIN         11  -0.0%   375.4      0.1250E-03   0.000       325.4       0.000      0.5000E-01   0.000    
    7601   4.837      0.6364E-03 SPRIN         11  -0.0%   376.0      0.1250E-03   0.000       326.0       0.000      0.5000E-01   0.000    
    7602   4.838      0.6364E-03 SPRIN         11  -0.0%   376.5      0.1250E-03   0.000       326.5       0.000      0.5000E-01   0.000    
    7603   4.839      0.6364E-03 SPRIN         11  -0.0%   377.0      0.1250E-03   0.000       327.0       0.000      0.5000E-01   0.000    
    7604   4.839      0.6364E-03 SPRIN         11  -0.0%   377.6      0.1250E-03   0.000       327.6       0.000      0.5000E-01   0.000    
    7605   4.840      0.6364E-03 SPRIN         11  -0.0%   378.1      0.1250E-03   0.000       328.1       0.000      0.5000E-01   0.000    
    7606   4.840      0.6364E-03 SPRIN         11  -0.0%   378.6      0.1250E-03   0.000       328.6       0.000      0.5000E-01   0.000    
    7607   4.841      0.6364E-03 SPRIN         11  -0.0%   379.1      0.1250E-03   0.000       329.1       0.000      0.5000E-01   0.000    
    7608   4.842      0.6364E-03 SPRIN         11  -0.0%   379.7      0.1250E-03   0.000       329.7       0.000      0.5000E-01   0.000    
    7609   4.842      0.6364E-03 SPRIN         11  -0.0%   380.2      0.1250E-03   0.000       330.2       0.000      0.5000E-01   0.000    
    7610   4.843      0.6364E-03 SPRIN         11  -0.0%   380.7      0.1250E-03   0.000       330.7       0.000      0.5000E-01   0.000    
    7611   4.844      0.6364E-03 SPRIN         11  -0.0%   381.3      0.1250E-03   0.000       331.3       0.000      0.5000E-01   0.000    
    7612   4.844      0.6364E-03 SPRIN         11  -0.0%   381.8      0.1250E-03   0.000       331.8       0.000      0.5000E-01   0.000    
    7613   4.845      0.6364E-03 SPRIN         11  -0.0%   382.3      0.1250E-03   0.000       332.3       0.000      0.5000E-01   0.000    
    7614   4.846      0.6364E-03 SPRIN         11  -0.0%   382.9      0.1250E-03   0.000       332.9       0.000      0.5000E-01   0.000    
    7615   4.846      0.6364E-03 SPRIN         11  -0.0%   383.4      0.1250E-03   0.000       333.4       0.000      0.5000E-01   0.000    
    7616   4.847      0.6364E-03 SPRIN         11  -0.0%   383.9      0.1250E-03   0.000       333.9       0.000      0.5000E-01   0.000    
    7617   4.847      0.6364E-03 SPRIN         11  -0.0%   384.5      0.1250E-03   0.000       334.5       0.000      0.5000E-01   0.000    
    7618   4.848      0.6364E-03 SPRIN         11  -0.0%   385.0      0.1250E-03   0.000       335.0       0.000      0.5000E-01   0.000    
    7619   4.849      0.6364E-03 SPRIN         11  -0.0%   385.5      0.1250E-03   0.000       335.5       0.000      0.5000E-01   0.000    
    7620   4.849      0.6364E-03 SPRIN         11  -0.0%   386.1      0.1250E-03   0.000       336.1       0.000      0.5000E-01   0.000    
    7621   4.850      0.6364E-03 SPRIN         11  -0.0%   386.6      0.1250E-03   0.000       336.6       0.000      0.5000E-01   0.000    
    7622   4.851      0.6364E-03 SPRIN         11  -0.0%   387.1      0.1250E-03   0.000       337.1       0.000      0.5000E-01   0.000    
    7623   4.851      0.6364E-03 SPRIN         11  -0.0%   387.7      0.1250E-03   0.000       337.7       0.000      0.5000E-01   0.000    
    7624   4.852      0.6364E-03 SPRIN         11  -0.0%   388.2      0.1250E-03   0.000       338.2       0.000      0.5000E-01   0.000    
    7625   4.853      0.6364E-03 SPRIN         11  -0.0%   388.8      0.1250E-03   0.000       338.8       0.000      0.5000E-01   0.000    
    7626   4.853      0.6364E-03 SPRIN         11  -0.0%   389.3      0.1250E-03   0.000       339.3       0.000      0.5000E-01   0.000    
    7627   4.854      0.6364E-03 SPRIN         11  -0.0%   389.8      0.1250E-03   0.000       339.8       0.000      0.5000E-01   0.000    
    7628   4.854      0.6364E-03 SPRIN         11  -0.0%   390.4      0.1250E-03   0.000       340.4       0.000      0.5000E-01   0.000    
    7629   4.855      0.6364E-03 SPRIN         11  -0.0%   390.9      0.1250E-03   0.000       340.9       0.000      0.5000E-01   0.000    
    7630   4.856      0.6364E-03 SPRIN         11  -0.0%   391.5      0.1250E-03   0.000       341.5       0.000      0.5000E-01   0.000    
    7631   4.856      0.6364E-03 SPRIN         11  -0.0%   392.0      0.1250E-03   0.000       342.0       0.000      0.5000E-01   0.000    
    7632   4.857      0.6364E-03 SPRIN         11  -0.0%   392.5      0.1250E-03   0.000       342.5       0.000      0.5000E-01   0.000    
    7633   4.858      0.6364E-03 SPRIN         11  -0.0%   393.1      0.1250E-03   0.000       343.1       0.000      0.5000E-01   0.000    
    7634   4.858      0.6364E-03 SPRIN         11  -0.0%   393.6      0.1250E-03   0.000       343.6       0.000      0.5000E-01   0.000    
    7635   4.859      0.6364E-03 SPRIN         11  -0.0%   394.2      0.1250E-03   0.000       344.2       0.000      0.5000E-01   0.000    
    7636   4.860      0.6364E-03 SPRIN         11  -0.0%   394.7      0.1250E-03   0.000       344.7       0.000      0.5000E-01   0.000    
    7637   4.860      0.6364E-03 SPRIN         11  -0.0%   395.2      0.1250E-03   0.000       345.2       0.000      0.5000E-01   0.000    
    7638   4.861      0.6364E-03 SPRIN         11  -0.0%   395.8      0.1250E-03   0.000       345.8       0.000      0.5000E-01   0.000    
    7639   4.861      0.6364E-03 SPRIN         11  -0.0%   396.3      0.1250E-03   0.000       346.3       0.000      0.5000E-01   0.000    
    7640   4.862      0.6364E-03 SPRIN         11  -0.0%   396.9      0.1250E-03   0.000       346.9       0.000      0.5000E-01   0.000    
    7641   4.863      0.6364E-03 SPRIN         11  -0.0%   397.4      0.1250E-03   0.000       347.4       0.000      0.5000E-01   0.000    
    7642   4.863      0.6364E-03 SPRIN         11  -0.0%   398.0      0.1250E-03   0.000       348.0       0.000      0.5000E-01   0.000    
    7643   4.864      0.6364E-03 SPRIN         11  -0.0%   398.5      0.1250E-03   0.000       348.5       0.000      0.5000E-01   0.000    
    7644   4.865      0.6364E-03 SPRIN         11  -0.0%   399.0      0.1250E-03   0.000       349.0       0.000      0.5000E-01   0.000    
   CYCLE    TIME      TIME-STEP  ELEMENT          ERROR  I-ENERGY    K-ENERGY T  K-ENERGY R  EXT-WORK     MAS.ERR     TOTAL MASS  MASS ADDED
    7645   4.865      0.6364E-03 SPRIN         11  -0.0%   399.6      0.1250E-03   0.000       349.6       0.000      0.5000E-01   0.000    
    7646   4.866      0.6364E-03 SPRIN         11  -0.0%   400.1      0.1250E-03   0.000       350.1       0.000      0.5000E-01   0.000    
    7647   4.867      0.6364E-03 SPRIN         11  -0.0%   400.7      0.1250E-03   0.000       350.7       0.000      0.5000E-01   0.000    
    7648   4.867      0.6364E-03 SPRIN         11  -0.0%   401.2      0.1250E-03   0.000       351.2       0.000      0.5000E-01   0.000    
    7649   4.868      0.6364E-03 SPRIN         11  -0.0%   401.8      0.1250E-03   0.000       351.8       0.000      0.5000E-01   0.000    
    7650   4.868      0.6364E-03 SPRIN         11  -0.0%   402.3      0.1250E-03   0.000       352.3       0.000      0.5000E-01   0.000    
    7651   4.869      0.6364E-03 SPRIN         11  -0.0%   402.9      0.1250E-03   0.000       352.9       0.000      0.5000E-01   0.000    
    7652   4.870      0.6364E-03 SPRIN         11  -0.0%   403.4      0.1250E-03   0.000       353.4       0.000      0.5000E-01   0.000    
    7653   4.870      0.6364E-03 SPRIN         11  -0.0%   404.0      0.1250E-03   0.000       354.0       0.000      0.5000E-01   0.000    
    7654   4.871      0.6364E-03 SPRIN         11  -0.0%   404.5      0.1250E-03   0.000       354.5       0.000      0.5000E-01   0.000    
    7655   4.872      0.6364E-03 SPRIN         11  -0.0%   405.1      0.1250E-03   0.000       355.1       0.000      0.5000E-01   0.000    
    7656   4.872      0.6364E-03 SPRIN         11  -0.0%   405.6      0.1250E-03   0.000       355.6       0.000      0.5000E-01   0.000    
    7657   4.873      0.6364E-03 SPRIN         11  -0.0%   406.2      0.1250E-03   0.000       356.2       0.000      0.5000E-01   0.000    
    7658   4.874      0.6364E-03 SPRIN         11  -0.0%   406.7      0.1250E-03   0.000       356.7       0.000      0.5000E-01   0.000    
    7659   4.874      0.6364E-03 SPRIN         11  -0.0%   407.3      0.1250E-03   0.000       357.3       0.000      0.5000E-01   0.000    
    7660   4.875      0.6364E-03 SPRIN         11  -0.0%   407.8      0.1250E-03   0.000       357.8       0.000      0.5000E-01   0.000    
    7661   4.875      0.6364E-03 SPRIN         11  -0.0%   408.4      0.1250E-03   0.000       358.4       0.000      0.5000E-01   0.000    
    7662   4.876      0.6364E-03 SPRIN         11  -0.0%   408.9      0.1250E-03   0.000       358.9       0.000      0.5000E-01   0.000    
    7663   4.877      0.6364E-03 SPRIN         11  -0.0%   409.5      0.1250E-03   0.000       359.5       0.000      0.5000E-01   0.000    
    7664   4.877      0.6364E-03 SPRIN         11  -0.0%   410.0      0.1250E-03   0.000       360.0       0.000      0.5000E-01   0.000    
    7665   4.878      0.6364E-03 SPRIN         11  -0.0%   410.6      0.1250E-03   0.000       360.6       0.000      0.5000E-01   0.000    
    7666   4.879      0.6364E-03 SPRIN         11  -0.0%   411.1      0.1250E-03   0.000       361.1       0.000      0.5000E-01   0.000    
    7667   4.879      0.6364E-03 SPRIN         11  -0.0%   411.7      0.1250E-03   0.000       361.7       0.000      0.5000E-01   0.000    
    7668   4.880      0.6364E-03 SPRIN         11  -0.0%   412.2      0.1250E-03   0.000       362.2       0.000      0.5000E-01   0.000    
    7669   4.881      0.6364E-03 SPRIN         11  -0.0%   412.8      0.1250E-03   0.000       362.8       0.000      0.5000E-01   0.000    
    7670   4.881      0.6364E-03 SPRIN         11  -0.0%   413.4      0.1250E-03   0.000       363.4       0.000      0.5000E-01   0.000    
    7671   4.882      0.6364E-03 SPRIN         11  -0.0%   413.9      0.1250E-03   0.000       363.9       0.000      0.5000E-01   0.000    
    7672   4.882      0.6364E-03 SPRIN         11  -0.0%   414.5      0.1250E-03   0.000       364.5       0.000      0.5000E-01   0.000    
    7673   4.883      0.6364E-03 SPRIN         11  -0.0%   415.0      0.1250E-03   0.000       365.0       0.000      0.5000E-01   0.000    
    7674   4.884      0.6364E-03 SPRIN         11  -0.0%   415.6      0.1250E-03   0.000       365.6       0.000      0.5000E-01   0.000    
    7675   4.884      0.6364E-03 SPRIN         11  -0.0%   416.1      0.1250E-03   0.000       366.1       0.000      0.5000E-01   0.000    
    7676   4.885      0.6364E-03 SPRIN         11  -0.0%   416.7      0.1250E-03   0.000       366.7       0.000      0.5000E-01   0.000    
    7677   4.886      0.6364E-03 SPRIN         11  -0.0%   417.3      0.1250E-03   0.000       367.3       0.000      0.5000E-01   0.000    
    7678   4.886      0.6364E-03 SPRIN         11  -0.0%   417.8      0.1250E-03   0.000       367.8       0.000      0.5000E-01   0.000    
    7679   4.887      0.6364E-03 SPRIN         11  -0.0%   418.4      0.1250E-03   0.000       368.4       0.000      0.5000E-01   0.000    
    7680   4.888      0.6364E-03 SPRIN         11  -0.0%   418.9      0.1250E-03   0.000       368.9       0.000      0.5000E-01   0.000    
    7681   4.888      0.6364E-03 SPRIN         11  -0.0%   419.5      0.1250E-03   0.000       369.5       0.000      0.5000E-01   0.000    
    7682   4.889      0.6364E-03 SPRIN         11  -0.0%   420.1      0.1250E-03   0.000       370.1       0.000      0.5000E-01   0.000    
    7683   4.889      0.6364E-03 SPRIN         11  -0.0%   420.6      0.1250E-03   0.000       370.6       0.000      0.5000E-01   0.000    
    7684   4.890      0.6364E-03 SPRIN         11  -0.0%   421.2      0.1250E-03   0.000       371.2       0.000      0.5000E-01   0.000    
    7685   4.891      0.6364E-03 SPRIN         11  -0.0%   421.7      0.1250E-03   0.000       371.7       0.000      0.5000E-01   0.000    
    7686   4.891      0.6364E-03 SPRIN         11  -0.0%   422.3      0.1250E-03   0.000       372.3       0.000      0.5000E-01   0.000    
    7687   4.892      0.6364E-03 SPRIN         11  -0.0%   422.9      0.1250E-03   0.000       372.9       0.000      0.5000E-01   0.000    
    7688   4.893      0.6364E-03 SPRIN         11  -0.0%   423.4      0.1250E-03   0.000       373.4       0.000      0.5000E-01   0.000    
    7689   4.893      0.6364E-03 SPRIN         11  -0.0%   424.0      0.1250E-03   0.000       374.0       0.000      0.5000E-01   0.000    
    7690   4.894      0.6364E-03 SPRIN         11  -0.0%   424.6      0.1250E-03   0.000       374.6       0.000      0.5000E-01   0.000    
    7691   4.895      0.6364E-03 SPRIN         11  -0.0%   425.1      0.1250E-03   0.000       375.1       0.000      0.5000E-01   0.000    
    7692   4.895      0.6364E-03 SPRIN         11  -0.0%   425.7      0.1250E-03   0.000       375.7       0.000      0.5000E-01   0.000    
    7693   4.896      0.6364E-03 SPRIN         11  -0.0%   426.2      0.1250E-03   0.000       376.3       0.000      0.5000E-01   0.000    
    7694   4.896      0.6364E-03 SPRIN         11  -0.0%   426.8      0.1250E-03   0.000       376.8       0.000      0.5000E-01   0.000    
    7695   4.897      0.6364E-03 SPRIN         11  -0.0%   427.4      0.1250E-03   0.000       377.4       0.000      0.5000E-01   0.000    
    7696   4.898      0.6364E-03 SPRIN         11  -0.0%   427.9      0.1250E-03   0.000       377.9       0.000      0.5000E-01   0.000    
    7697   4.898      0.6364E-03 SPRIN         11  -0.0%   428.5      0.1250E-03   0.000       378.5       0.000      0.5000E-01   0.000    
    7698   4.899      0.6364E-03 SPRIN         11  -0.0%   429.1      0.1250E-03   0.000       379.1       0.000      0.5000E-01   0.000    
    7699   4.900      0.6364E-03 SPRIN         11  -0.0%   429.6      0.1250E-03   0.000       379.6       0.000      0.5000E-01   0.000    
   CYCLE    TIME      TIME-STEP  ELEMENT          ERROR  I-ENERGY    K-ENERGY T  K-ENERGY R  EXT-WORK     MAS.ERR     TOTAL MASS  MASS ADDED
    7700   4.900      0.6364E-03 SPRIN         11  -0.0%   430.2      0.1250E-03   0.000       380.2       0.000      0.5000E-01   0.000    
    7701   4.901      0.6364E-03 SPRIN         11  -0.0%   430.8      0.1250E-03   0.000       380.8       0.000      0.5000E-01   0.000    
    7702   4.902      0.6364E-03 SPRIN         11  -0.0%   431.4      0.1250E-03   0.000       381.4       0.000      0.5000E-01   0.000    
    7703   4.902      0.6364E-03 SPRIN         11  -0.0%   431.9      0.1250E-03   0.000       381.9       0.000      0.5000E-01   0.000    
    7704   4.903      0.6364E-03 SPRIN         11  -0.0%   432.5      0.1250E-03   0.000       382.5       0.000      0.5000E-01   0.000    
    7705   4.903      0.6364E-03 SPRIN         11  -0.0%   433.1      0.1250E-03   0.000       383.1       0.000      0.5000E-01   0.000    
    7706   4.904      0.6364E-03 SPRIN         11  -0.0%   433.6      0.1250E-03   0.000       383.6       0.000      0.5000E-01   0.000    
    7707   4.905      0.6364E-03 SPRIN         11  -0.0%   434.2      0.1250E-03   0.000       384.2       0.000      0.5000E-01   0.000    
    7708   4.905      0.6364E-03 SPRIN         11  -0.0%   434.8      0.1250E-03   0.000       384.8       0.000      0.5000E-01   0.000    
    7709   4.906      0.6364E-03 SPRIN         11  -0.0%   435.3      0.1250E-03   0.000       385.3       0.000      0.5000E-01   0.000    
    7710   4.907      0.6364E-03 SPRIN         11  -0.0%   435.9      0.1250E-03   0.000       385.9       0.000      0.5000E-01   0.000    
    7711   4.907      0.6364E-03 SPRIN         11  -0.0%   436.5      0.1250E-03   0.000       386.5       0.000      0.5000E-01   0.000    
    7712   4.908      0.6364E-03 SPRIN         11  -0.0%   437.1      0.1250E-03   0.000       387.1       0.000      0.5000E-01   0.000    
    7713   4.909      0.6364E-03 SPRIN         11  -0.0%   437.6      0.1250E-03   0.000       387.6       0.000      0.5000E-01   0.000    
    7714   4.909      0.6364E-03 SPRIN         11  -0.0%   438.2      0.1250E-03   0.000       388.2       0.000      0.5000E-01   0.000    
    7715   4.910      0.6364E-03 SPRIN         11  -0.0%   438.8      0.1250E-03   0.000       388.8       0.000      0.5000E-01   0.000    
    7716   4.910      0.6364E-03 SPRIN         11  -0.0%   439.4      0.1250E-03   0.000       389.4       0.000      0.5000E-01   0.000    
    7717   4.911      0.6364E-03 SPRIN         11  -0.0%   439.9      0.1250E-03   0.000       389.9       0.000      0.5000E-01   0.000    
    7718   4.912      0.6364E-03 SPRIN         11  -0.0%   440.5      0.1250E-03   0.000       390.5       0.000      0.5000E-01   0.000    
    7719   4.912      0.6364E-03 SPRIN         11  -0.0%   441.1      0.1250E-03   0.000       391.1       0.000      0.5000E-01   0.000    
    7720   4.913      0.6364E-03 SPRIN         11  -0.0%   441.7      0.1250E-03   0.000       391.7       0.000      0.5000E-01   0.000    
    7721   4.914      0.6364E-03 SPRIN         11  -0.0%   442.2      0.1250E-03   0.000       392.2       0.000      0.5000E-01   0.000    
    7722   4.914      0.6364E-03 SPRIN         11  -0.0%   442.8      0.1250E-03   0.000       392.8       0.000      0.5000E-01   0.000    
    7723   4.915      0.6364E-03 SPRIN         11  -0.0%   443.4      0.1250E-03   0.000       393.4       0.000      0.5000E-01   0.000    
    7724   4.916      0.6364E-03 SPRIN         11  -0.0%   444.0      0.1250E-03   0.000       394.0       0.000      0.5000E-01   0.000    
    7725   4.916      0.6364E-03 SPRIN         11  -0.0%   444.5      0.1250E-03   0.000       394.5       0.000      0.5000E-01   0.000    
    7726   4.917      0.6364E-03 SPRIN         11  -0.0%   445.1      0.1250E-03   0.000       395.1       0.000      0.5000E-01   0.000    
    7727   4.917      0.6364E-03 SPRIN         11  -0.0%   445.7      0.1250E-03   0.000       395.7       0.000      0.5000E-01   0.000    
    7728   4.918      0.6364E-03 SPRIN         11  -0.0%   446.3      0.1250E-03   0.000       396.3       0.000      0.5000E-01   0.000    
    7729   4.919      0.6364E-03 SPRIN         11  -0.0%   446.9      0.1250E-03   0.000       396.9       0.000      0.5000E-01   0.000    
    7730   4.919      0.6364E-03 SPRIN         11  -0.0%   447.4      0.1250E-03   0.000       397.4       0.000      0.5000E-01   0.000    
    7731   4.920      0.6364E-03 SPRIN         11  -0.0%   448.0      0.1250E-03   0.000       398.0       0.000      0.5000E-01   0.000    
    7732   4.921      0.6364E-03 SPRIN         11  -0.0%   448.6      0.1250E-03   0.000       398.6       0.000      0.5000E-01   0.000    
    7733   4.921      0.6364E-03 SPRIN         11  -0.0%   449.2      0.1250E-03   0.000       399.2       0.000      0.5000E-01   0.000    
    7734   4.922      0.6364E-03 SPRIN         11  -0.0%   449.8      0.1250E-03   0.000       399.8       0.000      0.5000E-01   0.000    
    7735   4.923      0.6364E-03 SPRIN         11  -0.0%   450.3      0.1250E-03   0.000       400.3       0.000      0.5000E-01   0.000    
    7736   4.923      0.6364E-03 SPRIN         11  -0.0%   450.9      0.1250E-03   0.000       400.9       0.000      0.5000E-01   0.000    
    7737   4.924      0.6364E-03 SPRIN         11  -0.0%   451.5      0.1250E-03   0.000       401.5       0.000      0.5000E-01   0.000    
    7738   4.924      0.6364E-03 SPRIN         11  -0.0%   452.1      0.1250E-03   0.000       402.1       0.000      0.5000E-01   0.000    
    7739   4.925      0.6364E-03 SPRIN         11  -0.0%   452.7      0.1250E-03   0.000       402.7       0.000      0.5000E-01   0.000    
    7740   4.926      0.6364E-03 SPRIN         11  -0.0%   453.3      0.1250E-03   0.000       403.3       0.000      0.5000E-01   0.000    
    7741   4.926      0.6364E-03 SPRIN         11  -0.0%   453.8      0.1250E-03   0.000       403.8       0.000      0.5000E-01   0.000    
    7742   4.927      0.6364E-03 SPRIN         11  -0.0%   454.4      0.1250E-03   0.000       404.4       0.000      0.5000E-01   0.000    
    7743   4.928      0.6364E-03 SPRIN         11  -0.0%   455.0      0.1250E-03   0.000       405.0       0.000      0.5000E-01   0.000    
    7744   4.928      0.6364E-03 SPRIN         11  -0.0%   455.6      0.1250E-03   0.000       405.6       0.000      0.5000E-01   0.000    
    7745   4.929      0.6364E-03 SPRIN         11  -0.0%   456.2      0.1250E-03   0.000       406.2       0.000      0.5000E-01   0.000    
    7746   4.930      0.6364E-03 SPRIN         11  -0.0%   456.8      0.1250E-03   0.000       406.8       0.000      0.5000E-01   0.000    
    7747   4.930      0.6364E-03 SPRIN         11  -0.0%   457.4      0.1250E-03   0.000       407.4       0.000      0.5000E-01   0.000    
    7748   4.931      0.6364E-03 SPRIN         11  -0.0%   457.9      0.1250E-03   0.000       407.9       0.000      0.5000E-01   0.000    
    7749   4.931      0.6364E-03 SPRIN         11  -0.0%   458.5      0.1250E-03   0.000       408.5       0.000      0.5000E-01   0.000    
    7750   4.932      0.6364E-03 SPRIN         11  -0.0%   459.1      0.1250E-03   0.000       409.1       0.000      0.5000E-01   0.000    
    7751   4.933      0.6364E-03 SPRIN         11  -0.0%   459.7      0.1250E-03   0.000       409.7       0.000      0.5000E-01   0.000    
    7752   4.933      0.6364E-03 SPRIN         11  -0.0%   460.3      0.1250E-03   0.000       410.3       0.000      0.5000E-01   0.000    
    7753   4.934      0.6364E-03 SPRIN         11  -0.0%   460.9      0.1250E-03   0.000       410.9       0.000      0.5000E-01   0.000    
    7754   4.935      0.6364E-03 SPRIN         11  -0.0%   461.5      0.1250E-03   0.000       411.5       0.000      0.5000E-01   0.000    
   CYCLE    TIME      TIME-STEP  ELEMENT          ERROR  I-ENERGY    K-ENERGY T  K-ENERGY R  EXT-WORK     MAS.ERR     TOTAL MASS  MASS ADDED
    7755   4.935      0.6364E-03 SPRIN         11  -0.0%   462.1      0.1250E-03   0.000       412.1       0.000      0.5000E-01   0.000    
    7756   4.936      0.6364E-03 SPRIN         11  -0.0%   462.7      0.1250E-03   0.000       412.7       0.000      0.5000E-01   0.000    
    7757   4.937      0.6364E-03 SPRIN         11  -0.0%   463.2      0.1250E-03   0.000       413.2       0.000      0.5000E-01   0.000    
    7758   4.937      0.6364E-03 SPRIN         11  -0.0%   463.8      0.1250E-03   0.000       413.8       0.000      0.5000E-01   0.000    
    7759   4.938      0.6364E-03 SPRIN         11  -0.0%   464.4      0.1250E-03   0.000       414.4       0.000      0.5000E-01   0.000    
    7760   4.938      0.6364E-03 SPRIN         11  -0.0%   465.0      0.1250E-03   0.000       415.0       0.000      0.5000E-01   0.000    
    7761   4.939      0.6364E-03 SPRIN         11  -0.0%   465.6      0.1250E-03   0.000       415.6       0.000      0.5000E-01   0.000    
    7762   4.940      0.6364E-03 SPRIN         11  -0.0%   466.2      0.1250E-03   0.000       416.2       0.000      0.5000E-01   0.000    
    7763   4.940      0.6364E-03 SPRIN         11  -0.0%   466.8      0.1250E-03   0.000       416.8       0.000      0.5000E-01   0.000    
    7764   4.941      0.6364E-03 SPRIN         11  -0.0%   467.4      0.1250E-03   0.000       417.4       0.000      0.5000E-01   0.000    
    7765   4.942      0.6364E-03 SPRIN         11  -0.0%   468.0      0.1250E-03   0.000       418.0       0.000      0.5000E-01   0.000    
    7766   4.942      0.6364E-03 SPRIN         11  -0.0%   468.6      0.1250E-03   0.000       418.6       0.000      0.5000E-01   0.000    
    7767   4.943      0.6364E-03 SPRIN         11  -0.0%   469.2      0.1250E-03   0.000       419.2       0.000      0.5000E-01   0.000    
    7768   4.944      0.6364E-03 SPRIN         11  -0.0%   469.8      0.1250E-03   0.000       419.8       0.000      0.5000E-01   0.000    
    7769   4.944      0.6364E-03 SPRIN         11  -0.0%   470.4      0.1250E-03   0.000       420.4       0.000      0.5000E-01   0.000    
    7770   4.945      0.6364E-03 SPRIN         11  -0.0%   471.0      0.1250E-03   0.000       421.0       0.000      0.5000E-01   0.000    
    7771   4.945      0.6364E-03 SPRIN         11  -0.0%   471.6      0.1250E-03   0.000       421.6       0.000      0.5000E-01   0.000    
    7772   4.946      0.6364E-03 SPRIN         11  -0.0%   472.2      0.1250E-03   0.000       422.2       0.000      0.5000E-01   0.000    
    7773   4.947      0.6364E-03 SPRIN         11  -0.0%   472.8      0.1250E-03   0.000       422.8       0.000      0.5000E-01   0.000    
    7774   4.947      0.6364E-03 SPRIN         11  -0.0%   473.4      0.1250E-03   0.000       423.4       0.000      0.5000E-01   0.000    
    7775   4.948      0.6364E-03 SPRIN         11  -0.0%   474.0      0.1250E-03   0.000       424.0       0.000      0.5000E-01   0.000    
    7776   4.949      0.6364E-03 SPRIN         11  -0.0%   474.6      0.1250E-03   0.000       424.6       0.000      0.5000E-01   0.000    
    7777   4.949      0.6364E-03 SPRIN         11  -0.0%   475.1      0.1250E-03   0.000       425.1       0.000      0.5000E-01   0.000    
    7778   4.950      0.6364E-03 SPRIN         11  -0.0%   475.7      0.1250E-03   0.000       425.7       0.000      0.5000E-01   0.000    
    7779   4.951      0.6364E-03 SPRIN         11  -0.0%   476.3      0.1250E-03   0.000       426.3       0.000      0.5000E-01   0.000    
    7780   4.951      0.6364E-03 SPRIN         11  -0.0%   476.9      0.1250E-03   0.000       426.9       0.000      0.5000E-01   0.000    
    7781   4.952      0.6364E-03 SPRIN         11  -0.0%   477.5      0.1250E-03   0.000       427.5       0.000      0.5000E-01   0.000    
    7782   4.952      0.6364E-03 SPRIN         11  -0.0%   478.1      0.1250E-03   0.000       428.1       0.000      0.5000E-01   0.000    
    7783   4.953      0.6364E-03 SPRIN         11  -0.0%   478.8      0.1250E-03   0.000       428.8       0.000      0.5000E-01   0.000    
    7784   4.954      0.6364E-03 SPRIN         11  -0.0%   479.4      0.1250E-03   0.000       429.4       0.000      0.5000E-01   0.000    
    7785   4.954      0.6364E-03 SPRIN         11  -0.0%   480.0      0.1250E-03   0.000       430.0       0.000      0.5000E-01   0.000    
    7786   4.955      0.6364E-03 SPRIN         11  -0.0%   480.6      0.1250E-03   0.000       430.6       0.000      0.5000E-01   0.000    
    7787   4.956      0.6364E-03 SPRIN         11  -0.0%   481.2      0.1250E-03   0.000       431.2       0.000      0.5000E-01   0.000    
    7788   4.956      0.6364E-03 SPRIN         11  -0.0%   481.8      0.1250E-03   0.000       431.8       0.000      0.5000E-01   0.000    
    7789   4.957      0.6364E-03 SPRIN         11  -0.0%   482.4      0.1250E-03   0.000       432.4       0.000      0.5000E-01   0.000    
    7790   4.958      0.6364E-03 SPRIN         11  -0.0%   483.0      0.1250E-03   0.000       433.0       0.000      0.5000E-01   0.000    
    7791   4.958      0.6364E-03 SPRIN         11  -0.0%   483.6      0.1250E-03   0.000       433.6       0.000      0.5000E-01   0.000    
    7792   4.959      0.6364E-03 SPRIN         11  -0.0%   484.2      0.1250E-03   0.000       434.2       0.000      0.5000E-01   0.000    
    7793   4.959      0.6364E-03 SPRIN         11  -0.0%   484.8      0.1250E-03   0.000       434.8       0.000      0.5000E-01   0.000    
    7794   4.960      0.6364E-03 SPRIN         11  -0.0%   485.4      0.1250E-03   0.000       435.4       0.000      0.5000E-01   0.000    
    7795   4.961      0.6364E-03 SPRIN         11  -0.0%   486.0      0.1250E-03   0.000       436.0       0.000      0.5000E-01   0.000    
    7796   4.961      0.6364E-03 SPRIN         11  -0.0%   486.6      0.1250E-03   0.000       436.6       0.000      0.5000E-01   0.000    
    7797   4.962      0.6364E-03 SPRIN         11  -0.0%   487.2      0.1250E-03   0.000       437.2       0.000      0.5000E-01   0.000    
    7798   4.963      0.6364E-03 SPRIN         11  -0.0%   487.8      0.1250E-03   0.000       437.8       0.000      0.5000E-01   0.000    
    7799   4.963      0.6364E-03 SPRIN         11  -0.0%   488.4      0.1250E-03   0.000       438.4       0.000      0.5000E-01   0.000    
    7800   4.964      0.6364E-03 SPRIN         11  -0.0%   489.0      0.1250E-03   0.000       439.0       0.000      0.5000E-01   0.000    
    7801   4.965      0.6364E-03 SPRIN         11  -0.0%   489.6      0.1250E-03   0.000       439.6       0.000      0.5000E-01   0.000    
    7802   4.965      0.6364E-03 SPRIN         11  -0.0%   490.3      0.1250E-03   0.000       440.3       0.000      0.5000E-01   0.000    
    7803   4.966      0.6364E-03 SPRIN         11  -0.0%   490.9      0.1250E-03   0.000       440.9       0.000      0.5000E-01   0.000    
    7804   4.966      0.6364E-03 SPRIN         11  -0.0%   491.5      0.1250E-03   0.000       441.5       0.000      0.5000E-01   0.000    
    7805   4.967      0.6364E-03 SPRIN         11  -0.0%   492.1      0.1250E-03   0.000       442.1       0.000      0.5000E-01   0.000    
    7806   4.968      0.6364E-03 SPRIN         11  -0.0%   492.7      0.1250E-03   0.000       442.7       0.000      0.5000E-01   0.000    
    7807   4.968      0.6364E-03 SPRIN         11  -0.0%   493.3      0.1250E-03   0.000       443.3       0.000      0.5000E-01   0.000    
    7808   4.969      0.6364E-03 SPRIN         11  -0.0%   493.9      0.1250E-03   0.000       443.9       0.000      0.5000E-01   0.000    
    7809   4.970      0.6364E-03 SPRIN         11  -0.0%   494.5      0.1250E-03   0.000       444.5       0.000      0.5000E-01   0.000    
   CYCLE    TIME      TIME-STEP  ELEMENT          ERROR  I-ENERGY    K-ENERGY T  K-ENERGY R  EXT-WORK     MAS.ERR     TOTAL MASS  MASS ADDED
    7810   4.970      0.6364E-03 SPRIN         11  -0.0%   495.1      0.1250E-03   0.000       445.1       0.000      0.5000E-01   0.000    
    7811   4.971      0.6364E-03 SPRIN         11  -0.0%   495.8      0.1250E-03   0.000       445.8       0.000      0.5000E-01   0.000    
    7812   4.972      0.6364E-03 SPRIN         11  -0.0%   496.4      0.1250E-03   0.000       446.4       0.000      0.5000E-01   0.000    
    7813   4.972      0.6364E-03 SPRIN         11  -0.0%   497.0      0.1250E-03   0.000       447.0       0.000      0.5000E-01   0.000    
    7814   4.973      0.6364E-03 SPRIN         11  -0.0%   497.6      0.1250E-03   0.000       447.6       0.000      0.5000E-01   0.000    
    7815   4.973      0.6364E-03 SPRIN         11  -0.0%   498.2      0.1250E-03   0.000       448.2       0.000      0.5000E-01   0.000    
    7816   4.974      0.6364E-03 SPRIN         11  -0.0%   498.8      0.1250E-03   0.000       448.8       0.000      0.5000E-01   0.000    
    7817   4.975      0.6364E-03 SPRIN         11  -0.0%   499.4      0.1250E-03   0.000       449.4       0.000      0.5000E-01   0.000    
    7818   4.975      0.6364E-03 SPRIN         11  -0.0%   500.1      0.1250E-03   0.000       450.1       0.000      0.5000E-01   0.000    
    7819   4.976      0.6364E-03 SPRIN         11  -0.0%   500.7      0.1250E-03   0.000       450.7       0.000      0.5000E-01   0.000    
    7820   4.977      0.6364E-03 SPRIN         11  -0.0%   501.3      0.1250E-03   0.000       451.3       0.000      0.5000E-01   0.000    
    7821   4.977      0.6364E-03 SPRIN         11  -0.0%   501.9      0.1250E-03   0.000       451.9       0.000      0.5000E-01   0.000    
    7822   4.978      0.6364E-03 SPRIN         11  -0.0%   502.5      0.1250E-03   0.000       452.5       0.000      0.5000E-01   0.000    
    7823   4.979      0.6364E-03 SPRIN         11  -0.0%   503.1      0.1250E-03   0.000       453.1       0.000      0.5000E-01   0.000    
    7824   4.979      0.6364E-03 SPRIN         11  -0.0%   503.8      0.1250E-03   0.000       453.8       0.000      0.5000E-01   0.000    
    7825   4.980      0.6364E-03 SPRIN         11  -0.0%   504.4      0.1250E-03   0.000       454.4       0.000      0.5000E-01   0.000    
    7826   4.980      0.6364E-03 SPRIN         11  -0.0%   505.0      0.1250E-03   0.000       455.0       0.000      0.5000E-01   0.000    
    7827   4.981      0.6364E-03 SPRIN         11  -0.0%   505.6      0.1250E-03   0.000       455.6       0.000      0.5000E-01   0.000    
    7828   4.982      0.6364E-03 SPRIN         11  -0.0%   506.2      0.1250E-03   0.000       456.2       0.000      0.5000E-01   0.000    
    7829   4.982      0.6364E-03 SPRIN         11  -0.0%   506.9      0.1250E-03   0.000       456.9       0.000      0.5000E-01   0.000    
    7830   4.983      0.6364E-03 SPRIN         11  -0.0%   507.5      0.1250E-03   0.000       457.5       0.000      0.5000E-01   0.000    
    7831   4.984      0.6364E-03 SPRIN         11  -0.0%   508.1      0.1250E-03   0.000       458.1       0.000      0.5000E-01   0.000    
    7832   4.984      0.6364E-03 SPRIN         11  -0.0%   508.7      0.1250E-03   0.000       458.7       0.000      0.5000E-01   0.000    
    7833   4.985      0.6364E-03 SPRIN         11  -0.0%   509.3      0.1250E-03   0.000       459.3       0.000      0.5000E-01   0.000    
    7834   4.986      0.6364E-03 SPRIN         11  -0.0%   510.0      0.1250E-03   0.000       460.0       0.000      0.5000E-01   0.000    
    7835   4.986      0.6364E-03 SPRIN         11  -0.0%   510.6      0.1250E-03   0.000       460.6       0.000      0.5000E-01   0.000    
    7836   4.987      0.6364E-03 SPRIN         11  -0.0%   511.2      0.1250E-03   0.000       461.2       0.000      0.5000E-01   0.000    
    7837   4.987      0.6364E-03 SPRIN         11  -0.0%   511.8      0.1250E-03   0.000       461.8       0.000      0.5000E-01   0.000    
    7838   4.988      0.6364E-03 SPRIN         11  -0.0%   512.5      0.1250E-03   0.000       462.5       0.000      0.5000E-01   0.000    
    7839   4.989      0.6364E-03 SPRIN         11  -0.0%   513.1      0.1250E-03   0.000       463.1       0.000      0.5000E-01   0.000    
    7840   4.989      0.6364E-03 SPRIN         11  -0.0%   513.7      0.1250E-03   0.000       463.7       0.000      0.5000E-01   0.000    
    7841   4.990      0.6364E-03 SPRIN         11  -0.0%   514.3      0.1250E-03   0.000       464.3       0.000      0.5000E-01   0.000    
    7842   4.991      0.6364E-03 SPRIN         11  -0.0%   514.9      0.1250E-03   0.000       464.9       0.000      0.5000E-01   0.000    
    7843   4.991      0.6364E-03 SPRIN         11  -0.0%   515.6      0.1250E-03   0.000       465.6       0.000      0.5000E-01   0.000    
    7844   4.992      0.6364E-03 SPRIN         11  -0.0%   516.2      0.1250E-03   0.000       466.2       0.000      0.5000E-01   0.000    
    7845   4.993      0.6364E-03 SPRIN         11  -0.0%   516.8      0.1250E-03   0.000       466.8       0.000      0.5000E-01   0.000    
    7846   4.993      0.6364E-03 SPRIN         11  -0.0%   517.5      0.1250E-03   0.000       467.5       0.000      0.5000E-01   0.000    
    7847   4.994      0.6364E-03 SPRIN         11  -0.0%   518.1      0.1250E-03   0.000       468.1       0.000      0.5000E-01   0.000    
    7848   4.994      0.6364E-03 SPRIN         11  -0.0%   518.7      0.1250E-03   0.000       468.7       0.000      0.5000E-01   0.000    
    7849   4.995      0.6364E-03 SPRIN         11  -0.0%   519.3      0.1250E-03   0.000       469.3       0.000      0.5000E-01   0.000    
    7850   4.996      0.6364E-03 SPRIN         11  -0.0%   520.0      0.1250E-03   0.000       470.0       0.000      0.5000E-01   0.000    
    7851   4.996      0.6364E-03 SPRIN         11  -0.0%   520.6      0.1250E-03   0.000       470.6       0.000      0.5000E-01   0.000    
    7852   4.997      0.6364E-03 SPRIN         11  -0.0%   521.2      0.1250E-03   0.000       471.2       0.000      0.5000E-01   0.000    
    7853   4.998      0.6364E-03 SPRIN         11  -0.0%   521.9      0.1250E-03   0.000       471.9       0.000      0.5000E-01   0.000    
    7854   4.998      0.6364E-03 SPRIN         11  -0.0%   522.5      0.1250E-03   0.000       472.5       0.000      0.5000E-01   0.000    
    7855   4.999      0.6364E-03 SPRIN         11  -0.0%   523.1      0.1250E-03   0.000       473.1       0.000      0.5000E-01   0.000    
    7856   5.000      0.6364E-03 SPRIN         11   0.0%   523.7      0.6886E-04   0.000       473.7       0.000      0.5000E-01   0.000    
    7857   5.000      0.6364E-03 SPRIN         11   0.0%   524.1      0.8306E-05   0.000       473.8       0.000      0.5000E-01   0.000    
     ANIMATION FILE: SPR_PRE_2FLAGA026 WRITTEN
    7858   5.001      0.6364E-03 SPRIN         11  -0.0%   523.4      0.1250E-03   0.000       473.4       0.000      0.5000E-01   0.000    
    7859   5.001      0.6364E-03 SPRIN         11  -0.0%   522.8      0.1250E-03   0.000       472.8       0.000      0.5000E-01   0.000    
    7860   5.002      0.6364E-03 SPRIN         11  -0.0%   522.2      0.1250E-03   0.000       472.2       0.000      0.5000E-01   0.000    
    7861   5.003      0.6364E-03 SPRIN         11  -0.0%   521.5      0.1250E-03   0.000       471.5       0.000      0.5000E-01   0.000    
    7862   5.003      0.6364E-03 SPRIN         11  -0.0%   520.9      0.1250E-03   0.000       470.9       0.000      0.5000E-01   0.000    
    7863   5.004      0.6364E-03 SPRIN         11  -0.0%   520.3      0.1250E-03   0.000       470.3       0.000      0.5000E-01   0.000    
    7864   5.005      0.6364E-03 SPRIN         11  -0.0%   519.6      0.1250E-03   0.000       469.6       0.000      0.5000E-01   0.000    
   CYCLE    TIME      TIME-STEP  ELEMENT          ERROR  I-ENERGY    K-ENERGY T  K-ENERGY R  EXT-WORK     MAS.ERR     TOTAL MASS  MASS ADDED
    7865   5.005      0.6364E-03 SPRIN         11  -0.0%   519.0      0.1250E-03   0.000       469.0       0.000      0.5000E-01   0.000    
    7866   5.006      0.6364E-03 SPRIN         11  -0.0%   518.4      0.1250E-03   0.000       468.4       0.000      0.5000E-01   0.000    
    7867   5.007      0.6364E-03 SPRIN         11  -0.0%   517.8      0.1250E-03   0.000       467.8       0.000      0.5000E-01   0.000    
    7868   5.007      0.6364E-03 SPRIN         11  -0.0%   517.1      0.1250E-03   0.000       467.1       0.000      0.5000E-01   0.000    
    7869   5.008      0.6364E-03 SPRIN         11  -0.0%   516.5      0.1250E-03   0.000       466.5       0.000      0.5000E-01   0.000    
    7870   5.008      0.6364E-03 SPRIN         11  -0.0%   515.9      0.1250E-03   0.000       465.9       0.000      0.5000E-01   0.000    
    7871   5.009      0.6364E-03 SPRIN         11  -0.0%   515.3      0.1250E-03   0.000       465.3       0.000      0.5000E-01   0.000    
    7872   5.010      0.6364E-03 SPRIN         11  -0.0%   514.6      0.1250E-03   0.000       464.6       0.000      0.5000E-01   0.000    
    7873   5.010      0.6364E-03 SPRIN         11  -0.0%   514.0      0.1250E-03   0.000       464.0       0.000      0.5000E-01   0.000    
    7874   5.011      0.6364E-03 SPRIN         11  -0.0%   513.4      0.1250E-03   0.000       463.4       0.000      0.5000E-01   0.000    
    7875   5.012      0.6364E-03 SPRIN         11  -0.0%   512.8      0.1250E-03   0.000       462.8       0.000      0.5000E-01   0.000    
    7876   5.012      0.6364E-03 SPRIN         11  -0.0%   512.1      0.1250E-03   0.000       462.1       0.000      0.5000E-01   0.000    
    7877   5.013      0.6364E-03 SPRIN         11  -0.0%   511.5      0.1250E-03   0.000       461.5       0.000      0.5000E-01   0.000    
    7878   5.014      0.6364E-03 SPRIN         11  -0.0%   510.9      0.1250E-03   0.000       460.9       0.000      0.5000E-01   0.000    
    7879   5.014      0.6364E-03 SPRIN         11  -0.0%   510.3      0.1250E-03   0.000       460.3       0.000      0.5000E-01   0.000    
    7880   5.015      0.6364E-03 SPRIN         11  -0.0%   509.6      0.1250E-03   0.000       459.6       0.000      0.5000E-01   0.000    
    7881   5.015      0.6364E-03 SPRIN         11  -0.0%   509.0      0.1250E-03   0.000       459.0       0.000      0.5000E-01   0.000    
    7882   5.016      0.6364E-03 SPRIN         11  -0.0%   508.4      0.1250E-03   0.000       458.4       0.000      0.5000E-01   0.000    
    7883   5.017      0.6364E-03 SPRIN         11  -0.0%   507.8      0.1250E-03   0.000       457.8       0.000      0.5000E-01   0.000    
    7884   5.017      0.6364E-03 SPRIN         11  -0.0%   507.2      0.1250E-03   0.000       457.2       0.000      0.5000E-01   0.000    
    7885   5.018      0.6364E-03 SPRIN         11  -0.0%   506.5      0.1250E-03   0.000       456.5       0.000      0.5000E-01   0.000    
    7886   5.019      0.6364E-03 SPRIN         11  -0.0%   505.9      0.1250E-03   0.000       455.9       0.000      0.5000E-01   0.000    
    7887   5.019      0.6364E-03 SPRIN         11  -0.0%   505.3      0.1250E-03   0.000       455.3       0.000      0.5000E-01   0.000    
    7888   5.020      0.6364E-03 SPRIN         11  -0.0%   504.7      0.1250E-03   0.000       454.7       0.000      0.5000E-01   0.000    
    7889   5.021      0.6364E-03 SPRIN         11  -0.0%   504.1      0.1250E-03   0.000       454.1       0.000      0.5000E-01   0.000    
    7890   5.021      0.6364E-03 SPRIN         11  -0.0%   503.4      0.1250E-03   0.000       453.4       0.000      0.5000E-01   0.000    
    7891   5.022      0.6364E-03 SPRIN         11  -0.0%   502.8      0.1250E-03   0.000       452.8       0.000      0.5000E-01   0.000    
    7892   5.022      0.6364E-03 SPRIN         11  -0.0%   502.2      0.1250E-03   0.000       452.2       0.000      0.5000E-01   0.000    
    7893   5.023      0.6364E-03 SPRIN         11  -0.0%   501.6      0.1250E-03   0.000       451.6       0.000      0.5000E-01   0.000    
    7894   5.024      0.6364E-03 SPRIN         11  -0.0%   501.0      0.1250E-03   0.000       451.0       0.000      0.5000E-01   0.000    
    7895   5.024      0.6364E-03 SPRIN         11  -0.0%   500.4      0.1250E-03   0.000       450.4       0.000      0.5000E-01   0.000    
    7896   5.025      0.6364E-03 SPRIN         11  -0.0%   499.7      0.1250E-03   0.000       449.7       0.000      0.5000E-01   0.000    
    7897   5.026      0.6364E-03 SPRIN         11  -0.0%   499.1      0.1250E-03   0.000       449.1       0.000      0.5000E-01   0.000    
    7898   5.026      0.6364E-03 SPRIN         11  -0.0%   498.5      0.1250E-03   0.000       448.5       0.000      0.5000E-01   0.000    
    7899   5.027      0.6364E-03 SPRIN         11  -0.0%   497.9      0.1250E-03   0.000       447.9       0.000      0.5000E-01   0.000    
    7900   5.028      0.6364E-03 SPRIN         11  -0.0%   497.3      0.1250E-03   0.000       447.3       0.000      0.5000E-01   0.000    
    7901   5.028      0.6364E-03 SPRIN         11  -0.0%   496.7      0.1250E-03   0.000       446.7       0.000      0.5000E-01   0.000    
    7902   5.029      0.6364E-03 SPRIN         11  -0.0%   496.1      0.1250E-03   0.000       446.1       0.000      0.5000E-01   0.000    
    7903   5.029      0.6364E-03 SPRIN         11  -0.0%   495.4      0.1250E-03   0.000       445.4       0.000      0.5000E-01   0.000    
    7904   5.030      0.6364E-03 SPRIN         11  -0.0%   494.8      0.1250E-03   0.000       444.8       0.000      0.5000E-01   0.000    
    7905   5.031      0.6364E-03 SPRIN         11  -0.0%   494.2      0.1250E-03   0.000       444.2       0.000      0.5000E-01   0.000    
    7906   5.031      0.6364E-03 SPRIN         11  -0.0%   493.6      0.1250E-03   0.000       443.6       0.000      0.5000E-01   0.000    
    7907   5.032      0.6364E-03 SPRIN         11  -0.0%   493.0      0.1250E-03   0.000       443.0       0.000      0.5000E-01   0.000    
    7908   5.033      0.6364E-03 SPRIN         11  -0.0%   492.4      0.1250E-03   0.000       442.4       0.000      0.5000E-01   0.000    
    7909   5.033      0.6364E-03 SPRIN         11  -0.0%   491.8      0.1250E-03   0.000       441.8       0.000      0.5000E-01   0.000    
    7910   5.034      0.6364E-03 SPRIN         11  -0.0%   491.2      0.1250E-03   0.000       441.2       0.000      0.5000E-01   0.000    
    7911   5.035      0.6364E-03 SPRIN         11  -0.0%   490.5      0.1250E-03   0.000       440.5       0.000      0.5000E-01   0.000    
    7912   5.035      0.6364E-03 SPRIN         11  -0.0%   489.9      0.1250E-03   0.000       439.9       0.000      0.5000E-01   0.000    
    7913   5.036      0.6364E-03 SPRIN         11  -0.0%   489.3      0.1250E-03   0.000       439.3       0.000      0.5000E-01   0.000    
    7914   5.036      0.6364E-03 SPRIN         11  -0.0%   488.7      0.1250E-03   0.000       438.7       0.000      0.5000E-01   0.000    
    7915   5.037      0.6364E-03 SPRIN         11  -0.0%   488.1      0.1250E-03   0.000       438.1       0.000      0.5000E-01   0.000    
    7916   5.038      0.6364E-03 SPRIN         11  -0.0%   487.5      0.1250E-03   0.000       437.5       0.000      0.5000E-01   0.000    
    7917   5.038      0.6364E-03 SPRIN         11  -0.0%   486.9      0.1250E-03   0.000       436.9       0.000      0.5000E-01   0.000    
    7918   5.039      0.6364E-03 SPRIN         11  -0.0%   486.3      0.1250E-03   0.000       436.3       0.000      0.5000E-01   0.000    
    7919   5.040      0.6364E-03 SPRIN         11  -0.0%   485.7      0.1250E-03   0.000       435.7       0.000      0.5000E-01   0.000    
   CYCLE    TIME      TIME-STEP  ELEMENT          ERROR  I-ENERGY    K-ENERGY T  K-ENERGY R  EXT-WORK     MAS.ERR     TOTAL MASS  MASS ADDED
    7920   5.040      0.6364E-03 SPRIN         11  -0.0%   485.1      0.1250E-03   0.000       435.1       0.000      0.5000E-01   0.000    
    7921   5.041      0.6364E-03 SPRIN         11  -0.0%   484.5      0.1250E-03   0.000       434.5       0.000      0.5000E-01   0.000    
    7922   5.042      0.6364E-03 SPRIN         11  -0.0%   483.9      0.1250E-03   0.000       433.9       0.000      0.5000E-01   0.000    
    7923   5.042      0.6364E-03 SPRIN         11  -0.0%   483.3      0.1250E-03   0.000       433.3       0.000      0.5000E-01   0.000    
    7924   5.043      0.6364E-03 SPRIN         11  -0.0%   482.7      0.1250E-03   0.000       432.7       0.000      0.5000E-01   0.000    
    7925   5.043      0.6364E-03 SPRIN         11  -0.0%   482.1      0.1250E-03   0.000       432.1       0.000      0.5000E-01   0.000    
    7926   5.044      0.6364E-03 SPRIN         11  -0.0%   481.5      0.1250E-03   0.000       431.5       0.000      0.5000E-01   0.000    
    7927   5.045      0.6364E-03 SPRIN         11  -0.0%   480.8      0.1250E-03   0.000       430.8       0.000      0.5000E-01   0.000    
    7928   5.045      0.6364E-03 SPRIN         11  -0.0%   480.2      0.1250E-03   0.000       430.2       0.000      0.5000E-01   0.000    
    7929   5.046      0.6364E-03 SPRIN         11  -0.0%   479.6      0.1250E-03   0.000       429.6       0.000      0.5000E-01   0.000    
    7930   5.047      0.6364E-03 SPRIN         11  -0.0%   479.0      0.1250E-03   0.000       429.0       0.000      0.5000E-01   0.000    
    7931   5.047      0.6364E-03 SPRIN         11  -0.0%   478.4      0.1250E-03   0.000       428.4       0.000      0.5000E-01   0.000    
    7932   5.048      0.6364E-03 SPRIN         11  -0.0%   477.8      0.1250E-03   0.000       427.8       0.000      0.5000E-01   0.000    
    7933   5.049      0.6364E-03 SPRIN         11  -0.0%   477.2      0.1250E-03   0.000       427.2       0.000      0.5000E-01   0.000    
    7934   5.049      0.6364E-03 SPRIN         11  -0.0%   476.6      0.1250E-03   0.000       426.6       0.000      0.5000E-01   0.000    
    7935   5.050      0.6364E-03 SPRIN         11  -0.0%   476.0      0.1250E-03   0.000       426.0       0.000      0.5000E-01   0.000    
    7936   5.050      0.6364E-03 SPRIN         11  -0.0%   475.4      0.1250E-03   0.000       425.4       0.000      0.5000E-01   0.000    
    7937   5.051      0.6364E-03 SPRIN         11  -0.0%   474.8      0.1250E-03   0.000       424.8       0.000      0.5000E-01   0.000    
    7938   5.052      0.6364E-03 SPRIN         11  -0.0%   474.2      0.1250E-03   0.000       424.2       0.000      0.5000E-01   0.000    
    7939   5.052      0.6364E-03 SPRIN         11  -0.0%   473.6      0.1250E-03   0.000       423.6       0.000      0.5000E-01   0.000    
    7940   5.053      0.6364E-03 SPRIN         11  -0.0%   473.0      0.1250E-03   0.000       423.0       0.000      0.5000E-01   0.000    
    7941   5.054      0.6364E-03 SPRIN         11  -0.0%   472.4      0.1250E-03   0.000       422.4       0.000      0.5000E-01   0.000    
    7942   5.054      0.6364E-03 SPRIN         11  -0.0%   471.9      0.1250E-03   0.000       421.9       0.000      0.5000E-01   0.000    
    7943   5.055      0.6364E-03 SPRIN         11  -0.0%   471.3      0.1250E-03   0.000       421.3       0.000      0.5000E-01   0.000    
    7944   5.056      0.6364E-03 SPRIN         11  -0.0%   470.7      0.1250E-03   0.000       420.7       0.000      0.5000E-01   0.000    
    7945   5.056      0.6364E-03 SPRIN         11  -0.0%   470.1      0.1250E-03   0.000       420.1       0.000      0.5000E-01   0.000    
    7946   5.057      0.6364E-03 SPRIN         11  -0.0%   469.5      0.1250E-03   0.000       419.5       0.000      0.5000E-01   0.000    
    7947   5.057      0.6364E-03 SPRIN         11  -0.0%   468.9      0.1250E-03   0.000       418.9       0.000      0.5000E-01   0.000    
    7948   5.058      0.6364E-03 SPRIN         11  -0.0%   468.3      0.1250E-03   0.000       418.3       0.000      0.5000E-01   0.000    
    7949   5.059      0.6364E-03 SPRIN         11  -0.0%   467.7      0.1250E-03   0.000       417.7       0.000      0.5000E-01   0.000    
    7950   5.059      0.6364E-03 SPRIN         11  -0.0%   467.1      0.1250E-03   0.000       417.1       0.000      0.5000E-01   0.000    
    7951   5.060      0.6364E-03 SPRIN         11  -0.0%   466.5      0.1250E-03   0.000       416.5       0.000      0.5000E-01   0.000    
    7952   5.061      0.6364E-03 SPRIN         11  -0.0%   465.9      0.1250E-03   0.000       415.9       0.000      0.5000E-01   0.000    
    7953   5.061      0.6364E-03 SPRIN         11  -0.0%   465.3      0.1250E-03   0.000       415.3       0.000      0.5000E-01   0.000    
    7954   5.062      0.6364E-03 SPRIN         11  -0.0%   464.7      0.1250E-03   0.000       414.7       0.000      0.5000E-01   0.000    
    7955   5.063      0.6364E-03 SPRIN         11  -0.0%   464.1      0.1250E-03   0.000       414.1       0.000      0.5000E-01   0.000    
    7956   5.063      0.6364E-03 SPRIN         11  -0.0%   463.5      0.1250E-03   0.000       413.5       0.000      0.5000E-01   0.000    
    7957   5.064      0.6364E-03 SPRIN         11  -0.0%   462.9      0.1250E-03   0.000       412.9       0.000      0.5000E-01   0.000    
    7958   5.064      0.6364E-03 SPRIN         11  -0.0%   462.4      0.1250E-03   0.000       412.4       0.000      0.5000E-01   0.000    
    7959   5.065      0.6364E-03 SPRIN         11  -0.0%   461.8      0.1250E-03   0.000       411.8       0.000      0.5000E-01   0.000    
    7960   5.066      0.6364E-03 SPRIN         11  -0.0%   461.2      0.1250E-03   0.000       411.2       0.000      0.5000E-01   0.000    
    7961   5.066      0.6364E-03 SPRIN         11  -0.0%   460.6      0.1250E-03   0.000       410.6       0.000      0.5000E-01   0.000    
    7962   5.067      0.6364E-03 SPRIN         11  -0.0%   460.0      0.1250E-03   0.000       410.0       0.000      0.5000E-01   0.000    
    7963   5.068      0.6364E-03 SPRIN         11  -0.0%   459.4      0.1250E-03   0.000       409.4       0.000      0.5000E-01   0.000    
    7964   5.068      0.6364E-03 SPRIN         11  -0.0%   458.8      0.1250E-03   0.000       408.8       0.000      0.5000E-01   0.000    
    7965   5.069      0.6364E-03 SPRIN         11  -0.0%   458.2      0.1250E-03   0.000       408.2       0.000      0.5000E-01   0.000    
    7966   5.070      0.6364E-03 SPRIN         11  -0.0%   457.6      0.1250E-03   0.000       407.6       0.000      0.5000E-01   0.000    
    7967   5.070      0.6364E-03 SPRIN         11  -0.0%   457.1      0.1250E-03   0.000       407.1       0.000      0.5000E-01   0.000    
    7968   5.071      0.6364E-03 SPRIN         11  -0.0%   456.5      0.1250E-03   0.000       406.5       0.000      0.5000E-01   0.000    
    7969   5.071      0.6364E-03 SPRIN         11  -0.0%   455.9      0.1250E-03   0.000       405.9       0.000      0.5000E-01   0.000    
    7970   5.072      0.6364E-03 SPRIN         11  -0.0%   455.3      0.1250E-03   0.000       405.3       0.000      0.5000E-01   0.000    
    7971   5.073      0.6364E-03 SPRIN         11  -0.0%   454.7      0.1250E-03   0.000       404.7       0.000      0.5000E-01   0.000    
    7972   5.073      0.6364E-03 SPRIN         11  -0.0%   454.1      0.1250E-03   0.000       404.1       0.000      0.5000E-01   0.000    
    7973   5.074      0.6364E-03 SPRIN         11  -0.0%   453.5      0.1250E-03   0.000       403.5       0.000      0.5000E-01   0.000    
    7974   5.075      0.6364E-03 SPRIN         11  -0.0%   453.0      0.1250E-03   0.000       403.0       0.000      0.5000E-01   0.000    
   CYCLE    TIME      TIME-STEP  ELEMENT          ERROR  I-ENERGY    K-ENERGY T  K-ENERGY R  EXT-WORK     MAS.ERR     TOTAL MASS  MASS ADDED
    7975   5.075      0.6364E-03 SPRIN         11  -0.0%   452.4      0.1250E-03   0.000       402.4       0.000      0.5000E-01   0.000    
    7976   5.076      0.6364E-03 SPRIN         11  -0.0%   451.8      0.1250E-03   0.000       401.8       0.000      0.5000E-01   0.000    
    7977   5.077      0.6364E-03 SPRIN         11  -0.0%   451.2      0.1250E-03   0.000       401.2       0.000      0.5000E-01   0.000    
    7978   5.077      0.6364E-03 SPRIN         11  -0.0%   450.6      0.1250E-03   0.000       400.6       0.000      0.5000E-01   0.000    
    7979   5.078      0.6364E-03 SPRIN         11  -0.0%   450.0      0.1250E-03   0.000       400.0       0.000      0.5000E-01   0.000    
    7980   5.078      0.6364E-03 SPRIN         11  -0.0%   449.5      0.1250E-03   0.000       399.5       0.000      0.5000E-01   0.000    
    7981   5.079      0.6364E-03 SPRIN         11  -0.0%   448.9      0.1250E-03   0.000       398.9       0.000      0.5000E-01   0.000    
    7982   5.080      0.6364E-03 SPRIN         11  -0.0%   448.3      0.1250E-03   0.000       398.3       0.000      0.5000E-01   0.000    
    7983   5.080      0.6364E-03 SPRIN         11  -0.0%   447.7      0.1250E-03   0.000       397.7       0.000      0.5000E-01   0.000    
    7984   5.081      0.6364E-03 SPRIN         11  -0.0%   447.1      0.1250E-03   0.000       397.1       0.000      0.5000E-01   0.000    
    7985   5.082      0.6364E-03 SPRIN         11  -0.0%   446.6      0.1250E-03   0.000       396.6       0.000      0.5000E-01   0.000    
    7986   5.082      0.6364E-03 SPRIN         11  -0.0%   446.0      0.1250E-03   0.000       396.0       0.000      0.5000E-01   0.000    
    7987   5.083      0.6364E-03 SPRIN         11  -0.0%   445.4      0.1250E-03   0.000       395.4       0.000      0.5000E-01   0.000    
    7988   5.084      0.6364E-03 SPRIN         11  -0.0%   444.8      0.1250E-03   0.000       394.8       0.000      0.5000E-01   0.000    
    7989   5.084      0.6364E-03 SPRIN         11  -0.0%   444.2      0.1250E-03   0.000       394.2       0.000      0.5000E-01   0.000    
    7990   5.085      0.6364E-03 SPRIN         11  -0.0%   443.7      0.1250E-03   0.000       393.7       0.000      0.5000E-01   0.000    
    7991   5.085      0.6364E-03 SPRIN         11  -0.0%   443.1      0.1250E-03   0.000       393.1       0.000      0.5000E-01   0.000    
    7992   5.086      0.6364E-03 SPRIN         11  -0.0%   442.5      0.1250E-03   0.000       392.5       0.000      0.5000E-01   0.000    
    7993   5.087      0.6364E-03 SPRIN         11  -0.0%   441.9      0.1250E-03   0.000       391.9       0.000      0.5000E-01   0.000    
    7994   5.087      0.6364E-03 SPRIN         11  -0.0%   441.4      0.1250E-03   0.000       391.4       0.000      0.5000E-01   0.000    
    7995   5.088      0.6364E-03 SPRIN         11  -0.0%   440.8      0.1250E-03   0.000       390.8       0.000      0.5000E-01   0.000    
    7996   5.089      0.6364E-03 SPRIN         11  -0.0%   440.2      0.1250E-03   0.000       390.2       0.000      0.5000E-01   0.000    
    7997   5.089      0.6364E-03 SPRIN         11  -0.0%   439.6      0.1250E-03   0.000       389.6       0.000      0.5000E-01   0.000    
    7998   5.090      0.6364E-03 SPRIN         11  -0.0%   439.1      0.1250E-03   0.000       389.1       0.000      0.5000E-01   0.000    
    7999   5.091      0.6364E-03 SPRIN         11  -0.0%   438.5      0.1250E-03   0.000       388.5       0.000      0.5000E-01   0.000    
    8000   5.091      0.6364E-03 SPRIN         11  -0.0%   437.9      0.1250E-03   0.000       387.9       0.000      0.5000E-01   0.000    
    8001   5.092      0.6364E-03 SPRIN         11  -0.0%   437.3      0.1250E-03   0.000       387.3       0.000      0.5000E-01   0.000    
    8002   5.092      0.6364E-03 SPRIN         11  -0.0%   436.8      0.1250E-03   0.000       386.8       0.000      0.5000E-01   0.000    
    8003   5.093      0.6364E-03 SPRIN         11  -0.0%   436.2      0.1250E-03   0.000       386.2       0.000      0.5000E-01   0.000    
    8004   5.094      0.6364E-03 SPRIN         11  -0.0%   435.6      0.1250E-03   0.000       385.6       0.000      0.5000E-01   0.000    
    8005   5.094      0.6364E-03 SPRIN         11  -0.0%   435.0      0.1250E-03   0.000       385.0       0.000      0.5000E-01   0.000    
    8006   5.095      0.6364E-03 SPRIN         11  -0.0%   434.5      0.1250E-03   0.000       384.5       0.000      0.5000E-01   0.000    
    8007   5.096      0.6364E-03 SPRIN         11  -0.0%   433.9      0.1250E-03   0.000       383.9       0.000      0.5000E-01   0.000    
    8008   5.096      0.6364E-03 SPRIN         11  -0.0%   433.3      0.1250E-03   0.000       383.3       0.000      0.5000E-01   0.000    
    8009   5.097      0.6364E-03 SPRIN         11  -0.0%   432.8      0.1250E-03   0.000       382.8       0.000      0.5000E-01   0.000    
    8010   5.098      0.6364E-03 SPRIN         11  -0.0%   432.2      0.1250E-03   0.000       382.2       0.000      0.5000E-01   0.000    
    8011   5.098      0.6364E-03 SPRIN         11  -0.0%   431.6      0.1250E-03   0.000       381.6       0.000      0.5000E-01   0.000    
    8012   5.099      0.6364E-03 SPRIN         11  -0.0%   431.1      0.1250E-03   0.000       381.1       0.000      0.5000E-01   0.000    
    8013   5.099      0.6364E-03 SPRIN         11  -0.0%   430.5      0.1250E-03   0.000       380.5       0.000      0.5000E-01   0.000    
    8014   5.100      0.6364E-03 SPRIN         11  -0.0%   429.9      0.1250E-03   0.000       379.9       0.000      0.5000E-01   0.000    
    8015   5.101      0.6364E-03 SPRIN         11  -0.0%   429.4      0.1250E-03   0.000       379.4       0.000      0.5000E-01   0.000    
    8016   5.101      0.6364E-03 SPRIN         11  -0.0%   428.8      0.1250E-03   0.000       378.8       0.000      0.5000E-01   0.000    
    8017   5.102      0.6364E-03 SPRIN         11  -0.0%   428.2      0.1250E-03   0.000       378.2       0.000      0.5000E-01   0.000    
    8018   5.103      0.6364E-03 SPRIN         11  -0.0%   427.7      0.1250E-03   0.000       377.7       0.000      0.5000E-01   0.000    
    8019   5.103      0.6364E-03 SPRIN         11  -0.0%   427.1      0.1250E-03   0.000       377.1       0.000      0.5000E-01   0.000    
    8020   5.104      0.6364E-03 SPRIN         11  -0.0%   426.5      0.1250E-03   0.000       376.5       0.000      0.5000E-01   0.000    
    8021   5.105      0.6364E-03 SPRIN         11  -0.0%   426.0      0.1250E-03   0.000       376.0       0.000      0.5000E-01   0.000    
    8022   5.105      0.6364E-03 SPRIN         11  -0.0%   425.4      0.1250E-03   0.000       375.4       0.000      0.5000E-01   0.000    
    8023   5.106      0.6364E-03 SPRIN         11  -0.0%   424.8      0.1250E-03   0.000       374.8       0.000      0.5000E-01   0.000    
    8024   5.106      0.6364E-03 SPRIN         11  -0.0%   424.3      0.1250E-03   0.000       374.3       0.000      0.5000E-01   0.000    
    8025   5.107      0.6364E-03 SPRIN         11  -0.0%   423.7      0.1250E-03   0.000       373.7       0.000      0.5000E-01   0.000    
    8026   5.108      0.6364E-03 SPRIN         11  -0.0%   423.1      0.1250E-03   0.000       373.1       0.000      0.5000E-01   0.000    
    8027   5.108      0.6364E-03 SPRIN         11  -0.0%   422.6      0.1250E-03   0.000       372.6       0.000      0.5000E-01   0.000    
    8028   5.109      0.6364E-03 SPRIN         11  -0.0%   422.0      0.1250E-03   0.000       372.0       0.000      0.5000E-01   0.000    
    8029   5.110      0.6364E-03 SPRIN         11  -0.0%   421.5      0.1250E-03   0.000       371.5       0.000      0.5000E-01   0.000    
   CYCLE    TIME      TIME-STEP  ELEMENT          ERROR  I-ENERGY    K-ENERGY T  K-ENERGY R  EXT-WORK     MAS.ERR     TOTAL MASS  MASS ADDED
    8030   5.110      0.6364E-03 SPRIN         11  -0.0%   420.9      0.1250E-03   0.000       370.9       0.000      0.5000E-01   0.000    
    8031   5.111      0.6364E-03 SPRIN         11  -0.0%   420.3      0.1250E-03   0.000       370.3       0.000      0.5000E-01   0.000    
    8032   5.112      0.6364E-03 SPRIN         11  -0.0%   419.8      0.1250E-03   0.000       369.8       0.000      0.5000E-01   0.000    
    8033   5.112      0.6364E-03 SPRIN         11  -0.0%   419.2      0.1250E-03   0.000       369.2       0.000      0.5000E-01   0.000    
    8034   5.113      0.6364E-03 SPRIN         11  -0.0%   418.6      0.1250E-03   0.000       368.6       0.000      0.5000E-01   0.000    
    8035   5.113      0.6364E-03 SPRIN         11  -0.0%   418.1      0.1250E-03   0.000       368.1       0.000      0.5000E-01   0.000    
    8036   5.114      0.6364E-03 SPRIN         11  -0.0%   417.5      0.1250E-03   0.000       367.5       0.000      0.5000E-01   0.000    
    8037   5.115      0.6364E-03 SPRIN         11  -0.0%   417.0      0.1250E-03   0.000       367.0       0.000      0.5000E-01   0.000    
    8038   5.115      0.6364E-03 SPRIN         11  -0.0%   416.4      0.1250E-03   0.000       366.4       0.000      0.5000E-01   0.000    
    8039   5.116      0.6364E-03 SPRIN         11  -0.0%   415.9      0.1250E-03   0.000       365.9       0.000      0.5000E-01   0.000    
    8040   5.117      0.6364E-03 SPRIN         11  -0.0%   415.3      0.1250E-03   0.000       365.3       0.000      0.5000E-01   0.000    
    8041   5.117      0.6364E-03 SPRIN         11  -0.0%   414.7      0.1250E-03   0.000       364.7       0.000      0.5000E-01   0.000    
    8042   5.118      0.6364E-03 SPRIN         11  -0.0%   414.2      0.1250E-03   0.000       364.2       0.000      0.5000E-01   0.000    
    8043   5.119      0.6364E-03 SPRIN         11  -0.0%   413.6      0.1250E-03   0.000       363.6       0.000      0.5000E-01   0.000    
    8044   5.119      0.6364E-03 SPRIN         11  -0.0%   413.1      0.1250E-03   0.000       363.1       0.000      0.5000E-01   0.000    
    8045   5.120      0.6364E-03 SPRIN         11  -0.0%   412.5      0.1250E-03   0.000       362.5       0.000      0.5000E-01   0.000    
    8046   5.120      0.6364E-03 SPRIN         11  -0.0%   412.0      0.1250E-03   0.000       362.0       0.000      0.5000E-01   0.000    
    8047   5.121      0.6364E-03 SPRIN         11  -0.0%   411.4      0.1250E-03   0.000       361.4       0.000      0.5000E-01   0.000    
    8048   5.122      0.6364E-03 SPRIN         11  -0.0%   410.9      0.1250E-03   0.000       360.9       0.000      0.5000E-01   0.000    
    8049   5.122      0.6364E-03 SPRIN         11  -0.0%   410.3      0.1250E-03   0.000       360.3       0.000      0.5000E-01   0.000    
    8050   5.123      0.6364E-03 SPRIN         11  -0.0%   409.7      0.1250E-03   0.000       359.7       0.000      0.5000E-01   0.000    
    8051   5.124      0.6364E-03 SPRIN         11  -0.0%   409.2      0.1250E-03   0.000       359.2       0.000      0.5000E-01   0.000    
    8052   5.124      0.6364E-03 SPRIN         11  -0.0%   408.6      0.1250E-03   0.000       358.6       0.000      0.5000E-01   0.000    
    8053   5.125      0.6364E-03 SPRIN         11  -0.0%   408.1      0.1250E-03   0.000       358.1       0.000      0.5000E-01   0.000    
    8054   5.126      0.6364E-03 SPRIN         11  -0.0%   407.5      0.1250E-03   0.000       357.5       0.000      0.5000E-01   0.000    
    8055   5.126      0.6364E-03 SPRIN         11  -0.0%   407.0      0.1250E-03   0.000       357.0       0.000      0.5000E-01   0.000    
    8056   5.127      0.6364E-03 SPRIN         11  -0.0%   406.4      0.1250E-03   0.000       356.4       0.000      0.5000E-01   0.000    
    8057   5.127      0.6364E-03 SPRIN         11  -0.0%   405.9      0.1250E-03   0.000       355.9       0.000      0.5000E-01   0.000    
    8058   5.128      0.6364E-03 SPRIN         11  -0.0%   405.3      0.1250E-03   0.000       355.3       0.000      0.5000E-01   0.000    
    8059   5.129      0.6364E-03 SPRIN         11  -0.0%   404.8      0.1250E-03   0.000       354.8       0.000      0.5000E-01   0.000    
    8060   5.129      0.6364E-03 SPRIN         11  -0.0%   404.2      0.1250E-03   0.000       354.2       0.000      0.5000E-01   0.000    
    8061   5.130      0.6364E-03 SPRIN         11  -0.0%   403.7      0.1250E-03   0.000       353.7       0.000      0.5000E-01   0.000    
    8062   5.131      0.6364E-03 SPRIN         11  -0.0%   403.1      0.1250E-03   0.000       353.1       0.000      0.5000E-01   0.000    
    8063   5.131      0.6364E-03 SPRIN         11  -0.0%   402.6      0.1250E-03   0.000       352.6       0.000      0.5000E-01   0.000    
    8064   5.132      0.6364E-03 SPRIN         11  -0.0%   402.0      0.1250E-03   0.000       352.0       0.000      0.5000E-01   0.000    
    8065   5.133      0.6364E-03 SPRIN         11  -0.0%   401.5      0.1250E-03   0.000       351.5       0.000      0.5000E-01   0.000    
    8066   5.133      0.6364E-03 SPRIN         11  -0.0%   400.9      0.1250E-03   0.000       350.9       0.000      0.5000E-01   0.000    
    8067   5.134      0.6364E-03 SPRIN         11  -0.0%   400.4      0.1250E-03   0.000       350.4       0.000      0.5000E-01   0.000    
    8068   5.134      0.6364E-03 SPRIN         11  -0.0%   399.9      0.1250E-03   0.000       349.9       0.000      0.5000E-01   0.000    
    8069   5.135      0.6364E-03 SPRIN         11  -0.0%   399.3      0.1250E-03   0.000       349.3       0.000      0.5000E-01   0.000    
    8070   5.136      0.6364E-03 SPRIN         11  -0.0%   398.8      0.1250E-03   0.000       348.8       0.000      0.5000E-01   0.000    
    8071   5.136      0.6364E-03 SPRIN         11  -0.0%   398.2      0.1250E-03   0.000       348.2       0.000      0.5000E-01   0.000    
    8072   5.137      0.6364E-03 SPRIN         11  -0.0%   397.7      0.1250E-03   0.000       347.7       0.000      0.5000E-01   0.000    
    8073   5.138      0.6364E-03 SPRIN         11  -0.0%   397.1      0.1250E-03   0.000       347.1       0.000      0.5000E-01   0.000    
    8074   5.138      0.6364E-03 SPRIN         11  -0.0%   396.6      0.1250E-03   0.000       346.6       0.000      0.5000E-01   0.000    
    8075   5.139      0.6364E-03 SPRIN         11  -0.0%   396.0      0.1250E-03   0.000       346.0       0.000      0.5000E-01   0.000    
    8076   5.140      0.6364E-03 SPRIN         11  -0.0%   395.5      0.1250E-03   0.000       345.5       0.000      0.5000E-01   0.000    
    8077   5.140      0.6364E-03 SPRIN         11  -0.0%   395.0      0.1250E-03   0.000       345.0       0.000      0.5000E-01   0.000    
    8078   5.141      0.6364E-03 SPRIN         11  -0.0%   394.4      0.1250E-03   0.000       344.4       0.000      0.5000E-01   0.000    
    8079   5.141      0.6364E-03 SPRIN         11  -0.0%   393.9      0.1250E-03   0.000       343.9       0.000      0.5000E-01   0.000    
    8080   5.142      0.6364E-03 SPRIN         11  -0.0%   393.3      0.1250E-03   0.000       343.3       0.000      0.5000E-01   0.000    
    8081   5.143      0.6364E-03 SPRIN         11  -0.0%   392.8      0.1250E-03   0.000       342.8       0.000      0.5000E-01   0.000    
    8082   5.143      0.6364E-03 SPRIN         11  -0.0%   392.3      0.1250E-03   0.000       342.3       0.000      0.5000E-01   0.000    
    8083   5.144      0.6364E-03 SPRIN         11  -0.0%   391.7      0.1250E-03   0.000       341.7       0.000      0.5000E-01   0.000    
    8084   5.145      0.6364E-03 SPRIN         11  -0.0%   391.2      0.1250E-03   0.000       341.2       0.000      0.5000E-01   0.000    
   CYCLE    TIME      TIME-STEP  ELEMENT          ERROR  I-ENERGY    K-ENERGY T  K-ENERGY R  EXT-WORK     MAS.ERR     TOTAL MASS  MASS ADDED
    8085   5.145      0.6364E-03 SPRIN         11  -0.0%   390.6      0.1250E-03   0.000       340.6       0.000      0.5000E-01   0.000    
    8086   5.146      0.6364E-03 SPRIN         11  -0.0%   390.1      0.1250E-03   0.000       340.1       0.000      0.5000E-01   0.000    
    8087   5.147      0.6364E-03 SPRIN         11  -0.0%   389.6      0.1250E-03   0.000       339.6       0.000      0.5000E-01   0.000    
    8088   5.147      0.6364E-03 SPRIN         11  -0.0%   389.0      0.1250E-03   0.000       339.0       0.000      0.5000E-01   0.000    
    8089   5.148      0.6364E-03 SPRIN         11  -0.0%   388.5      0.1250E-03   0.000       338.5       0.000      0.5000E-01   0.000    
    8090   5.148      0.6364E-03 SPRIN         11  -0.0%   387.9      0.1250E-03   0.000       337.9       0.000      0.5000E-01   0.000    
    8091   5.149      0.6364E-03 SPRIN         11  -0.0%   387.4      0.1250E-03   0.000       337.4       0.000      0.5000E-01   0.000    
    8092   5.150      0.6364E-03 SPRIN         11  -0.0%   386.9      0.1250E-03   0.000       336.9       0.000      0.5000E-01   0.000    
    8093   5.150      0.6364E-03 SPRIN         11  -0.0%   386.3      0.1250E-03   0.000       336.3       0.000      0.5000E-01   0.000    
    8094   5.151      0.6364E-03 SPRIN         11  -0.0%   385.8      0.1250E-03   0.000       335.8       0.000      0.5000E-01   0.000    
    8095   5.152      0.6364E-03 SPRIN         11  -0.0%   385.3      0.1250E-03   0.000       335.3       0.000      0.5000E-01   0.000    
    8096   5.152      0.6364E-03 SPRIN         11  -0.0%   384.7      0.1250E-03   0.000       334.7       0.000      0.5000E-01   0.000    
    8097   5.153      0.6364E-03 SPRIN         11  -0.0%   384.2      0.1250E-03   0.000       334.2       0.000      0.5000E-01   0.000    
    8098   5.154      0.6364E-03 SPRIN         11  -0.0%   383.7      0.1250E-03   0.000       333.7       0.000      0.5000E-01   0.000    
    8099   5.154      0.6364E-03 SPRIN         11  -0.0%   383.1      0.1250E-03   0.000       333.1       0.000      0.5000E-01   0.000    
    8100   5.155      0.6364E-03 SPRIN         11  -0.0%   382.6      0.1250E-03   0.000       332.6       0.000      0.5000E-01   0.000    
    8101   5.155      0.6364E-03 SPRIN         11  -0.0%   382.1      0.1250E-03   0.000       332.1       0.000      0.5000E-01   0.000    
    8102   5.156      0.6364E-03 SPRIN         11  -0.0%   381.5      0.1250E-03   0.000       331.5       0.000      0.5000E-01   0.000    
    8103   5.157      0.6364E-03 SPRIN         11  -0.0%   381.0      0.1250E-03   0.000       331.0       0.000      0.5000E-01   0.000    
    8104   5.157      0.6364E-03 SPRIN         11  -0.0%   380.5      0.1250E-03   0.000       330.5       0.000      0.5000E-01   0.000    
    8105   5.158      0.6364E-03 SPRIN         11  -0.0%   379.9      0.1250E-03   0.000       329.9       0.000      0.5000E-01   0.000    
    8106   5.159      0.6364E-03 SPRIN         11  -0.0%   379.4      0.1250E-03   0.000       329.4       0.000      0.5000E-01   0.000    
    8107   5.159      0.6364E-03 SPRIN         11  -0.0%   378.9      0.1250E-03   0.000       328.9       0.000      0.5000E-01   0.000    
    8108   5.160      0.6364E-03 SPRIN         11  -0.0%   378.3      0.1250E-03   0.000       328.3       0.000      0.5000E-01   0.000    
    8109   5.161      0.6364E-03 SPRIN         11  -0.0%   377.8      0.1250E-03   0.000       327.8       0.000      0.5000E-01   0.000    
    8110   5.161      0.6364E-03 SPRIN         11  -0.0%   377.3      0.1250E-03   0.000       327.3       0.000      0.5000E-01   0.000    
    8111   5.162      0.6364E-03 SPRIN         11  -0.0%   376.8      0.1250E-03   0.000       326.8       0.000      0.5000E-01   0.000    
    8112   5.162      0.6364E-03 SPRIN         11  -0.0%   376.2      0.1250E-03   0.000       326.2       0.000      0.5000E-01   0.000    
    8113   5.163      0.6364E-03 SPRIN         11  -0.0%   375.7      0.1250E-03   0.000       325.7       0.000      0.5000E-01   0.000    
    8114   5.164      0.6364E-03 SPRIN         11  -0.0%   375.2      0.1250E-03   0.000       325.2       0.000      0.5000E-01   0.000    
    8115   5.164      0.6364E-03 SPRIN         11  -0.0%   374.6      0.1250E-03   0.000       324.6       0.000      0.5000E-01   0.000    
    8116   5.165      0.6364E-03 SPRIN         11  -0.0%   374.1      0.1250E-03   0.000       324.1       0.000      0.5000E-01   0.000    
    8117   5.166      0.6364E-03 SPRIN         11  -0.0%   373.6      0.1250E-03   0.000       323.6       0.000      0.5000E-01   0.000    
    8118   5.166      0.6364E-03 SPRIN         11  -0.0%   373.1      0.1250E-03   0.000       323.1       0.000      0.5000E-01   0.000    
    8119   5.167      0.6364E-03 SPRIN         11  -0.0%   372.5      0.1250E-03   0.000       322.5       0.000      0.5000E-01   0.000    
    8120   5.168      0.6364E-03 SPRIN         11  -0.0%   372.0      0.1250E-03   0.000       322.0       0.000      0.5000E-01   0.000    
    8121   5.168      0.6364E-03 SPRIN         11  -0.0%   371.5      0.1250E-03   0.000       321.5       0.000      0.5000E-01   0.000    
    8122   5.169      0.6364E-03 SPRIN         11  -0.0%   371.0      0.1250E-03   0.000       321.0       0.000      0.5000E-01   0.000    
    8123   5.169      0.6364E-03 SPRIN         11  -0.0%   370.4      0.1250E-03   0.000       320.4       0.000      0.5000E-01   0.000    
    8124   5.170      0.6364E-03 SPRIN         11  -0.0%   369.9      0.1250E-03   0.000       319.9       0.000      0.5000E-01   0.000    
    8125   5.171      0.6364E-03 SPRIN         11  -0.0%   369.4      0.1250E-03   0.000       319.4       0.000      0.5000E-01   0.000    
    8126   5.171      0.6364E-03 SPRIN         11  -0.0%   368.9      0.1250E-03   0.000       318.9       0.000      0.5000E-01   0.000    
    8127   5.172      0.6364E-03 SPRIN         11  -0.0%   368.4      0.1250E-03   0.000       318.4       0.000      0.5000E-01   0.000    
    8128   5.173      0.6364E-03 SPRIN         11  -0.0%   367.8      0.1250E-03   0.000       317.8       0.000      0.5000E-01   0.000    
    8129   5.173      0.6364E-03 SPRIN         11  -0.0%   367.3      0.1250E-03   0.000       317.3       0.000      0.5000E-01   0.000    
    8130   5.174      0.6364E-03 SPRIN         11  -0.0%   366.8      0.1250E-03   0.000       316.8       0.000      0.5000E-01   0.000    
    8131   5.175      0.6364E-03 SPRIN         11  -0.0%   366.3      0.1250E-03   0.000       316.3       0.000      0.5000E-01   0.000    
    8132   5.175      0.6364E-03 SPRIN         11  -0.0%   365.7      0.1250E-03   0.000       315.7       0.000      0.5000E-01   0.000    
    8133   5.176      0.6364E-03 SPRIN         11  -0.0%   365.2      0.1250E-03   0.000       315.2       0.000      0.5000E-01   0.000    
    8134   5.176      0.6364E-03 SPRIN         11  -0.0%   364.7      0.1250E-03   0.000       314.7       0.000      0.5000E-01   0.000    
    8135   5.177      0.6364E-03 SPRIN         11  -0.0%   364.2      0.1250E-03   0.000       314.2       0.000      0.5000E-01   0.000    
    8136   5.178      0.6364E-03 SPRIN         11  -0.0%   363.7      0.1250E-03   0.000       313.7       0.000      0.5000E-01   0.000    
    8137   5.178      0.6364E-03 SPRIN         11  -0.0%   363.2      0.1250E-03   0.000       313.2       0.000      0.5000E-01   0.000    
    8138   5.179      0.6364E-03 SPRIN         11  -0.0%   362.6      0.1250E-03   0.000       312.6       0.000      0.5000E-01   0.000    
    8139   5.180      0.6364E-03 SPRIN         11  -0.0%   362.1      0.1250E-03   0.000       312.1       0.000      0.5000E-01   0.000    
   CYCLE    TIME      TIME-STEP  ELEMENT          ERROR  I-ENERGY    K-ENERGY T  K-ENERGY R  EXT-WORK     MAS.ERR     TOTAL MASS  MASS ADDED
    8140   5.180      0.6364E-03 SPRIN         11  -0.0%   361.6      0.1250E-03   0.000       311.6       0.000      0.5000E-01   0.000    
    8141   5.181      0.6364E-03 SPRIN         11  -0.0%   361.1      0.1250E-03   0.000       311.1       0.000      0.5000E-01   0.000    
    8142   5.182      0.6364E-03 SPRIN         11  -0.0%   360.6      0.1250E-03   0.000       310.6       0.000      0.5000E-01   0.000    
    8143   5.182      0.6364E-03 SPRIN         11  -0.0%   360.1      0.1250E-03   0.000       310.1       0.000      0.5000E-01   0.000    
    8144   5.183      0.6364E-03 SPRIN         11  -0.0%   359.5      0.1250E-03   0.000       309.5       0.000      0.5000E-01   0.000    
    8145   5.183      0.6364E-03 SPRIN         11  -0.0%   359.0      0.1250E-03   0.000       309.0       0.000      0.5000E-01   0.000    
    8146   5.184      0.6364E-03 SPRIN         11  -0.0%   358.5      0.1250E-03   0.000       308.5       0.000      0.5000E-01   0.000    
    8147   5.185      0.6364E-03 SPRIN         11  -0.0%   358.0      0.1250E-03   0.000       308.0       0.000      0.5000E-01   0.000    
    8148   5.185      0.6364E-03 SPRIN         11  -0.0%   357.5      0.1250E-03   0.000       307.5       0.000      0.5000E-01   0.000    
    8149   5.186      0.6364E-03 SPRIN         11  -0.0%   357.0      0.1250E-03   0.000       307.0       0.000      0.5000E-01   0.000    
    8150   5.187      0.6364E-03 SPRIN         11  -0.0%   356.5      0.1250E-03   0.000       306.5       0.000      0.5000E-01   0.000    
    8151   5.187      0.6364E-03 SPRIN         11  -0.0%   355.9      0.1250E-03   0.000       305.9       0.000      0.5000E-01   0.000    
    8152   5.188      0.6364E-03 SPRIN         11  -0.0%   355.4      0.1250E-03   0.000       305.4       0.000      0.5000E-01   0.000    
    8153   5.189      0.6364E-03 SPRIN         11  -0.0%   354.9      0.1250E-03   0.000       304.9       0.000      0.5000E-01   0.000    
    8154   5.189      0.6364E-03 SPRIN         11  -0.0%   354.4      0.1250E-03   0.000       304.4       0.000      0.5000E-01   0.000    
    8155   5.190      0.6364E-03 SPRIN         11  -0.0%   353.9      0.1250E-03   0.000       303.9       0.000      0.5000E-01   0.000    
    8156   5.190      0.6364E-03 SPRIN         11  -0.0%   353.4      0.1250E-03   0.000       303.4       0.000      0.5000E-01   0.000    
    8157   5.191      0.6364E-03 SPRIN         11  -0.0%   352.9      0.1250E-03   0.000       302.9       0.000      0.5000E-01   0.000    
    8158   5.192      0.6364E-03 SPRIN         11  -0.0%   352.4      0.1250E-03   0.000       302.4       0.000      0.5000E-01   0.000    
    8159   5.192      0.6364E-03 SPRIN         11  -0.0%   351.9      0.1250E-03   0.000       301.9       0.000      0.5000E-01   0.000    
    8160   5.193      0.6364E-03 SPRIN         11  -0.0%   351.3      0.1250E-03   0.000       301.3       0.000      0.5000E-01   0.000    
    8161   5.194      0.6364E-03 SPRIN         11  -0.0%   350.8      0.1250E-03   0.000       300.8       0.000      0.5000E-01   0.000    
    8162   5.194      0.6364E-03 SPRIN         11  -0.0%   350.3      0.1250E-03   0.000       300.3       0.000      0.5000E-01   0.000    
    8163   5.195      0.6364E-03 SPRIN         11  -0.0%   349.8      0.1250E-03   0.000       299.8       0.000      0.5000E-01   0.000    
    8164   5.196      0.6364E-03 SPRIN         11  -0.0%   349.3      0.1250E-03   0.000       299.3       0.000      0.5000E-01   0.000    
    8165   5.196      0.6364E-03 SPRIN         11  -0.0%   348.8      0.1250E-03   0.000       298.8       0.000      0.5000E-01   0.000    
    8166   5.197      0.6364E-03 SPRIN         11  -0.0%   348.3      0.1250E-03   0.000       298.3       0.000      0.5000E-01   0.000    
    8167   5.197      0.6364E-03 SPRIN         11  -0.0%   347.8      0.1250E-03   0.000       297.8       0.000      0.5000E-01   0.000    
    8168   5.198      0.6364E-03 SPRIN         11  -0.0%   347.3      0.1250E-03   0.000       297.3       0.000      0.5000E-01   0.000    
    8169   5.199      0.6364E-03 SPRIN         11  -0.0%   346.8      0.1250E-03   0.000       296.8       0.000      0.5000E-01   0.000    
    8170   5.199      0.6364E-03 SPRIN         11  -0.0%   346.3      0.1250E-03   0.000       296.3       0.000      0.5000E-01   0.000    
    8171   5.200      0.6364E-03 SPRIN         11  -0.0%   345.8      0.1250E-03   0.000       295.8       0.000      0.5000E-01   0.000    
    8172   5.201      0.6364E-03 SPRIN         11  -0.0%   345.3      0.1250E-03   0.000       295.3       0.000      0.5000E-01   0.000    
     ANIMATION FILE: SPR_PRE_2FLAGA027 WRITTEN
    8173   5.201      0.6364E-03 SPRIN         11  -0.0%   344.8      0.1250E-03   0.000       294.8       0.000      0.5000E-01   0.000    
    8174   5.202      0.6364E-03 SPRIN         11  -0.0%   344.3      0.1250E-03   0.000       294.3       0.000      0.5000E-01   0.000    
    8175   5.203      0.6364E-03 SPRIN         11  -0.0%   343.8      0.1250E-03   0.000       293.8       0.000      0.5000E-01   0.000    
    8176   5.203      0.6364E-03 SPRIN         11  -0.0%   343.3      0.1250E-03   0.000       293.3       0.000      0.5000E-01   0.000    
    8177   5.204      0.6364E-03 SPRIN         11  -0.0%   342.8      0.1250E-03   0.000       292.8       0.000      0.5000E-01   0.000    
    8178   5.204      0.6364E-03 SPRIN         11  -0.0%   342.3      0.1250E-03   0.000       292.3       0.000      0.5000E-01   0.000    
    8179   5.205      0.6364E-03 SPRIN         11  -0.0%   341.8      0.1250E-03   0.000       291.8       0.000      0.5000E-01   0.000    
    8180   5.206      0.6364E-03 SPRIN         11  -0.0%   341.3      0.1250E-03   0.000       291.3       0.000      0.5000E-01   0.000    
    8181   5.206      0.6364E-03 SPRIN         11  -0.0%   340.8      0.1250E-03   0.000       290.8       0.000      0.5000E-01   0.000    
    8182   5.207      0.6364E-03 SPRIN         11  -0.0%   340.3      0.1250E-03   0.000       290.3       0.000      0.5000E-01   0.000    
    8183   5.208      0.6364E-03 SPRIN         11  -0.0%   339.8      0.1250E-03   0.000       289.8       0.000      0.5000E-01   0.000    
    8184   5.208      0.6364E-03 SPRIN         11  -0.0%   339.3      0.1250E-03   0.000       289.3       0.000      0.5000E-01   0.000    
    8185   5.209      0.6364E-03 SPRIN         11  -0.0%   338.8      0.1250E-03   0.000       288.8       0.000      0.5000E-01   0.000    
    8186   5.210      0.6364E-03 SPRIN         11  -0.0%   338.3      0.1250E-03   0.000       288.3       0.000      0.5000E-01   0.000    
    8187   5.210      0.6364E-03 SPRIN         11  -0.0%   337.8      0.1250E-03   0.000       287.8       0.000      0.5000E-01   0.000    
    8188   5.211      0.6364E-03 SPRIN         11  -0.0%   337.3      0.1250E-03   0.000       287.3       0.000      0.5000E-01   0.000    
    8189   5.211      0.6364E-03 SPRIN         11  -0.0%   336.8      0.1250E-03   0.000       286.8       0.000      0.5000E-01   0.000    
    8190   5.212      0.6364E-03 SPRIN         11  -0.0%   336.3      0.1250E-03   0.000       286.3       0.000      0.5000E-01   0.000    
    8191   5.213      0.6364E-03 SPRIN         11  -0.0%   335.8      0.1250E-03   0.000       285.8       0.000      0.5000E-01   0.000    
    8192   5.213      0.6364E-03 SPRIN         11  -0.0%   335.3      0.1250E-03   0.000       285.3       0.000      0.5000E-01   0.000    
    8193   5.214      0.6364E-03 SPRIN         11  -0.0%   334.8      0.1250E-03   0.000       284.8       0.000      0.5000E-01   0.000    
    8194   5.215      0.6364E-03 SPRIN         11  -0.0%   334.3      0.1250E-03   0.000       284.3       0.000      0.5000E-01   0.000    
   CYCLE    TIME      TIME-STEP  ELEMENT          ERROR  I-ENERGY    K-ENERGY T  K-ENERGY R  EXT-WORK     MAS.ERR     TOTAL MASS  MASS ADDED
    8195   5.215      0.6364E-03 SPRIN         11  -0.0%   333.8      0.1250E-03   0.000       283.8       0.000      0.5000E-01   0.000    
    8196   5.216      0.6364E-03 SPRIN         11  -0.0%   333.3      0.1250E-03   0.000       283.3       0.000      0.5000E-01   0.000    
    8197   5.217      0.6364E-03 SPRIN         11  -0.0%   332.8      0.1250E-03   0.000       282.8       0.000      0.5000E-01   0.000    
    8198   5.217      0.6364E-03 SPRIN         11  -0.0%   332.3      0.1250E-03   0.000       282.3       0.000      0.5000E-01   0.000    
    8199   5.218      0.6364E-03 SPRIN         11  -0.0%   331.8      0.1250E-03   0.000       281.8       0.000      0.5000E-01   0.000    
    8200   5.218      0.6364E-03 SPRIN         11  -0.0%   331.3      0.1250E-03   0.000       281.3       0.000      0.5000E-01   0.000    
    8201   5.219      0.6364E-03 SPRIN         11  -0.0%   330.8      0.1250E-03   0.000       280.8       0.000      0.5000E-01   0.000    
    8202   5.220      0.6364E-03 SPRIN         11  -0.0%   330.3      0.1250E-03   0.000       280.3       0.000      0.5000E-01   0.000    
    8203   5.220      0.6364E-03 SPRIN         11  -0.0%   329.9      0.1250E-03   0.000       279.9       0.000      0.5000E-01   0.000    
    8204   5.221      0.6364E-03 SPRIN         11  -0.0%   329.4      0.1250E-03   0.000       279.4       0.000      0.5000E-01   0.000    
    8205   5.222      0.6364E-03 SPRIN         11  -0.0%   328.9      0.1250E-03   0.000       278.9       0.000      0.5000E-01   0.000    
    8206   5.222      0.6364E-03 SPRIN         11  -0.0%   328.4      0.1250E-03   0.000       278.4       0.000      0.5000E-01   0.000    
    8207   5.223      0.6364E-03 SPRIN         11  -0.0%   327.9      0.1250E-03   0.000       277.9       0.000      0.5000E-01   0.000    
    8208   5.224      0.6364E-03 SPRIN         11  -0.0%   327.4      0.1250E-03   0.000       277.4       0.000      0.5000E-01   0.000    
    8209   5.224      0.6364E-03 SPRIN         11  -0.0%   326.9      0.1250E-03   0.000       276.9       0.000      0.5000E-01   0.000    
    8210   5.225      0.6364E-03 SPRIN         11  -0.0%   326.4      0.1250E-03   0.000       276.4       0.000      0.5000E-01   0.000    
    8211   5.225      0.6364E-03 SPRIN         11  -0.0%   325.9      0.1250E-03   0.000       275.9       0.000      0.5000E-01   0.000    
    8212   5.226      0.6364E-03 SPRIN         11  -0.0%   325.4      0.1250E-03   0.000       275.4       0.000      0.5000E-01   0.000    
    8213   5.227      0.6364E-03 SPRIN         11  -0.0%   325.0      0.1250E-03   0.000       275.0       0.000      0.5000E-01   0.000    
    8214   5.227      0.6364E-03 SPRIN         11  -0.0%   324.5      0.1250E-03   0.000       274.5       0.000      0.5000E-01   0.000    
    8215   5.228      0.6364E-03 SPRIN         11  -0.0%   324.0      0.1250E-03   0.000       274.0       0.000      0.5000E-01   0.000    
    8216   5.229      0.6364E-03 SPRIN         11  -0.0%   323.5      0.1250E-03   0.000       273.5       0.000      0.5000E-01   0.000    
    8217   5.229      0.6364E-03 SPRIN         11  -0.0%   323.0      0.1250E-03   0.000       273.0       0.000      0.5000E-01   0.000    
    8218   5.230      0.6364E-03 SPRIN         11  -0.0%   322.5      0.1250E-03   0.000       272.5       0.000      0.5000E-01   0.000    
    8219   5.231      0.6364E-03 SPRIN         11  -0.0%   322.0      0.1250E-03   0.000       272.0       0.000      0.5000E-01   0.000    
    8220   5.231      0.6364E-03 SPRIN         11  -0.0%   321.6      0.1250E-03   0.000       271.6       0.000      0.5000E-01   0.000    
    8221   5.232      0.6364E-03 SPRIN         11  -0.0%   321.1      0.1250E-03   0.000       271.1       0.000      0.5000E-01   0.000    
    8222   5.232      0.6364E-03 SPRIN         11  -0.0%   320.6      0.1250E-03   0.000       270.6       0.000      0.5000E-01   0.000    
    8223   5.233      0.6364E-03 SPRIN         11  -0.0%   320.1      0.1250E-03   0.000       270.1       0.000      0.5000E-01   0.000    
    8224   5.234      0.6364E-03 SPRIN         11  -0.0%   319.6      0.1250E-03   0.000       269.6       0.000      0.5000E-01   0.000    
    8225   5.234      0.6364E-03 SPRIN         11  -0.0%   319.1      0.1250E-03   0.000       269.1       0.000      0.5000E-01   0.000    
    8226   5.235      0.6364E-03 SPRIN         11  -0.0%   318.7      0.1250E-03   0.000       268.7       0.000      0.5000E-01   0.000    
    8227   5.236      0.6364E-03 SPRIN         11  -0.0%   318.2      0.1250E-03   0.000       268.2       0.000      0.5000E-01   0.000    
    8228   5.236      0.6364E-03 SPRIN         11  -0.0%   317.7      0.1250E-03   0.000       267.7       0.000      0.5000E-01   0.000    
    8229   5.237      0.6364E-03 SPRIN         11  -0.0%   317.2      0.1250E-03   0.000       267.2       0.000      0.5000E-01   0.000    
    8230   5.238      0.6364E-03 SPRIN         11  -0.0%   316.7      0.1250E-03   0.000       266.7       0.000      0.5000E-01   0.000    
    8231   5.238      0.6364E-03 SPRIN         11  -0.0%   316.3      0.1250E-03   0.000       266.3       0.000      0.5000E-01   0.000    
    8232   5.239      0.6364E-03 SPRIN         11  -0.0%   315.8      0.1250E-03   0.000       265.8       0.000      0.5000E-01   0.000    
    8233   5.239      0.6364E-03 SPRIN         11  -0.0%   315.3      0.1250E-03   0.000       265.3       0.000      0.5000E-01   0.000    
    8234   5.240      0.6364E-03 SPRIN         11  -0.0%   314.8      0.1250E-03   0.000       264.8       0.000      0.5000E-01   0.000    
    8235   5.241      0.6364E-03 SPRIN         11  -0.0%   314.3      0.1250E-03   0.000       264.3       0.000      0.5000E-01   0.000    
    8236   5.241      0.6364E-03 SPRIN         11  -0.0%   313.9      0.1250E-03   0.000       263.9       0.000      0.5000E-01   0.000    
    8237   5.242      0.6364E-03 SPRIN         11  -0.0%   313.4      0.1250E-03   0.000       263.4       0.000      0.5000E-01   0.000    
    8238   5.243      0.6364E-03 SPRIN         11  -0.0%   312.9      0.1250E-03   0.000       262.9       0.000      0.5000E-01   0.000    
    8239   5.243      0.6364E-03 SPRIN         11  -0.0%   312.4      0.1250E-03   0.000       262.4       0.000      0.5000E-01   0.000    
    8240   5.244      0.6364E-03 SPRIN         11  -0.0%   312.0      0.1250E-03   0.000       262.0       0.000      0.5000E-01   0.000    
    8241   5.245      0.6364E-03 SPRIN         11  -0.0%   311.5      0.1250E-03   0.000       261.5       0.000      0.5000E-01   0.000    
    8242   5.245      0.6364E-03 SPRIN         11  -0.0%   311.0      0.1250E-03   0.000       261.0       0.000      0.5000E-01   0.000    
    8243   5.246      0.6364E-03 SPRIN         11  -0.0%   310.5      0.1250E-03   0.000       260.5       0.000      0.5000E-01   0.000    
    8244   5.246      0.6364E-03 SPRIN         11  -0.0%   310.1      0.1250E-03   0.000       260.1       0.000      0.5000E-01   0.000    
    8245   5.247      0.6364E-03 SPRIN         11  -0.0%   309.6      0.1250E-03   0.000       259.6       0.000      0.5000E-01   0.000    
    8246   5.248      0.6364E-03 SPRIN         11  -0.0%   309.1      0.1250E-03   0.000       259.1       0.000      0.5000E-01   0.000    
    8247   5.248      0.6364E-03 SPRIN         11  -0.0%   308.6      0.1250E-03   0.000       258.6       0.000      0.5000E-01   0.000    
    8248   5.249      0.6364E-03 SPRIN         11  -0.0%   308.2      0.1250E-03   0.000       258.2       0.000      0.5000E-01   0.000    
    8249   5.250      0.6364E-03 SPRIN         11  -0.0%   307.7      0.1250E-03   0.000       257.7       0.000      0.5000E-01   0.000    
   CYCLE    TIME      TIME-STEP  ELEMENT          ERROR  I-ENERGY    K-ENERGY T  K-ENERGY R  EXT-WORK     MAS.ERR     TOTAL MASS  MASS ADDED
    8250   5.250      0.6364E-03 SPRIN         11  -0.0%   307.2      0.1250E-03   0.000       257.2       0.000      0.5000E-01   0.000    
    8251   5.251      0.6364E-03 SPRIN         11  -0.0%   306.7      0.1250E-03   0.000       256.7       0.000      0.5000E-01   0.000    
    8252   5.252      0.6364E-03 SPRIN         11  -0.0%   306.3      0.1250E-03   0.000       256.3       0.000      0.5000E-01   0.000    
    8253   5.252      0.6364E-03 SPRIN         11  -0.0%   305.8      0.1250E-03   0.000       255.8       0.000      0.5000E-01   0.000    
    8254   5.253      0.6364E-03 SPRIN         11  -0.0%   305.3      0.1250E-03   0.000       255.3       0.000      0.5000E-01   0.000    
    8255   5.253      0.6364E-03 SPRIN         11  -0.0%   304.9      0.1250E-03   0.000       254.9       0.000      0.5000E-01   0.000    
    8256   5.254      0.6364E-03 SPRIN         11  -0.0%   304.4      0.1250E-03   0.000       254.4       0.000      0.5000E-01   0.000    
    8257   5.255      0.6364E-03 SPRIN         11  -0.0%   303.9      0.1250E-03   0.000       253.9       0.000      0.5000E-01   0.000    
    8258   5.255      0.6364E-03 SPRIN         11  -0.0%   303.4      0.1250E-03   0.000       253.4       0.000      0.5000E-01   0.000    
    8259   5.256      0.6364E-03 SPRIN         11  -0.0%   303.0      0.1250E-03   0.000       253.0       0.000      0.5000E-01   0.000    
    8260   5.257      0.6364E-03 SPRIN         11  -0.0%   302.5      0.1250E-03   0.000       252.5       0.000      0.5000E-01   0.000    
    8261   5.257      0.6364E-03 SPRIN         11  -0.0%   302.0      0.1250E-03   0.000       252.0       0.000      0.5000E-01   0.000    
    8262   5.258      0.6364E-03 SPRIN         11  -0.0%   301.6      0.1250E-03   0.000       251.6       0.000      0.5000E-01   0.000    
    8263   5.259      0.6364E-03 SPRIN         11  -0.0%   301.1      0.1250E-03   0.000       251.1       0.000      0.5000E-01   0.000    
    8264   5.259      0.6364E-03 SPRIN         11  -0.0%   300.6      0.1250E-03   0.000       250.6       0.000      0.5000E-01   0.000    
    8265   5.260      0.6364E-03 SPRIN         11  -0.0%   300.2      0.1250E-03   0.000       250.2       0.000      0.5000E-01   0.000    
    8266   5.260      0.6364E-03 SPRIN         11  -0.0%   299.7      0.1250E-03   0.000       249.7       0.000      0.5000E-01   0.000    
    8267   5.261      0.6364E-03 SPRIN         11  -0.0%   299.2      0.1250E-03   0.000       249.2       0.000      0.5000E-01   0.000    
    8268   5.262      0.6364E-03 SPRIN         11  -0.0%   298.8      0.1250E-03   0.000       248.8       0.000      0.5000E-01   0.000    
    8269   5.262      0.6364E-03 SPRIN         11  -0.0%   298.3      0.1250E-03   0.000       248.3       0.000      0.5000E-01   0.000    
    8270   5.263      0.6364E-03 SPRIN         11  -0.0%   297.9      0.1250E-03   0.000       247.9       0.000      0.5000E-01   0.000    
    8271   5.264      0.6364E-03 SPRIN         11  -0.0%   297.4      0.1250E-03   0.000       247.4       0.000      0.5000E-01   0.000    
    8272   5.264      0.6364E-03 SPRIN         11  -0.0%   296.9      0.1250E-03   0.000       246.9       0.000      0.5000E-01   0.000    
    8273   5.265      0.6364E-03 SPRIN         11  -0.0%   296.5      0.1250E-03   0.000       246.5       0.000      0.5000E-01   0.000    
    8274   5.266      0.6364E-03 SPRIN         11  -0.0%   296.0      0.1250E-03   0.000       246.0       0.000      0.5000E-01   0.000    
    8275   5.266      0.6364E-03 SPRIN         11  -0.0%   295.5      0.1250E-03   0.000       245.5       0.000      0.5000E-01   0.000    
    8276   5.267      0.6364E-03 SPRIN         11  -0.0%   295.1      0.1250E-03   0.000       245.1       0.000      0.5000E-01   0.000    
    8277   5.267      0.6364E-03 SPRIN         11  -0.0%   294.6      0.1250E-03   0.000       244.6       0.000      0.5000E-01   0.000    
    8278   5.268      0.6364E-03 SPRIN         11  -0.0%   294.2      0.1250E-03   0.000       244.2       0.000      0.5000E-01   0.000    
    8279   5.269      0.6364E-03 SPRIN         11  -0.0%   293.7      0.1250E-03   0.000       243.7       0.000      0.5000E-01   0.000    
    8280   5.269      0.6364E-03 SPRIN         11  -0.0%   293.2      0.1250E-03   0.000       243.2       0.000      0.5000E-01   0.000    
    8281   5.270      0.6364E-03 SPRIN         11  -0.0%   292.8      0.1250E-03   0.000       242.8       0.000      0.5000E-01   0.000    
    8282   5.271      0.6364E-03 SPRIN         11  -0.0%   292.3      0.1250E-03   0.000       242.3       0.000      0.5000E-01   0.000    
    8283   5.271      0.6364E-03 SPRIN         11  -0.0%   291.9      0.1250E-03   0.000       241.9       0.000      0.5000E-01   0.000    
    8284   5.272      0.6364E-03 SPRIN         11  -0.0%   291.4      0.1250E-03   0.000       241.4       0.000      0.5000E-01   0.000    
    8285   5.273      0.6364E-03 SPRIN         11  -0.0%   290.9      0.1250E-03   0.000       240.9       0.000      0.5000E-01   0.000    
    8286   5.273      0.6364E-03 SPRIN         11  -0.0%   290.5      0.1250E-03   0.000       240.5       0.000      0.5000E-01   0.000    
    8287   5.274      0.6364E-03 SPRIN         11  -0.0%   290.0      0.1250E-03   0.000       240.0       0.000      0.5000E-01   0.000    
    8288   5.274      0.6364E-03 SPRIN         11  -0.0%   289.6      0.1250E-03   0.000       239.6       0.000      0.5000E-01   0.000    
    8289   5.275      0.6364E-03 SPRIN         11  -0.0%   289.1      0.1250E-03   0.000       239.1       0.000      0.5000E-01   0.000    
    8290   5.276      0.6364E-03 SPRIN         11  -0.0%   288.7      0.1250E-03   0.000       238.7       0.000      0.5000E-01   0.000    
    8291   5.276      0.6364E-03 SPRIN         11  -0.0%   288.2      0.1250E-03   0.000       238.2       0.000      0.5000E-01   0.000    
    8292   5.277      0.6364E-03 SPRIN         11  -0.0%   287.7      0.1250E-03   0.000       237.7       0.000      0.5000E-01   0.000    
    8293   5.278      0.6364E-03 SPRIN         11  -0.0%   287.3      0.1250E-03   0.000       237.3       0.000      0.5000E-01   0.000    
    8294   5.278      0.6364E-03 SPRIN         11  -0.0%   286.8      0.1250E-03   0.000       236.8       0.000      0.5000E-01   0.000    
    8295   5.279      0.6364E-03 SPRIN         11  -0.0%   286.4      0.1250E-03   0.000       236.4       0.000      0.5000E-01   0.000    
    8296   5.280      0.6364E-03 SPRIN         11  -0.0%   285.9      0.1250E-03   0.000       235.9       0.000      0.5000E-01   0.000    
    8297   5.280      0.6364E-03 SPRIN         11  -0.0%   285.5      0.1250E-03   0.000       235.5       0.000      0.5000E-01   0.000    
    8298   5.281      0.6364E-03 SPRIN         11  -0.0%   285.0      0.1250E-03   0.000       235.0       0.000      0.5000E-01   0.000    
    8299   5.281      0.6364E-03 SPRIN         11  -0.0%   284.6      0.1250E-03   0.000       234.6       0.000      0.5000E-01   0.000    
    8300   5.282      0.6364E-03 SPRIN         11  -0.0%   284.1      0.1250E-03   0.000       234.1       0.000      0.5000E-01   0.000    
    8301   5.283      0.6364E-03 SPRIN         11  -0.0%   283.7      0.1250E-03   0.000       233.7       0.000      0.5000E-01   0.000    
    8302   5.283      0.6364E-03 SPRIN         11  -0.0%   283.2      0.1250E-03   0.000       233.2       0.000      0.5000E-01   0.000    
    8303   5.284      0.6364E-03 SPRIN         11  -0.0%   282.8      0.1250E-03   0.000       232.8       0.000      0.5000E-01   0.000    
    8304   5.285      0.6364E-03 SPRIN         11  -0.0%   282.3      0.1250E-03   0.000       232.3       0.000      0.5000E-01   0.000    
   CYCLE    TIME      TIME-STEP  ELEMENT          ERROR  I-ENERGY    K-ENERGY T  K-ENERGY R  EXT-WORK     MAS.ERR     TOTAL MASS  MASS ADDED
    8305   5.285      0.6364E-03 SPRIN         11  -0.0%   281.9      0.1250E-03   0.000       231.9       0.000      0.5000E-01   0.000    
    8306   5.286      0.6364E-03 SPRIN         11  -0.0%   281.4      0.1250E-03   0.000       231.4       0.000      0.5000E-01   0.000    
    8307   5.287      0.6364E-03 SPRIN         11  -0.0%   281.0      0.1250E-03   0.000       231.0       0.000      0.5000E-01   0.000    
    8308   5.287      0.6364E-03 SPRIN         11  -0.0%   280.5      0.1250E-03   0.000       230.5       0.000      0.5000E-01   0.000    
    8309   5.288      0.6364E-03 SPRIN         11  -0.0%   280.1      0.1250E-03   0.000       230.1       0.000      0.5000E-01   0.000    
    8310   5.288      0.6364E-03 SPRIN         11  -0.0%   279.6      0.1250E-03   0.000       229.6       0.000      0.5000E-01   0.000    
    8311   5.289      0.6364E-03 SPRIN         11  -0.0%   279.2      0.1250E-03   0.000       229.2       0.000      0.5000E-01   0.000    
    8312   5.290      0.6364E-03 SPRIN         11  -0.0%   278.7      0.1250E-03   0.000       228.7       0.000      0.5000E-01   0.000    
    8313   5.290      0.6364E-03 SPRIN         11  -0.0%   278.3      0.1250E-03   0.000       228.3       0.000      0.5000E-01   0.000    
    8314   5.291      0.6364E-03 SPRIN         11  -0.0%   277.8      0.1250E-03   0.000       227.8       0.000      0.5000E-01   0.000    
    8315   5.292      0.6364E-03 SPRIN         11  -0.0%   277.4      0.1250E-03   0.000       227.4       0.000      0.5000E-01   0.000    
    8316   5.292      0.6364E-03 SPRIN         11  -0.0%   276.9      0.1250E-03   0.000       226.9       0.000      0.5000E-01   0.000    
    8317   5.293      0.6364E-03 SPRIN         11  -0.0%   276.5      0.1250E-03   0.000       226.5       0.000      0.5000E-01   0.000    
    8318   5.294      0.6364E-03 SPRIN         11  -0.0%   276.0      0.1250E-03   0.000       226.0       0.000      0.5000E-01   0.000    
    8319   5.294      0.6364E-03 SPRIN         11  -0.0%   275.6      0.1250E-03   0.000       225.6       0.000      0.5000E-01   0.000    
    8320   5.295      0.6364E-03 SPRIN         11  -0.0%   275.2      0.1250E-03   0.000       225.2       0.000      0.5000E-01   0.000    
    8321   5.295      0.6364E-03 SPRIN         11  -0.0%   274.7      0.1250E-03   0.000       224.7       0.000      0.5000E-01   0.000    
    8322   5.296      0.6364E-03 SPRIN         11  -0.0%   274.3      0.1250E-03   0.000       224.3       0.000      0.5000E-01   0.000    
    8323   5.297      0.6364E-03 SPRIN         11  -0.0%   273.8      0.1250E-03   0.000       223.8       0.000      0.5000E-01   0.000    
    8324   5.297      0.6364E-03 SPRIN         11  -0.0%   273.4      0.1250E-03   0.000       223.4       0.000      0.5000E-01   0.000    
    8325   5.298      0.6364E-03 SPRIN         11  -0.0%   272.9      0.1250E-03   0.000       222.9       0.000      0.5000E-01   0.000    
    8326   5.299      0.6364E-03 SPRIN         11  -0.0%   272.5      0.1250E-03   0.000       222.5       0.000      0.5000E-01   0.000    
    8327   5.299      0.6364E-03 SPRIN         11  -0.0%   272.1      0.1250E-03   0.000       222.1       0.000      0.5000E-01   0.000    
    8328   5.300      0.6364E-03 SPRIN         11  -0.0%   271.6      0.1250E-03   0.000       221.6       0.000      0.5000E-01   0.000    
    8329   5.301      0.6364E-03 SPRIN         11  -0.0%   271.2      0.1250E-03   0.000       221.2       0.000      0.5000E-01   0.000    
    8330   5.301      0.6364E-03 SPRIN         11  -0.0%   270.7      0.1250E-03   0.000       220.7       0.000      0.5000E-01   0.000    
    8331   5.302      0.6364E-03 SPRIN         11  -0.0%   270.3      0.1250E-03   0.000       220.3       0.000      0.5000E-01   0.000    
    8332   5.302      0.6364E-03 SPRIN         11  -0.0%   269.9      0.1250E-03   0.000       219.9       0.000      0.5000E-01   0.000    
    8333   5.303      0.6364E-03 SPRIN         11  -0.0%   269.4      0.1250E-03   0.000       219.4       0.000      0.5000E-01   0.000    
    8334   5.304      0.6364E-03 SPRIN         11  -0.0%   269.0      0.1250E-03   0.000       219.0       0.000      0.5000E-01   0.000    
    8335   5.304      0.6364E-03 SPRIN         11  -0.0%   268.5      0.1250E-03   0.000       218.5       0.000      0.5000E-01   0.000    
    8336   5.305      0.6364E-03 SPRIN         11  -0.0%   268.1      0.1250E-03   0.000       218.1       0.000      0.5000E-01   0.000    
    8337   5.306      0.6364E-03 SPRIN         11  -0.0%   267.7      0.1250E-03   0.000       217.7       0.000      0.5000E-01   0.000    
    8338   5.306      0.6364E-03 SPRIN         11  -0.0%   267.2      0.1250E-03   0.000       217.2       0.000      0.5000E-01   0.000    
    8339   5.307      0.6364E-03 SPRIN         11  -0.0%   266.8      0.1250E-03   0.000       216.8       0.000      0.5000E-01   0.000    
    8340   5.308      0.6364E-03 SPRIN         11  -0.0%   266.4      0.1250E-03   0.000       216.4       0.000      0.5000E-01   0.000    
    8341   5.308      0.6364E-03 SPRIN         11  -0.0%   265.9      0.1250E-03   0.000       215.9       0.000      0.5000E-01   0.000    
    8342   5.309      0.6364E-03 SPRIN         11  -0.0%   265.5      0.1250E-03   0.000       215.5       0.000      0.5000E-01   0.000    
    8343   5.309      0.6364E-03 SPRIN         11  -0.0%   265.1      0.1250E-03   0.000       215.1       0.000      0.5000E-01   0.000    
    8344   5.310      0.6364E-03 SPRIN         11  -0.0%   264.6      0.1250E-03   0.000       214.6       0.000      0.5000E-01   0.000    
    8345   5.311      0.6364E-03 SPRIN         11  -0.0%   264.2      0.1250E-03   0.000       214.2       0.000      0.5000E-01   0.000    
    8346   5.311      0.6364E-03 SPRIN         11  -0.0%   263.8      0.1250E-03   0.000       213.8       0.000      0.5000E-01   0.000    
    8347   5.312      0.6364E-03 SPRIN         11  -0.0%   263.3      0.1250E-03   0.000       213.3       0.000      0.5000E-01   0.000    
    8348   5.313      0.6364E-03 SPRIN         11  -0.0%   262.9      0.1250E-03   0.000       212.9       0.000      0.5000E-01   0.000    
    8349   5.313      0.6364E-03 SPRIN         11  -0.0%   262.5      0.1250E-03   0.000       212.5       0.000      0.5000E-01   0.000    
    8350   5.314      0.6364E-03 SPRIN         11  -0.0%   262.0      0.1250E-03   0.000       212.0       0.000      0.5000E-01   0.000    
    8351   5.315      0.6364E-03 SPRIN         11  -0.0%   261.6      0.1250E-03   0.000       211.6       0.000      0.5000E-01   0.000    
    8352   5.315      0.6364E-03 SPRIN         11  -0.0%   261.2      0.1250E-03   0.000       211.2       0.000      0.5000E-01   0.000    
    8353   5.316      0.6364E-03 SPRIN         11  -0.0%   260.7      0.1250E-03   0.000       210.7       0.000      0.5000E-01   0.000    
    8354   5.316      0.6364E-03 SPRIN         11  -0.0%   260.3      0.1250E-03   0.000       210.3       0.000      0.5000E-01   0.000    
    8355   5.317      0.6364E-03 SPRIN         11  -0.0%   259.9      0.1250E-03   0.000       209.9       0.000      0.5000E-01   0.000    
    8356   5.318      0.6364E-03 SPRIN         11  -0.0%   259.4      0.1250E-03   0.000       209.4       0.000      0.5000E-01   0.000    
    8357   5.318      0.6364E-03 SPRIN         11  -0.0%   259.0      0.1250E-03   0.000       209.0       0.000      0.5000E-01   0.000    
    8358   5.319      0.6364E-03 SPRIN         11  -0.0%   258.6      0.1250E-03   0.000       208.6       0.000      0.5000E-01   0.000    
    8359   5.320      0.6364E-03 SPRIN         11  -0.0%   258.2      0.1250E-03   0.000       208.2       0.000      0.5000E-01   0.000    
   CYCLE    TIME      TIME-STEP  ELEMENT          ERROR  I-ENERGY    K-ENERGY T  K-ENERGY R  EXT-WORK     MAS.ERR     TOTAL MASS  MASS ADDED
    8360   5.320      0.6364E-03 SPRIN         11  -0.0%   257.7      0.1250E-03   0.000       207.7       0.000      0.5000E-01   0.000    
    8361   5.321      0.6364E-03 SPRIN         11  -0.0%   257.3      0.1250E-03   0.000       207.3       0.000      0.5000E-01   0.000    
    8362   5.322      0.6364E-03 SPRIN         11  -0.0%   256.9      0.1250E-03   0.000       206.9       0.000      0.5000E-01   0.000    
    8363   5.322      0.6364E-03 SPRIN         11  -0.0%   256.4      0.1250E-03   0.000       206.4       0.000      0.5000E-01   0.000    
    8364   5.323      0.6364E-03 SPRIN         11  -0.0%   256.0      0.1250E-03   0.000       206.0       0.000      0.5000E-01   0.000    
    8365   5.323      0.6364E-03 SPRIN         11  -0.0%   255.6      0.1250E-03   0.000       205.6       0.000      0.5000E-01   0.000    
    8366   5.324      0.6364E-03 SPRIN         11  -0.0%   255.2      0.1250E-03   0.000       205.2       0.000      0.5000E-01   0.000    
    8367   5.325      0.6364E-03 SPRIN         11  -0.0%   254.7      0.1250E-03   0.000       204.7       0.000      0.5000E-01   0.000    
    8368   5.325      0.6364E-03 SPRIN         11  -0.0%   254.3      0.1250E-03   0.000       204.3       0.000      0.5000E-01   0.000    
    8369   5.326      0.6364E-03 SPRIN         11  -0.0%   253.9      0.1250E-03   0.000       203.9       0.000      0.5000E-01   0.000    
    8370   5.327      0.6364E-03 SPRIN         11  -0.0%   253.5      0.1250E-03   0.000       203.5       0.000      0.5000E-01   0.000    
    8371   5.327      0.6364E-03 SPRIN         11  -0.0%   253.0      0.1250E-03   0.000       203.0       0.000      0.5000E-01   0.000    
    8372   5.328      0.6364E-03 SPRIN         11  -0.0%   252.6      0.1250E-03   0.000       202.6       0.000      0.5000E-01   0.000    
    8373   5.329      0.6364E-03 SPRIN         11  -0.0%   252.2      0.1250E-03   0.000       202.2       0.000      0.5000E-01   0.000    
    8374   5.329      0.6364E-03 SPRIN         11  -0.0%   251.8      0.1250E-03   0.000       201.8       0.000      0.5000E-01   0.000    
    8375   5.330      0.6364E-03 SPRIN         11  -0.0%   251.4      0.1250E-03   0.000       201.4       0.000      0.5000E-01   0.000    
    8376   5.330      0.6364E-03 SPRIN         11  -0.0%   250.9      0.1250E-03   0.000       200.9       0.000      0.5000E-01   0.000    
    8377   5.331      0.6364E-03 SPRIN         11  -0.0%   250.5      0.1250E-03   0.000       200.5       0.000      0.5000E-01   0.000    
    8378   5.332      0.6364E-03 SPRIN         11  -0.0%   250.1      0.1250E-03   0.000       200.1       0.000      0.5000E-01   0.000    
    8379   5.332      0.6364E-03 SPRIN         11  -0.0%   249.7      0.1250E-03   0.000       199.7       0.000      0.5000E-01   0.000    
    8380   5.333      0.6364E-03 SPRIN         11  -0.0%   249.3      0.1250E-03   0.000       199.3       0.000      0.5000E-01   0.000    
    8381   5.334      0.6364E-03 SPRIN         11  -0.0%   248.8      0.1250E-03   0.000       198.8       0.000      0.5000E-01   0.000    
    8382   5.334      0.6364E-03 SPRIN         11  -0.0%   248.4      0.1250E-03   0.000       198.4       0.000      0.5000E-01   0.000    
    8383   5.335      0.6364E-03 SPRIN         11  -0.0%   248.0      0.1250E-03   0.000       198.0       0.000      0.5000E-01   0.000    
    8384   5.336      0.6364E-03 SPRIN         11  -0.0%   247.6      0.1250E-03   0.000       197.6       0.000      0.5000E-01   0.000    
    8385   5.336      0.6364E-03 SPRIN         11  -0.0%   247.2      0.1250E-03   0.000       197.2       0.000      0.5000E-01   0.000    
    8386   5.337      0.6364E-03 SPRIN         11  -0.0%   246.7      0.1250E-03   0.000       196.7       0.000      0.5000E-01   0.000    
    8387   5.337      0.6364E-03 SPRIN         11  -0.0%   246.3      0.1250E-03   0.000       196.3       0.000      0.5000E-01   0.000    
    8388   5.338      0.6364E-03 SPRIN         11  -0.0%   245.9      0.1250E-03   0.000       195.9       0.000      0.5000E-01   0.000    
    8389   5.339      0.6364E-03 SPRIN         11  -0.0%   245.5      0.1250E-03   0.000       195.5       0.000      0.5000E-01   0.000    
    8390   5.339      0.6364E-03 SPRIN         11  -0.0%   245.1      0.1250E-03   0.000       195.1       0.000      0.5000E-01   0.000    
    8391   5.340      0.6364E-03 SPRIN         11  -0.0%   244.7      0.1250E-03   0.000       194.7       0.000      0.5000E-01   0.000    
    8392   5.341      0.6364E-03 SPRIN         11  -0.0%   244.2      0.1250E-03   0.000       194.2       0.000      0.5000E-01   0.000    
    8393   5.341      0.6364E-03 SPRIN         11  -0.0%   243.8      0.1250E-03   0.000       193.8       0.000      0.5000E-01   0.000    
    8394   5.342      0.6364E-03 SPRIN         11  -0.0%   243.4      0.1250E-03   0.000       193.4       0.000      0.5000E-01   0.000    
    8395   5.343      0.6364E-03 SPRIN         11  -0.0%   243.0      0.1250E-03   0.000       193.0       0.000      0.5000E-01   0.000    
    8396   5.343      0.6364E-03 SPRIN         11  -0.0%   242.6      0.1250E-03   0.000       192.6       0.000      0.5000E-01   0.000    
    8397   5.344      0.6364E-03 SPRIN         11  -0.0%   242.2      0.1250E-03   0.000       192.2       0.000      0.5000E-01   0.000    
    8398   5.344      0.6364E-03 SPRIN         11  -0.0%   241.8      0.1250E-03   0.000       191.8       0.000      0.5000E-01   0.000    
    8399   5.345      0.6364E-03 SPRIN         11  -0.0%   241.4      0.1250E-03   0.000       191.4       0.000      0.5000E-01   0.000    
    8400   5.346      0.6364E-03 SPRIN         11  -0.0%   240.9      0.1250E-03   0.000       190.9       0.000      0.5000E-01   0.000    
    8401   5.346      0.6364E-03 SPRIN         11  -0.0%   240.5      0.1250E-03   0.000       190.5       0.000      0.5000E-01   0.000    
    8402   5.347      0.6364E-03 SPRIN         11  -0.0%   240.1      0.1250E-03   0.000       190.1       0.000      0.5000E-01   0.000    
    8403   5.348      0.6364E-03 SPRIN         11  -0.0%   239.7      0.1250E-03   0.000       189.7       0.000      0.5000E-01   0.000    
    8404   5.348      0.6364E-03 SPRIN         11  -0.0%   239.3      0.1250E-03   0.000       189.3       0.000      0.5000E-01   0.000    
    8405   5.349      0.6364E-03 SPRIN         11  -0.0%   238.9      0.1250E-03   0.000       188.9       0.000      0.5000E-01   0.000    
    8406   5.350      0.6364E-03 SPRIN         11  -0.0%   238.5      0.1250E-03   0.000       188.5       0.000      0.5000E-01   0.000    
    8407   5.350      0.6364E-03 SPRIN         11  -0.0%   238.1      0.1250E-03   0.000       188.1       0.000      0.5000E-01   0.000    
    8408   5.351      0.6364E-03 SPRIN         11  -0.0%   237.7      0.1250E-03   0.000       187.7       0.000      0.5000E-01   0.000    
    8409   5.351      0.6364E-03 SPRIN         11  -0.0%   237.3      0.1250E-03   0.000       187.3       0.000      0.5000E-01   0.000    
    8410   5.352      0.6364E-03 SPRIN         11  -0.0%   236.9      0.1250E-03   0.000       186.9       0.000      0.5000E-01   0.000    
    8411   5.353      0.6364E-03 SPRIN         11  -0.0%   236.4      0.1250E-03   0.000       186.4       0.000      0.5000E-01   0.000    
    8412   5.353      0.6364E-03 SPRIN         11  -0.0%   236.0      0.1250E-03   0.000       186.0       0.000      0.5000E-01   0.000    
    8413   5.354      0.6364E-03 SPRIN         11  -0.0%   235.6      0.1250E-03   0.000       185.6       0.000      0.5000E-01   0.000    
    8414   5.355      0.6364E-03 SPRIN         11  -0.0%   235.2      0.1250E-03   0.000       185.2       0.000      0.5000E-01   0.000    
   CYCLE    TIME      TIME-STEP  ELEMENT          ERROR  I-ENERGY    K-ENERGY T  K-ENERGY R  EXT-WORK     MAS.ERR     TOTAL MASS  MASS ADDED
    8415   5.355      0.6364E-03 SPRIN         11  -0.0%   234.8      0.1250E-03   0.000       184.8       0.000      0.5000E-01   0.000    
    8416   5.356      0.6364E-03 SPRIN         11  -0.0%   234.4      0.1250E-03   0.000       184.4       0.000      0.5000E-01   0.000    
    8417   5.357      0.6364E-03 SPRIN         11  -0.0%   234.0      0.1250E-03   0.000       184.0       0.000      0.5000E-01   0.000    
    8418   5.357      0.6364E-03 SPRIN         11  -0.0%   233.6      0.1250E-03   0.000       183.6       0.000      0.5000E-01   0.000    
    8419   5.358      0.6364E-03 SPRIN         11  -0.0%   233.2      0.1250E-03   0.000       183.2       0.000      0.5000E-01   0.000    
    8420   5.358      0.6364E-03 SPRIN         11  -0.0%   232.8      0.1250E-03   0.000       182.8       0.000      0.5000E-01   0.000    
    8421   5.359      0.6364E-03 SPRIN         11  -0.0%   232.4      0.1250E-03   0.000       182.4       0.000      0.5000E-01   0.000    
    8422   5.360      0.6364E-03 SPRIN         11  -0.0%   232.0      0.1250E-03   0.000       182.0       0.000      0.5000E-01   0.000    
    8423   5.360      0.6364E-03 SPRIN         11  -0.0%   231.6      0.1250E-03   0.000       181.6       0.000      0.5000E-01   0.000    
    8424   5.361      0.6364E-03 SPRIN         11  -0.0%   231.2      0.1250E-03   0.000       181.2       0.000      0.5000E-01   0.000    
    8425   5.362      0.6364E-03 SPRIN         11  -0.0%   230.8      0.1250E-03   0.000       180.8       0.000      0.5000E-01   0.000    
    8426   5.362      0.6364E-03 SPRIN         11  -0.0%   230.4      0.1250E-03   0.000       180.4       0.000      0.5000E-01   0.000    
    8427   5.363      0.6364E-03 SPRIN         11  -0.0%   230.0      0.1250E-03   0.000       180.0       0.000      0.5000E-01   0.000    
    8428   5.364      0.6364E-03 SPRIN         11  -0.0%   229.6      0.1250E-03   0.000       179.6       0.000      0.5000E-01   0.000    
    8429   5.364      0.6364E-03 SPRIN         11  -0.0%   229.2      0.1250E-03   0.000       179.2       0.000      0.5000E-01   0.000    
    8430   5.365      0.6364E-03 SPRIN         11  -0.0%   228.8      0.1250E-03   0.000       178.8       0.000      0.5000E-01   0.000    
    8431   5.365      0.6364E-03 SPRIN         11  -0.0%   228.4      0.1250E-03   0.000       178.4       0.000      0.5000E-01   0.000    
    8432   5.366      0.6364E-03 SPRIN         11  -0.0%   228.0      0.1250E-03   0.000       178.0       0.000      0.5000E-01   0.000    
    8433   5.367      0.6364E-03 SPRIN         11  -0.0%   227.6      0.1250E-03   0.000       177.6       0.000      0.5000E-01   0.000    
    8434   5.367      0.6364E-03 SPRIN         11  -0.0%   227.2      0.1250E-03   0.000       177.2       0.000      0.5000E-01   0.000    
    8435   5.368      0.6364E-03 SPRIN         11  -0.0%   226.8      0.1250E-03   0.000       176.8       0.000      0.5000E-01   0.000    
    8436   5.369      0.6364E-03 SPRIN         11  -0.0%   226.4      0.1250E-03   0.000       176.4       0.000      0.5000E-01   0.000    
    8437   5.369      0.6364E-03 SPRIN         11  -0.0%   226.0      0.1250E-03   0.000       176.0       0.000      0.5000E-01   0.000    
    8438   5.370      0.6364E-03 SPRIN         11  -0.0%   225.6      0.1250E-03   0.000       175.6       0.000      0.5000E-01   0.000    
    8439   5.371      0.6364E-03 SPRIN         11  -0.0%   225.2      0.1250E-03   0.000       175.2       0.000      0.5000E-01   0.000    
    8440   5.371      0.6364E-03 SPRIN         11  -0.0%   224.8      0.1250E-03   0.000       174.8       0.000      0.5000E-01   0.000    
    8441   5.372      0.6364E-03 SPRIN         11  -0.0%   224.4      0.1250E-03   0.000       174.4       0.000      0.5000E-01   0.000    
    8442   5.372      0.6364E-03 SPRIN         11  -0.0%   224.0      0.1250E-03   0.000       174.0       0.000      0.5000E-01   0.000    
    8443   5.373      0.6364E-03 SPRIN         11  -0.0%   223.6      0.1250E-03   0.000       173.6       0.000      0.5000E-01   0.000    
    8444   5.374      0.6364E-03 SPRIN         11  -0.0%   223.2      0.1250E-03   0.000       173.2       0.000      0.5000E-01   0.000    
    8445   5.374      0.6364E-03 SPRIN         11  -0.0%   222.8      0.1250E-03   0.000       172.8       0.000      0.5000E-01   0.000    
    8446   5.375      0.6364E-03 SPRIN         11  -0.0%   222.4      0.1250E-03   0.000       172.4       0.000      0.5000E-01   0.000    
    8447   5.376      0.6364E-03 SPRIN         11  -0.0%   222.1      0.1250E-03   0.000       172.1       0.000      0.5000E-01   0.000    
    8448   5.376      0.6364E-03 SPRIN         11  -0.0%   221.7      0.1250E-03   0.000       171.7       0.000      0.5000E-01   0.000    
    8449   5.377      0.6364E-03 SPRIN         11  -0.0%   221.3      0.1250E-03   0.000       171.3       0.000      0.5000E-01   0.000    
    8450   5.378      0.6364E-03 SPRIN         11  -0.0%   220.9      0.1250E-03   0.000       170.9       0.000      0.5000E-01   0.000    
    8451   5.378      0.6364E-03 SPRIN         11  -0.0%   220.5      0.1250E-03   0.000       170.5       0.000      0.5000E-01   0.000    
    8452   5.379      0.6364E-03 SPRIN         11  -0.0%   220.1      0.1250E-03   0.000       170.1       0.000      0.5000E-01   0.000    
    8453   5.379      0.6364E-03 SPRIN         11  -0.0%   219.7      0.1250E-03   0.000       169.7       0.000      0.5000E-01   0.000    
    8454   5.380      0.6364E-03 SPRIN         11  -0.0%   219.3      0.1250E-03   0.000       169.3       0.000      0.5000E-01   0.000    
    8455   5.381      0.6364E-03 SPRIN         11  -0.0%   218.9      0.1250E-03   0.000       168.9       0.000      0.5000E-01   0.000    
    8456   5.381      0.6364E-03 SPRIN         11  -0.0%   218.5      0.1250E-03   0.000       168.5       0.000      0.5000E-01   0.000    
    8457   5.382      0.6364E-03 SPRIN         11  -0.0%   218.2      0.1250E-03   0.000       168.2       0.000      0.5000E-01   0.000    
    8458   5.383      0.6364E-03 SPRIN         11  -0.0%   217.8      0.1250E-03   0.000       167.8       0.000      0.5000E-01   0.000    
    8459   5.383      0.6364E-03 SPRIN         11  -0.0%   217.4      0.1250E-03   0.000       167.4       0.000      0.5000E-01   0.000    
    8460   5.384      0.6364E-03 SPRIN         11  -0.0%   217.0      0.1250E-03   0.000       167.0       0.000      0.5000E-01   0.000    
    8461   5.385      0.6364E-03 SPRIN         11  -0.0%   216.6      0.1250E-03   0.000       166.6       0.000      0.5000E-01   0.000    
    8462   5.385      0.6364E-03 SPRIN         11  -0.0%   216.2      0.1250E-03   0.000       166.2       0.000      0.5000E-01   0.000    
    8463   5.386      0.6364E-03 SPRIN         11  -0.0%   215.8      0.1250E-03   0.000       165.8       0.000      0.5000E-01   0.000    
    8464   5.386      0.6364E-03 SPRIN         11  -0.0%   215.4      0.1250E-03   0.000       165.4       0.000      0.5000E-01   0.000    
    8465   5.387      0.6364E-03 SPRIN         11  -0.0%   215.1      0.1250E-03   0.000       165.1       0.000      0.5000E-01   0.000    
    8466   5.388      0.6364E-03 SPRIN         11  -0.0%   214.7      0.1250E-03   0.000       164.7       0.000      0.5000E-01   0.000    
    8467   5.388      0.6364E-03 SPRIN         11  -0.0%   214.3      0.1250E-03   0.000       164.3       0.000      0.5000E-01   0.000    
    8468   5.389      0.6364E-03 SPRIN         11  -0.0%   213.9      0.1250E-03   0.000       163.9       0.000      0.5000E-01   0.000    
    8469   5.390      0.6364E-03 SPRIN         11  -0.0%   213.5      0.1250E-03   0.000       163.5       0.000      0.5000E-01   0.000    
   CYCLE    TIME      TIME-STEP  ELEMENT          ERROR  I-ENERGY    K-ENERGY T  K-ENERGY R  EXT-WORK     MAS.ERR     TOTAL MASS  MASS ADDED
    8470   5.390      0.6364E-03 SPRIN         11  -0.0%   213.1      0.1250E-03   0.000       163.1       0.000      0.5000E-01   0.000    
    8471   5.391      0.6364E-03 SPRIN         11  -0.0%   212.8      0.1250E-03   0.000       162.8       0.000      0.5000E-01   0.000    
    8472   5.392      0.6364E-03 SPRIN         11  -0.0%   212.4      0.1250E-03   0.000       162.4       0.000      0.5000E-01   0.000    
    8473   5.392      0.6364E-03 SPRIN         11  -0.0%   212.0      0.1250E-03   0.000       162.0       0.000      0.5000E-01   0.000    
    8474   5.393      0.6364E-03 SPRIN         11  -0.0%   211.6      0.1250E-03   0.000       161.6       0.000      0.5000E-01   0.000    
    8475   5.393      0.6364E-03 SPRIN         11  -0.0%   211.2      0.1250E-03   0.000       161.2       0.000      0.5000E-01   0.000    
    8476   5.394      0.6364E-03 SPRIN         11  -0.0%   210.8      0.1250E-03   0.000       160.8       0.000      0.5000E-01   0.000    
    8477   5.395      0.6364E-03 SPRIN         11  -0.0%   210.5      0.1250E-03   0.000       160.5       0.000      0.5000E-01   0.000    
    8478   5.395      0.6364E-03 SPRIN         11  -0.0%   210.1      0.1250E-03   0.000       160.1       0.000      0.5000E-01   0.000    
    8479   5.396      0.6364E-03 SPRIN         11  -0.0%   209.7      0.1250E-03   0.000       159.7       0.000      0.5000E-01   0.000    
    8480   5.397      0.6364E-03 SPRIN         11  -0.0%   209.3      0.1250E-03   0.000       159.3       0.000      0.5000E-01   0.000    
    8481   5.397      0.6364E-03 SPRIN         11  -0.0%   208.9      0.1250E-03   0.000       158.9       0.000      0.5000E-01   0.000    
    8482   5.398      0.6364E-03 SPRIN         11  -0.0%   208.6      0.1250E-03   0.000       158.6       0.000      0.5000E-01   0.000    
    8483   5.399      0.6364E-03 SPRIN         11  -0.0%   208.2      0.1250E-03   0.000       158.2       0.000      0.5000E-01   0.000    
    8484   5.399      0.6364E-03 SPRIN         11  -0.0%   207.8      0.1250E-03   0.000       157.8       0.000      0.5000E-01   0.000    
    8485   5.400      0.6364E-03 SPRIN         11  -0.0%   207.4      0.1250E-03   0.000       157.4       0.000      0.5000E-01   0.000    
    8486   5.400      0.6364E-03 SPRIN         11  -0.0%   207.1      0.1250E-03   0.000       157.1       0.000      0.5000E-01   0.000    
     ANIMATION FILE: SPR_PRE_2FLAGA028 WRITTEN
    8487   5.401      0.6364E-03 SPRIN         11  -0.0%   206.7      0.1250E-03   0.000       156.7       0.000      0.5000E-01   0.000    
    8488   5.402      0.6364E-03 SPRIN         11  -0.0%   206.3      0.1250E-03   0.000       156.3       0.000      0.5000E-01   0.000    
    8489   5.402      0.6364E-03 SPRIN         11  -0.0%   205.9      0.1250E-03   0.000       155.9       0.000      0.5000E-01   0.000    
    8490   5.403      0.6364E-03 SPRIN         11  -0.0%   205.6      0.1250E-03   0.000       155.6       0.000      0.5000E-01   0.000    
    8491   5.404      0.6364E-03 SPRIN         11  -0.0%   205.2      0.1250E-03   0.000       155.2       0.000      0.5000E-01   0.000    
    8492   5.404      0.6364E-03 SPRIN         11  -0.0%   204.8      0.1250E-03   0.000       154.8       0.000      0.5000E-01   0.000    
    8493   5.405      0.6364E-03 SPRIN         11  -0.0%   204.4      0.1250E-03   0.000       154.4       0.000      0.5000E-01   0.000    
    8494   5.406      0.6364E-03 SPRIN         11  -0.0%   204.1      0.1250E-03   0.000       154.1       0.000      0.5000E-01   0.000    
    8495   5.406      0.6364E-03 SPRIN         11  -0.0%   203.7      0.1250E-03   0.000       153.7       0.000      0.5000E-01   0.000    
    8496   5.407      0.6364E-03 SPRIN         11  -0.0%   203.3      0.1250E-03   0.000       153.3       0.000      0.5000E-01   0.000    
    8497   5.407      0.6364E-03 SPRIN         11  -0.0%   202.9      0.1250E-03   0.000       152.9       0.000      0.5000E-01   0.000    
    8498   5.408      0.6364E-03 SPRIN         11  -0.0%   202.6      0.1250E-03   0.000       152.6       0.000      0.5000E-01   0.000    
    8499   5.409      0.6364E-03 SPRIN         11  -0.0%   202.2      0.1250E-03   0.000       152.2       0.000      0.5000E-01   0.000    
    8500   5.409      0.6364E-03 SPRIN         11  -0.0%   201.8      0.1250E-03   0.000       151.8       0.000      0.5000E-01   0.000    
    8501   5.410      0.6364E-03 SPRIN         11  -0.0%   201.5      0.1250E-03   0.000       151.5       0.000      0.5000E-01   0.000    
    8502   5.411      0.6364E-03 SPRIN         11  -0.0%   201.1      0.1250E-03   0.000       151.1       0.000      0.5000E-01   0.000    
    8503   5.411      0.6364E-03 SPRIN         11  -0.0%   200.7      0.1250E-03   0.000       150.7       0.000      0.5000E-01   0.000    
    8504   5.412      0.6364E-03 SPRIN         11  -0.0%   200.3      0.1250E-03   0.000       150.3       0.000      0.5000E-01   0.000    
    8505   5.413      0.6364E-03 SPRIN         11  -0.0%   200.0      0.1250E-03   0.000       150.0       0.000      0.5000E-01   0.000    
    8506   5.413      0.6364E-03 SPRIN         11  -0.0%   199.6      0.1250E-03   0.000       149.6       0.000      0.5000E-01   0.000    
    8507   5.414      0.6364E-03 SPRIN         11  -0.0%   199.2      0.1250E-03   0.000       149.2       0.000      0.5000E-01   0.000    
    8508   5.414      0.6364E-03 SPRIN         11  -0.0%   198.9      0.1250E-03   0.000       148.9       0.000      0.5000E-01   0.000    
    8509   5.415      0.6364E-03 SPRIN         11  -0.0%   198.5      0.1250E-03   0.000       148.5       0.000      0.5000E-01   0.000    
    8510   5.416      0.6364E-03 SPRIN         11  -0.0%   198.1      0.1250E-03   0.000       148.1       0.000      0.5000E-01   0.000    
    8511   5.416      0.6364E-03 SPRIN         11  -0.0%   197.8      0.1250E-03   0.000       147.8       0.000      0.5000E-01   0.000    
    8512   5.417      0.6364E-03 SPRIN         11  -0.0%   197.4      0.1250E-03   0.000       147.4       0.000      0.5000E-01   0.000    
    8513   5.418      0.6364E-03 SPRIN         11  -0.0%   197.0      0.1250E-03   0.000       147.0       0.000      0.5000E-01   0.000    
    8514   5.418      0.6364E-03 SPRIN         11  -0.0%   196.7      0.1250E-03   0.000       146.7       0.000      0.5000E-01   0.000    
    8515   5.419      0.6364E-03 SPRIN         11  -0.0%   196.3      0.1250E-03   0.000       146.3       0.000      0.5000E-01   0.000    
    8516   5.420      0.6364E-03 SPRIN         11  -0.0%   195.9      0.1250E-03   0.000       145.9       0.000      0.5000E-01   0.000    
    8517   5.420      0.6364E-03 SPRIN         11  -0.0%   195.6      0.1250E-03   0.000       145.6       0.000      0.5000E-01   0.000    
    8518   5.421      0.6364E-03 SPRIN         11  -0.0%   195.2      0.1250E-03   0.000       145.2       0.000      0.5000E-01   0.000    
    8519   5.421      0.6364E-03 SPRIN         11  -0.0%   194.9      0.1250E-03   0.000       144.9       0.000      0.5000E-01   0.000    
    8520   5.422      0.6364E-03 SPRIN         11  -0.0%   194.5      0.1250E-03   0.000       144.5       0.000      0.5000E-01   0.000    
    8521   5.423      0.6364E-03 SPRIN         11  -0.0%   194.1      0.1250E-03   0.000       144.1       0.000      0.5000E-01   0.000    
    8522   5.423      0.6364E-03 SPRIN         11  -0.0%   193.8      0.1250E-03   0.000       143.8       0.000      0.5000E-01   0.000    
    8523   5.424      0.6364E-03 SPRIN         11  -0.0%   193.4      0.1250E-03   0.000       143.4       0.000      0.5000E-01   0.000    
    8524   5.425      0.6364E-03 SPRIN         11  -0.0%   193.0      0.1250E-03   0.000       143.0       0.000      0.5000E-01   0.000    
   CYCLE    TIME      TIME-STEP  ELEMENT          ERROR  I-ENERGY    K-ENERGY T  K-ENERGY R  EXT-WORK     MAS.ERR     TOTAL MASS  MASS ADDED
    8525   5.425      0.6364E-03 SPRIN         11  -0.0%   192.7      0.1250E-03   0.000       142.7       0.000      0.5000E-01   0.000    
    8526   5.426      0.6364E-03 SPRIN         11  -0.0%   192.3      0.1250E-03   0.000       142.3       0.000      0.5000E-01   0.000    
    8527   5.427      0.6364E-03 SPRIN         11  -0.0%   192.0      0.1250E-03   0.000       142.0       0.000      0.5000E-01   0.000    
    8528   5.427      0.6364E-03 SPRIN         11  -0.0%   191.6      0.1250E-03   0.000       141.6       0.000      0.5000E-01   0.000    
    8529   5.428      0.6364E-03 SPRIN         11  -0.0%   191.2      0.1250E-03   0.000       141.2       0.000      0.5000E-01   0.000    
    8530   5.428      0.6364E-03 SPRIN         11  -0.0%   190.9      0.1250E-03   0.000       140.9       0.000      0.5000E-01   0.000    
    8531   5.429      0.6364E-03 SPRIN         11  -0.0%   190.5      0.1250E-03   0.000       140.5       0.000      0.5000E-01   0.000    
    8532   5.430      0.6364E-03 SPRIN         11  -0.0%   190.2      0.1250E-03   0.000       140.2       0.000      0.5000E-01   0.000    
    8533   5.430      0.6364E-03 SPRIN         11  -0.0%   189.8      0.1250E-03   0.000       139.8       0.000      0.5000E-01   0.000    
    8534   5.431      0.6364E-03 SPRIN         11  -0.0%   189.5      0.1250E-03   0.000       139.5       0.000      0.5000E-01   0.000    
    8535   5.432      0.6364E-03 SPRIN         11  -0.0%   189.1      0.1250E-03   0.000       139.1       0.000      0.5000E-01   0.000    
    8536   5.432      0.6364E-03 SPRIN         11  -0.0%   188.7      0.1250E-03   0.000       138.7       0.000      0.5000E-01   0.000    
    8537   5.433      0.6364E-03 SPRIN         11  -0.0%   188.4      0.1250E-03   0.000       138.4       0.000      0.5000E-01   0.000    
    8538   5.434      0.6364E-03 SPRIN         11  -0.0%   188.0      0.1250E-03   0.000       138.0       0.000      0.5000E-01   0.000    
    8539   5.434      0.6364E-03 SPRIN         11  -0.0%   187.7      0.1250E-03   0.000       137.7       0.000      0.5000E-01   0.000    
    8540   5.435      0.6364E-03 SPRIN         11  -0.0%   187.3      0.1250E-03   0.000       137.3       0.000      0.5000E-01   0.000    
    8541   5.435      0.6364E-03 SPRIN         11  -0.0%   187.0      0.1250E-03   0.000       137.0       0.000      0.5000E-01   0.000    
    8542   5.436      0.6364E-03 SPRIN         11  -0.0%   186.6      0.1250E-03   0.000       136.6       0.000      0.5000E-01   0.000    
    8543   5.437      0.6364E-03 SPRIN         11  -0.0%   186.3      0.1250E-03   0.000       136.3       0.000      0.5000E-01   0.000    
    8544   5.437      0.6364E-03 SPRIN         11  -0.0%   185.9      0.1250E-03   0.000       135.9       0.000      0.5000E-01   0.000    
    8545   5.438      0.6364E-03 SPRIN         11  -0.0%   185.5      0.1250E-03   0.000       135.5       0.000      0.5000E-01   0.000    
    8546   5.439      0.6364E-03 SPRIN         11  -0.0%   185.2      0.1250E-03   0.000       135.2       0.000      0.5000E-01   0.000    
    8547   5.439      0.6364E-03 SPRIN         11  -0.0%   184.8      0.1250E-03   0.000       134.8       0.000      0.5000E-01   0.000    
    8548   5.440      0.6364E-03 SPRIN         11  -0.0%   184.5      0.1250E-03   0.000       134.5       0.000      0.5000E-01   0.000    
    8549   5.441      0.6364E-03 SPRIN         11  -0.0%   184.1      0.1250E-03   0.000       134.1       0.000      0.5000E-01   0.000    
    8550   5.441      0.6364E-03 SPRIN         11  -0.0%   183.8      0.1250E-03   0.000       133.8       0.000      0.5000E-01   0.000    
    8551   5.442      0.6364E-03 SPRIN         11  -0.0%   183.4      0.1250E-03   0.000       133.4       0.000      0.5000E-01   0.000    
    8552   5.442      0.6364E-03 SPRIN         11  -0.0%   183.1      0.1250E-03   0.000       133.1       0.000      0.5000E-01   0.000    
    8553   5.443      0.6364E-03 SPRIN         11  -0.0%   182.7      0.1250E-03   0.000       132.7       0.000      0.5000E-01   0.000    
    8554   5.444      0.6364E-03 SPRIN         11  -0.0%   182.4      0.1250E-03   0.000       132.4       0.000      0.5000E-01   0.000    
    8555   5.444      0.6364E-03 SPRIN         11  -0.0%   182.0      0.1250E-03   0.000       132.0       0.000      0.5000E-01   0.000    
    8556   5.445      0.6364E-03 SPRIN         11  -0.0%   181.7      0.1250E-03   0.000       131.7       0.000      0.5000E-01   0.000    
    8557   5.446      0.6364E-03 SPRIN         11  -0.0%   181.3      0.1250E-03   0.000       131.3       0.000      0.5000E-01   0.000    
    8558   5.446      0.6364E-03 SPRIN         11  -0.0%   181.0      0.1250E-03   0.000       131.0       0.000      0.5000E-01   0.000    
    8559   5.447      0.6364E-03 SPRIN         11  -0.0%   180.6      0.1250E-03   0.000       130.6       0.000      0.5000E-01   0.000    
    8560   5.448      0.6364E-03 SPRIN         11  -0.0%   180.3      0.1250E-03   0.000       130.3       0.000      0.5000E-01   0.000    
    8561   5.448      0.6364E-03 SPRIN         11  -0.0%   180.0      0.1250E-03   0.000       130.0       0.000      0.5000E-01   0.000    
    8562   5.449      0.6364E-03 SPRIN         11  -0.0%   179.6      0.1250E-03   0.000       129.6       0.000      0.5000E-01   0.000    
    8563   5.449      0.6364E-03 SPRIN         11  -0.0%   179.3      0.1250E-03   0.000       129.3       0.000      0.5000E-01   0.000    
    8564   5.450      0.6364E-03 SPRIN         11  -0.0%   178.9      0.1250E-03   0.000       128.9       0.000      0.5000E-01   0.000    
    8565   5.451      0.6364E-03 SPRIN         11  -0.0%   178.6      0.1250E-03   0.000       128.6       0.000      0.5000E-01   0.000    
    8566   5.451      0.6364E-03 SPRIN         11  -0.0%   178.2      0.1250E-03   0.000       128.2       0.000      0.5000E-01   0.000    
    8567   5.452      0.6364E-03 SPRIN         11  -0.0%   177.9      0.1250E-03   0.000       127.9       0.000      0.5000E-01   0.000    
    8568   5.453      0.6364E-03 SPRIN         11  -0.0%   177.5      0.1250E-03   0.000       127.5       0.000      0.5000E-01   0.000    
    8569   5.453      0.6364E-03 SPRIN         11  -0.0%   177.2      0.1250E-03   0.000       127.2       0.000      0.5000E-01   0.000    
    8570   5.454      0.6364E-03 SPRIN         11  -0.0%   176.9      0.1250E-03   0.000       126.9       0.000      0.5000E-01   0.000    
    8571   5.455      0.6364E-03 SPRIN         11  -0.0%   176.5      0.1250E-03   0.000       126.5       0.000      0.5000E-01   0.000    
    8572   5.455      0.6364E-03 SPRIN         11  -0.0%   176.2      0.1250E-03   0.000       126.2       0.000      0.5000E-01   0.000    
    8573   5.456      0.6364E-03 SPRIN         11  -0.0%   175.8      0.1250E-03   0.000       125.8       0.000      0.5000E-01   0.000    
    8574   5.456      0.6364E-03 SPRIN         11  -0.0%   175.5      0.1250E-03   0.000       125.5       0.000      0.5000E-01   0.000    
    8575   5.457      0.6364E-03 SPRIN         11  -0.0%   175.1      0.1250E-03   0.000       125.1       0.000      0.5000E-01   0.000    
    8576   5.458      0.6364E-03 SPRIN         11  -0.0%   174.8      0.1250E-03   0.000       124.8       0.000      0.5000E-01   0.000    
    8577   5.458      0.6364E-03 SPRIN         11  -0.0%   174.5      0.1250E-03   0.000       124.5       0.000      0.5000E-01   0.000    
    8578   5.459      0.6364E-03 SPRIN         11  -0.0%   174.1      0.1250E-03   0.000       124.1       0.000      0.5000E-01   0.000    
    8579   5.460      0.6364E-03 SPRIN         11  -0.0%   173.8      0.1250E-03   0.000       123.8       0.000      0.5000E-01   0.000    
   CYCLE    TIME      TIME-STEP  ELEMENT          ERROR  I-ENERGY    K-ENERGY T  K-ENERGY R  EXT-WORK     MAS.ERR     TOTAL MASS  MASS ADDED
    8580   5.460      0.6364E-03 SPRIN         11  -0.0%   173.5      0.1250E-03   0.000       123.5       0.000      0.5000E-01   0.000    
    8581   5.461      0.6364E-03 SPRIN         11  -0.0%   173.1      0.1250E-03   0.000       123.1       0.000      0.5000E-01   0.000    
    8582   5.462      0.6364E-03 SPRIN         11  -0.0%   172.8      0.1250E-03   0.000       122.8       0.000      0.5000E-01   0.000    
    8583   5.462      0.6364E-03 SPRIN         11  -0.0%   172.4      0.1250E-03   0.000       122.4       0.000      0.5000E-01   0.000    
    8584   5.463      0.6364E-03 SPRIN         11  -0.0%   172.1      0.1250E-03   0.000       122.1       0.000      0.5000E-01   0.000    
    8585   5.463      0.6364E-03 SPRIN         11  -0.0%   171.8      0.1250E-03   0.000       121.8       0.000      0.5000E-01   0.000    
    8586   5.464      0.6364E-03 SPRIN         11  -0.0%   171.4      0.1250E-03   0.000       121.4       0.000      0.5000E-01   0.000    
    8587   5.465      0.6364E-03 SPRIN         11  -0.0%   171.1      0.1250E-03   0.000       121.1       0.000      0.5000E-01   0.000    
    8588   5.465      0.6364E-03 SPRIN         11  -0.0%   170.8      0.1250E-03   0.000       120.8       0.000      0.5000E-01   0.000    
    8589   5.466      0.6364E-03 SPRIN         11  -0.0%   170.4      0.1250E-03   0.000       120.4       0.000      0.5000E-01   0.000    
    8590   5.467      0.6364E-03 SPRIN         11  -0.0%   170.1      0.1250E-03   0.000       120.1       0.000      0.5000E-01   0.000    
    8591   5.467      0.6364E-03 SPRIN         11  -0.0%   169.8      0.1250E-03   0.000       119.8       0.000      0.5000E-01   0.000    
    8592   5.468      0.6364E-03 SPRIN         11  -0.0%   169.4      0.1250E-03   0.000       119.4       0.000      0.5000E-01   0.000    
    8593   5.469      0.6364E-03 SPRIN         11  -0.0%   169.1      0.1250E-03   0.000       119.1       0.000      0.5000E-01   0.000    
    8594   5.469      0.6364E-03 SPRIN         11  -0.0%   168.8      0.1250E-03   0.000       118.8       0.000      0.5000E-01   0.000    
    8595   5.470      0.6364E-03 SPRIN         11  -0.0%   168.4      0.1250E-03   0.000       118.4       0.000      0.5000E-01   0.000    
    8596   5.470      0.6364E-03 SPRIN         11  -0.0%   168.1      0.1250E-03   0.000       118.1       0.000      0.5000E-01   0.000    
    8597   5.471      0.6364E-03 SPRIN         11  -0.0%   167.8      0.1250E-03   0.000       117.8       0.000      0.5000E-01   0.000    
    8598   5.472      0.6364E-03 SPRIN         11  -0.0%   167.4      0.1250E-03   0.000       117.4       0.000      0.5000E-01   0.000    
    8599   5.472      0.6364E-03 SPRIN         11  -0.0%   167.1      0.1250E-03   0.000       117.1       0.000      0.5000E-01   0.000    
    8600   5.473      0.6364E-03 SPRIN         11  -0.0%   166.8      0.1250E-03   0.000       116.8       0.000      0.5000E-01   0.000    
    8601   5.474      0.6364E-03 SPRIN         11  -0.0%   166.4      0.1250E-03   0.000       116.4       0.000      0.5000E-01   0.000    
    8602   5.474      0.6364E-03 SPRIN         11  -0.0%   166.1      0.1250E-03   0.000       116.1       0.000      0.5000E-01   0.000    
    8603   5.475      0.6364E-03 SPRIN         11  -0.0%   165.8      0.1250E-03   0.000       115.8       0.000      0.5000E-01   0.000    
    8604   5.476      0.6364E-03 SPRIN         11  -0.0%   165.4      0.1250E-03   0.000       115.4       0.000      0.5000E-01   0.000    
    8605   5.476      0.6364E-03 SPRIN         11  -0.0%   165.1      0.1250E-03   0.000       115.1       0.000      0.5000E-01   0.000    
    8606   5.477      0.6364E-03 SPRIN         11  -0.0%   164.8      0.1250E-03   0.000       114.8       0.000      0.5000E-01   0.000    
    8607   5.477      0.6364E-03 SPRIN         11  -0.0%   164.5      0.1250E-03   0.000       114.5       0.000      0.5000E-01   0.000    
    8608   5.478      0.6364E-03 SPRIN         11  -0.0%   164.1      0.1250E-03   0.000       114.1       0.000      0.5000E-01   0.000    
    8609   5.479      0.6364E-03 SPRIN         11  -0.0%   163.8      0.1250E-03   0.000       113.8       0.000      0.5000E-01   0.000    
    8610   5.479      0.6364E-03 SPRIN         11  -0.0%   163.5      0.1250E-03   0.000       113.5       0.000      0.5000E-01   0.000    
    8611   5.480      0.6364E-03 SPRIN         11  -0.0%   163.2      0.1250E-03   0.000       113.2       0.000      0.5000E-01   0.000    
    8612   5.481      0.6364E-03 SPRIN         11  -0.0%   162.8      0.1250E-03   0.000       112.8       0.000      0.5000E-01   0.000    
    8613   5.481      0.6364E-03 SPRIN         11  -0.0%   162.5      0.1250E-03   0.000       112.5       0.000      0.5000E-01   0.000    
    8614   5.482      0.6364E-03 SPRIN         11  -0.0%   162.2      0.1250E-03   0.000       112.2       0.000      0.5000E-01   0.000    
    8615   5.483      0.6364E-03 SPRIN         11  -0.0%   161.9      0.1250E-03   0.000       111.9       0.000      0.5000E-01   0.000    
    8616   5.483      0.6364E-03 SPRIN         11  -0.0%   161.5      0.1250E-03   0.000       111.5       0.000      0.5000E-01   0.000    
    8617   5.484      0.6364E-03 SPRIN         11  -0.0%   161.2      0.1250E-03   0.000       111.2       0.000      0.5000E-01   0.000    
    8618   5.484      0.6364E-03 SPRIN         11  -0.0%   160.9      0.1250E-03   0.000       110.9       0.000      0.5000E-01   0.000    
    8619   5.485      0.6364E-03 SPRIN         11  -0.0%   160.6      0.1250E-03   0.000       110.6       0.000      0.5000E-01   0.000    
    8620   5.486      0.6364E-03 SPRIN         11  -0.0%   160.2      0.1250E-03   0.000       110.2       0.000      0.5000E-01   0.000    
    8621   5.486      0.6364E-03 SPRIN         11  -0.0%   159.9      0.1250E-03   0.000       109.9       0.000      0.5000E-01   0.000    
    8622   5.487      0.6364E-03 SPRIN         11  -0.0%   159.6      0.1250E-03   0.000       109.6       0.000      0.5000E-01   0.000    
    8623   5.488      0.6364E-03 SPRIN         11  -0.0%   159.3      0.1250E-03   0.000       109.3       0.000      0.5000E-01   0.000    
    8624   5.488      0.6364E-03 SPRIN         11  -0.0%   158.9      0.1250E-03   0.000       108.9       0.000      0.5000E-01   0.000    
    8625   5.489      0.6364E-03 SPRIN         11  -0.0%   158.6      0.1250E-03   0.000       108.6       0.000      0.5000E-01   0.000    
    8626   5.490      0.6364E-03 SPRIN         11  -0.0%   158.3      0.1250E-03   0.000       108.3       0.000      0.5000E-01   0.000    
    8627   5.490      0.6364E-03 SPRIN         11  -0.0%   158.0      0.1250E-03   0.000       108.0       0.000      0.5000E-01   0.000    
    8628   5.491      0.6364E-03 SPRIN         11  -0.0%   157.7      0.1250E-03   0.000       107.7       0.000      0.5000E-01   0.000    
    8629   5.491      0.6364E-03 SPRIN         11  -0.0%   157.3      0.1250E-03   0.000       107.3       0.000      0.5000E-01   0.000    
    8630   5.492      0.6364E-03 SPRIN         11  -0.0%   157.0      0.1250E-03   0.000       107.0       0.000      0.5000E-01   0.000    
    8631   5.493      0.6364E-03 SPRIN         11  -0.0%   156.7      0.1250E-03   0.000       106.7       0.000      0.5000E-01   0.000    
    8632   5.493      0.6364E-03 SPRIN         11  -0.0%   156.4      0.1250E-03   0.000       106.4       0.000      0.5000E-01   0.000    
    8633   5.494      0.6364E-03 SPRIN         11  -0.0%   156.1      0.1250E-03   0.000       106.1       0.000      0.5000E-01   0.000    
    8634   5.495      0.6364E-03 SPRIN         11  -0.0%   155.8      0.1250E-03   0.000       105.8       0.000      0.5000E-01   0.000    
   CYCLE    TIME      TIME-STEP  ELEMENT          ERROR  I-ENERGY    K-ENERGY T  K-ENERGY R  EXT-WORK     MAS.ERR     TOTAL MASS  MASS ADDED
    8635   5.495      0.6364E-03 SPRIN         11  -0.0%   155.4      0.1250E-03   0.000       105.4       0.000      0.5000E-01   0.000    
    8636   5.496      0.6364E-03 SPRIN         11  -0.0%   155.1      0.1250E-03   0.000       105.1       0.000      0.5000E-01   0.000    
    8637   5.497      0.6364E-03 SPRIN         11  -0.0%   154.8      0.1250E-03   0.000       104.8       0.000      0.5000E-01   0.000    
    8638   5.497      0.6364E-03 SPRIN         11  -0.0%   154.5      0.1250E-03   0.000       104.5       0.000      0.5000E-01   0.000    
    8639   5.498      0.6364E-03 SPRIN         11  -0.0%   154.2      0.1250E-03   0.000       104.2       0.000      0.5000E-01   0.000    
    8640   5.498      0.6364E-03 SPRIN         11  -0.0%   153.9      0.1250E-03   0.000       103.9       0.000      0.5000E-01   0.000    
    8641   5.499      0.6364E-03 SPRIN         11  -0.0%   153.6      0.1250E-03   0.000       103.6       0.000      0.5000E-01   0.000    
    8642   5.500      0.6364E-03 SPRIN         11  -0.0%   153.2      0.1250E-03   0.000       103.2       0.000      0.5000E-01   0.000    
    8643   5.500      0.6364E-03 SPRIN         11  -0.0%   152.9      0.1250E-03   0.000       102.9       0.000      0.5000E-01   0.000    
    8644   5.501      0.6364E-03 SPRIN         11  -0.0%   152.6      0.1250E-03   0.000       102.6       0.000      0.5000E-01   0.000    
    8645   5.502      0.6364E-03 SPRIN         11  -0.0%   152.3      0.1250E-03   0.000       102.3       0.000      0.5000E-01   0.000    
    8646   5.502      0.6364E-03 SPRIN         11  -0.0%   152.0      0.1250E-03   0.000       102.0       0.000      0.5000E-01   0.000    
    8647   5.503      0.6364E-03 SPRIN         11  -0.0%   151.7      0.1250E-03   0.000       101.7       0.000      0.5000E-01   0.000    
    8648   5.504      0.6364E-03 SPRIN         11  -0.0%   151.4      0.1250E-03   0.000       101.4       0.000      0.5000E-01   0.000    
    8649   5.504      0.6364E-03 SPRIN         11  -0.0%   151.1      0.1250E-03   0.000       101.1       0.000      0.5000E-01   0.000    
    8650   5.505      0.6364E-03 SPRIN         11  -0.0%   150.7      0.1250E-03   0.000       100.7       0.000      0.5000E-01   0.000    
    8651   5.505      0.6364E-03 SPRIN         11  -0.0%   150.4      0.1250E-03   0.000       100.4       0.000      0.5000E-01   0.000    
    8652   5.506      0.6364E-03 SPRIN         11  -0.0%   150.1      0.1250E-03   0.000       100.1       0.000      0.5000E-01   0.000    
    8653   5.507      0.6364E-03 SPRIN         11  -0.0%   149.8      0.1250E-03   0.000       99.82       0.000      0.5000E-01   0.000    
    8654   5.507      0.6364E-03 SPRIN         11  -0.0%   149.5      0.1250E-03   0.000       99.51       0.000      0.5000E-01   0.000    
    8655   5.508      0.6364E-03 SPRIN         11  -0.0%   149.2      0.1250E-03   0.000       99.20       0.000      0.5000E-01   0.000    
    8656   5.509      0.6364E-03 SPRIN         11  -0.0%   148.9      0.1250E-03   0.000       98.89       0.000      0.5000E-01   0.000    
    8657   5.509      0.6364E-03 SPRIN         11  -0.0%   148.6      0.1250E-03   0.000       98.59       0.000      0.5000E-01   0.000    
    8658   5.510      0.6364E-03 SPRIN         11  -0.0%   148.3      0.1250E-03   0.000       98.28       0.000      0.5000E-01   0.000    
    8659   5.511      0.6364E-03 SPRIN         11  -0.0%   148.0      0.1250E-03   0.000       97.97       0.000      0.5000E-01   0.000    
    8660   5.511      0.6364E-03 SPRIN         11  -0.0%   147.7      0.1250E-03   0.000       97.66       0.000      0.5000E-01   0.000    
    8661   5.512      0.6364E-03 SPRIN         11  -0.0%   147.4      0.1250E-03   0.000       97.36       0.000      0.5000E-01   0.000    
    8662   5.512      0.6364E-03 SPRIN         11  -0.0%   147.1      0.1250E-03   0.000       97.05       0.000      0.5000E-01   0.000    
    8663   5.513      0.6364E-03 SPRIN         11  -0.0%   146.7      0.1250E-03   0.000       96.75       0.000      0.5000E-01   0.000    
    8664   5.514      0.6364E-03 SPRIN         11  -0.0%   146.4      0.1250E-03   0.000       96.44       0.000      0.5000E-01   0.000    
    8665   5.514      0.6364E-03 SPRIN         11  -0.0%   146.1      0.1250E-03   0.000       96.14       0.000      0.5000E-01   0.000    
    8666   5.515      0.6364E-03 SPRIN         11  -0.0%   145.8      0.1250E-03   0.000       95.84       0.000      0.5000E-01   0.000    
    8667   5.516      0.6364E-03 SPRIN         11  -0.0%   145.5      0.1250E-03   0.000       95.53       0.000      0.5000E-01   0.000    
    8668   5.516      0.6364E-03 SPRIN         11  -0.0%   145.2      0.1250E-03   0.000       95.23       0.000      0.5000E-01   0.000    
    8669   5.517      0.6364E-03 SPRIN         11  -0.0%   144.9      0.1250E-03   0.000       94.93       0.000      0.5000E-01   0.000    
    8670   5.518      0.6364E-03 SPRIN         11  -0.0%   144.6      0.1250E-03   0.000       94.62       0.000      0.5000E-01   0.000    
    8671   5.518      0.6364E-03 SPRIN         11  -0.0%   144.3      0.1250E-03   0.000       94.32       0.000      0.5000E-01   0.000    
    8672   5.519      0.6364E-03 SPRIN         11  -0.0%   144.0      0.1250E-03   0.000       94.02       0.000      0.5000E-01   0.000    
    8673   5.519      0.6364E-03 SPRIN         11  -0.0%   143.7      0.1250E-03   0.000       93.72       0.000      0.5000E-01   0.000    
    8674   5.520      0.6364E-03 SPRIN         11  -0.0%   143.4      0.1250E-03   0.000       93.42       0.000      0.5000E-01   0.000    
    8675   5.521      0.6364E-03 SPRIN         11  -0.0%   143.1      0.1250E-03   0.000       93.12       0.000      0.5000E-01   0.000    
    8676   5.521      0.6364E-03 SPRIN         11  -0.0%   142.8      0.1250E-03   0.000       92.82       0.000      0.5000E-01   0.000    
    8677   5.522      0.6364E-03 SPRIN         11  -0.0%   142.5      0.1250E-03   0.000       92.52       0.000      0.5000E-01   0.000    
    8678   5.523      0.6364E-03 SPRIN         11  -0.0%   142.2      0.1250E-03   0.000       92.22       0.000      0.5000E-01   0.000    
    8679   5.523      0.6364E-03 SPRIN         11  -0.0%   141.9      0.1250E-03   0.000       91.92       0.000      0.5000E-01   0.000    
    8680   5.524      0.6364E-03 SPRIN         11  -0.0%   141.6      0.1250E-03   0.000       91.62       0.000      0.5000E-01   0.000    
    8681   5.525      0.6364E-03 SPRIN         11  -0.0%   141.3      0.1250E-03   0.000       91.33       0.000      0.5000E-01   0.000    
    8682   5.525      0.6364E-03 SPRIN         11  -0.0%   141.0      0.1250E-03   0.000       91.03       0.000      0.5000E-01   0.000    
    8683   5.526      0.6364E-03 SPRIN         11  -0.0%   140.7      0.1250E-03   0.000       90.73       0.000      0.5000E-01   0.000    
    8684   5.526      0.6364E-03 SPRIN         11  -0.0%   140.4      0.1250E-03   0.000       90.43       0.000      0.5000E-01   0.000    
    8685   5.527      0.6364E-03 SPRIN         11  -0.0%   140.1      0.1250E-03   0.000       90.14       0.000      0.5000E-01   0.000    
    8686   5.528      0.6364E-03 SPRIN         11  -0.0%   139.8      0.1250E-03   0.000       89.84       0.000      0.5000E-01   0.000    
    8687   5.528      0.6364E-03 SPRIN         11  -0.0%   139.5      0.1250E-03   0.000       89.55       0.000      0.5000E-01   0.000    
    8688   5.529      0.6364E-03 SPRIN         11  -0.0%   139.3      0.1250E-03   0.000       89.25       0.000      0.5000E-01   0.000    
    8689   5.530      0.6364E-03 SPRIN         11  -0.0%   139.0      0.1250E-03   0.000       88.96       0.000      0.5000E-01   0.000    
   CYCLE    TIME      TIME-STEP  ELEMENT          ERROR  I-ENERGY    K-ENERGY T  K-ENERGY R  EXT-WORK     MAS.ERR     TOTAL MASS  MASS ADDED
    8690   5.530      0.6364E-03 SPRIN         11  -0.0%   138.7      0.1250E-03   0.000       88.66       0.000      0.5000E-01   0.000    
    8691   5.531      0.6364E-03 SPRIN         11  -0.0%   138.4      0.1250E-03   0.000       88.37       0.000      0.5000E-01   0.000    
    8692   5.532      0.6364E-03 SPRIN         11  -0.0%   138.1      0.1250E-03   0.000       88.08       0.000      0.5000E-01   0.000    
    8693   5.532      0.6364E-03 SPRIN         11  -0.0%   137.8      0.1250E-03   0.000       87.78       0.000      0.5000E-01   0.000    
    8694   5.533      0.6364E-03 SPRIN         11  -0.0%   137.5      0.1250E-03   0.000       87.49       0.000      0.5000E-01   0.000    
    8695   5.533      0.6364E-03 SPRIN         11  -0.0%   137.2      0.1250E-03   0.000       87.20       0.000      0.5000E-01   0.000    
    8696   5.534      0.6364E-03 SPRIN         11  -0.0%   136.9      0.1250E-03   0.000       86.91       0.000      0.5000E-01   0.000    
    8697   5.535      0.6364E-03 SPRIN         11  -0.0%   136.6      0.1250E-03   0.000       86.62       0.000      0.5000E-01   0.000    
    8698   5.535      0.6364E-03 SPRIN         11  -0.0%   136.3      0.1250E-03   0.000       86.32       0.000      0.5000E-01   0.000    
    8699   5.536      0.6364E-03 SPRIN         11  -0.0%   136.0      0.1250E-03   0.000       86.03       0.000      0.5000E-01   0.000    
    8700   5.537      0.6364E-03 SPRIN         11  -0.0%   135.7      0.1250E-03   0.000       85.74       0.000      0.5000E-01   0.000    
    8701   5.537      0.6364E-03 SPRIN         11  -0.0%   135.5      0.1250E-03   0.000       85.45       0.000      0.5000E-01   0.000    
    8702   5.538      0.6364E-03 SPRIN         11  -0.0%   135.2      0.1250E-03   0.000       85.17       0.000      0.5000E-01   0.000    
    8703   5.539      0.6364E-03 SPRIN         11  -0.0%   134.9      0.1250E-03   0.000       84.88       0.000      0.5000E-01   0.000    
    8704   5.539      0.6364E-03 SPRIN         11  -0.0%   134.6      0.1250E-03   0.000       84.59       0.000      0.5000E-01   0.000    
    8705   5.540      0.6364E-03 SPRIN         11  -0.0%   134.3      0.1250E-03   0.000       84.30       0.000      0.5000E-01   0.000    
    8706   5.540      0.6364E-03 SPRIN         11  -0.0%   134.0      0.1250E-03   0.000       84.01       0.000      0.5000E-01   0.000    
    8707   5.541      0.6364E-03 SPRIN         11  -0.0%   133.7      0.1250E-03   0.000       83.72       0.000      0.5000E-01   0.000    
    8708   5.542      0.6364E-03 SPRIN         11  -0.0%   133.4      0.1250E-03   0.000       83.44       0.000      0.5000E-01   0.000    
    8709   5.542      0.6364E-03 SPRIN         11  -0.0%   133.2      0.1250E-03   0.000       83.15       0.000      0.5000E-01   0.000    
    8710   5.543      0.6364E-03 SPRIN         11  -0.0%   132.9      0.1250E-03   0.000       82.87       0.000      0.5000E-01   0.000    
    8711   5.544      0.6364E-03 SPRIN         11  -0.0%   132.6      0.1250E-03   0.000       82.58       0.000      0.5000E-01   0.000    
    8712   5.544      0.6364E-03 SPRIN         11  -0.0%   132.3      0.1250E-03   0.000       82.29       0.000      0.5000E-01   0.000    
    8713   5.545      0.6364E-03 SPRIN         11  -0.0%   132.0      0.1250E-03   0.000       82.01       0.000      0.5000E-01   0.000    
    8714   5.546      0.6364E-03 SPRIN         11  -0.0%   131.7      0.1250E-03   0.000       81.72       0.000      0.5000E-01   0.000    
    8715   5.546      0.6364E-03 SPRIN         11  -0.0%   131.4      0.1250E-03   0.000       81.44       0.000      0.5000E-01   0.000    
    8716   5.547      0.6364E-03 SPRIN         11  -0.0%   131.2      0.1250E-03   0.000       81.16       0.000      0.5000E-01   0.000    
    8717   5.547      0.6364E-03 SPRIN         11  -0.0%   130.9      0.1250E-03   0.000       80.87       0.000      0.5000E-01   0.000    
    8718   5.548      0.6364E-03 SPRIN         11  -0.0%   130.6      0.1250E-03   0.000       80.59       0.000      0.5000E-01   0.000    
    8719   5.549      0.6364E-03 SPRIN         11  -0.0%   130.3      0.1250E-03   0.000       80.31       0.000      0.5000E-01   0.000    
    8720   5.549      0.6364E-03 SPRIN         11  -0.0%   130.0      0.1250E-03   0.000       80.03       0.000      0.5000E-01   0.000    
    8721   5.550      0.6364E-03 SPRIN         11  -0.0%   129.7      0.1250E-03   0.000       79.75       0.000      0.5000E-01   0.000    
    8722   5.551      0.6364E-03 SPRIN         11  -0.0%   129.5      0.1250E-03   0.000       79.46       0.000      0.5000E-01   0.000    
    8723   5.551      0.6364E-03 SPRIN         11  -0.0%   129.2      0.1250E-03   0.000       79.18       0.000      0.5000E-01   0.000    
    8724   5.552      0.6364E-03 SPRIN         11  -0.0%   128.9      0.1250E-03   0.000       78.90       0.000      0.5000E-01   0.000    
    8725   5.553      0.6364E-03 SPRIN         11  -0.0%   128.6      0.1250E-03   0.000       78.62       0.000      0.5000E-01   0.000    
    8726   5.553      0.6364E-03 SPRIN         11  -0.0%   128.3      0.1250E-03   0.000       78.34       0.000      0.5000E-01   0.000    
    8727   5.554      0.6364E-03 SPRIN         11  -0.0%   128.1      0.1250E-03   0.000       78.06       0.000      0.5000E-01   0.000    
    8728   5.554      0.6364E-03 SPRIN         11  -0.0%   127.8      0.1250E-03   0.000       77.79       0.000      0.5000E-01   0.000    
    8729   5.555      0.6364E-03 SPRIN         11  -0.0%   127.5      0.1250E-03   0.000       77.51       0.000      0.5000E-01   0.000    
    8730   5.556      0.6364E-03 SPRIN         11  -0.0%   127.2      0.1250E-03   0.000       77.23       0.000      0.5000E-01   0.000    
    8731   5.556      0.6364E-03 SPRIN         11  -0.0%   127.0      0.1250E-03   0.000       76.95       0.000      0.5000E-01   0.000    
    8732   5.557      0.6364E-03 SPRIN         11  -0.0%   126.7      0.1250E-03   0.000       76.67       0.000      0.5000E-01   0.000    
    8733   5.558      0.6364E-03 SPRIN         11  -0.0%   126.4      0.1250E-03   0.000       76.40       0.000      0.5000E-01   0.000    
    8734   5.558      0.6364E-03 SPRIN         11  -0.0%   126.1      0.1250E-03   0.000       76.12       0.000      0.5000E-01   0.000    
    8735   5.559      0.6364E-03 SPRIN         11  -0.0%   125.8      0.1250E-03   0.000       75.85       0.000      0.5000E-01   0.000    
    8736   5.560      0.6364E-03 SPRIN         11  -0.0%   125.6      0.1250E-03   0.000       75.57       0.000      0.5000E-01   0.000    
    8737   5.560      0.6364E-03 SPRIN         11  -0.0%   125.3      0.1250E-03   0.000       75.29       0.000      0.5000E-01   0.000    
    8738   5.561      0.6364E-03 SPRIN         11  -0.0%   125.0      0.1250E-03   0.000       75.02       0.000      0.5000E-01   0.000    
    8739   5.561      0.6364E-03 SPRIN         11  -0.0%   124.7      0.1250E-03   0.000       74.75       0.000      0.5000E-01   0.000    
    8740   5.562      0.6364E-03 SPRIN         11  -0.0%   124.5      0.1250E-03   0.000       74.47       0.000      0.5000E-01   0.000    
    8741   5.563      0.6364E-03 SPRIN         11  -0.0%   124.2      0.1250E-03   0.000       74.20       0.000      0.5000E-01   0.000    
    8742   5.563      0.6364E-03 SPRIN         11  -0.0%   123.9      0.1250E-03   0.000       73.92       0.000      0.5000E-01   0.000    
    8743   5.564      0.6364E-03 SPRIN         11  -0.0%   123.7      0.1250E-03   0.000       73.65       0.000      0.5000E-01   0.000    
    8744   5.565      0.6364E-03 SPRIN         11  -0.0%   123.4      0.1250E-03   0.000       73.38       0.000      0.5000E-01   0.000    
   CYCLE    TIME      TIME-STEP  ELEMENT          ERROR  I-ENERGY    K-ENERGY T  K-ENERGY R  EXT-WORK     MAS.ERR     TOTAL MASS  MASS ADDED
    8745   5.565      0.6364E-03 SPRIN         11  -0.0%   123.1      0.1250E-03   0.000       73.11       0.000      0.5000E-01   0.000    
    8746   5.566      0.6364E-03 SPRIN         11  -0.0%   122.8      0.1250E-03   0.000       72.84       0.000      0.5000E-01   0.000    
    8747   5.567      0.6364E-03 SPRIN         11  -0.0%   122.6      0.1250E-03   0.000       72.57       0.000      0.5000E-01   0.000    
    8748   5.567      0.6364E-03 SPRIN         11  -0.0%   122.3      0.1250E-03   0.000       72.29       0.000      0.5000E-01   0.000    
    8749   5.568      0.6364E-03 SPRIN         11  -0.0%   122.0      0.1250E-03   0.000       72.02       0.000      0.5000E-01   0.000    
    8750   5.568      0.6364E-03 SPRIN         11  -0.0%   121.8      0.1250E-03   0.000       71.75       0.000      0.5000E-01   0.000    
    8751   5.569      0.6364E-03 SPRIN         11  -0.0%   121.5      0.1250E-03   0.000       71.49       0.000      0.5000E-01   0.000    
    8752   5.570      0.6364E-03 SPRIN         11  -0.0%   121.2      0.1250E-03   0.000       71.22       0.000      0.5000E-01   0.000    
    8753   5.570      0.6364E-03 SPRIN         11  -0.0%   120.9      0.1250E-03   0.000       70.95       0.000      0.5000E-01   0.000    
    8754   5.571      0.6364E-03 SPRIN         11  -0.0%   120.7      0.1250E-03   0.000       70.68       0.000      0.5000E-01   0.000    
    8755   5.572      0.6364E-03 SPRIN         11  -0.0%   120.4      0.1250E-03   0.000       70.41       0.000      0.5000E-01   0.000    
    8756   5.572      0.6364E-03 SPRIN         11  -0.0%   120.1      0.1250E-03   0.000       70.14       0.000      0.5000E-01   0.000    
    8757   5.573      0.6364E-03 SPRIN         11  -0.0%   119.9      0.1250E-03   0.000       69.88       0.000      0.5000E-01   0.000    
    8758   5.574      0.6364E-03 SPRIN         11  -0.0%   119.6      0.1250E-03   0.000       69.61       0.000      0.5000E-01   0.000    
    8759   5.574      0.6364E-03 SPRIN         11  -0.0%   119.3      0.1250E-03   0.000       69.34       0.000      0.5000E-01   0.000    
    8760   5.575      0.6364E-03 SPRIN         11  -0.0%   119.1      0.1250E-03   0.000       69.08       0.000      0.5000E-01   0.000    
    8761   5.575      0.6364E-03 SPRIN         11  -0.0%   118.8      0.1250E-03   0.000       68.81       0.000      0.5000E-01   0.000    
    8762   5.576      0.6364E-03 SPRIN         11  -0.0%   118.5      0.1250E-03   0.000       68.55       0.000      0.5000E-01   0.000    
    8763   5.577      0.6364E-03 SPRIN         11  -0.0%   118.3      0.1250E-03   0.000       68.28       0.000      0.5000E-01   0.000    
    8764   5.577      0.6364E-03 SPRIN         11  -0.0%   118.0      0.1250E-03   0.000       68.02       0.000      0.5000E-01   0.000    
    8765   5.578      0.6364E-03 SPRIN         11  -0.0%   117.8      0.1250E-03   0.000       67.76       0.000      0.5000E-01   0.000    
    8766   5.579      0.6364E-03 SPRIN         11  -0.0%   117.5      0.1250E-03   0.000       67.49       0.000      0.5000E-01   0.000    
    8767   5.579      0.6364E-03 SPRIN         11  -0.0%   117.2      0.1250E-03   0.000       67.23       0.000      0.5000E-01   0.000    
    8768   5.580      0.6364E-03 SPRIN         11  -0.0%   117.0      0.1250E-03   0.000       66.97       0.000      0.5000E-01   0.000    
    8769   5.581      0.6364E-03 SPRIN         11  -0.0%   116.7      0.1250E-03   0.000       66.70       0.000      0.5000E-01   0.000    
    8770   5.581      0.6364E-03 SPRIN         11  -0.0%   116.4      0.1250E-03   0.000       66.44       0.000      0.5000E-01   0.000    
    8771   5.582      0.6364E-03 SPRIN         11  -0.0%   116.2      0.1250E-03   0.000       66.18       0.000      0.5000E-01   0.000    
    8772   5.582      0.6364E-03 SPRIN         11  -0.0%   115.9      0.1250E-03   0.000       65.92       0.000      0.5000E-01   0.000    
    8773   5.583      0.6364E-03 SPRIN         11  -0.0%   115.7      0.1250E-03   0.000       65.66       0.000      0.5000E-01   0.000    
    8774   5.584      0.6364E-03 SPRIN         11  -0.0%   115.4      0.1250E-03   0.000       65.40       0.000      0.5000E-01   0.000    
    8775   5.584      0.6364E-03 SPRIN         11  -0.0%   115.1      0.1250E-03   0.000       65.14       0.000      0.5000E-01   0.000    
    8776   5.585      0.6364E-03 SPRIN         11  -0.0%   114.9      0.1250E-03   0.000       64.88       0.000      0.5000E-01   0.000    
    8777   5.586      0.6364E-03 SPRIN         11  -0.0%   114.6      0.1250E-03   0.000       64.62       0.000      0.5000E-01   0.000    
    8778   5.586      0.6364E-03 SPRIN         11  -0.0%   114.4      0.1250E-03   0.000       64.36       0.000      0.5000E-01   0.000    
    8779   5.587      0.6364E-03 SPRIN         11  -0.0%   114.1      0.1250E-03   0.000       64.10       0.000      0.5000E-01   0.000    
    8780   5.588      0.6364E-03 SPRIN         11  -0.0%   113.8      0.1250E-03   0.000       63.85       0.000      0.5000E-01   0.000    
    8781   5.588      0.6364E-03 SPRIN         11  -0.0%   113.6      0.1250E-03   0.000       63.59       0.000      0.5000E-01   0.000    
    8782   5.589      0.6364E-03 SPRIN         11  -0.0%   113.3      0.1250E-03   0.000       63.33       0.000      0.5000E-01   0.000    
    8783   5.589      0.6364E-03 SPRIN         11  -0.0%   113.1      0.1250E-03   0.000       63.08       0.000      0.5000E-01   0.000    
    8784   5.590      0.6364E-03 SPRIN         11  -0.0%   112.8      0.1250E-03   0.000       62.82       0.000      0.5000E-01   0.000    
    8785   5.591      0.6364E-03 SPRIN         11  -0.0%   112.6      0.1250E-03   0.000       62.56       0.000      0.5000E-01   0.000    
    8786   5.591      0.6364E-03 SPRIN         11  -0.0%   112.3      0.1250E-03   0.000       62.31       0.000      0.5000E-01   0.000    
    8787   5.592      0.6364E-03 SPRIN         11  -0.0%   112.1      0.1250E-03   0.000       62.05       0.000      0.5000E-01   0.000    
    8788   5.593      0.6364E-03 SPRIN         11  -0.0%   111.8      0.1250E-03   0.000       61.80       0.000      0.5000E-01   0.000    
    8789   5.593      0.6364E-03 SPRIN         11  -0.0%   111.5      0.1250E-03   0.000       61.55       0.000      0.5000E-01   0.000    
    8790   5.594      0.6364E-03 SPRIN         11  -0.0%   111.3      0.1250E-03   0.000       61.29       0.000      0.5000E-01   0.000    
    8791   5.595      0.6364E-03 SPRIN         11  -0.0%   111.0      0.1250E-03   0.000       61.04       0.000      0.5000E-01   0.000    
    8792   5.595      0.6364E-03 SPRIN         11  -0.0%   110.8      0.1250E-03   0.000       60.79       0.000      0.5000E-01   0.000    
    8793   5.596      0.6364E-03 SPRIN         11  -0.0%   110.5      0.1250E-03   0.000       60.53       0.000      0.5000E-01   0.000    
    8794   5.596      0.6364E-03 SPRIN         11  -0.0%   110.3      0.1250E-03   0.000       60.28       0.000      0.5000E-01   0.000    
    8795   5.597      0.6364E-03 SPRIN         11  -0.0%   110.0      0.1250E-03   0.000       60.03       0.000      0.5000E-01   0.000    
    8796   5.598      0.6364E-03 SPRIN         11  -0.0%   109.8      0.1250E-03   0.000       59.78       0.000      0.5000E-01   0.000    
    8797   5.598      0.6364E-03 SPRIN         11  -0.0%   109.5      0.1250E-03   0.000       59.53       0.000      0.5000E-01   0.000    
    8798   5.599      0.6364E-03 SPRIN         11  -0.0%   109.3      0.1250E-03   0.000       59.28       0.000      0.5000E-01   0.000    
    8799   5.600      0.6364E-03 SPRIN         11  -0.0%   109.0      0.1250E-03   0.000       59.03       0.000      0.5000E-01   0.000    
   CYCLE    TIME      TIME-STEP  ELEMENT          ERROR  I-ENERGY    K-ENERGY T  K-ENERGY R  EXT-WORK     MAS.ERR     TOTAL MASS  MASS ADDED
    8800   5.600      0.6364E-03 SPRIN         11  -0.0%   108.8      0.1250E-03   0.000       58.78       0.000      0.5000E-01   0.000    
     ANIMATION FILE: SPR_PRE_2FLAGA029 WRITTEN
    8801   5.601      0.6364E-03 SPRIN         11  -0.0%   108.5      0.1250E-03   0.000       58.53       0.000      0.5000E-01   0.000    
    8802   5.602      0.6364E-03 SPRIN         11  -0.0%   108.3      0.1250E-03   0.000       58.28       0.000      0.5000E-01   0.000    
    8803   5.602      0.6364E-03 SPRIN         11  -0.0%   108.0      0.1250E-03   0.000       58.03       0.000      0.5000E-01   0.000    
    8804   5.603      0.6364E-03 SPRIN         11  -0.0%   107.8      0.1250E-03   0.000       57.78       0.000      0.5000E-01   0.000    
    8805   5.603      0.6364E-03 SPRIN         11  -0.0%   107.5      0.1250E-03   0.000       57.54       0.000      0.5000E-01   0.000    
    8806   5.604      0.6364E-03 SPRIN         11  -0.0%   107.3      0.1250E-03   0.000       57.29       0.000      0.5000E-01   0.000    
    8807   5.605      0.6364E-03 SPRIN         11  -0.0%   107.0      0.1250E-03   0.000       57.04       0.000      0.5000E-01   0.000    
    8808   5.605      0.6364E-03 SPRIN         11  -0.0%   106.8      0.1250E-03   0.000       56.80       0.000      0.5000E-01   0.000    
    8809   5.606      0.6364E-03 SPRIN         11  -0.0%   106.5      0.1250E-03   0.000       56.55       0.000      0.5000E-01   0.000    
    8810   5.607      0.6364E-03 SPRIN         11  -0.0%   106.3      0.1250E-03   0.000       56.30       0.000      0.5000E-01   0.000    
    8811   5.607      0.6364E-03 SPRIN         11  -0.0%   106.1      0.1250E-03   0.000       56.06       0.000      0.5000E-01   0.000    
    8812   5.608      0.6364E-03 SPRIN         11  -0.0%   105.8      0.1250E-03   0.000       55.81       0.000      0.5000E-01   0.000    
    8813   5.609      0.6364E-03 SPRIN         11  -0.0%   105.6      0.1250E-03   0.000       55.57       0.000      0.5000E-01   0.000    
    8814   5.609      0.6364E-03 SPRIN         11  -0.0%   105.3      0.1250E-03   0.000       55.33       0.000      0.5000E-01   0.000    
    8815   5.610      0.6364E-03 SPRIN         11  -0.0%   105.1      0.1250E-03   0.000       55.08       0.000      0.5000E-01   0.000    
    8816   5.610      0.6364E-03 SPRIN         11  -0.0%   104.8      0.1250E-03   0.000       54.84       0.000      0.5000E-01   0.000    
    8817   5.611      0.6364E-03 SPRIN         11  -0.0%   104.6      0.1250E-03   0.000       54.60       0.000      0.5000E-01   0.000    
    8818   5.612      0.6364E-03 SPRIN         11  -0.0%   104.4      0.1250E-03   0.000       54.35       0.000      0.5000E-01   0.000    
    8819   5.612      0.6364E-03 SPRIN         11  -0.0%   104.1      0.1250E-03   0.000       54.11       0.000      0.5000E-01   0.000    
    8820   5.613      0.6364E-03 SPRIN         11  -0.0%   103.9      0.1250E-03   0.000       53.87       0.000      0.5000E-01   0.000    
    8821   5.614      0.6364E-03 SPRIN         11  -0.0%   103.6      0.1250E-03   0.000       53.63       0.000      0.5000E-01   0.000    
    8822   5.614      0.6364E-03 SPRIN         11  -0.0%   103.4      0.1250E-03   0.000       53.39       0.000      0.5000E-01   0.000    
    8823   5.615      0.6364E-03 SPRIN         11  -0.0%   103.1      0.1250E-03   0.000       53.15       0.000      0.5000E-01   0.000    
    8824   5.616      0.6364E-03 SPRIN         11  -0.0%   102.9      0.1250E-03   0.000       52.91       0.000      0.5000E-01   0.000    
    8825   5.616      0.6364E-03 SPRIN         11  -0.0%   102.7      0.1250E-03   0.000       52.67       0.000      0.5000E-01   0.000    
    8826   5.617      0.6364E-03 SPRIN         11  -0.0%   102.4      0.1250E-03   0.000       52.43       0.000      0.5000E-01   0.000    
    8827   5.617      0.6364E-03 SPRIN         11  -0.0%   102.2      0.1250E-03   0.000       52.19       0.000      0.5000E-01   0.000    
    8828   5.618      0.6364E-03 SPRIN         11  -0.0%   102.0      0.1250E-03   0.000       51.95       0.000      0.5000E-01   0.000    
    8829   5.619      0.6364E-03 SPRIN         11  -0.0%   101.7      0.1250E-03   0.000       51.71       0.000      0.5000E-01   0.000    
    8830   5.619      0.6364E-03 SPRIN         11  -0.0%   101.5      0.1250E-03   0.000       51.48       0.000      0.5000E-01   0.000    
    8831   5.620      0.6364E-03 SPRIN         11  -0.0%   101.2      0.1250E-03   0.000       51.24       0.000      0.5000E-01   0.000    
    8832   5.621      0.6364E-03 SPRIN         11  -0.0%   101.0      0.1250E-03   0.000       51.00       0.000      0.5000E-01   0.000    
    8833   5.621      0.6364E-03 SPRIN         11  -0.0%   100.8      0.1250E-03   0.000       50.77       0.000      0.5000E-01   0.000    
    8834   5.622      0.6364E-03 SPRIN         11  -0.0%   100.5      0.1250E-03   0.000       50.53       0.000      0.5000E-01   0.000    
    8835   5.623      0.6364E-03 SPRIN         11  -0.0%   100.3      0.1250E-03   0.000       50.30       0.000      0.5000E-01   0.000    
    8836   5.623      0.6364E-03 SPRIN         11  -0.0%   100.1      0.1250E-03   0.000       50.06       0.000      0.5000E-01   0.000    
    8837   5.624      0.6364E-03 SPRIN         11  -0.0%   99.83      0.1250E-03   0.000       49.83       0.000      0.5000E-01   0.000    
    8838   5.624      0.6364E-03 SPRIN         11  -0.0%   99.59      0.1250E-03   0.000       49.59       0.000      0.5000E-01   0.000    
    8839   5.625      0.6364E-03 SPRIN         11  -0.0%   99.36      0.1250E-03   0.000       49.36       0.000      0.5000E-01   0.000    
    8840   5.626      0.6364E-03 SPRIN         11  -0.0%   99.12      0.1250E-03   0.000       49.12       0.000      0.5000E-01   0.000    
    8841   5.626      0.6364E-03 SPRIN         11  -0.0%   98.89      0.1250E-03   0.000       48.89       0.000      0.5000E-01   0.000    
    8842   5.627      0.6364E-03 SPRIN         11  -0.0%   98.66      0.1250E-03   0.000       48.66       0.000      0.5000E-01   0.000    
    8843   5.628      0.6364E-03 SPRIN         11  -0.0%   98.43      0.1250E-03   0.000       48.43       0.000      0.5000E-01   0.000    
    8844   5.628      0.6364E-03 SPRIN         11  -0.0%   98.19      0.1250E-03   0.000       48.20       0.000      0.5000E-01   0.000    
    8845   5.629      0.6364E-03 SPRIN         11  -0.0%   97.96      0.1250E-03   0.000       47.96       0.000      0.5000E-01   0.000    
    8846   5.630      0.6364E-03 SPRIN         11  -0.0%   97.73      0.1250E-03   0.000       47.73       0.000      0.5000E-01   0.000    
    8847   5.630      0.6364E-03 SPRIN         11  -0.0%   97.50      0.1250E-03   0.000       47.50       0.000      0.5000E-01   0.000    
    8848   5.631      0.6364E-03 SPRIN         11  -0.0%   97.27      0.1250E-03   0.000       47.27       0.000      0.5000E-01   0.000    
    8849   5.631      0.6364E-03 SPRIN         11  -0.0%   97.04      0.1250E-03   0.000       47.04       0.000      0.5000E-01   0.000    
    8850   5.632      0.6364E-03 SPRIN         11  -0.0%   96.81      0.1250E-03   0.000       46.81       0.000      0.5000E-01   0.000    
    8851   5.633      0.6364E-03 SPRIN         11  -0.0%   96.58      0.1250E-03   0.000       46.58       0.000      0.5000E-01   0.000    
    8852   5.633      0.6364E-03 SPRIN         11  -0.0%   96.36      0.1250E-03   0.000       46.36       0.000      0.5000E-01   0.000    
    8853   5.634      0.6364E-03 SPRIN         11  -0.0%   96.13      0.1250E-03   0.000       46.13       0.000      0.5000E-01   0.000    
    8854   5.635      0.6364E-03 SPRIN         11  -0.0%   95.90      0.1250E-03   0.000       45.90       0.000      0.5000E-01   0.000    
   CYCLE    TIME      TIME-STEP  ELEMENT          ERROR  I-ENERGY    K-ENERGY T  K-ENERGY R  EXT-WORK     MAS.ERR     TOTAL MASS  MASS ADDED
    8855   5.635      0.6364E-03 SPRIN         11  -0.0%   95.67      0.1250E-03   0.000       45.67       0.000      0.5000E-01   0.000    
    8856   5.636      0.6364E-03 SPRIN         11  -0.0%   95.44      0.1250E-03   0.000       45.45       0.000      0.5000E-01   0.000    
    8857   5.637      0.6364E-03 SPRIN         11  -0.0%   95.22      0.1250E-03   0.000       45.22       0.000      0.5000E-01   0.000    
    8858   5.637      0.6364E-03 SPRIN         11  -0.0%   94.99      0.1250E-03   0.000       44.99       0.000      0.5000E-01   0.000    
    8859   5.638      0.6364E-03 SPRIN         11  -0.0%   94.77      0.1250E-03   0.000       44.77       0.000      0.5000E-01   0.000    
    8860   5.638      0.6364E-03 SPRIN         11  -0.0%   94.54      0.1250E-03   0.000       44.54       0.000      0.5000E-01   0.000    
    8861   5.639      0.6364E-03 SPRIN         11  -0.0%   94.32      0.1250E-03   0.000       44.32       0.000      0.5000E-01   0.000    
    8862   5.640      0.6364E-03 SPRIN         11  -0.0%   94.09      0.1250E-03   0.000       44.09       0.000      0.5000E-01   0.000    
    8863   5.640      0.6364E-03 SPRIN         11  -0.0%   93.87      0.1250E-03   0.000       43.87       0.000      0.5000E-01   0.000    
    8864   5.641      0.6364E-03 SPRIN         11  -0.0%   93.64      0.1250E-03   0.000       43.64       0.000      0.5000E-01   0.000    
    8865   5.642      0.6364E-03 SPRIN         11  -0.0%   93.42      0.1250E-03   0.000       43.42       0.000      0.5000E-01   0.000    
    8866   5.642      0.6364E-03 SPRIN         11  -0.0%   93.20      0.1250E-03   0.000       43.20       0.000      0.5000E-01   0.000    
    8867   5.643      0.6364E-03 SPRIN         11  -0.0%   92.98      0.1250E-03   0.000       42.98       0.000      0.5000E-01   0.000    
    8868   5.644      0.6364E-03 SPRIN         11  -0.0%   92.75      0.1250E-03   0.000       42.75       0.000      0.5000E-01   0.000    
    8869   5.644      0.6364E-03 SPRIN         11  -0.0%   92.53      0.1250E-03   0.000       42.53       0.000      0.5000E-01   0.000    
    8870   5.645      0.6364E-03 SPRIN         11  -0.0%   92.31      0.1250E-03   0.000       42.31       0.000      0.5000E-01   0.000    
    8871   5.645      0.6364E-03 SPRIN         11  -0.0%   92.09      0.1250E-03   0.000       42.09       0.000      0.5000E-01   0.000    
    8872   5.646      0.6364E-03 SPRIN         11  -0.0%   91.87      0.1250E-03   0.000       41.87       0.000      0.5000E-01   0.000    
    8873   5.647      0.6364E-03 SPRIN         11  -0.0%   91.65      0.1250E-03   0.000       41.65       0.000      0.5000E-01   0.000    
    8874   5.647      0.6364E-03 SPRIN         11  -0.0%   91.43      0.1250E-03   0.000       41.43       0.000      0.5000E-01   0.000    
    8875   5.648      0.6364E-03 SPRIN         11  -0.0%   91.21      0.1250E-03   0.000       41.21       0.000      0.5000E-01   0.000    
    8876   5.649      0.6364E-03 SPRIN         11  -0.0%   90.99      0.1250E-03   0.000       40.99       0.000      0.5000E-01   0.000    
    8877   5.649      0.6364E-03 SPRIN         11  -0.0%   90.77      0.1250E-03   0.000       40.77       0.000      0.5000E-01   0.000    
    8878   5.650      0.6364E-03 SPRIN         11  -0.0%   90.55      0.1250E-03   0.000       40.55       0.000      0.5000E-01   0.000    
    8879   5.651      0.6364E-03 SPRIN         11  -0.0%   90.34      0.1250E-03   0.000       40.34       0.000      0.5000E-01   0.000    
    8880   5.651      0.6364E-03 SPRIN         11  -0.0%   90.12      0.1250E-03   0.000       40.12       0.000      0.5000E-01   0.000    
    8881   5.652      0.6364E-03 SPRIN         11  -0.0%   89.90      0.1250E-03   0.000       39.90       0.000      0.5000E-01   0.000    
    8882   5.652      0.6364E-03 SPRIN         11  -0.0%   89.69      0.1250E-03   0.000       39.69       0.000      0.5000E-01   0.000    
    8883   5.653      0.6364E-03 SPRIN         11  -0.0%   89.47      0.1250E-03   0.000       39.47       0.000      0.5000E-01   0.000    
    8884   5.654      0.6364E-03 SPRIN         11  -0.0%   89.26      0.1250E-03   0.000       39.26       0.000      0.5000E-01   0.000    
    8885   5.654      0.6364E-03 SPRIN         11  -0.0%   89.04      0.1250E-03   0.000       39.04       0.000      0.5000E-01   0.000    
    8886   5.655      0.6364E-03 SPRIN         11  -0.0%   88.83      0.1250E-03   0.000       38.83       0.000      0.5000E-01   0.000    
    8887   5.656      0.6364E-03 SPRIN         11  -0.0%   88.61      0.1250E-03   0.000       38.61       0.000      0.5000E-01   0.000    
    8888   5.656      0.6364E-03 SPRIN         11  -0.0%   88.40      0.1250E-03   0.000       38.40       0.000      0.5000E-01   0.000    
    8889   5.657      0.6364E-03 SPRIN         11  -0.0%   88.18      0.1250E-03   0.000       38.18       0.000      0.5000E-01   0.000    
    8890   5.658      0.6364E-03 SPRIN         11  -0.0%   87.97      0.1250E-03   0.000       37.97       0.000      0.5000E-01   0.000    
    8891   5.658      0.6364E-03 SPRIN         11  -0.0%   87.76      0.1250E-03   0.000       37.76       0.000      0.5000E-01   0.000    
    8892   5.659      0.6364E-03 SPRIN         11  -0.0%   87.54      0.1250E-03   0.000       37.54       0.000      0.5000E-01   0.000    
    8893   5.659      0.6364E-03 SPRIN         11  -0.0%   87.33      0.1250E-03   0.000       37.33       0.000      0.5000E-01   0.000    
    8894   5.660      0.6364E-03 SPRIN         11  -0.0%   87.12      0.1250E-03   0.000       37.12       0.000      0.5000E-01   0.000    
    8895   5.661      0.6364E-03 SPRIN         11  -0.0%   86.91      0.1250E-03   0.000       36.91       0.000      0.5000E-01   0.000    
    8896   5.661      0.6364E-03 SPRIN         11  -0.0%   86.70      0.1250E-03   0.000       36.70       0.000      0.5000E-01   0.000    
    8897   5.662      0.6364E-03 SPRIN         11  -0.0%   86.49      0.1250E-03   0.000       36.49       0.000      0.5000E-01   0.000    
    8898   5.663      0.6364E-03 SPRIN         11  -0.0%   86.28      0.1250E-03   0.000       36.28       0.000      0.5000E-01   0.000    
    8899   5.663      0.6364E-03 SPRIN         11  -0.0%   86.07      0.1250E-03   0.000       36.07       0.000      0.5000E-01   0.000    
    8900   5.664      0.6364E-03 SPRIN         11  -0.0%   85.86      0.1250E-03   0.000       35.86       0.000      0.5000E-01   0.000    
    8901   5.665      0.6364E-03 SPRIN         11  -0.0%   85.65      0.1250E-03   0.000       35.65       0.000      0.5000E-01   0.000    
    8902   5.665      0.6364E-03 SPRIN         11  -0.0%   85.44      0.1250E-03   0.000       35.44       0.000      0.5000E-01   0.000    
    8903   5.666      0.6364E-03 SPRIN         11  -0.0%   85.24      0.1250E-03   0.000       35.24       0.000      0.5000E-01   0.000    
    8904   5.666      0.6364E-03 SPRIN         11  -0.0%   85.03      0.1250E-03   0.000       35.03       0.000      0.5000E-01   0.000    
    8905   5.667      0.6364E-03 SPRIN         11  -0.0%   84.82      0.1250E-03   0.000       34.82       0.000      0.5000E-01   0.000    
    8906   5.668      0.6364E-03 SPRIN         11  -0.0%   84.61      0.1250E-03   0.000       34.61       0.000      0.5000E-01   0.000    
    8907   5.668      0.6364E-03 SPRIN         11  -0.0%   84.41      0.1250E-03   0.000       34.41       0.000      0.5000E-01   0.000    
    8908   5.669      0.6364E-03 SPRIN         11  -0.0%   84.20      0.1250E-03   0.000       34.20       0.000      0.5000E-01   0.000    
    8909   5.670      0.6364E-03 SPRIN         11  -0.0%   84.00      0.1250E-03   0.000       34.00       0.000      0.5000E-01   0.000    
   CYCLE    TIME      TIME-STEP  ELEMENT          ERROR  I-ENERGY    K-ENERGY T  K-ENERGY R  EXT-WORK     MAS.ERR     TOTAL MASS  MASS ADDED
    8910   5.670      0.6364E-03 SPRIN         11  -0.0%   83.79      0.1250E-03   0.000       33.79       0.000      0.5000E-01   0.000    
    8911   5.671      0.6364E-03 SPRIN         11  -0.0%   83.59      0.1250E-03   0.000       33.59       0.000      0.5000E-01   0.000    
    8912   5.672      0.6364E-03 SPRIN         11  -0.0%   83.38      0.1250E-03   0.000       33.38       0.000      0.5000E-01   0.000    
    8913   5.672      0.6364E-03 SPRIN         11  -0.0%   83.18      0.1250E-03   0.000       33.18       0.000      0.5000E-01   0.000    
    8914   5.673      0.6364E-03 SPRIN         11  -0.0%   82.98      0.1250E-03   0.000       32.98       0.000      0.5000E-01   0.000    
    8915   5.673      0.6364E-03 SPRIN         11  -0.0%   82.77      0.1250E-03   0.000       32.77       0.000      0.5000E-01   0.000    
    8916   5.674      0.6364E-03 SPRIN         11  -0.0%   82.57      0.1250E-03   0.000       32.57       0.000      0.5000E-01   0.000    
    8917   5.675      0.6364E-03 SPRIN         11  -0.0%   82.37      0.1250E-03   0.000       32.37       0.000      0.5000E-01   0.000    
    8918   5.675      0.6364E-03 SPRIN         11  -0.0%   82.17      0.1250E-03   0.000       32.17       0.000      0.5000E-01   0.000    
    8919   5.676      0.6364E-03 SPRIN         11  -0.0%   81.96      0.1250E-03   0.000       31.96       0.000      0.5000E-01   0.000    
    8920   5.677      0.6364E-03 SPRIN         11  -0.0%   81.76      0.1250E-03   0.000       31.76       0.000      0.5000E-01   0.000    
    8921   5.677      0.6364E-03 SPRIN         11  -0.0%   81.56      0.1250E-03   0.000       31.56       0.000      0.5000E-01   0.000    
    8922   5.678      0.6364E-03 SPRIN         11  -0.0%   81.36      0.1250E-03   0.000       31.36       0.000      0.5000E-01   0.000    
    8923   5.679      0.6364E-03 SPRIN         11  -0.0%   81.16      0.1250E-03   0.000       31.16       0.000      0.5000E-01   0.000    
    8924   5.679      0.6364E-03 SPRIN         11  -0.0%   80.96      0.1250E-03   0.000       30.96       0.000      0.5000E-01   0.000    
    8925   5.680      0.6364E-03 SPRIN         11  -0.0%   80.76      0.1250E-03   0.000       30.76       0.000      0.5000E-01   0.000    
    8926   5.680      0.6364E-03 SPRIN         11  -0.0%   80.57      0.1250E-03   0.000       30.57       0.000      0.5000E-01   0.000    
    8927   5.681      0.6364E-03 SPRIN         11  -0.0%   80.37      0.1250E-03   0.000       30.37       0.000      0.5000E-01   0.000    
    8928   5.682      0.6364E-03 SPRIN         11  -0.0%   80.17      0.1250E-03   0.000       30.17       0.000      0.5000E-01   0.000    
    8929   5.682      0.6364E-03 SPRIN         11  -0.0%   79.97      0.1250E-03   0.000       29.97       0.000      0.5000E-01   0.000    
    8930   5.683      0.6364E-03 SPRIN         11  -0.0%   79.78      0.1250E-03   0.000       29.78       0.000      0.5000E-01   0.000    
    8931   5.684      0.6364E-03 SPRIN         11  -0.0%   79.58      0.1250E-03   0.000       29.58       0.000      0.5000E-01   0.000    
    8932   5.684      0.6364E-03 SPRIN         11  -0.0%   79.38      0.1250E-03   0.000       29.38       0.000      0.5000E-01   0.000    
    8933   5.685      0.6364E-03 SPRIN         11  -0.0%   79.19      0.1250E-03   0.000       29.19       0.000      0.5000E-01   0.000    
    8934   5.686      0.6364E-03 SPRIN         11  -0.0%   78.99      0.1250E-03   0.000       28.99       0.000      0.5000E-01   0.000    
    8935   5.686      0.6364E-03 SPRIN         11  -0.0%   78.80      0.1250E-03   0.000       28.80       0.000      0.5000E-01   0.000    
    8936   5.687      0.6364E-03 SPRIN         11  -0.0%   78.60      0.1250E-03   0.000       28.60       0.000      0.5000E-01   0.000    
    8937   5.687      0.6364E-03 SPRIN         11  -0.0%   78.41      0.1250E-03   0.000       28.41       0.000      0.5000E-01   0.000    
    8938   5.688      0.6364E-03 SPRIN         11  -0.0%   78.21      0.1250E-03   0.000       28.21       0.000      0.5000E-01   0.000    
    8939   5.689      0.6364E-03 SPRIN         11  -0.0%   78.02      0.1250E-03   0.000       28.02       0.000      0.5000E-01   0.000    
    8940   5.689      0.6364E-03 SPRIN         11  -0.0%   77.83      0.1250E-03   0.000       27.83       0.000      0.5000E-01   0.000    
    8941   5.690      0.6364E-03 SPRIN         11  -0.0%   77.64      0.1250E-03   0.000       27.64       0.000      0.5000E-01   0.000    
    8942   5.691      0.6364E-03 SPRIN         11  -0.0%   77.44      0.1250E-03   0.000       27.44       0.000      0.5000E-01   0.000    
    8943   5.691      0.6364E-03 SPRIN         11  -0.0%   77.25      0.1250E-03   0.000       27.25       0.000      0.5000E-01   0.000    
    8944   5.692      0.6364E-03 SPRIN         11  -0.0%   77.06      0.1250E-03   0.000       27.06       0.000      0.5000E-01   0.000    
    8945   5.693      0.6364E-03 SPRIN         11  -0.0%   76.87      0.1250E-03   0.000       26.87       0.000      0.5000E-01   0.000    
    8946   5.693      0.6364E-03 SPRIN         11  -0.0%   76.68      0.1250E-03   0.000       26.68       0.000      0.5000E-01   0.000    
    8947   5.694      0.6364E-03 SPRIN         11  -0.0%   76.49      0.1250E-03   0.000       26.49       0.000      0.5000E-01   0.000    
    8948   5.694      0.6364E-03 SPRIN         11  -0.0%   76.30      0.1250E-03   0.000       26.30       0.000      0.5000E-01   0.000    
    8949   5.695      0.6364E-03 SPRIN         11  -0.0%   76.11      0.1250E-03   0.000       26.11       0.000      0.5000E-01   0.000    
    8950   5.696      0.6364E-03 SPRIN         11  -0.0%   75.92      0.1250E-03   0.000       25.92       0.000      0.5000E-01   0.000    
    8951   5.696      0.6364E-03 SPRIN         11  -0.0%   75.73      0.1250E-03   0.000       25.73       0.000      0.5000E-01   0.000    
    8952   5.697      0.6364E-03 SPRIN         11  -0.0%   75.54      0.1250E-03   0.000       25.54       0.000      0.5000E-01   0.000    
    8953   5.698      0.6364E-03 SPRIN         11  -0.0%   75.36      0.1250E-03   0.000       25.36       0.000      0.5000E-01   0.000    
    8954   5.698      0.6364E-03 SPRIN         11  -0.0%   75.17      0.1250E-03   0.000       25.17       0.000      0.5000E-01   0.000    
    8955   5.699      0.6364E-03 SPRIN         11  -0.0%   74.98      0.1250E-03   0.000       24.98       0.000      0.5000E-01   0.000    
    8956   5.700      0.6364E-03 SPRIN         11  -0.0%   74.80      0.1250E-03   0.000       24.80       0.000      0.5000E-01   0.000    
    8957   5.700      0.6364E-03 SPRIN         11  -0.0%   74.61      0.1250E-03   0.000       24.61       0.000      0.5000E-01   0.000    
    8958   5.701      0.6364E-03 SPRIN         11  -0.0%   74.42      0.1250E-03   0.000       24.42       0.000      0.5000E-01   0.000    
    8959   5.701      0.6364E-03 SPRIN         11  -0.0%   74.24      0.1250E-03   0.000       24.24       0.000      0.5000E-01   0.000    
    8960   5.702      0.6364E-03 SPRIN         11  -0.0%   74.05      0.1250E-03   0.000       24.05       0.000      0.5000E-01   0.000    
    8961   5.703      0.6364E-03 SPRIN         11  -0.0%   73.87      0.1250E-03   0.000       23.87       0.000      0.5000E-01   0.000    
    8962   5.703      0.6364E-03 SPRIN         11  -0.0%   73.69      0.1250E-03   0.000       23.69       0.000      0.5000E-01   0.000    
    8963   5.704      0.6364E-03 SPRIN         11  -0.0%   73.50      0.1250E-03   0.000       23.50       0.000      0.5000E-01   0.000    
    8964   5.705      0.6364E-03 SPRIN         11  -0.0%   73.32      0.1250E-03   0.000       23.32       0.000      0.5000E-01   0.000    
   CYCLE    TIME      TIME-STEP  ELEMENT          ERROR  I-ENERGY    K-ENERGY T  K-ENERGY R  EXT-WORK     MAS.ERR     TOTAL MASS  MASS ADDED
    8965   5.705      0.6364E-03 SPRIN         11  -0.0%   73.14      0.1250E-03   0.000       23.14       0.000      0.5000E-01   0.000    
    8966   5.706      0.6364E-03 SPRIN         11  -0.0%   72.95      0.1250E-03   0.000       22.95       0.000      0.5000E-01   0.000    
    8967   5.707      0.6364E-03 SPRIN         11  -0.0%   72.77      0.1250E-03   0.000       22.77       0.000      0.5000E-01   0.000    
    8968   5.707      0.6364E-03 SPRIN         11  -0.0%   72.59      0.1250E-03   0.000       22.59       0.000      0.5000E-01   0.000    
    8969   5.708      0.6364E-03 SPRIN         11  -0.0%   72.41      0.1250E-03   0.000       22.41       0.000      0.5000E-01   0.000    
    8970   5.708      0.6364E-03 SPRIN         11  -0.0%   72.23      0.1250E-03   0.000       22.23       0.000      0.5000E-01   0.000    
    8971   5.709      0.6364E-03 SPRIN         11  -0.0%   72.05      0.1250E-03   0.000       22.05       0.000      0.5000E-01   0.000    
    8972   5.710      0.6364E-03 SPRIN         11  -0.0%   71.87      0.1250E-03   0.000       21.87       0.000      0.5000E-01   0.000    
    8973   5.710      0.6364E-03 SPRIN         11  -0.0%   71.69      0.1250E-03   0.000       21.69       0.000      0.5000E-01   0.000    
    8974   5.711      0.6364E-03 SPRIN         11  -0.0%   71.51      0.1250E-03   0.000       21.51       0.000      0.5000E-01   0.000    
    8975   5.712      0.6364E-03 SPRIN         11  -0.0%   71.33      0.1250E-03   0.000       21.33       0.000      0.5000E-01   0.000    
    8976   5.712      0.6364E-03 SPRIN         11  -0.0%   71.15      0.1250E-03   0.000       21.15       0.000      0.5000E-01   0.000    
    8977   5.713      0.6364E-03 SPRIN         11  -0.0%   70.97      0.1250E-03   0.000       20.97       0.000      0.5000E-01   0.000    
    8978   5.714      0.6364E-03 SPRIN         11  -0.0%   70.80      0.1250E-03   0.000       20.80       0.000      0.5000E-01   0.000    
    8979   5.714      0.6364E-03 SPRIN         11  -0.0%   70.62      0.1250E-03   0.000       20.62       0.000      0.5000E-01   0.000    
    8980   5.715      0.6364E-03 SPRIN         11  -0.0%   70.44      0.1250E-03   0.000       20.44       0.000      0.5000E-01   0.000    
    8981   5.715      0.6364E-03 SPRIN         11  -0.0%   70.27      0.1250E-03   0.000       20.27       0.000      0.5000E-01   0.000    
    8982   5.716      0.6364E-03 SPRIN         11  -0.0%   70.09      0.1250E-03   0.000       20.09       0.000      0.5000E-01   0.000    
    8983   5.717      0.6364E-03 SPRIN         11  -0.0%   69.92      0.1250E-03   0.000       19.92       0.000      0.5000E-01   0.000    
    8984   5.717      0.6364E-03 SPRIN         11  -0.0%   69.74      0.1250E-03   0.000       19.74       0.000      0.5000E-01   0.000    
    8985   5.718      0.6364E-03 SPRIN         11  -0.0%   69.57      0.1250E-03   0.000       19.57       0.000      0.5000E-01   0.000    
    8986   5.719      0.6364E-03 SPRIN         11  -0.0%   69.39      0.1250E-03   0.000       19.39       0.000      0.5000E-01   0.000    
    8987   5.719      0.6364E-03 SPRIN         11  -0.0%   69.22      0.1250E-03   0.000       19.22       0.000      0.5000E-01   0.000    
    8988   5.720      0.6364E-03 SPRIN         11  -0.0%   69.04      0.1250E-03   0.000       19.04       0.000      0.5000E-01   0.000    
    8989   5.721      0.6364E-03 SPRIN         11  -0.0%   68.87      0.1250E-03   0.000       18.87       0.000      0.5000E-01   0.000    
    8990   5.721      0.6364E-03 SPRIN         11  -0.0%   68.70      0.1250E-03   0.000       18.70       0.000      0.5000E-01   0.000    
    8991   5.722      0.6364E-03 SPRIN         11  -0.0%   68.53      0.1250E-03   0.000       18.53       0.000      0.5000E-01   0.000    
    8992   5.722      0.6364E-03 SPRIN         11  -0.0%   68.35      0.1250E-03   0.000       18.35       0.000      0.5000E-01   0.000    
    8993   5.723      0.6364E-03 SPRIN         11  -0.0%   68.18      0.1250E-03   0.000       18.18       0.000      0.5000E-01   0.000    
    8994   5.724      0.6364E-03 SPRIN         11  -0.0%   68.01      0.1250E-03   0.000       18.01       0.000      0.5000E-01   0.000    
    8995   5.724      0.6364E-03 SPRIN         11  -0.0%   67.84      0.1250E-03   0.000       17.84       0.000      0.5000E-01   0.000    
    8996   5.725      0.6364E-03 SPRIN         11  -0.0%   67.67      0.1250E-03   0.000       17.67       0.000      0.5000E-01   0.000    
    8997   5.726      0.6364E-03 SPRIN         11  -0.0%   67.50      0.1250E-03   0.000       17.50       0.000      0.5000E-01   0.000    
    8998   5.726      0.6364E-03 SPRIN         11  -0.0%   67.33      0.1250E-03   0.000       17.33       0.000      0.5000E-01   0.000    
    8999   5.727      0.6364E-03 SPRIN         11  -0.0%   67.16      0.1250E-03   0.000       17.16       0.000      0.5000E-01   0.000    
    9000   5.728      0.6364E-03 SPRIN         11  -0.0%   66.99      0.1250E-03   0.000       16.99       0.000      0.5000E-01   0.000    
    9001   5.728      0.6364E-03 SPRIN         11  -0.0%   66.83      0.1250E-03   0.000       16.83       0.000      0.5000E-01   0.000    
    9002   5.729      0.6364E-03 SPRIN         11  -0.0%   66.66      0.1250E-03   0.000       16.66       0.000      0.5000E-01   0.000    
    9003   5.729      0.6364E-03 SPRIN         11  -0.0%   66.49      0.1250E-03   0.000       16.49       0.000      0.5000E-01   0.000    
    9004   5.730      0.6364E-03 SPRIN         11  -0.0%   66.32      0.1250E-03   0.000       16.32       0.000      0.5000E-01   0.000    
    9005   5.731      0.6364E-03 SPRIN         11  -0.0%   66.16      0.1250E-03   0.000       16.16       0.000      0.5000E-01   0.000    
    9006   5.731      0.6364E-03 SPRIN         11  -0.0%   65.99      0.1250E-03   0.000       15.99       0.000      0.5000E-01   0.000    
    9007   5.732      0.6364E-03 SPRIN         11  -0.0%   65.82      0.1250E-03   0.000       15.82       0.000      0.5000E-01   0.000    
    9008   5.733      0.6364E-03 SPRIN         11  -0.0%   65.66      0.1250E-03   0.000       15.66       0.000      0.5000E-01   0.000    
    9009   5.733      0.6364E-03 SPRIN         11  -0.0%   65.49      0.1250E-03   0.000       15.49       0.000      0.5000E-01   0.000    
    9010   5.734      0.6364E-03 SPRIN         11  -0.0%   65.33      0.1250E-03   0.000       15.33       0.000      0.5000E-01   0.000    
    9011   5.735      0.6364E-03 SPRIN         11  -0.0%   65.17      0.1250E-03   0.000       15.17       0.000      0.5000E-01   0.000    
    9012   5.735      0.6364E-03 SPRIN         11  -0.0%   65.00      0.1250E-03   0.000       15.00       0.000      0.5000E-01   0.000    
    9013   5.736      0.6364E-03 SPRIN         11  -0.0%   64.84      0.1250E-03   0.000       14.84       0.000      0.5000E-01   0.000    
    9014   5.736      0.6364E-03 SPRIN         11  -0.0%   64.68      0.1250E-03   0.000       14.68       0.000      0.5000E-01   0.000    
    9015   5.737      0.6364E-03 SPRIN         11  -0.0%   64.51      0.1250E-03   0.000       14.51       0.000      0.5000E-01   0.000    
    9016   5.738      0.6364E-03 SPRIN         11  -0.0%   64.35      0.1250E-03   0.000       14.35       0.000      0.5000E-01   0.000    
    9017   5.738      0.6364E-03 SPRIN         11  -0.0%   64.19      0.1250E-03   0.000       14.19       0.000      0.5000E-01   0.000    
    9018   5.739      0.6364E-03 SPRIN         11  -0.0%   64.03      0.1250E-03   0.000       14.03       0.000      0.5000E-01   0.000    
    9019   5.740      0.6364E-03 SPRIN         11  -0.0%   63.87      0.1250E-03   0.000       13.87       0.000      0.5000E-01   0.000    
   CYCLE    TIME      TIME-STEP  ELEMENT          ERROR  I-ENERGY    K-ENERGY T  K-ENERGY R  EXT-WORK     MAS.ERR     TOTAL MASS  MASS ADDED
    9020   5.740      0.6364E-03 SPRIN         11  -0.0%   63.71      0.1250E-03   0.000       13.71       0.000      0.5000E-01   0.000    
    9021   5.741      0.6364E-03 SPRIN         11  -0.0%   63.55      0.1250E-03   0.000       13.55       0.000      0.5000E-01   0.000    
    9022   5.742      0.6364E-03 SPRIN         11  -0.0%   63.39      0.1250E-03   0.000       13.39       0.000      0.5000E-01   0.000    
    9023   5.742      0.6364E-03 SPRIN         11  -0.0%   63.23      0.1250E-03   0.000       13.23       0.000      0.5000E-01   0.000    
    9024   5.743      0.6364E-03 SPRIN         11  -0.0%   63.07      0.1250E-03   0.000       13.07       0.000      0.5000E-01   0.000    
    9025   5.743      0.6364E-03 SPRIN         11  -0.0%   62.91      0.1250E-03   0.000       12.91       0.000      0.5000E-01   0.000    
    9026   5.744      0.6364E-03 SPRIN         11  -0.0%   62.75      0.1250E-03   0.000       12.75       0.000      0.5000E-01   0.000    
    9027   5.745      0.6364E-03 SPRIN         11  -0.0%   62.59      0.1250E-03   0.000       12.59       0.000      0.5000E-01   0.000    
    9028   5.745      0.6364E-03 SPRIN         11  -0.0%   62.44      0.1250E-03   0.000       12.44       0.000      0.5000E-01   0.000    
    9029   5.746      0.6364E-03 SPRIN         11  -0.0%   62.28      0.1250E-03   0.000       12.28       0.000      0.5000E-01   0.000    
    9030   5.747      0.6364E-03 SPRIN         11  -0.0%   62.12      0.1250E-03   0.000       12.12       0.000      0.5000E-01   0.000    
    9031   5.747      0.6364E-03 SPRIN         11  -0.0%   61.97      0.1250E-03   0.000       11.97       0.000      0.5000E-01   0.000    
    9032   5.748      0.6364E-03 SPRIN         11  -0.0%   61.81      0.1250E-03   0.000       11.81       0.000      0.5000E-01   0.000    
    9033   5.749      0.6364E-03 SPRIN         11  -0.0%   61.66      0.1250E-03   0.000       11.66       0.000      0.5000E-01   0.000    
    9034   5.749      0.6364E-03 SPRIN         11  -0.0%   61.50      0.1250E-03   0.000       11.50       0.000      0.5000E-01   0.000    
    9035   5.750      0.6364E-03 SPRIN         11  -0.0%   61.35      0.1250E-03   0.000       11.35       0.000      0.5000E-01   0.000    
    9036   5.750      0.6364E-03 SPRIN         11  -0.0%   61.19      0.1250E-03   0.000       11.19       0.000      0.5000E-01   0.000    
    9037   5.751      0.6364E-03 SPRIN         11  -0.0%   61.04      0.1250E-03   0.000       11.04       0.000      0.5000E-01   0.000    
    9038   5.752      0.6364E-03 SPRIN         11  -0.0%   60.89      0.1250E-03   0.000       10.89       0.000      0.5000E-01   0.000    
    9039   5.752      0.6364E-03 SPRIN         11  -0.0%   60.73      0.1250E-03   0.000       10.73       0.000      0.5000E-01   0.000    
    9040   5.753      0.6364E-03 SPRIN         11  -0.0%   60.58      0.1250E-03   0.000       10.58       0.000      0.5000E-01   0.000    
    9041   5.754      0.6364E-03 SPRIN         11  -0.0%   60.43      0.1250E-03   0.000       10.43       0.000      0.5000E-01   0.000    
    9042   5.754      0.6364E-03 SPRIN         11  -0.0%   60.28      0.1250E-03   0.000       10.28       0.000      0.5000E-01   0.000    
    9043   5.755      0.6364E-03 SPRIN         11  -0.0%   60.13      0.1250E-03   0.000       10.13       0.000      0.5000E-01   0.000    
    9044   5.756      0.6364E-03 SPRIN         11  -0.0%   59.98      0.1250E-03   0.000       9.976       0.000      0.5000E-01   0.000    
    9045   5.756      0.6364E-03 SPRIN         11  -0.0%   59.83      0.1250E-03   0.000       9.825       0.000      0.5000E-01   0.000    
    9046   5.757      0.6364E-03 SPRIN         11  -0.0%   59.68      0.1250E-03   0.000       9.675       0.000      0.5000E-01   0.000    
    9047   5.757      0.6364E-03 SPRIN         11  -0.0%   59.53      0.1250E-03   0.000       9.526       0.000      0.5000E-01   0.000    
    9048   5.758      0.6364E-03 SPRIN         11  -0.0%   59.38      0.1250E-03   0.000       9.376       0.000      0.5000E-01   0.000    
    9049   5.759      0.6364E-03 SPRIN         11  -0.0%   59.23      0.1250E-03   0.000       9.228       0.000      0.5000E-01   0.000    
    9050   5.759      0.6364E-03 SPRIN         11  -0.0%   59.08      0.1250E-03   0.000       9.079       0.000      0.5000E-01   0.000    
    9051   5.760      0.6364E-03 SPRIN         11  -0.0%   58.93      0.1250E-03   0.000       8.931       0.000      0.5000E-01   0.000    
    9052   5.761      0.6364E-03 SPRIN         11  -0.0%   58.78      0.1250E-03   0.000       8.784       0.000      0.5000E-01   0.000    
    9053   5.761      0.6364E-03 SPRIN         11  -0.0%   58.64      0.1250E-03   0.000       8.637       0.000      0.5000E-01   0.000    
    9054   5.762      0.6364E-03 SPRIN         11  -0.0%   58.49      0.1250E-03   0.000       8.490       0.000      0.5000E-01   0.000    
    9055   5.763      0.6364E-03 SPRIN         11  -0.0%   58.34      0.1250E-03   0.000       8.344       0.000      0.5000E-01   0.000    
    9056   5.763      0.6364E-03 SPRIN         11  -0.0%   58.20      0.1250E-03   0.000       8.198       0.000      0.5000E-01   0.000    
    9057   5.764      0.6364E-03 SPRIN         11  -0.0%   58.05      0.1250E-03   0.000       8.052       0.000      0.5000E-01   0.000    
    9058   5.764      0.6364E-03 SPRIN         11  -0.0%   57.91      0.1250E-03   0.000       7.907       0.000      0.5000E-01   0.000    
    9059   5.765      0.6364E-03 SPRIN         11  -0.0%   57.76      0.1250E-03   0.000       7.762       0.000      0.5000E-01   0.000    
    9060   5.766      0.6364E-03 SPRIN         11  -0.0%   57.62      0.1250E-03   0.000       7.618       0.000      0.5000E-01   0.000    
    9061   5.766      0.6364E-03 SPRIN         11  -0.0%   57.47      0.1250E-03   0.000       7.474       0.000      0.5000E-01   0.000    
    9062   5.767      0.6364E-03 SPRIN         11  -0.0%   57.33      0.1250E-03   0.000       7.330       0.000      0.5000E-01   0.000    
    9063   5.768      0.6364E-03 SPRIN         11  -0.0%   57.19      0.1250E-03   0.000       7.187       0.000      0.5000E-01   0.000    
    9064   5.768      0.6364E-03 SPRIN         11  -0.0%   57.04      0.1250E-03   0.000       7.045       0.000      0.5000E-01   0.000    
    9065   5.769      0.6364E-03 SPRIN         11  -0.0%   56.90      0.1250E-03   0.000       6.902       0.000      0.5000E-01   0.000    
    9066   5.770      0.6364E-03 SPRIN         11  -0.0%   56.76      0.1250E-03   0.000       6.760       0.000      0.5000E-01   0.000    
    9067   5.770      0.6364E-03 SPRIN         11  -0.0%   56.62      0.1250E-03   0.000       6.619       0.000      0.5000E-01   0.000    
    9068   5.771      0.6364E-03 SPRIN         11  -0.0%   56.48      0.1250E-03   0.000       6.478       0.000      0.5000E-01   0.000    
    9069   5.771      0.6364E-03 SPRIN         11  -0.0%   56.34      0.1250E-03   0.000       6.337       0.000      0.5000E-01   0.000    
    9070   5.772      0.6364E-03 SPRIN         11  -0.0%   56.20      0.1250E-03   0.000       6.197       0.000      0.5000E-01   0.000    
    9071   5.773      0.6364E-03 SPRIN         11  -0.0%   56.06      0.1250E-03   0.000       6.057       0.000      0.5000E-01   0.000    
    9072   5.773      0.6364E-03 SPRIN         11  -0.0%   55.92      0.1250E-03   0.000       5.918       0.000      0.5000E-01   0.000    
    9073   5.774      0.6364E-03 SPRIN         11  -0.0%   55.78      0.1250E-03   0.000       5.779       0.000      0.5000E-01   0.000    
    9074   5.775      0.6364E-03 SPRIN         11  -0.0%   55.64      0.1250E-03   0.000       5.640       0.000      0.5000E-01   0.000    
   CYCLE    TIME      TIME-STEP  ELEMENT          ERROR  I-ENERGY    K-ENERGY T  K-ENERGY R  EXT-WORK     MAS.ERR     TOTAL MASS  MASS ADDED
    9075   5.775      0.6364E-03 SPRIN         11  -0.0%   55.50      0.1250E-03   0.000       5.502       0.000      0.5000E-01   0.000    
    9076   5.776      0.6364E-03 SPRIN         11  -0.0%   55.36      0.1250E-03   0.000       5.364       0.000      0.5000E-01   0.000    
    9077   5.777      0.6364E-03 SPRIN         11  -0.0%   55.23      0.1250E-03   0.000       5.226       0.000      0.5000E-01   0.000    
    9078   5.777      0.6364E-03 SPRIN         11  -0.0%   55.09      0.1250E-03   0.000       5.089       0.000      0.5000E-01   0.000    
    9079   5.778      0.6364E-03 SPRIN         11  -0.0%   54.95      0.1250E-03   0.000       4.953       0.000      0.5000E-01   0.000    
    9080   5.778      0.6364E-03 SPRIN         11  -0.0%   54.82      0.1250E-03   0.000       4.817       0.000      0.5000E-01   0.000    
    9081   5.779      0.6364E-03 SPRIN         11  -0.0%   54.68      0.1250E-03   0.000       4.681       0.000      0.5000E-01   0.000    
    9082   5.780      0.6364E-03 SPRIN         11  -0.0%   54.55      0.1250E-03   0.000       4.545       0.000      0.5000E-01   0.000    
    9083   5.780      0.6364E-03 SPRIN         11  -0.0%   54.41      0.1250E-03   0.000       4.410       0.000      0.5000E-01   0.000    
    9084   5.781      0.6364E-03 SPRIN         11  -0.0%   54.28      0.1250E-03   0.000       4.276       0.000      0.5000E-01   0.000    
    9085   5.782      0.6364E-03 SPRIN         11  -0.0%   54.14      0.1250E-03   0.000       4.142       0.000      0.5000E-01   0.000    
    9086   5.782      0.6364E-03 SPRIN         11  -0.0%   54.01      0.1250E-03   0.000       4.008       0.000      0.5000E-01   0.000    
    9087   5.783      0.6364E-03 SPRIN         11  -0.0%   53.87      0.1250E-03   0.000       3.874       0.000      0.5000E-01   0.000    
    9088   5.784      0.6364E-03 SPRIN         11  -0.0%   53.74      0.1250E-03   0.000       3.741       0.000      0.5000E-01   0.000    
    9089   5.784      0.6364E-03 SPRIN         11  -0.0%   53.61      0.1250E-03   0.000       3.609       0.000      0.5000E-01   0.000    
    9090   5.785      0.6364E-03 SPRIN         11  -0.0%   53.48      0.1250E-03   0.000       3.477       0.000      0.5000E-01   0.000    
    9091   5.785      0.6364E-03 SPRIN         11  -0.0%   53.34      0.1250E-03   0.000       3.345       0.000      0.5000E-01   0.000    
    9092   5.786      0.6364E-03 SPRIN         11  -0.0%   53.21      0.1250E-03   0.000       3.213       0.000      0.5000E-01   0.000    
    9093   5.787      0.6364E-03 SPRIN         11  -0.0%   53.08      0.1250E-03   0.000       3.083       0.000      0.5000E-01   0.000    
    9094   5.787      0.6364E-03 SPRIN         11  -0.0%   52.95      0.1250E-03   0.000       2.952       0.000      0.5000E-01   0.000    
    9095   5.788      0.6364E-03 SPRIN         11  -0.0%   52.82      0.1250E-03   0.000       2.822       0.000      0.5000E-01   0.000    
    9096   5.789      0.6364E-03 SPRIN         11  -0.0%   52.69      0.1250E-03   0.000       2.692       0.000      0.5000E-01   0.000    
    9097   5.789      0.6364E-03 SPRIN         11  -0.0%   52.56      0.1250E-03   0.000       2.563       0.000      0.5000E-01   0.000    
    9098   5.790      0.6364E-03 SPRIN         11  -0.0%   52.43      0.1250E-03   0.000       2.434       0.000      0.5000E-01   0.000    
    9099   5.791      0.6364E-03 SPRIN         11  -0.0%   52.31      0.1250E-03   0.000       2.305       0.000      0.5000E-01   0.000    
    9100   5.791      0.6364E-03 SPRIN         11  -0.0%   52.18      0.1250E-03   0.000       2.177       0.000      0.5000E-01   0.000    
    9101   5.792      0.6364E-03 SPRIN         11  -0.0%   52.05      0.1250E-03   0.000       2.049       0.000      0.5000E-01   0.000    
    9102   5.792      0.6364E-03 SPRIN         11  -0.0%   51.92      0.1250E-03   0.000       1.922       0.000      0.5000E-01   0.000    
    9103   5.793      0.6364E-03 SPRIN         11  -0.0%   51.80      0.1250E-03   0.000       1.795       0.000      0.5000E-01   0.000    
    9104   5.794      0.6364E-03 SPRIN         11  -0.0%   51.67      0.1250E-03   0.000       1.669       0.000      0.5000E-01   0.000    
    9105   5.794      0.6364E-03 SPRIN         11  -0.0%   51.54      0.1250E-03   0.000       1.543       0.000      0.5000E-01   0.000    
    9106   5.795      0.6364E-03 SPRIN         11  -0.0%   51.42      0.1250E-03   0.000       1.417       0.000      0.5000E-01   0.000    
    9107   5.796      0.6364E-03 SPRIN         11  -0.0%   51.29      0.1250E-03   0.000       1.292       0.000      0.5000E-01   0.000    
    9108   5.796      0.6364E-03 SPRIN         11  -0.0%   51.17      0.1250E-03   0.000       1.167       0.000      0.5000E-01   0.000    
    9109   5.797      0.6364E-03 SPRIN         11  -0.0%   51.04      0.1250E-03   0.000       1.042       0.000      0.5000E-01   0.000    
    9110   5.798      0.6364E-03 SPRIN         11  -0.0%   50.92      0.1250E-03   0.000      0.9183       0.000      0.5000E-01   0.000    
    9111   5.798      0.6364E-03 SPRIN         11  -0.0%   50.79      0.1250E-03   0.000      0.7946       0.000      0.5000E-01   0.000    
    9112   5.799      0.6364E-03 SPRIN         11  -0.0%   50.67      0.1250E-03   0.000      0.6713       0.000      0.5000E-01   0.000    
    9113   5.799      0.6364E-03 SPRIN         11  -0.0%   50.55      0.1250E-03   0.000      0.5485       0.000      0.5000E-01   0.000    
    9114   5.800      0.6364E-03 SPRIN         11  -0.0%   50.43      0.1250E-03   0.000      0.4260       0.000      0.5000E-01   0.000    
     ANIMATION FILE: SPR_PRE_2FLAGA030 WRITTEN
    9115   5.801      0.6364E-03 SPRIN         11  -0.0%   50.30      0.1250E-03   0.000      0.3040       0.000      0.5000E-01   0.000    
    9116   5.801      0.6364E-03 SPRIN         11  -0.0%   50.18      0.1250E-03   0.000      0.1824       0.000      0.5000E-01   0.000    
    9117   5.802      0.6364E-03 SPRIN         11  -0.0%   50.06      0.1250E-03   0.000      0.6112E-01   0.000      0.5000E-01   0.000    
    9118   5.803      0.6364E-03 SPRIN         11  -0.0%   49.94      0.1250E-03   0.000     -0.5971E-01   0.000      0.5000E-01   0.000    
    9119   5.803      0.6364E-03 SPRIN         11  -0.0%   49.82      0.1250E-03   0.000     -0.1801       0.000      0.5000E-01   0.000    
    9120   5.804      0.6364E-03 SPRIN         11  -0.0%   49.70      0.1250E-03   0.000     -0.3002       0.000      0.5000E-01   0.000    
    9121   5.805      0.6364E-03 SPRIN         11  -0.0%   49.58      0.1250E-03   0.000     -0.4198       0.000      0.5000E-01   0.000    
    9122   5.805      0.6364E-03 SPRIN         11  -0.0%   49.46      0.1250E-03   0.000     -0.5390       0.000      0.5000E-01   0.000    
    9123   5.806      0.6364E-03 SPRIN         11  -0.0%   49.34      0.1250E-03   0.000     -0.6578       0.000      0.5000E-01   0.000    
    9124   5.806      0.6364E-03 SPRIN         11  -0.0%   49.22      0.1250E-03   0.000     -0.7762       0.000      0.5000E-01   0.000    
    9125   5.807      0.6364E-03 SPRIN         11  -0.0%   49.11      0.1250E-03   0.000     -0.8942       0.000      0.5000E-01   0.000    
    9126   5.808      0.6364E-03 SPRIN         11  -0.0%   48.99      0.1250E-03   0.000      -1.012       0.000      0.5000E-01   0.000    
    9127   5.808      0.6364E-03 SPRIN         11  -0.0%   48.87      0.1250E-03   0.000      -1.129       0.000      0.5000E-01   0.000    
    9128   5.809      0.6364E-03 SPRIN         11  -0.0%   48.75      0.1250E-03   0.000      -1.246       0.000      0.5000E-01   0.000    
    9129   5.810      0.6364E-03 SPRIN         11  -0.0%   48.64      0.1250E-03   0.000      -1.362       0.000      0.5000E-01   0.000    
   CYCLE    TIME      TIME-STEP  ELEMENT          ERROR  I-ENERGY    K-ENERGY T  K-ENERGY R  EXT-WORK     MAS.ERR     TOTAL MASS  MASS ADDED
    9130   5.810      0.6364E-03 SPRIN         11  -0.0%   48.52      0.1250E-03   0.000      -1.478       0.000      0.5000E-01   0.000    
    9131   5.811      0.6364E-03 SPRIN         11  -0.0%   48.41      0.1250E-03   0.000      -1.594       0.000      0.5000E-01   0.000    
    9132   5.812      0.6364E-03 SPRIN         11  -0.0%   48.29      0.1250E-03   0.000      -1.709       0.000      0.5000E-01   0.000    
    9133   5.812      0.6364E-03 SPRIN         11  -0.0%   48.18      0.1250E-03   0.000      -1.824       0.000      0.5000E-01   0.000    
    9134   5.813      0.6364E-03 SPRIN         11  -0.0%   48.06      0.1250E-03   0.000      -1.938       0.000      0.5000E-01   0.000    
    9135   5.813      0.6364E-03 SPRIN         11  -0.0%   47.95      0.1250E-03   0.000      -2.052       0.000      0.5000E-01   0.000    
    9136   5.814      0.6364E-03 SPRIN         11  -0.0%   47.83      0.1250E-03   0.000      -2.165       0.000      0.5000E-01   0.000    
    9137   5.815      0.6364E-03 SPRIN         11  -0.0%   47.72      0.1250E-03   0.000      -2.279       0.000      0.5000E-01   0.000    
    9138   5.815      0.6364E-03 SPRIN         11  -0.0%   47.61      0.1250E-03   0.000      -2.391       0.000      0.5000E-01   0.000    
    9139   5.816      0.6364E-03 SPRIN         11  -0.0%   47.50      0.1250E-03   0.000      -2.504       0.000      0.5000E-01   0.000    
    9140   5.817      0.6364E-03 SPRIN         11  -0.0%   47.38      0.1250E-03   0.000      -2.615       0.000      0.5000E-01   0.000    
    9141   5.817      0.6364E-03 SPRIN         11  -0.0%   47.27      0.1250E-03   0.000      -2.727       0.000      0.5000E-01   0.000    
    9142   5.818      0.6364E-03 SPRIN         11  -0.0%   47.16      0.1250E-03   0.000      -2.838       0.000      0.5000E-01   0.000    
    9143   5.819      0.6364E-03 SPRIN         11  -0.0%   47.05      0.1250E-03   0.000      -2.949       0.000      0.5000E-01   0.000    
    9144   5.819      0.6364E-03 SPRIN         11  -0.0%   46.94      0.1250E-03   0.000      -3.059       0.000      0.5000E-01   0.000    
    9145   5.820      0.6364E-03 SPRIN         11  -0.0%   46.83      0.1250E-03   0.000      -3.169       0.000      0.5000E-01   0.000    
    9146   5.820      0.6364E-03 SPRIN         11  -0.0%   46.72      0.1250E-03   0.000      -3.279       0.000      0.5000E-01   0.000    
    9147   5.821      0.6364E-03 SPRIN         11  -0.0%   46.61      0.1250E-03   0.000      -3.388       0.000      0.5000E-01   0.000    
    9148   5.822      0.6364E-03 SPRIN         11  -0.0%   46.50      0.1250E-03   0.000      -3.496       0.000      0.5000E-01   0.000    
    9149   5.822      0.6364E-03 SPRIN         11  -0.0%   46.40      0.1250E-03   0.000      -3.605       0.000      0.5000E-01   0.000    
    9150   5.823      0.6364E-03 SPRIN         11  -0.0%   46.29      0.1250E-03   0.000      -3.712       0.000      0.5000E-01   0.000    
    9151   5.824      0.6364E-03 SPRIN         11  -0.0%   46.18      0.1250E-03   0.000      -3.820       0.000      0.5000E-01   0.000    
    9152   5.824      0.6364E-03 SPRIN         11  -0.0%   46.07      0.1250E-03   0.000      -3.927       0.000      0.5000E-01   0.000    
    9153   5.825      0.6364E-03 SPRIN         11  -0.0%   45.97      0.1250E-03   0.000      -4.034       0.000      0.5000E-01   0.000    
    9154   5.826      0.6364E-03 SPRIN         11  -0.0%   45.86      0.1250E-03   0.000      -4.140       0.000      0.5000E-01   0.000    
    9155   5.826      0.6364E-03 SPRIN         11  -0.0%   45.75      0.1250E-03   0.000      -4.246       0.000      0.5000E-01   0.000    
    9156   5.827      0.6364E-03 SPRIN         11  -0.0%   45.65      0.1250E-03   0.000      -4.351       0.000      0.5000E-01   0.000    
    9157   5.827      0.6364E-03 SPRIN         11  -0.0%   45.54      0.1250E-03   0.000      -4.456       0.000      0.5000E-01   0.000    
    9158   5.828      0.6364E-03 SPRIN         11  -0.0%   45.44      0.1250E-03   0.000      -4.561       0.000      0.5000E-01   0.000    
    9159   5.829      0.6364E-03 SPRIN         11  -0.0%   45.33      0.1250E-03   0.000      -4.665       0.000      0.5000E-01   0.000    
    9160   5.829      0.6364E-03 SPRIN         11  -0.0%   45.23      0.1250E-03   0.000      -4.769       0.000      0.5000E-01   0.000    
    9161   5.830      0.6364E-03 SPRIN         11  -0.0%   45.13      0.1250E-03   0.000      -4.872       0.000      0.5000E-01   0.000    
    9162   5.831      0.6364E-03 SPRIN         11  -0.0%   45.02      0.1250E-03   0.000      -4.975       0.000      0.5000E-01   0.000    
    9163   5.831      0.6364E-03 SPRIN         11  -0.0%   44.92      0.1250E-03   0.000      -5.078       0.000      0.5000E-01   0.000    
    9164   5.832      0.6364E-03 SPRIN         11  -0.0%   44.82      0.1250E-03   0.000      -5.180       0.000      0.5000E-01   0.000    
    9165   5.833      0.6364E-03 SPRIN         11  -0.0%   44.72      0.1250E-03   0.000      -5.282       0.000      0.5000E-01   0.000    
    9166   5.833      0.6364E-03 SPRIN         11  -0.0%   44.62      0.1250E-03   0.000      -5.383       0.000      0.5000E-01   0.000    
    9167   5.834      0.6364E-03 SPRIN         11  -0.0%   44.52      0.1250E-03   0.000      -5.484       0.000      0.5000E-01   0.000    
    9168   5.834      0.6364E-03 SPRIN         11  -0.0%   44.42      0.1250E-03   0.000      -5.585       0.000      0.5000E-01   0.000    
    9169   5.835      0.6364E-03 SPRIN         11  -0.0%   44.31      0.1250E-03   0.000      -5.685       0.000      0.5000E-01   0.000    
    9170   5.836      0.6364E-03 SPRIN         11  -0.0%   44.22      0.1250E-03   0.000      -5.785       0.000      0.5000E-01   0.000    
    9171   5.836      0.6364E-03 SPRIN         11  -0.0%   44.12      0.1250E-03   0.000      -5.884       0.000      0.5000E-01   0.000    
    9172   5.837      0.6364E-03 SPRIN         11  -0.0%   44.02      0.1250E-03   0.000      -5.983       0.000      0.5000E-01   0.000    
    9173   5.838      0.6364E-03 SPRIN         11  -0.0%   43.92      0.1250E-03   0.000      -6.082       0.000      0.5000E-01   0.000    
    9174   5.838      0.6364E-03 SPRIN         11  -0.0%   43.82      0.1250E-03   0.000      -6.180       0.000      0.5000E-01   0.000    
    9175   5.839      0.6364E-03 SPRIN         11  -0.0%   43.72      0.1250E-03   0.000      -6.278       0.000      0.5000E-01   0.000    
    9176   5.840      0.6364E-03 SPRIN         11  -0.0%   43.62      0.1250E-03   0.000      -6.375       0.000      0.5000E-01   0.000    
    9177   5.840      0.6364E-03 SPRIN         11  -0.0%   43.53      0.1250E-03   0.000      -6.472       0.000      0.5000E-01   0.000    
    9178   5.841      0.6364E-03 SPRIN         11  -0.0%   43.43      0.1250E-03   0.000      -6.568       0.000      0.5000E-01   0.000    
    9179   5.841      0.6364E-03 SPRIN         11  -0.0%   43.34      0.1250E-03   0.000      -6.664       0.000      0.5000E-01   0.000    
    9180   5.842      0.6364E-03 SPRIN         11  -0.0%   43.24      0.1250E-03   0.000      -6.760       0.000      0.5000E-01   0.000    
    9181   5.843      0.6364E-03 SPRIN         11  -0.0%   43.14      0.1250E-03   0.000      -6.856       0.000      0.5000E-01   0.000    
    9182   5.843      0.6364E-03 SPRIN         11  -0.0%   43.05      0.1250E-03   0.000      -6.950       0.000      0.5000E-01   0.000    
    9183   5.844      0.6364E-03 SPRIN         11  -0.0%   42.95      0.1250E-03   0.000      -7.045       0.000      0.5000E-01   0.000    
    9184   5.845      0.6364E-03 SPRIN         11  -0.0%   42.86      0.1250E-03   0.000      -7.139       0.000      0.5000E-01   0.000    
   CYCLE    TIME      TIME-STEP  ELEMENT          ERROR  I-ENERGY    K-ENERGY T  K-ENERGY R  EXT-WORK     MAS.ERR     TOTAL MASS  MASS ADDED
    9185   5.845      0.6364E-03 SPRIN         11  -0.0%   42.77      0.1250E-03   0.000      -7.233       0.000      0.5000E-01   0.000    
    9186   5.846      0.6364E-03 SPRIN         11  -0.0%   42.67      0.1250E-03   0.000      -7.326       0.000      0.5000E-01   0.000    
    9187   5.847      0.6364E-03 SPRIN         11  -0.0%   42.58      0.1250E-03   0.000      -7.419       0.000      0.5000E-01   0.000    
    9188   5.847      0.6364E-03 SPRIN         11  -0.0%   42.49      0.1250E-03   0.000      -7.511       0.000      0.5000E-01   0.000    
    9189   5.848      0.6364E-03 SPRIN         11  -0.0%   42.40      0.1250E-03   0.000      -7.603       0.000      0.5000E-01   0.000    
    9190   5.848      0.6364E-03 SPRIN         11  -0.0%   42.30      0.1250E-03   0.000      -7.695       0.000      0.5000E-01   0.000    
    9191   5.849      0.6364E-03 SPRIN         11  -0.0%   42.21      0.1250E-03   0.000      -7.786       0.000      0.5000E-01   0.000    
    9192   5.850      0.6364E-03 SPRIN         11  -0.0%   42.12      0.1250E-03   0.000      -7.877       0.000      0.5000E-01   0.000    
    9193   5.850      0.6364E-03 SPRIN         11  -0.0%   42.03      0.1250E-03   0.000      -7.968       0.000      0.5000E-01   0.000    
    9194   5.851      0.6364E-03 SPRIN         11  -0.0%   41.94      0.1250E-03   0.000      -8.058       0.000      0.5000E-01   0.000    
    9195   5.852      0.6364E-03 SPRIN         11  -0.0%   41.85      0.1250E-03   0.000      -8.147       0.000      0.5000E-01   0.000    
    9196   5.852      0.6364E-03 SPRIN         11  -0.0%   41.76      0.1250E-03   0.000      -8.237       0.000      0.5000E-01   0.000    
    9197   5.853      0.6364E-03 SPRIN         11  -0.0%   41.67      0.1250E-03   0.000      -8.325       0.000      0.5000E-01   0.000    
    9198   5.854      0.6364E-03 SPRIN         11  -0.0%   41.59      0.1250E-03   0.000      -8.414       0.000      0.5000E-01   0.000    
    9199   5.854      0.6364E-03 SPRIN         11  -0.0%   41.50      0.1250E-03   0.000      -8.502       0.000      0.5000E-01   0.000    
    9200   5.855      0.6364E-03 SPRIN         11  -0.0%   41.41      0.1250E-03   0.000      -8.590       0.000      0.5000E-01   0.000    
    9201   5.855      0.6364E-03 SPRIN         11  -0.0%   41.32      0.1250E-03   0.000      -8.677       0.000      0.5000E-01   0.000    
    9202   5.856      0.6364E-03 SPRIN         11  -0.0%   41.24      0.1250E-03   0.000      -8.764       0.000      0.5000E-01   0.000    
    9203   5.857      0.6364E-03 SPRIN         11  -0.0%   41.15      0.1250E-03   0.000      -8.850       0.000      0.5000E-01   0.000    
    9204   5.857      0.6364E-03 SPRIN         11  -0.0%   41.06      0.1250E-03   0.000      -8.936       0.000      0.5000E-01   0.000    
    9205   5.858      0.6364E-03 SPRIN         11  -0.0%   40.98      0.1250E-03   0.000      -9.022       0.000      0.5000E-01   0.000    
    9206   5.859      0.6364E-03 SPRIN         11  -0.0%   40.89      0.1250E-03   0.000      -9.107       0.000      0.5000E-01   0.000    
    9207   5.859      0.6364E-03 SPRIN         11  -0.0%   40.81      0.1250E-03   0.000      -9.192       0.000      0.5000E-01   0.000    
    9208   5.860      0.6364E-03 SPRIN         11  -0.0%   40.72      0.1250E-03   0.000      -9.276       0.000      0.5000E-01   0.000    
    9209   5.861      0.6364E-03 SPRIN         11  -0.0%   40.64      0.1250E-03   0.000      -9.360       0.000      0.5000E-01   0.000    
    9210   5.861      0.6364E-03 SPRIN         11  -0.0%   40.56      0.1250E-03   0.000      -9.443       0.000      0.5000E-01   0.000    
    9211   5.862      0.6364E-03 SPRIN         11  -0.0%   40.47      0.1250E-03   0.000      -9.527       0.000      0.5000E-01   0.000    
    9212   5.862      0.6364E-03 SPRIN         11  -0.0%   40.39      0.1250E-03   0.000      -9.609       0.000      0.5000E-01   0.000    
    9213   5.863      0.6364E-03 SPRIN         11  -0.0%   40.31      0.1250E-03   0.000      -9.692       0.000      0.5000E-01   0.000    
    9214   5.864      0.6364E-03 SPRIN         11  -0.0%   40.23      0.1250E-03   0.000      -9.774       0.000      0.5000E-01   0.000    
    9215   5.864      0.6364E-03 SPRIN         11  -0.0%   40.14      0.1250E-03   0.000      -9.855       0.000      0.5000E-01   0.000    
    9216   5.865      0.6364E-03 SPRIN         11  -0.0%   40.06      0.1250E-03   0.000      -9.936       0.000      0.5000E-01   0.000    
    9217   5.866      0.6364E-03 SPRIN         11  -0.0%   39.98      0.1250E-03   0.000      -10.02       0.000      0.5000E-01   0.000    
    9218   5.866      0.6364E-03 SPRIN         11  -0.0%   39.90      0.1250E-03   0.000      -10.10       0.000      0.5000E-01   0.000    
    9219   5.867      0.6364E-03 SPRIN         11  -0.0%   39.82      0.1250E-03   0.000      -10.18       0.000      0.5000E-01   0.000    
    9220   5.868      0.6364E-03 SPRIN         11  -0.0%   39.74      0.1250E-03   0.000      -10.26       0.000      0.5000E-01   0.000    
    9221   5.868      0.6364E-03 SPRIN         11  -0.0%   39.66      0.1250E-03   0.000      -10.34       0.000      0.5000E-01   0.000    
    9222   5.869      0.6364E-03 SPRIN         11  -0.0%   39.59      0.1250E-03   0.000      -10.41       0.000      0.5000E-01   0.000    
    9223   5.869      0.6364E-03 SPRIN         11  -0.0%   39.51      0.1250E-03   0.000      -10.49       0.000      0.5000E-01   0.000    
    9224   5.870      0.6364E-03 SPRIN         11  -0.0%   39.43      0.1250E-03   0.000      -10.57       0.000      0.5000E-01   0.000    
    9225   5.871      0.6364E-03 SPRIN         11  -0.0%   39.35      0.1250E-03   0.000      -10.65       0.000      0.5000E-01   0.000    
    9226   5.871      0.6364E-03 SPRIN         11  -0.0%   39.27      0.1250E-03   0.000      -10.73       0.000      0.5000E-01   0.000    
    9227   5.872      0.6364E-03 SPRIN         11  -0.0%   39.20      0.1250E-03   0.000      -10.80       0.000      0.5000E-01   0.000    
    9228   5.873      0.6364E-03 SPRIN         11  -0.0%   39.12      0.1250E-03   0.000      -10.88       0.000      0.5000E-01   0.000    
    9229   5.873      0.6364E-03 SPRIN         11  -0.0%   39.05      0.1250E-03   0.000      -10.95       0.000      0.5000E-01   0.000    
    9230   5.874      0.6364E-03 SPRIN         11  -0.0%   38.97      0.1250E-03   0.000      -11.03       0.000      0.5000E-01   0.000    
    9231   5.875      0.6364E-03 SPRIN         11  -0.0%   38.89      0.1250E-03   0.000      -11.10       0.000      0.5000E-01   0.000    
    9232   5.875      0.6364E-03 SPRIN         11  -0.0%   38.82      0.1250E-03   0.000      -11.18       0.000      0.5000E-01   0.000    
    9233   5.876      0.6364E-03 SPRIN         11  -0.0%   38.75      0.1250E-03   0.000      -11.25       0.000      0.5000E-01   0.000    
    9234   5.876      0.6364E-03 SPRIN         11  -0.0%   38.67      0.1250E-03   0.000      -11.33       0.000      0.5000E-01   0.000    
    9235   5.877      0.6364E-03 SPRIN         11  -0.0%   38.60      0.1250E-03   0.000      -11.40       0.000      0.5000E-01   0.000    
    9236   5.878      0.6364E-03 SPRIN         11  -0.0%   38.53      0.1250E-03   0.000      -11.47       0.000      0.5000E-01   0.000    
    9237   5.878      0.6364E-03 SPRIN         11  -0.0%   38.45      0.1250E-03   0.000      -11.55       0.000      0.5000E-01   0.000    
    9238   5.879      0.6364E-03 SPRIN         11  -0.0%   38.38      0.1250E-03   0.000      -11.62       0.000      0.5000E-01   0.000    
    9239   5.880      0.6364E-03 SPRIN         11  -0.0%   38.31      0.1250E-03   0.000      -11.69       0.000      0.5000E-01   0.000    
   CYCLE    TIME      TIME-STEP  ELEMENT          ERROR  I-ENERGY    K-ENERGY T  K-ENERGY R  EXT-WORK     MAS.ERR     TOTAL MASS  MASS ADDED
    9240   5.880      0.6364E-03 SPRIN         11  -0.0%   38.24      0.1250E-03   0.000      -11.76       0.000      0.5000E-01   0.000    
    9241   5.881      0.6364E-03 SPRIN         11  -0.0%   38.17      0.1250E-03   0.000      -11.83       0.000      0.5000E-01   0.000    
    9242   5.882      0.6364E-03 SPRIN         11  -0.0%   38.10      0.1250E-03   0.000      -11.90       0.000      0.5000E-01   0.000    
    9243   5.882      0.6364E-03 SPRIN         11  -0.0%   38.03      0.1250E-03   0.000      -11.97       0.000      0.5000E-01   0.000    
    9244   5.883      0.6364E-03 SPRIN         11  -0.0%   37.96      0.1250E-03   0.000      -12.04       0.000      0.5000E-01   0.000    
    9245   5.883      0.6364E-03 SPRIN         11  -0.0%   37.89      0.1250E-03   0.000      -12.11       0.000      0.5000E-01   0.000    
    9246   5.884      0.6364E-03 SPRIN         11  -0.0%   37.82      0.1250E-03   0.000      -12.18       0.000      0.5000E-01   0.000    
    9247   5.885      0.6364E-03 SPRIN         11  -0.0%   37.75      0.1250E-03   0.000      -12.25       0.000      0.5000E-01   0.000    
    9248   5.885      0.6364E-03 SPRIN         11  -0.0%   37.68      0.1250E-03   0.000      -12.32       0.000      0.5000E-01   0.000    
    9249   5.886      0.6364E-03 SPRIN         11  -0.0%   37.61      0.1250E-03   0.000      -12.39       0.000      0.5000E-01   0.000    
    9250   5.887      0.6364E-03 SPRIN         11  -0.0%   37.55      0.1250E-03   0.000      -12.45       0.000      0.5000E-01   0.000    
    9251   5.887      0.6364E-03 SPRIN         11  -0.0%   37.48      0.1250E-03   0.000      -12.52       0.000      0.5000E-01   0.000    
    9252   5.888      0.6364E-03 SPRIN         11  -0.0%   37.41      0.1250E-03   0.000      -12.59       0.000      0.5000E-01   0.000    
    9253   5.889      0.6364E-03 SPRIN         11  -0.0%   37.35      0.1250E-03   0.000      -12.65       0.000      0.5000E-01   0.000    
    9254   5.889      0.6364E-03 SPRIN         11  -0.0%   37.28      0.1250E-03   0.000      -12.72       0.000      0.5000E-01   0.000    
    9255   5.890      0.6364E-03 SPRIN         11  -0.0%   37.21      0.1250E-03   0.000      -12.78       0.000      0.5000E-01   0.000    
    9256   5.890      0.6364E-03 SPRIN         11  -0.0%   37.15      0.1250E-03   0.000      -12.85       0.000      0.5000E-01   0.000    
    9257   5.891      0.6364E-03 SPRIN         11  -0.0%   37.09      0.1250E-03   0.000      -12.91       0.000      0.5000E-01   0.000    
    9258   5.892      0.6364E-03 SPRIN         11  -0.0%   37.02      0.1250E-03   0.000      -12.98       0.000      0.5000E-01   0.000    
    9259   5.892      0.6364E-03 SPRIN         11  -0.0%   36.96      0.1250E-03   0.000      -13.04       0.000      0.5000E-01   0.000    
    9260   5.893      0.6364E-03 SPRIN         11  -0.0%   36.89      0.1250E-03   0.000      -13.11       0.000      0.5000E-01   0.000    
    9261   5.894      0.6364E-03 SPRIN         11  -0.0%   36.83      0.1250E-03   0.000      -13.17       0.000      0.5000E-01   0.000    
    9262   5.894      0.6364E-03 SPRIN         11  -0.0%   36.77      0.1250E-03   0.000      -13.23       0.000      0.5000E-01   0.000    
    9263   5.895      0.6364E-03 SPRIN         11  -0.0%   36.71      0.1250E-03   0.000      -13.29       0.000      0.5000E-01   0.000    
    9264   5.896      0.6364E-03 SPRIN         11  -0.0%   36.65      0.1250E-03   0.000      -13.35       0.000      0.5000E-01   0.000    
    9265   5.896      0.6364E-03 SPRIN         11  -0.0%   36.58      0.1250E-03   0.000      -13.42       0.000      0.5000E-01   0.000    
    9266   5.897      0.6364E-03 SPRIN         11  -0.0%   36.52      0.1250E-03   0.000      -13.48       0.000      0.5000E-01   0.000    
    9267   5.897      0.6364E-03 SPRIN         11  -0.0%   36.46      0.1250E-03   0.000      -13.54       0.000      0.5000E-01   0.000    
    9268   5.898      0.6364E-03 SPRIN         11  -0.0%   36.40      0.1250E-03   0.000      -13.60       0.000      0.5000E-01   0.000    
    9269   5.899      0.6364E-03 SPRIN         11  -0.0%   36.34      0.1250E-03   0.000      -13.66       0.000      0.5000E-01   0.000    
    9270   5.899      0.6364E-03 SPRIN         11  -0.0%   36.28      0.1250E-03   0.000      -13.72       0.000      0.5000E-01   0.000    
    9271   5.900      0.6364E-03 SPRIN         11  -0.0%   36.22      0.1250E-03   0.000      -13.78       0.000      0.5000E-01   0.000    
    9272   5.901      0.6364E-03 SPRIN         11  -0.0%   36.17      0.1250E-03   0.000      -13.83       0.000      0.5000E-01   0.000    
    9273   5.901      0.6364E-03 SPRIN         11  -0.0%   36.11      0.1250E-03   0.000      -13.89       0.000      0.5000E-01   0.000    
    9274   5.902      0.6364E-03 SPRIN         11  -0.0%   36.05      0.1250E-03   0.000      -13.95       0.000      0.5000E-01   0.000    
    9275   5.903      0.6364E-03 SPRIN         11  -0.0%   35.99      0.1250E-03   0.000      -14.01       0.000      0.5000E-01   0.000    
    9276   5.903      0.6364E-03 SPRIN         11  -0.0%   35.94      0.1250E-03   0.000      -14.06       0.000      0.5000E-01   0.000    
    9277   5.904      0.6364E-03 SPRIN         11  -0.0%   35.88      0.1250E-03   0.000      -14.12       0.000      0.5000E-01   0.000    
    9278   5.904      0.6364E-03 SPRIN         11  -0.0%   35.82      0.1250E-03   0.000      -14.18       0.000      0.5000E-01   0.000    
    9279   5.905      0.6364E-03 SPRIN         11  -0.0%   35.77      0.1250E-03   0.000      -14.23       0.000      0.5000E-01   0.000    
    9280   5.906      0.6364E-03 SPRIN         11  -0.0%   35.71      0.1250E-03   0.000      -14.29       0.000      0.5000E-01   0.000    
    9281   5.906      0.6364E-03 SPRIN         11  -0.0%   35.66      0.1250E-03   0.000      -14.34       0.000      0.5000E-01   0.000    
    9282   5.907      0.6364E-03 SPRIN         11  -0.0%   35.60      0.1250E-03   0.000      -14.40       0.000      0.5000E-01   0.000    
    9283   5.908      0.6364E-03 SPRIN         11  -0.0%   35.55      0.1250E-03   0.000      -14.45       0.000      0.5000E-01   0.000    
    9284   5.908      0.6364E-03 SPRIN         11  -0.0%   35.50      0.1250E-03   0.000      -14.50       0.000      0.5000E-01   0.000    
    9285   5.909      0.6364E-03 SPRIN         11  -0.0%   35.44      0.1250E-03   0.000      -14.56       0.000      0.5000E-01   0.000    
    9286   5.910      0.6364E-03 SPRIN         11  -0.0%   35.39      0.1250E-03   0.000      -14.61       0.000      0.5000E-01   0.000    
    9287   5.910      0.6364E-03 SPRIN         11  -0.0%   35.34      0.1250E-03   0.000      -14.66       0.000      0.5000E-01   0.000    
    9288   5.911      0.6364E-03 SPRIN         11  -0.0%   35.29      0.1250E-03   0.000      -14.71       0.000      0.5000E-01   0.000    
    9289   5.911      0.6364E-03 SPRIN         11  -0.0%   35.23      0.1250E-03   0.000      -14.77       0.000      0.5000E-01   0.000    
    9290   5.912      0.6364E-03 SPRIN         11  -0.0%   35.18      0.1250E-03   0.000      -14.82       0.000      0.5000E-01   0.000    
    9291   5.913      0.6364E-03 SPRIN         11  -0.0%   35.13      0.1250E-03   0.000      -14.87       0.000      0.5000E-01   0.000    
    9292   5.913      0.6364E-03 SPRIN         11  -0.0%   35.08      0.1250E-03   0.000      -14.92       0.000      0.5000E-01   0.000    
    9293   5.914      0.6364E-03 SPRIN         11  -0.0%   35.03      0.1250E-03   0.000      -14.97       0.000      0.5000E-01   0.000    
    9294   5.915      0.6364E-03 SPRIN         11  -0.0%   34.98      0.1250E-03   0.000      -15.02       0.000      0.5000E-01   0.000    
   CYCLE    TIME      TIME-STEP  ELEMENT          ERROR  I-ENERGY    K-ENERGY T  K-ENERGY R  EXT-WORK     MAS.ERR     TOTAL MASS  MASS ADDED
    9295   5.915      0.6364E-03 SPRIN         11  -0.0%   34.93      0.1250E-03   0.000      -15.07       0.000      0.5000E-01   0.000    
    9296   5.916      0.6364E-03 SPRIN         11  -0.0%   34.88      0.1250E-03   0.000      -15.12       0.000      0.5000E-01   0.000    
    9297   5.917      0.6364E-03 SPRIN         11  -0.0%   34.84      0.1250E-03   0.000      -15.16       0.000      0.5000E-01   0.000    
    9298   5.917      0.6364E-03 SPRIN         11  -0.0%   34.79      0.1250E-03   0.000      -15.21       0.000      0.5000E-01   0.000    
    9299   5.918      0.6364E-03 SPRIN         11  -0.0%   34.74      0.1250E-03   0.000      -15.26       0.000      0.5000E-01   0.000    
    9300   5.918      0.6364E-03 SPRIN         11  -0.0%   34.69      0.1250E-03   0.000      -15.31       0.000      0.5000E-01   0.000    
    9301   5.919      0.6364E-03 SPRIN         11  -0.0%   34.65      0.1250E-03   0.000      -15.35       0.000      0.5000E-01   0.000    
    9302   5.920      0.6364E-03 SPRIN         11  -0.0%   34.60      0.1250E-03   0.000      -15.40       0.000      0.5000E-01   0.000    
    9303   5.920      0.6364E-03 SPRIN         11  -0.0%   34.55      0.1250E-03   0.000      -15.45       0.000      0.5000E-01   0.000    
    9304   5.921      0.6364E-03 SPRIN         11  -0.0%   34.51      0.1250E-03   0.000      -15.49       0.000      0.5000E-01   0.000    
    9305   5.922      0.6364E-03 SPRIN         11  -0.0%   34.46      0.1250E-03   0.000      -15.54       0.000      0.5000E-01   0.000    
    9306   5.922      0.6364E-03 SPRIN         11  -0.0%   34.42      0.1250E-03   0.000      -15.58       0.000      0.5000E-01   0.000    
    9307   5.923      0.6364E-03 SPRIN         11  -0.0%   34.38      0.1250E-03   0.000      -15.62       0.000      0.5000E-01   0.000    
    9308   5.924      0.6364E-03 SPRIN         11  -0.0%   34.33      0.1250E-03   0.000      -15.67       0.000      0.5000E-01   0.000    
    9309   5.924      0.6364E-03 SPRIN         11  -0.0%   34.29      0.1250E-03   0.000      -15.71       0.000      0.5000E-01   0.000    
    9310   5.925      0.6364E-03 SPRIN         11  -0.0%   34.24      0.1250E-03   0.000      -15.76       0.000      0.5000E-01   0.000    
    9311   5.925      0.6364E-03 SPRIN         11  -0.0%   34.20      0.1250E-03   0.000      -15.80       0.000      0.5000E-01   0.000    
    9312   5.926      0.6364E-03 SPRIN         11  -0.0%   34.16      0.1250E-03   0.000      -15.84       0.000      0.5000E-01   0.000    
    9313   5.927      0.6364E-03 SPRIN         11  -0.0%   34.12      0.1250E-03   0.000      -15.88       0.000      0.5000E-01   0.000    
    9314   5.927      0.6364E-03 SPRIN         11  -0.0%   34.08      0.1250E-03   0.000      -15.92       0.000      0.5000E-01   0.000    
    9315   5.928      0.6364E-03 SPRIN         11  -0.0%   34.04      0.1250E-03   0.000      -15.96       0.000      0.5000E-01   0.000    
    9316   5.929      0.6364E-03 SPRIN         11  -0.0%   33.99      0.1250E-03   0.000      -16.01       0.000      0.5000E-01   0.000    
    9317   5.929      0.6364E-03 SPRIN         11  -0.0%   33.95      0.1250E-03   0.000      -16.05       0.000      0.5000E-01   0.000    
    9318   5.930      0.6364E-03 SPRIN         11  -0.0%   33.91      0.1250E-03   0.000      -16.09       0.000      0.5000E-01   0.000    
    9319   5.931      0.6364E-03 SPRIN         11  -0.0%   33.88      0.1250E-03   0.000      -16.12       0.000      0.5000E-01   0.000    
    9320   5.931      0.6364E-03 SPRIN         11  -0.0%   33.84      0.1250E-03   0.000      -16.16       0.000      0.5000E-01   0.000    
    9321   5.932      0.6364E-03 SPRIN         11  -0.0%   33.80      0.1250E-03   0.000      -16.20       0.000      0.5000E-01   0.000    
    9322   5.932      0.6364E-03 SPRIN         11  -0.0%   33.76      0.1250E-03   0.000      -16.24       0.000      0.5000E-01   0.000    
    9323   5.933      0.6364E-03 SPRIN         11  -0.0%   33.72      0.1250E-03   0.000      -16.28       0.000      0.5000E-01   0.000    
    9324   5.934      0.6364E-03 SPRIN         11  -0.0%   33.68      0.1250E-03   0.000      -16.32       0.000      0.5000E-01   0.000    
    9325   5.934      0.6364E-03 SPRIN         11  -0.0%   33.65      0.1250E-03   0.000      -16.35       0.000      0.5000E-01   0.000    
    9326   5.935      0.6364E-03 SPRIN         11  -0.0%   33.61      0.1250E-03   0.000      -16.39       0.000      0.5000E-01   0.000    
    9327   5.936      0.6364E-03 SPRIN         11  -0.0%   33.57      0.1250E-03   0.000      -16.43       0.000      0.5000E-01   0.000    
    9328   5.936      0.6364E-03 SPRIN         11  -0.0%   33.54      0.1250E-03   0.000      -16.46       0.000      0.5000E-01   0.000    
    9329   5.937      0.6364E-03 SPRIN         11  -0.0%   33.50      0.1250E-03   0.000      -16.50       0.000      0.5000E-01   0.000    
    9330   5.938      0.6364E-03 SPRIN         11  -0.0%   33.47      0.1250E-03   0.000      -16.53       0.000      0.5000E-01   0.000    
    9331   5.938      0.6364E-03 SPRIN         11  -0.0%   33.43      0.1250E-03   0.000      -16.57       0.000      0.5000E-01   0.000    
    9332   5.939      0.6364E-03 SPRIN         11  -0.0%   33.40      0.1250E-03   0.000      -16.60       0.000      0.5000E-01   0.000    
    9333   5.939      0.6364E-03 SPRIN         11  -0.0%   33.37      0.1250E-03   0.000      -16.63       0.000      0.5000E-01   0.000    
    9334   5.940      0.6364E-03 SPRIN         11  -0.0%   33.33      0.1250E-03   0.000      -16.67       0.000      0.5000E-01   0.000    
    9335   5.941      0.6364E-03 SPRIN         11  -0.0%   33.30      0.1250E-03   0.000      -16.70       0.000      0.5000E-01   0.000    
    9336   5.941      0.6364E-03 SPRIN         11  -0.0%   33.27      0.1250E-03   0.000      -16.73       0.000      0.5000E-01   0.000    
    9337   5.942      0.6364E-03 SPRIN         11  -0.0%   33.23      0.1250E-03   0.000      -16.76       0.000      0.5000E-01   0.000    
    9338   5.943      0.6364E-03 SPRIN         11  -0.0%   33.20      0.1250E-03   0.000      -16.80       0.000      0.5000E-01   0.000    
    9339   5.943      0.6364E-03 SPRIN         11  -0.0%   33.17      0.1250E-03   0.000      -16.83       0.000      0.5000E-01   0.000    
    9340   5.944      0.6364E-03 SPRIN         11  -0.0%   33.14      0.1250E-03   0.000      -16.86       0.000      0.5000E-01   0.000    
    9341   5.945      0.6364E-03 SPRIN         11  -0.0%   33.11      0.1250E-03   0.000      -16.89       0.000      0.5000E-01   0.000    
    9342   5.945      0.6364E-03 SPRIN         11  -0.0%   33.08      0.1250E-03   0.000      -16.92       0.000      0.5000E-01   0.000    
    9343   5.946      0.6364E-03 SPRIN         11  -0.0%   33.05      0.1250E-03   0.000      -16.95       0.000      0.5000E-01   0.000    
    9344   5.946      0.6364E-03 SPRIN         11  -0.0%   33.02      0.1250E-03   0.000      -16.98       0.000      0.5000E-01   0.000    
    9345   5.947      0.6364E-03 SPRIN         11  -0.0%   32.99      0.1250E-03   0.000      -17.01       0.000      0.5000E-01   0.000    
    9346   5.948      0.6364E-03 SPRIN         11  -0.0%   32.96      0.1250E-03   0.000      -17.04       0.000      0.5000E-01   0.000    
    9347   5.948      0.6364E-03 SPRIN         11  -0.0%   32.94      0.1250E-03   0.000      -17.06       0.000      0.5000E-01   0.000    
    9348   5.949      0.6364E-03 SPRIN         11  -0.0%   32.91      0.1250E-03   0.000      -17.09       0.000      0.5000E-01   0.000    
    9349   5.950      0.6364E-03 SPRIN         11  -0.0%   32.88      0.1250E-03   0.000      -17.12       0.000      0.5000E-01   0.000    
   CYCLE    TIME      TIME-STEP  ELEMENT          ERROR  I-ENERGY    K-ENERGY T  K-ENERGY R  EXT-WORK     MAS.ERR     TOTAL MASS  MASS ADDED
    9350   5.950      0.6364E-03 SPRIN         11  -0.0%   32.85      0.1250E-03   0.000      -17.15       0.000      0.5000E-01   0.000    
    9351   5.951      0.6364E-03 SPRIN         11  -0.0%   32.83      0.1250E-03   0.000      -17.17       0.000      0.5000E-01   0.000    
    9352   5.952      0.6364E-03 SPRIN         11  -0.0%   32.80      0.1250E-03   0.000      -17.20       0.000      0.5000E-01   0.000    
    9353   5.952      0.6364E-03 SPRIN         11  -0.0%   32.78      0.1250E-03   0.000      -17.22       0.000      0.5000E-01   0.000    
    9354   5.953      0.6364E-03 SPRIN         11  -0.0%   32.75      0.1250E-03   0.000      -17.25       0.000      0.5000E-01   0.000    
    9355   5.953      0.6364E-03 SPRIN         11  -0.0%   32.73      0.1250E-03   0.000      -17.27       0.000      0.5000E-01   0.000    
    9356   5.954      0.6364E-03 SPRIN         11  -0.0%   32.70      0.1250E-03   0.000      -17.30       0.000      0.5000E-01   0.000    
    9357   5.955      0.6364E-03 SPRIN         11  -0.0%   32.68      0.1250E-03   0.000      -17.32       0.000      0.5000E-01   0.000    
    9358   5.955      0.6364E-03 SPRIN         11  -0.0%   32.65      0.1250E-03   0.000      -17.35       0.000      0.5000E-01   0.000    
    9359   5.956      0.6364E-03 SPRIN         11  -0.0%   32.63      0.1250E-03   0.000      -17.37       0.000      0.5000E-01   0.000    
    9360   5.957      0.6364E-03 SPRIN         11  -0.0%   32.61      0.1250E-03   0.000      -17.39       0.000      0.5000E-01   0.000    
    9361   5.957      0.6364E-03 SPRIN         11  -0.0%   32.59      0.1250E-03   0.000      -17.41       0.000      0.5000E-01   0.000    
    9362   5.958      0.6364E-03 SPRIN         11  -0.0%   32.56      0.1250E-03   0.000      -17.44       0.000      0.5000E-01   0.000    
    9363   5.959      0.6364E-03 SPRIN         11  -0.0%   32.54      0.1250E-03   0.000      -17.46       0.000      0.5000E-01   0.000    
    9364   5.959      0.6364E-03 SPRIN         11  -0.0%   32.52      0.1250E-03   0.000      -17.48       0.000      0.5000E-01   0.000    
    9365   5.960      0.6364E-03 SPRIN         11  -0.0%   32.50      0.1250E-03   0.000      -17.50       0.000      0.5000E-01   0.000    
    9366   5.960      0.6364E-03 SPRIN         11  -0.0%   32.48      0.1250E-03   0.000      -17.52       0.000      0.5000E-01   0.000    
    9367   5.961      0.6364E-03 SPRIN         11  -0.0%   32.46      0.1250E-03   0.000      -17.54       0.000      0.5000E-01   0.000    
    9368   5.962      0.6364E-03 SPRIN         11  -0.0%   32.44      0.1250E-03   0.000      -17.56       0.000      0.5000E-01   0.000    
    9369   5.962      0.6364E-03 SPRIN         11  -0.0%   32.42      0.1250E-03   0.000      -17.58       0.000      0.5000E-01   0.000    
    9370   5.963      0.6364E-03 SPRIN         11  -0.0%   32.40      0.1250E-03   0.000      -17.60       0.000      0.5000E-01   0.000    
    9371   5.964      0.6364E-03 SPRIN         11  -0.0%   32.38      0.1250E-03   0.000      -17.62       0.000      0.5000E-01   0.000    
    9372   5.964      0.6364E-03 SPRIN         11  -0.0%   32.37      0.1250E-03   0.000      -17.63       0.000      0.5000E-01   0.000    
    9373   5.965      0.6364E-03 SPRIN         11  -0.0%   32.35      0.1250E-03   0.000      -17.65       0.000      0.5000E-01   0.000    
    9374   5.966      0.6364E-03 SPRIN         11  -0.0%   32.33      0.1250E-03   0.000      -17.67       0.000      0.5000E-01   0.000    
    9375   5.966      0.6364E-03 SPRIN         11  -0.0%   32.31      0.1250E-03   0.000      -17.69       0.000      0.5000E-01   0.000    
    9376   5.967      0.6364E-03 SPRIN         11  -0.0%   32.30      0.1250E-03   0.000      -17.70       0.000      0.5000E-01   0.000    
    9377   5.967      0.6364E-03 SPRIN         11  -0.0%   32.28      0.1250E-03   0.000      -17.72       0.000      0.5000E-01   0.000    
    9378   5.968      0.6364E-03 SPRIN         11  -0.0%   32.27      0.1250E-03   0.000      -17.73       0.000      0.5000E-01   0.000    
    9379   5.969      0.6364E-03 SPRIN         11  -0.0%   32.25      0.1250E-03   0.000      -17.75       0.000      0.5000E-01   0.000    
    9380   5.969      0.6364E-03 SPRIN         11  -0.0%   32.24      0.1250E-03   0.000      -17.76       0.000      0.5000E-01   0.000    
    9381   5.970      0.6364E-03 SPRIN         11  -0.0%   32.22      0.1250E-03   0.000      -17.78       0.000      0.5000E-01   0.000    
    9382   5.971      0.6364E-03 SPRIN         11  -0.0%   32.21      0.1250E-03   0.000      -17.79       0.000      0.5000E-01   0.000    
    9383   5.971      0.6364E-03 SPRIN         11  -0.0%   32.19      0.1250E-03   0.000      -17.81       0.000      0.5000E-01   0.000    
    9384   5.972      0.6364E-03 SPRIN         11  -0.0%   32.18      0.1250E-03   0.000      -17.82       0.000      0.5000E-01   0.000    
    9385   5.973      0.6364E-03 SPRIN         11  -0.0%   32.17      0.1250E-03   0.000      -17.83       0.000      0.5000E-01   0.000    
    9386   5.973      0.6364E-03 SPRIN         11  -0.0%   32.16      0.1250E-03   0.000      -17.84       0.000      0.5000E-01   0.000    
    9387   5.974      0.6364E-03 SPRIN         11  -0.0%   32.14      0.1250E-03   0.000      -17.86       0.000      0.5000E-01   0.000    
    9388   5.974      0.6364E-03 SPRIN         11  -0.0%   32.13      0.1250E-03   0.000      -17.87       0.000      0.5000E-01   0.000    
    9389   5.975      0.6364E-03 SPRIN         11  -0.0%   32.12      0.1250E-03   0.000      -17.88       0.000      0.5000E-01   0.000    
    9390   5.976      0.6364E-03 SPRIN         11  -0.0%   32.11      0.1250E-03   0.000      -17.89       0.000      0.5000E-01   0.000    
    9391   5.976      0.6364E-03 SPRIN         11  -0.0%   32.10      0.1250E-03   0.000      -17.90       0.000      0.5000E-01   0.000    
    9392   5.977      0.6364E-03 SPRIN         11  -0.0%   32.09      0.1250E-03   0.000      -17.91       0.000      0.5000E-01   0.000    
    9393   5.978      0.6364E-03 SPRIN         11  -0.0%   32.08      0.1250E-03   0.000      -17.92       0.000      0.5000E-01   0.000    
    9394   5.978      0.6364E-03 SPRIN         11  -0.0%   32.07      0.1250E-03   0.000      -17.93       0.000      0.5000E-01   0.000    
    9395   5.979      0.6364E-03 SPRIN         11  -0.0%   32.06      0.1250E-03   0.000      -17.94       0.000      0.5000E-01   0.000    
    9396   5.980      0.6364E-03 SPRIN         11  -0.0%   32.06      0.1250E-03   0.000      -17.94       0.000      0.5000E-01   0.000    
    9397   5.980      0.6364E-03 SPRIN         11  -0.0%   32.05      0.1250E-03   0.000      -17.95       0.000      0.5000E-01   0.000    
    9398   5.981      0.6364E-03 SPRIN         11  -0.0%   32.04      0.1250E-03   0.000      -17.96       0.000      0.5000E-01   0.000    
    9399   5.981      0.6364E-03 SPRIN         11  -0.0%   32.03      0.1250E-03   0.000      -17.97       0.000      0.5000E-01   0.000    
    9400   5.982      0.6364E-03 SPRIN         11  -0.0%   32.03      0.1250E-03   0.000      -17.97       0.000      0.5000E-01   0.000    
    9401   5.983      0.6364E-03 SPRIN         11  -0.0%   32.02      0.1250E-03   0.000      -17.98       0.000      0.5000E-01   0.000    
    9402   5.983      0.6364E-03 SPRIN         11  -0.0%   32.01      0.1250E-03   0.000      -17.99       0.000      0.5000E-01   0.000    
    9403   5.984      0.6364E-03 SPRIN         11  -0.0%   32.01      0.1250E-03   0.000      -17.99       0.000      0.5000E-01   0.000    
    9404   5.985      0.6364E-03 SPRIN         11  -0.0%   32.00      0.1250E-03   0.000      -18.00       0.000      0.5000E-01   0.000    
   CYCLE    TIME      TIME-STEP  ELEMENT          ERROR  I-ENERGY    K-ENERGY T  K-ENERGY R  EXT-WORK     MAS.ERR     TOTAL MASS  MASS ADDED
    9405   5.985      0.6364E-03 SPRIN         11  -0.0%   32.00      0.1250E-03   0.000      -18.00       0.000      0.5000E-01   0.000    
    9406   5.986      0.6364E-03 SPRIN         11  -0.0%   32.00      0.1250E-03   0.000      -18.00       0.000      0.5000E-01   0.000    
    9407   5.987      0.6364E-03 SPRIN         11  -0.0%   31.99      0.1250E-03   0.000      -18.01       0.000      0.5000E-01   0.000    
    9408   5.987      0.6364E-03 SPRIN         11  -0.0%   31.99      0.1250E-03   0.000      -18.01       0.000      0.5000E-01   0.000    
    9409   5.988      0.6364E-03 SPRIN         11  -0.0%   31.99      0.1250E-03   0.000      -18.01       0.000      0.5000E-01   0.000    
    9410   5.988      0.6364E-03 SPRIN         11  -0.0%   31.98      0.1250E-03   0.000      -18.02       0.000      0.5000E-01   0.000    
    9411   5.989      0.6364E-03 SPRIN         11  -0.0%   31.98      0.1250E-03   0.000      -18.02       0.000      0.5000E-01   0.000    
    9412   5.990      0.6364E-03 SPRIN         11  -0.0%   31.98      0.1250E-03   0.000      -18.02       0.000      0.5000E-01   0.000    
    9413   5.990      0.6364E-03 SPRIN         11  -0.0%   31.98      0.1250E-03   0.000      -18.02       0.000      0.5000E-01   0.000    
    9414   5.991      0.6364E-03 SPRIN         11  -0.0%   31.98      0.1250E-03   0.000      -18.02       0.000      0.5000E-01   0.000    
    9415   5.992      0.6364E-03 SPRIN         11  -0.0%   31.98      0.1250E-03   0.000      -18.02       0.000      0.5000E-01   0.000    
    9416   5.992      0.6364E-03 SPRIN         11  -0.0%   31.98      0.1250E-03   0.000      -18.02       0.000      0.5000E-01   0.000    
    9417   5.993      0.6364E-03 SPRIN         11  -0.0%   31.98      0.1250E-03   0.000      -18.02       0.000      0.5000E-01   0.000    
    9418   5.994      0.6364E-03 SPRIN         11  -0.0%   31.98      0.1250E-03   0.000      -18.02       0.000      0.5000E-01   0.000    
    9419   5.994      0.6364E-03 SPRIN         11  -0.0%   31.98      0.1250E-03   0.000      -18.02       0.000      0.5000E-01   0.000    
    9420   5.995      0.6364E-03 SPRIN         11  -0.0%   31.98      0.1250E-03   0.000      -18.02       0.000      0.5000E-01   0.000    
    9421   5.995      0.6364E-03 SPRIN         11  -0.0%   31.98      0.1250E-03   0.000      -18.02       0.000      0.5000E-01   0.000    
    9422   5.996      0.6364E-03 SPRIN         11  -0.0%   31.98      0.1250E-03   0.000      -18.02       0.000      0.5000E-01   0.000    
    9423   5.997      0.6364E-03 SPRIN         11  -0.0%   31.99      0.1250E-03   0.000      -18.01       0.000      0.5000E-01   0.000    
    9424   5.997      0.6364E-03 SPRIN         11  -0.0%   31.99      0.1250E-03   0.000      -18.01       0.000      0.5000E-01   0.000    
    9425   5.998      0.6364E-03 SPRIN         11  -0.0%   31.99      0.1250E-03   0.000      -18.01       0.000      0.5000E-01   0.000    
    9426   5.999      0.6364E-03 SPRIN         11  -0.0%   32.00      0.1250E-03   0.000      -18.00       0.000      0.5000E-01   0.000    
    9427   5.999      0.6364E-03 SPRIN         11  -0.0%   32.00      0.1250E-03   0.000      -18.00       0.000      0.5000E-01   0.000    
    9428   6.000      0.6364E-03 SPRIN         11  -0.0%   32.01      0.1250E-03   0.000      -17.99       0.000      0.5000E-01   0.000    
    9429   6.001      0.6364E-03 SPRIN         11  -0.0%   32.01      0.1250E-03   0.000      -17.99       0.000      0.5000E-01   0.000    
     ANIMATION FILE: SPR_PRE_2FLAGA031 WRITTEN
    9430   6.001      0.6364E-03 SPRIN         11  -0.0%   32.02      0.1250E-03   0.000      -17.98       0.000      0.5000E-01   0.000    
    9431   6.002      0.6364E-03 SPRIN         11  -0.0%   32.02      0.1250E-03   0.000      -17.98       0.000      0.5000E-01   0.000    
    9432   6.002      0.6364E-03 SPRIN         11  -0.0%   32.03      0.1250E-03   0.000      -17.97       0.000      0.5000E-01   0.000    
    9433   6.003      0.6364E-03 SPRIN         11  -0.0%   32.04      0.1250E-03   0.000      -17.96       0.000      0.5000E-01   0.000    
    9434   6.004      0.6364E-03 SPRIN         11  -0.0%   32.04      0.1250E-03   0.000      -17.96       0.000      0.5000E-01   0.000    
    9435   6.004      0.6364E-03 SPRIN         11  -0.0%   32.05      0.1250E-03   0.000      -17.95       0.000      0.5000E-01   0.000    
    9436   6.005      0.6364E-03 SPRIN         11  -0.0%   32.06      0.1250E-03   0.000      -17.94       0.000      0.5000E-01   0.000    
    9437   6.006      0.6364E-03 SPRIN         11  -0.0%   32.07      0.1250E-03   0.000      -17.93       0.000      0.5000E-01   0.000    
    9438   6.006      0.6364E-03 SPRIN         11  -0.0%   32.08      0.1250E-03   0.000      -17.92       0.000      0.5000E-01   0.000    
    9439   6.007      0.6364E-03 SPRIN         11  -0.0%   32.08      0.1250E-03   0.000      -17.92       0.000      0.5000E-01   0.000    
    9440   6.008      0.6364E-03 SPRIN         11  -0.0%   32.09      0.1250E-03   0.000      -17.91       0.000      0.5000E-01   0.000    
    9441   6.008      0.6364E-03 SPRIN         11  -0.0%   32.10      0.1250E-03   0.000      -17.90       0.000      0.5000E-01   0.000    
    9442   6.009      0.6364E-03 SPRIN         11  -0.0%   32.11      0.1250E-03   0.000      -17.89       0.000      0.5000E-01   0.000    
    9443   6.009      0.6364E-03 SPRIN         11  -0.0%   32.13      0.1250E-03   0.000      -17.87       0.000      0.5000E-01   0.000    
    9444   6.010      0.6364E-03 SPRIN         11  -0.0%   32.14      0.1250E-03   0.000      -17.86       0.000      0.5000E-01   0.000    
    9445   6.011      0.6364E-03 SPRIN         11  -0.0%   32.15      0.1250E-03   0.000      -17.85       0.000      0.5000E-01   0.000    
    9446   6.011      0.6364E-03 SPRIN         11  -0.0%   32.16      0.1250E-03   0.000      -17.84       0.000      0.5000E-01   0.000    
    9447   6.012      0.6364E-03 SPRIN         11  -0.0%   32.17      0.1250E-03   0.000      -17.83       0.000      0.5000E-01   0.000    
    9448   6.013      0.6364E-03 SPRIN         11  -0.0%   32.19      0.1250E-03   0.000      -17.81       0.000      0.5000E-01   0.000    
    9449   6.013      0.6364E-03 SPRIN         11  -0.0%   32.20      0.1250E-03   0.000      -17.80       0.000      0.5000E-01   0.000    
    9450   6.014      0.6364E-03 SPRIN         11  -0.0%   32.21      0.1250E-03   0.000      -17.79       0.000      0.5000E-01   0.000    
    9451   6.015      0.6364E-03 SPRIN         11  -0.0%   32.23      0.1250E-03   0.000      -17.77       0.000      0.5000E-01   0.000    
    9452   6.015      0.6364E-03 SPRIN         11  -0.0%   32.24      0.1250E-03   0.000      -17.76       0.000      0.5000E-01   0.000    
    9453   6.016      0.6364E-03 SPRIN         11  -0.0%   32.26      0.1250E-03   0.000      -17.74       0.000      0.5000E-01   0.000    
    9454   6.016      0.6364E-03 SPRIN         11  -0.0%   32.27      0.1250E-03   0.000      -17.73       0.000      0.5000E-01   0.000    
    9455   6.017      0.6364E-03 SPRIN         11  -0.0%   32.29      0.1250E-03   0.000      -17.71       0.000      0.5000E-01   0.000    
    9456   6.018      0.6364E-03 SPRIN         11  -0.0%   32.30      0.1250E-03   0.000      -17.70       0.000      0.5000E-01   0.000    
    9457   6.018      0.6364E-03 SPRIN         11  -0.0%   32.32      0.1250E-03   0.000      -17.68       0.000      0.5000E-01   0.000    
    9458   6.019      0.6364E-03 SPRIN         11  -0.0%   32.34      0.1250E-03   0.000      -17.66       0.000      0.5000E-01   0.000    
    9459   6.020      0.6364E-03 SPRIN         11  -0.0%   32.35      0.1250E-03   0.000      -17.65       0.000      0.5000E-01   0.000    
   CYCLE    TIME      TIME-STEP  ELEMENT          ERROR  I-ENERGY    K-ENERGY T  K-ENERGY R  EXT-WORK     MAS.ERR     TOTAL MASS  MASS ADDED
    9460   6.020      0.6364E-03 SPRIN         11  -0.0%   32.37      0.1250E-03   0.000      -17.63       0.000      0.5000E-01   0.000    
    9461   6.021      0.6364E-03 SPRIN         11  -0.0%   32.39      0.1250E-03   0.000      -17.61       0.000      0.5000E-01   0.000    
    9462   6.022      0.6364E-03 SPRIN         11  -0.0%   32.41      0.1250E-03   0.000      -17.59       0.000      0.5000E-01   0.000    
    9463   6.022      0.6364E-03 SPRIN         11  -0.0%   32.43      0.1250E-03   0.000      -17.57       0.000      0.5000E-01   0.000    
    9464   6.023      0.6364E-03 SPRIN         11  -0.0%   32.45      0.1250E-03   0.000      -17.55       0.000      0.5000E-01   0.000    
    9465   6.023      0.6364E-03 SPRIN         11  -0.0%   32.47      0.1250E-03   0.000      -17.53       0.000      0.5000E-01   0.000    
    9466   6.024      0.6364E-03 SPRIN         11  -0.0%   32.49      0.1250E-03   0.000      -17.51       0.000      0.5000E-01   0.000    
    9467   6.025      0.6364E-03 SPRIN         11  -0.0%   32.51      0.1250E-03   0.000      -17.49       0.000      0.5000E-01   0.000    
    9468   6.025      0.6364E-03 SPRIN         11  -0.0%   32.53      0.1250E-03   0.000      -17.47       0.000      0.5000E-01   0.000    
    9469   6.026      0.6364E-03 SPRIN         11  -0.0%   32.55      0.1250E-03   0.000      -17.45       0.000      0.5000E-01   0.000    
    9470   6.027      0.6364E-03 SPRIN         11  -0.0%   32.57      0.1250E-03   0.000      -17.43       0.000      0.5000E-01   0.000    
    9471   6.027      0.6364E-03 SPRIN         11  -0.0%   32.59      0.1250E-03   0.000      -17.41       0.000      0.5000E-01   0.000    
    9472   6.028      0.6364E-03 SPRIN         11  -0.0%   32.61      0.1250E-03   0.000      -17.39       0.000      0.5000E-01   0.000    
    9473   6.029      0.6364E-03 SPRIN         11  -0.0%   32.64      0.1250E-03   0.000      -17.36       0.000      0.5000E-01   0.000    
    9474   6.029      0.6364E-03 SPRIN         11  -0.0%   32.66      0.1250E-03   0.000      -17.34       0.000      0.5000E-01   0.000    
    9475   6.030      0.6364E-03 SPRIN         11  -0.0%   32.68      0.1250E-03   0.000      -17.32       0.000      0.5000E-01   0.000    
    9476   6.030      0.6364E-03 SPRIN         11  -0.0%   32.71      0.1250E-03   0.000      -17.29       0.000      0.5000E-01   0.000    
    9477   6.031      0.6364E-03 SPRIN         11  -0.0%   32.73      0.1250E-03   0.000      -17.27       0.000      0.5000E-01   0.000    
    9478   6.032      0.6364E-03 SPRIN         11  -0.0%   32.76      0.1250E-03   0.000      -17.24       0.000      0.5000E-01   0.000    
    9479   6.032      0.6364E-03 SPRIN         11  -0.0%   32.78      0.1250E-03   0.000      -17.22       0.000      0.5000E-01   0.000    
    9480   6.033      0.6364E-03 SPRIN         11  -0.0%   32.81      0.1250E-03   0.000      -17.19       0.000      0.5000E-01   0.000    
    9481   6.034      0.6364E-03 SPRIN         11  -0.0%   32.84      0.1250E-03   0.000      -17.16       0.000      0.5000E-01   0.000    
    9482   6.034      0.6364E-03 SPRIN         11  -0.0%   32.86      0.1250E-03   0.000      -17.14       0.000      0.5000E-01   0.000    
    9483   6.035      0.6364E-03 SPRIN         11  -0.0%   32.89      0.1250E-03   0.000      -17.11       0.000      0.5000E-01   0.000    
    9484   6.036      0.6364E-03 SPRIN         11  -0.0%   32.92      0.1250E-03   0.000      -17.08       0.000      0.5000E-01   0.000    
    9485   6.036      0.6364E-03 SPRIN         11  -0.0%   32.94      0.1250E-03   0.000      -17.06       0.000      0.5000E-01   0.000    
    9486   6.037      0.6364E-03 SPRIN         11  -0.0%   32.97      0.1250E-03   0.000      -17.03       0.000      0.5000E-01   0.000    
    9487   6.037      0.6364E-03 SPRIN         11  -0.0%   33.00      0.1250E-03   0.000      -17.00       0.000      0.5000E-01   0.000    
    9488   6.038      0.6364E-03 SPRIN         11  -0.0%   33.03      0.1250E-03   0.000      -16.97       0.000      0.5000E-01   0.000    
    9489   6.039      0.6364E-03 SPRIN         11  -0.0%   33.06      0.1250E-03   0.000      -16.94       0.000      0.5000E-01   0.000    
    9490   6.039      0.6364E-03 SPRIN         11  -0.0%   33.09      0.1250E-03   0.000      -16.91       0.000      0.5000E-01   0.000    
    9491   6.040      0.6364E-03 SPRIN         11  -0.0%   33.12      0.1250E-03   0.000      -16.88       0.000      0.5000E-01   0.000    
    9492   6.041      0.6364E-03 SPRIN         11  -0.0%   33.15      0.1250E-03   0.000      -16.85       0.000      0.5000E-01   0.000    
    9493   6.041      0.6364E-03 SPRIN         11  -0.0%   33.18      0.1250E-03   0.000      -16.82       0.000      0.5000E-01   0.000    
    9494   6.042      0.6364E-03 SPRIN         11  -0.0%   33.21      0.1250E-03   0.000      -16.79       0.000      0.5000E-01   0.000    
    9495   6.043      0.6364E-03 SPRIN         11  -0.0%   33.24      0.1250E-03   0.000      -16.76       0.000      0.5000E-01   0.000    
    9496   6.043      0.6364E-03 SPRIN         11  -0.0%   33.28      0.1250E-03   0.000      -16.72       0.000      0.5000E-01   0.000    
    9497   6.044      0.6364E-03 SPRIN         11  -0.0%   33.31      0.1250E-03   0.000      -16.69       0.000      0.5000E-01   0.000    
    9498   6.044      0.6364E-03 SPRIN         11  -0.0%   33.34      0.1250E-03   0.000      -16.66       0.000      0.5000E-01   0.000    
    9499   6.045      0.6364E-03 SPRIN         11  -0.0%   33.38      0.1250E-03   0.000      -16.62       0.000      0.5000E-01   0.000    
    9500   6.046      0.6364E-03 SPRIN         11  -0.0%   33.41      0.1250E-03   0.000      -16.59       0.000      0.5000E-01   0.000    
    9501   6.046      0.6364E-03 SPRIN         11  -0.0%   33.44      0.1250E-03   0.000      -16.56       0.000      0.5000E-01   0.000    
    9502   6.047      0.6364E-03 SPRIN         11  -0.0%   33.48      0.1250E-03   0.000      -16.52       0.000      0.5000E-01   0.000    
    9503   6.048      0.6364E-03 SPRIN         11  -0.0%   33.51      0.1250E-03   0.000      -16.49       0.000      0.5000E-01   0.000    
    9504   6.048      0.6364E-03 SPRIN         11  -0.0%   33.55      0.1250E-03   0.000      -16.45       0.000      0.5000E-01   0.000    
    9505   6.049      0.6364E-03 SPRIN         11  -0.0%   33.59      0.1250E-03   0.000      -16.41       0.000      0.5000E-01   0.000    
    9506   6.050      0.6364E-03 SPRIN         11  -0.0%   33.62      0.1250E-03   0.000      -16.38       0.000      0.5000E-01   0.000    
    9507   6.050      0.6364E-03 SPRIN         11  -0.0%   33.66      0.1250E-03   0.000      -16.34       0.000      0.5000E-01   0.000    
    9508   6.051      0.6364E-03 SPRIN         11  -0.0%   33.70      0.1250E-03   0.000      -16.30       0.000      0.5000E-01   0.000    
    9509   6.051      0.6364E-03 SPRIN         11  -0.0%   33.73      0.1250E-03   0.000      -16.27       0.000      0.5000E-01   0.000    
    9510   6.052      0.6364E-03 SPRIN         11  -0.0%   33.77      0.1250E-03   0.000      -16.23       0.000      0.5000E-01   0.000    
    9511   6.053      0.6364E-03 SPRIN         11  -0.0%   33.81      0.1250E-03   0.000      -16.19       0.000      0.5000E-01   0.000    
    9512   6.053      0.6364E-03 SPRIN         11  -0.0%   33.85      0.1250E-03   0.000      -16.15       0.000      0.5000E-01   0.000    
    9513   6.054      0.6364E-03 SPRIN         11  -0.0%   33.89      0.1250E-03   0.000      -16.11       0.000      0.5000E-01   0.000    
    9514   6.055      0.6364E-03 SPRIN         11  -0.0%   33.93      0.1250E-03   0.000      -16.07       0.000      0.5000E-01   0.000    
   CYCLE    TIME      TIME-STEP  ELEMENT          ERROR  I-ENERGY    K-ENERGY T  K-ENERGY R  EXT-WORK     MAS.ERR     TOTAL MASS  MASS ADDED
    9515   6.055      0.6364E-03 SPRIN         11  -0.0%   33.97      0.1250E-03   0.000      -16.03       0.000      0.5000E-01   0.000    
    9516   6.056      0.6364E-03 SPRIN         11  -0.0%   34.01      0.1250E-03   0.000      -15.99       0.000      0.5000E-01   0.000    
    9517   6.057      0.6364E-03 SPRIN         11  -0.0%   34.05      0.1250E-03   0.000      -15.95       0.000      0.5000E-01   0.000    
    9518   6.057      0.6364E-03 SPRIN         11  -0.0%   34.09      0.1250E-03   0.000      -15.91       0.000      0.5000E-01   0.000    
    9519   6.058      0.6364E-03 SPRIN         11  -0.0%   34.13      0.1250E-03   0.000      -15.87       0.000      0.5000E-01   0.000    
    9520   6.058      0.6364E-03 SPRIN         11  -0.0%   34.17      0.1250E-03   0.000      -15.83       0.000      0.5000E-01   0.000    
    9521   6.059      0.6364E-03 SPRIN         11  -0.0%   34.22      0.1250E-03   0.000      -15.78       0.000      0.5000E-01   0.000    
    9522   6.060      0.6364E-03 SPRIN         11  -0.0%   34.26      0.1250E-03   0.000      -15.74       0.000      0.5000E-01   0.000    
    9523   6.060      0.6364E-03 SPRIN         11  -0.0%   34.30      0.1250E-03   0.000      -15.70       0.000      0.5000E-01   0.000    
    9524   6.061      0.6364E-03 SPRIN         11  -0.0%   34.34      0.1250E-03   0.000      -15.66       0.000      0.5000E-01   0.000    
    9525   6.062      0.6364E-03 SPRIN         11  -0.0%   34.39      0.1250E-03   0.000      -15.61       0.000      0.5000E-01   0.000    
    9526   6.062      0.6364E-03 SPRIN         11  -0.0%   34.43      0.1250E-03   0.000      -15.57       0.000      0.5000E-01   0.000    
    9527   6.063      0.6364E-03 SPRIN         11  -0.0%   34.48      0.1250E-03   0.000      -15.52       0.000      0.5000E-01   0.000    
    9528   6.064      0.6364E-03 SPRIN         11  -0.0%   34.52      0.1250E-03   0.000      -15.48       0.000      0.5000E-01   0.000    
    9529   6.064      0.6364E-03 SPRIN         11  -0.0%   34.57      0.1250E-03   0.000      -15.43       0.000      0.5000E-01   0.000    
    9530   6.065      0.6364E-03 SPRIN         11  -0.0%   34.61      0.1250E-03   0.000      -15.39       0.000      0.5000E-01   0.000    
    9531   6.065      0.6364E-03 SPRIN         11  -0.0%   34.66      0.1250E-03   0.000      -15.34       0.000      0.5000E-01   0.000    
    9532   6.066      0.6364E-03 SPRIN         11  -0.0%   34.71      0.1250E-03   0.000      -15.29       0.000      0.5000E-01   0.000    
    9533   6.067      0.6364E-03 SPRIN         11  -0.0%   34.76      0.1250E-03   0.000      -15.24       0.000      0.5000E-01   0.000    
    9534   6.067      0.6364E-03 SPRIN         11  -0.0%   34.80      0.1250E-03   0.000      -15.20       0.000      0.5000E-01   0.000    
    9535   6.068      0.6364E-03 SPRIN         11  -0.0%   34.85      0.1250E-03   0.000      -15.15       0.000      0.5000E-01   0.000    
    9536   6.069      0.6364E-03 SPRIN         11  -0.0%   34.90      0.1250E-03   0.000      -15.10       0.000      0.5000E-01   0.000    
    9537   6.069      0.6364E-03 SPRIN         11  -0.0%   34.95      0.1250E-03   0.000      -15.05       0.000      0.5000E-01   0.000    
    9538   6.070      0.6364E-03 SPRIN         11  -0.0%   35.00      0.1250E-03   0.000      -15.00       0.000      0.5000E-01   0.000    
    9539   6.071      0.6364E-03 SPRIN         11  -0.0%   35.05      0.1250E-03   0.000      -14.95       0.000      0.5000E-01   0.000    
    9540   6.071      0.6364E-03 SPRIN         11  -0.0%   35.10      0.1250E-03   0.000      -14.90       0.000      0.5000E-01   0.000    
    9541   6.072      0.6364E-03 SPRIN         11  -0.0%   35.15      0.1250E-03   0.000      -14.85       0.000      0.5000E-01   0.000    
    9542   6.072      0.6364E-03 SPRIN         11  -0.0%   35.20      0.1250E-03   0.000      -14.80       0.000      0.5000E-01   0.000    
    9543   6.073      0.6364E-03 SPRIN         11  -0.0%   35.25      0.1250E-03   0.000      -14.75       0.000      0.5000E-01   0.000    
    9544   6.074      0.6364E-03 SPRIN         11  -0.0%   35.30      0.1250E-03   0.000      -14.70       0.000      0.5000E-01   0.000    
    9545   6.074      0.6364E-03 SPRIN         11  -0.0%   35.35      0.1250E-03   0.000      -14.65       0.000      0.5000E-01   0.000    
    9546   6.075      0.6364E-03 SPRIN         11  -0.0%   35.41      0.1250E-03   0.000      -14.59       0.000      0.5000E-01   0.000    
    9547   6.076      0.6364E-03 SPRIN         11  -0.0%   35.46      0.1250E-03   0.000      -14.54       0.000      0.5000E-01   0.000    
    9548   6.076      0.6364E-03 SPRIN         11  -0.0%   35.51      0.1250E-03   0.000      -14.49       0.000      0.5000E-01   0.000    
    9549   6.077      0.6364E-03 SPRIN         11  -0.0%   35.57      0.1250E-03   0.000      -14.43       0.000      0.5000E-01   0.000    
    9550   6.078      0.6364E-03 SPRIN         11  -0.0%   35.62      0.1250E-03   0.000      -14.38       0.000      0.5000E-01   0.000    
    9551   6.078      0.6364E-03 SPRIN         11  -0.0%   35.68      0.1250E-03   0.000      -14.32       0.000      0.5000E-01   0.000    
    9552   6.079      0.6364E-03 SPRIN         11  -0.0%   35.73      0.1250E-03   0.000      -14.27       0.000      0.5000E-01   0.000    
    9553   6.079      0.6364E-03 SPRIN         11  -0.0%   35.79      0.1250E-03   0.000      -14.21       0.000      0.5000E-01   0.000    
    9554   6.080      0.6364E-03 SPRIN         11  -0.0%   35.84      0.1250E-03   0.000      -14.16       0.000      0.5000E-01   0.000    
    9555   6.081      0.6364E-03 SPRIN         11  -0.0%   35.90      0.1250E-03   0.000      -14.10       0.000      0.5000E-01   0.000    
    9556   6.081      0.6364E-03 SPRIN         11  -0.0%   35.95      0.1250E-03   0.000      -14.05       0.000      0.5000E-01   0.000    
    9557   6.082      0.6364E-03 SPRIN         11  -0.0%   36.01      0.1250E-03   0.000      -13.99       0.000      0.5000E-01   0.000    
    9558   6.083      0.6364E-03 SPRIN         11  -0.0%   36.07      0.1250E-03   0.000      -13.93       0.000      0.5000E-01   0.000    
    9559   6.083      0.6364E-03 SPRIN         11  -0.0%   36.13      0.1250E-03   0.000      -13.87       0.000      0.5000E-01   0.000    
    9560   6.084      0.6364E-03 SPRIN         11  -0.0%   36.18      0.1250E-03   0.000      -13.82       0.000      0.5000E-01   0.000    
    9561   6.085      0.6364E-03 SPRIN         11  -0.0%   36.24      0.1250E-03   0.000      -13.76       0.000      0.5000E-01   0.000    
    9562   6.085      0.6364E-03 SPRIN         11  -0.0%   36.30      0.1250E-03   0.000      -13.70       0.000      0.5000E-01   0.000    
    9563   6.086      0.6364E-03 SPRIN         11  -0.0%   36.36      0.1250E-03   0.000      -13.64       0.000      0.5000E-01   0.000    
    9564   6.086      0.6364E-03 SPRIN         11  -0.0%   36.42      0.1250E-03   0.000      -13.58       0.000      0.5000E-01   0.000    
    9565   6.087      0.6364E-03 SPRIN         11  -0.0%   36.48      0.1250E-03   0.000      -13.52       0.000      0.5000E-01   0.000    
    9566   6.088      0.6364E-03 SPRIN         11  -0.0%   36.54      0.1250E-03   0.000      -13.46       0.000      0.5000E-01   0.000    
    9567   6.088      0.6364E-03 SPRIN         11  -0.0%   36.60      0.1250E-03   0.000      -13.40       0.000      0.5000E-01   0.000    
    9568   6.089      0.6364E-03 SPRIN         11  -0.0%   36.66      0.1250E-03   0.000      -13.34       0.000      0.5000E-01   0.000    
    9569   6.090      0.6364E-03 SPRIN         11  -0.0%   36.73      0.1250E-03   0.000      -13.27       0.000      0.5000E-01   0.000    
   CYCLE    TIME      TIME-STEP  ELEMENT          ERROR  I-ENERGY    K-ENERGY T  K-ENERGY R  EXT-WORK     MAS.ERR     TOTAL MASS  MASS ADDED
    9570   6.090      0.6364E-03 SPRIN         11  -0.0%   36.79      0.1250E-03   0.000      -13.21       0.000      0.5000E-01   0.000    
    9571   6.091      0.6364E-03 SPRIN         11  -0.0%   36.85      0.1250E-03   0.000      -13.15       0.000      0.5000E-01   0.000    
    9572   6.092      0.6364E-03 SPRIN         11  -0.0%   36.91      0.1250E-03   0.000      -13.09       0.000      0.5000E-01   0.000    
    9573   6.092      0.6364E-03 SPRIN         11  -0.0%   36.98      0.1250E-03   0.000      -13.02       0.000      0.5000E-01   0.000    
    9574   6.093      0.6364E-03 SPRIN         11  -0.0%   37.04      0.1250E-03   0.000      -12.96       0.000      0.5000E-01   0.000    
    9575   6.093      0.6364E-03 SPRIN         11  -0.0%   37.11      0.1250E-03   0.000      -12.89       0.000      0.5000E-01   0.000    
    9576   6.094      0.6364E-03 SPRIN         11  -0.0%   37.17      0.1250E-03   0.000      -12.83       0.000      0.5000E-01   0.000    
    9577   6.095      0.6364E-03 SPRIN         11  -0.0%   37.24      0.1250E-03   0.000      -12.76       0.000      0.5000E-01   0.000    
    9578   6.095      0.6364E-03 SPRIN         11  -0.0%   37.30      0.1250E-03   0.000      -12.70       0.000      0.5000E-01   0.000    
    9579   6.096      0.6364E-03 SPRIN         11  -0.0%   37.37      0.1250E-03   0.000      -12.63       0.000      0.5000E-01   0.000    
    9580   6.097      0.6364E-03 SPRIN         11  -0.0%   37.43      0.1250E-03   0.000      -12.57       0.000      0.5000E-01   0.000    
    9581   6.097      0.6364E-03 SPRIN         11  -0.0%   37.50      0.1250E-03   0.000      -12.50       0.000      0.5000E-01   0.000    
    9582   6.098      0.6364E-03 SPRIN         11  -0.0%   37.57      0.1250E-03   0.000      -12.43       0.000      0.5000E-01   0.000    
    9583   6.099      0.6364E-03 SPRIN         11  -0.0%   37.63      0.1250E-03   0.000      -12.37       0.000      0.5000E-01   0.000    
    9584   6.099      0.6364E-03 SPRIN         11  -0.0%   37.70      0.1250E-03   0.000      -12.30       0.000      0.5000E-01   0.000    
    9585   6.100      0.6364E-03 SPRIN         11  -0.0%   37.77      0.1250E-03   0.000      -12.23       0.000      0.5000E-01   0.000    
    9586   6.100      0.6364E-03 SPRIN         11  -0.0%   37.84      0.1250E-03   0.000      -12.16       0.000      0.5000E-01   0.000    
    9587   6.101      0.6364E-03 SPRIN         11  -0.0%   37.91      0.1250E-03   0.000      -12.09       0.000      0.5000E-01   0.000    
    9588   6.102      0.6364E-03 SPRIN         11  -0.0%   37.98      0.1250E-03   0.000      -12.02       0.000      0.5000E-01   0.000    
    9589   6.102      0.6364E-03 SPRIN         11  -0.0%   38.05      0.1250E-03   0.000      -11.95       0.000      0.5000E-01   0.000    
    9590   6.103      0.6364E-03 SPRIN         11  -0.0%   38.12      0.1250E-03   0.000      -11.88       0.000      0.5000E-01   0.000    
    9591   6.104      0.6364E-03 SPRIN         11  -0.0%   38.19      0.1250E-03   0.000      -11.81       0.000      0.5000E-01   0.000    
    9592   6.104      0.6364E-03 SPRIN         11  -0.0%   38.26      0.1250E-03   0.000      -11.74       0.000      0.5000E-01   0.000    
    9593   6.105      0.6364E-03 SPRIN         11  -0.0%   38.33      0.1250E-03   0.000      -11.67       0.000      0.5000E-01   0.000    
    9594   6.106      0.6364E-03 SPRIN         11  -0.0%   38.40      0.1250E-03   0.000      -11.60       0.000      0.5000E-01   0.000    
    9595   6.106      0.6364E-03 SPRIN         11  -0.0%   38.48      0.1250E-03   0.000      -11.52       0.000      0.5000E-01   0.000    
    9596   6.107      0.6364E-03 SPRIN         11  -0.0%   38.55      0.1250E-03   0.000      -11.45       0.000      0.5000E-01   0.000    
    9597   6.107      0.6364E-03 SPRIN         11  -0.0%   38.62      0.1250E-03   0.000      -11.38       0.000      0.5000E-01   0.000    
    9598   6.108      0.6364E-03 SPRIN         11  -0.0%   38.70      0.1250E-03   0.000      -11.30       0.000      0.5000E-01   0.000    
    9599   6.109      0.6364E-03 SPRIN         11  -0.0%   38.77      0.1250E-03   0.000      -11.23       0.000      0.5000E-01   0.000    
    9600   6.109      0.6364E-03 SPRIN         11  -0.0%   38.84      0.1250E-03   0.000      -11.16       0.000      0.5000E-01   0.000    
    9601   6.110      0.6364E-03 SPRIN         11  -0.0%   38.92      0.1250E-03   0.000      -11.08       0.000      0.5000E-01   0.000    
    9602   6.111      0.6364E-03 SPRIN         11  -0.0%   38.99      0.1250E-03   0.000      -11.01       0.000      0.5000E-01   0.000    
    9603   6.111      0.6364E-03 SPRIN         11  -0.0%   39.07      0.1250E-03   0.000      -10.93       0.000      0.5000E-01   0.000    
    9604   6.112      0.6364E-03 SPRIN         11  -0.0%   39.14      0.1250E-03   0.000      -10.85       0.000      0.5000E-01   0.000    
    9605   6.113      0.6364E-03 SPRIN         11  -0.0%   39.22      0.1250E-03   0.000      -10.78       0.000      0.5000E-01   0.000    
    9606   6.113      0.6364E-03 SPRIN         11  -0.0%   39.30      0.1250E-03   0.000      -10.70       0.000      0.5000E-01   0.000    
    9607   6.114      0.6364E-03 SPRIN         11  -0.0%   39.38      0.1250E-03   0.000      -10.62       0.000      0.5000E-01   0.000    
    9608   6.114      0.6364E-03 SPRIN         11  -0.0%   39.45      0.1250E-03   0.000      -10.55       0.000      0.5000E-01   0.000    
    9609   6.115      0.6364E-03 SPRIN         11  -0.0%   39.53      0.1250E-03   0.000      -10.47       0.000      0.5000E-01   0.000    
    9610   6.116      0.6364E-03 SPRIN         11  -0.0%   39.61      0.1250E-03   0.000      -10.39       0.000      0.5000E-01   0.000    
    9611   6.116      0.6364E-03 SPRIN         11  -0.0%   39.69      0.1250E-03   0.000      -10.31       0.000      0.5000E-01   0.000    
    9612   6.117      0.6364E-03 SPRIN         11  -0.0%   39.77      0.1250E-03   0.000      -10.23       0.000      0.5000E-01   0.000    
    9613   6.118      0.6364E-03 SPRIN         11  -0.0%   39.85      0.1250E-03   0.000      -10.15       0.000      0.5000E-01   0.000    
    9614   6.118      0.6364E-03 SPRIN         11  -0.0%   39.93      0.1250E-03   0.000      -10.07       0.000      0.5000E-01   0.000    
    9615   6.119      0.6364E-03 SPRIN         11  -0.0%   40.01      0.1250E-03   0.000      -9.992       0.000      0.5000E-01   0.000    
    9616   6.120      0.6364E-03 SPRIN         11  -0.0%   40.09      0.1250E-03   0.000      -9.911       0.000      0.5000E-01   0.000    
    9617   6.120      0.6364E-03 SPRIN         11  -0.0%   40.17      0.1250E-03   0.000      -9.830       0.000      0.5000E-01   0.000    
    9618   6.121      0.6364E-03 SPRIN         11  -0.0%   40.25      0.1250E-03   0.000      -9.748       0.000      0.5000E-01   0.000    
    9619   6.121      0.6364E-03 SPRIN         11  -0.0%   40.33      0.1250E-03   0.000      -9.666       0.000      0.5000E-01   0.000    
    9620   6.122      0.6364E-03 SPRIN         11  -0.0%   40.42      0.1250E-03   0.000      -9.584       0.000      0.5000E-01   0.000    
    9621   6.123      0.6364E-03 SPRIN         11  -0.0%   40.50      0.1250E-03   0.000      -9.501       0.000      0.5000E-01   0.000    
    9622   6.123      0.6364E-03 SPRIN         11  -0.0%   40.58      0.1250E-03   0.000      -9.418       0.000      0.5000E-01   0.000    
    9623   6.124      0.6364E-03 SPRIN         11  -0.0%   40.67      0.1250E-03   0.000      -9.334       0.000      0.5000E-01   0.000    
    9624   6.125      0.6364E-03 SPRIN         11  -0.0%   40.75      0.1250E-03   0.000      -9.250       0.000      0.5000E-01   0.000    
   CYCLE    TIME      TIME-STEP  ELEMENT          ERROR  I-ENERGY    K-ENERGY T  K-ENERGY R  EXT-WORK     MAS.ERR     TOTAL MASS  MASS ADDED
    9625   6.125      0.6364E-03 SPRIN         11  -0.0%   40.83      0.1250E-03   0.000      -9.165       0.000      0.5000E-01   0.000    
    9626   6.126      0.6364E-03 SPRIN         11  -0.0%   40.92      0.1250E-03   0.000      -9.080       0.000      0.5000E-01   0.000    
    9627   6.127      0.6364E-03 SPRIN         11  -0.0%   41.00      0.1250E-03   0.000      -8.995       0.000      0.5000E-01   0.000    
    9628   6.127      0.6364E-03 SPRIN         11  -0.0%   41.09      0.1250E-03   0.000      -8.909       0.000      0.5000E-01   0.000    
    9629   6.128      0.6364E-03 SPRIN         11  -0.0%   41.18      0.1250E-03   0.000      -8.823       0.000      0.5000E-01   0.000    
    9630   6.128      0.6364E-03 SPRIN         11  -0.0%   41.26      0.1250E-03   0.000      -8.737       0.000      0.5000E-01   0.000    
    9631   6.129      0.6364E-03 SPRIN         11  -0.0%   41.35      0.1250E-03   0.000      -8.650       0.000      0.5000E-01   0.000    
    9632   6.130      0.6364E-03 SPRIN         11  -0.0%   41.44      0.1250E-03   0.000      -8.562       0.000      0.5000E-01   0.000    
    9633   6.130      0.6364E-03 SPRIN         11  -0.0%   41.53      0.1250E-03   0.000      -8.475       0.000      0.5000E-01   0.000    
    9634   6.131      0.6364E-03 SPRIN         11  -0.0%   41.61      0.1250E-03   0.000      -8.387       0.000      0.5000E-01   0.000    
    9635   6.132      0.6364E-03 SPRIN         11  -0.0%   41.70      0.1250E-03   0.000      -8.298       0.000      0.5000E-01   0.000    
    9636   6.132      0.6364E-03 SPRIN         11  -0.0%   41.79      0.1250E-03   0.000      -8.209       0.000      0.5000E-01   0.000    
    9637   6.133      0.6364E-03 SPRIN         11  -0.0%   41.88      0.1250E-03   0.000      -8.120       0.000      0.5000E-01   0.000    
    9638   6.134      0.6364E-03 SPRIN         11  -0.0%   41.97      0.1250E-03   0.000      -8.030       0.000      0.5000E-01   0.000    
    9639   6.134      0.6364E-03 SPRIN         11  -0.0%   42.06      0.1250E-03   0.000      -7.940       0.000      0.5000E-01   0.000    
    9640   6.135      0.6364E-03 SPRIN         11  -0.0%   42.15      0.1250E-03   0.000      -7.849       0.000      0.5000E-01   0.000    
    9641   6.135      0.6364E-03 SPRIN         11  -0.0%   42.24      0.1250E-03   0.000      -7.758       0.000      0.5000E-01   0.000    
    9642   6.136      0.6364E-03 SPRIN         11  -0.0%   42.33      0.1250E-03   0.000      -7.667       0.000      0.5000E-01   0.000    
    9643   6.137      0.6364E-03 SPRIN         11  -0.0%   42.42      0.1250E-03   0.000      -7.575       0.000      0.5000E-01   0.000    
    9644   6.137      0.6364E-03 SPRIN         11  -0.0%   42.52      0.1250E-03   0.000      -7.483       0.000      0.5000E-01   0.000    
    9645   6.138      0.6364E-03 SPRIN         11  -0.0%   42.61      0.1250E-03   0.000      -7.390       0.000      0.5000E-01   0.000    
    9646   6.139      0.6364E-03 SPRIN         11  -0.0%   42.70      0.1250E-03   0.000      -7.297       0.000      0.5000E-01   0.000    
    9647   6.139      0.6364E-03 SPRIN         11  -0.0%   42.80      0.1250E-03   0.000      -7.204       0.000      0.5000E-01   0.000    
    9648   6.140      0.6364E-03 SPRIN         11  -0.0%   42.89      0.1250E-03   0.000      -7.110       0.000      0.5000E-01   0.000    
    9649   6.141      0.6364E-03 SPRIN         11  -0.0%   42.98      0.1250E-03   0.000      -7.016       0.000      0.5000E-01   0.000    
    9650   6.141      0.6364E-03 SPRIN         11  -0.0%   43.08      0.1250E-03   0.000      -6.921       0.000      0.5000E-01   0.000    
    9651   6.142      0.6364E-03 SPRIN         11  -0.0%   43.17      0.1250E-03   0.000      -6.826       0.000      0.5000E-01   0.000    
    9652   6.142      0.6364E-03 SPRIN         11  -0.0%   43.27      0.1250E-03   0.000      -6.731       0.000      0.5000E-01   0.000    
    9653   6.143      0.6364E-03 SPRIN         11  -0.0%   43.37      0.1250E-03   0.000      -6.635       0.000      0.5000E-01   0.000    
    9654   6.144      0.6364E-03 SPRIN         11  -0.0%   43.46      0.1250E-03   0.000      -6.539       0.000      0.5000E-01   0.000    
    9655   6.144      0.6364E-03 SPRIN         11  -0.0%   43.56      0.1250E-03   0.000      -6.442       0.000      0.5000E-01   0.000    
    9656   6.145      0.6364E-03 SPRIN         11  -0.0%   43.66      0.1250E-03   0.000      -6.345       0.000      0.5000E-01   0.000    
    9657   6.146      0.6364E-03 SPRIN         11  -0.0%   43.75      0.1250E-03   0.000      -6.247       0.000      0.5000E-01   0.000    
    9658   6.146      0.6364E-03 SPRIN         11  -0.0%   43.85      0.1250E-03   0.000      -6.149       0.000      0.5000E-01   0.000    
    9659   6.147      0.6364E-03 SPRIN         11  -0.0%   43.95      0.1250E-03   0.000      -6.051       0.000      0.5000E-01   0.000    
    9660   6.148      0.6364E-03 SPRIN         11  -0.0%   44.05      0.1250E-03   0.000      -5.953       0.000      0.5000E-01   0.000    
    9661   6.148      0.6364E-03 SPRIN         11  -0.0%   44.15      0.1250E-03   0.000      -5.853       0.000      0.5000E-01   0.000    
    9662   6.149      0.6364E-03 SPRIN         11  -0.0%   44.25      0.1250E-03   0.000      -5.754       0.000      0.5000E-01   0.000    
    9663   6.149      0.6364E-03 SPRIN         11  -0.0%   44.35      0.1250E-03   0.000      -5.654       0.000      0.5000E-01   0.000    
    9664   6.150      0.6364E-03 SPRIN         11  -0.0%   44.45      0.1250E-03   0.000      -5.554       0.000      0.5000E-01   0.000    
    9665   6.151      0.6364E-03 SPRIN         11  -0.0%   44.55      0.1250E-03   0.000      -5.453       0.000      0.5000E-01   0.000    
    9666   6.151      0.6364E-03 SPRIN         11  -0.0%   44.65      0.1250E-03   0.000      -5.352       0.000      0.5000E-01   0.000    
    9667   6.152      0.6364E-03 SPRIN         11  -0.0%   44.75      0.1250E-03   0.000      -5.250       0.000      0.5000E-01   0.000    
    9668   6.153      0.6364E-03 SPRIN         11  -0.0%   44.85      0.1250E-03   0.000      -5.149       0.000      0.5000E-01   0.000    
    9669   6.153      0.6364E-03 SPRIN         11  -0.0%   44.95      0.1250E-03   0.000      -5.046       0.000      0.5000E-01   0.000    
    9670   6.154      0.6364E-03 SPRIN         11  -0.0%   45.06      0.1250E-03   0.000      -4.943       0.000      0.5000E-01   0.000    
    9671   6.155      0.6364E-03 SPRIN         11  -0.0%   45.16      0.1250E-03   0.000      -4.840       0.000      0.5000E-01   0.000    
    9672   6.155      0.6364E-03 SPRIN         11  -0.0%   45.26      0.1250E-03   0.000      -4.737       0.000      0.5000E-01   0.000    
    9673   6.156      0.6364E-03 SPRIN         11  -0.0%   45.37      0.1250E-03   0.000      -4.633       0.000      0.5000E-01   0.000    
    9674   6.156      0.6364E-03 SPRIN         11  -0.0%   45.47      0.1250E-03   0.000      -4.528       0.000      0.5000E-01   0.000    
    9675   6.157      0.6364E-03 SPRIN         11  -0.0%   45.58      0.1250E-03   0.000      -4.424       0.000      0.5000E-01   0.000    
    9676   6.158      0.6364E-03 SPRIN         11  -0.0%   45.68      0.1250E-03   0.000      -4.319       0.000      0.5000E-01   0.000    
    9677   6.158      0.6364E-03 SPRIN         11  -0.0%   45.79      0.1250E-03   0.000      -4.213       0.000      0.5000E-01   0.000    
    9678   6.159      0.6364E-03 SPRIN         11  -0.0%   45.89      0.1250E-03   0.000      -4.107       0.000      0.5000E-01   0.000    
    9679   6.160      0.6364E-03 SPRIN         11  -0.0%   46.00      0.1250E-03   0.000      -4.001       0.000      0.5000E-01   0.000    
   CYCLE    TIME      TIME-STEP  ELEMENT          ERROR  I-ENERGY    K-ENERGY T  K-ENERGY R  EXT-WORK     MAS.ERR     TOTAL MASS  MASS ADDED
    9680   6.160      0.6364E-03 SPRIN         11  -0.0%   46.11      0.1250E-03   0.000      -3.894       0.000      0.5000E-01   0.000    
    9681   6.161      0.6364E-03 SPRIN         11  -0.0%   46.21      0.1250E-03   0.000      -3.787       0.000      0.5000E-01   0.000    
    9682   6.162      0.6364E-03 SPRIN         11  -0.0%   46.32      0.1250E-03   0.000      -3.679       0.000      0.5000E-01   0.000    
    9683   6.162      0.6364E-03 SPRIN         11  -0.0%   46.43      0.1250E-03   0.000      -3.571       0.000      0.5000E-01   0.000    
    9684   6.163      0.6364E-03 SPRIN         11  -0.0%   46.54      0.1250E-03   0.000      -3.463       0.000      0.5000E-01   0.000    
    9685   6.163      0.6364E-03 SPRIN         11  -0.0%   46.65      0.1250E-03   0.000      -3.354       0.000      0.5000E-01   0.000    
    9686   6.164      0.6364E-03 SPRIN         11  -0.0%   46.76      0.1250E-03   0.000      -3.245       0.000      0.5000E-01   0.000    
    9687   6.165      0.6364E-03 SPRIN         11  -0.0%   46.86      0.1250E-03   0.000      -3.135       0.000      0.5000E-01   0.000    
    9688   6.165      0.6364E-03 SPRIN         11  -0.0%   46.97      0.1250E-03   0.000      -3.025       0.000      0.5000E-01   0.000    
    9689   6.166      0.6364E-03 SPRIN         11  -0.0%   47.09      0.1250E-03   0.000      -2.915       0.000      0.5000E-01   0.000    
    9690   6.167      0.6364E-03 SPRIN         11  -0.0%   47.20      0.1250E-03   0.000      -2.804       0.000      0.5000E-01   0.000    
    9691   6.167      0.6364E-03 SPRIN         11  -0.0%   47.31      0.1250E-03   0.000      -2.693       0.000      0.5000E-01   0.000    
    9692   6.168      0.6364E-03 SPRIN         11  -0.0%   47.42      0.1250E-03   0.000      -2.581       0.000      0.5000E-01   0.000    
    9693   6.169      0.6364E-03 SPRIN         11  -0.0%   47.53      0.1250E-03   0.000      -2.469       0.000      0.5000E-01   0.000    
    9694   6.169      0.6364E-03 SPRIN         11  -0.0%   47.64      0.1250E-03   0.000      -2.356       0.000      0.5000E-01   0.000    
    9695   6.170      0.6364E-03 SPRIN         11  -0.0%   47.76      0.1250E-03   0.000      -2.244       0.000      0.5000E-01   0.000    
    9696   6.170      0.6364E-03 SPRIN         11  -0.0%   47.87      0.1250E-03   0.000      -2.130       0.000      0.5000E-01   0.000    
    9697   6.171      0.6364E-03 SPRIN         11  -0.0%   47.98      0.1250E-03   0.000      -2.017       0.000      0.5000E-01   0.000    
    9698   6.172      0.6364E-03 SPRIN         11  -0.0%   48.10      0.1250E-03   0.000      -1.903       0.000      0.5000E-01   0.000    
    9699   6.172      0.6364E-03 SPRIN         11  -0.0%   48.21      0.1250E-03   0.000      -1.788       0.000      0.5000E-01   0.000    
    9700   6.173      0.6364E-03 SPRIN         11  -0.0%   48.33      0.1250E-03   0.000      -1.673       0.000      0.5000E-01   0.000    
    9701   6.174      0.6364E-03 SPRIN         11  -0.0%   48.44      0.1250E-03   0.000      -1.558       0.000      0.5000E-01   0.000    
    9702   6.174      0.6364E-03 SPRIN         11  -0.0%   48.56      0.1250E-03   0.000      -1.442       0.000      0.5000E-01   0.000    
    9703   6.175      0.6364E-03 SPRIN         11  -0.0%   48.67      0.1250E-03   0.000      -1.326       0.000      0.5000E-01   0.000    
    9704   6.176      0.6364E-03 SPRIN         11  -0.0%   48.79      0.1250E-03   0.000      -1.210       0.000      0.5000E-01   0.000    
    9705   6.176      0.6364E-03 SPRIN         11  -0.0%   48.91      0.1250E-03   0.000      -1.093       0.000      0.5000E-01   0.000    
    9706   6.177      0.6364E-03 SPRIN         11  -0.0%   49.02      0.1250E-03   0.000     -0.9754       0.000      0.5000E-01   0.000    
    9707   6.177      0.6364E-03 SPRIN         11  -0.0%   49.14      0.1250E-03   0.000     -0.8577       0.000      0.5000E-01   0.000    
    9708   6.178      0.6364E-03 SPRIN         11  -0.0%   49.26      0.1250E-03   0.000     -0.7396       0.000      0.5000E-01   0.000    
    9709   6.179      0.6364E-03 SPRIN         11  -0.0%   49.38      0.1250E-03   0.000     -0.6211       0.000      0.5000E-01   0.000    
    9710   6.179      0.6364E-03 SPRIN         11  -0.0%   49.50      0.1250E-03   0.000     -0.5021       0.000      0.5000E-01   0.000    
    9711   6.180      0.6364E-03 SPRIN         11  -0.0%   49.62      0.1250E-03   0.000     -0.3828       0.000      0.5000E-01   0.000    
    9712   6.181      0.6364E-03 SPRIN         11  -0.0%   49.74      0.1250E-03   0.000     -0.2631       0.000      0.5000E-01   0.000    
    9713   6.181      0.6364E-03 SPRIN         11  -0.0%   49.86      0.1250E-03   0.000     -0.1429       0.000      0.5000E-01   0.000    
    9714   6.182      0.6364E-03 SPRIN         11  -0.0%   49.98      0.1250E-03   0.000     -0.2237E-01   0.000      0.5000E-01   0.000    
    9715   6.183      0.6364E-03 SPRIN         11  -0.0%   50.10      0.1250E-03   0.000      0.9858E-01   0.000      0.5000E-01   0.000    
    9716   6.183      0.6364E-03 SPRIN         11  -0.0%   50.22      0.1250E-03   0.000      0.2199       0.000      0.5000E-01   0.000    
    9717   6.184      0.6364E-03 SPRIN         11  -0.0%   50.34      0.1250E-03   0.000      0.3417       0.000      0.5000E-01   0.000    
    9718   6.184      0.6364E-03 SPRIN         11  -0.0%   50.46      0.1250E-03   0.000      0.4639       0.000      0.5000E-01   0.000    
    9719   6.185      0.6364E-03 SPRIN         11  -0.0%   50.59      0.1250E-03   0.000      0.5865       0.000      0.5000E-01   0.000    
    9720   6.186      0.6364E-03 SPRIN         11  -0.0%   50.71      0.1250E-03   0.000      0.7094       0.000      0.5000E-01   0.000    
    9721   6.186      0.6364E-03 SPRIN         11  -0.0%   50.83      0.1250E-03   0.000      0.8328       0.000      0.5000E-01   0.000    
    9722   6.187      0.6364E-03 SPRIN         11  -0.0%   50.96      0.1250E-03   0.000      0.9566       0.000      0.5000E-01   0.000    
    9723   6.188      0.6364E-03 SPRIN         11  -0.0%   51.08      0.1250E-03   0.000       1.081       0.000      0.5000E-01   0.000    
    9724   6.188      0.6364E-03 SPRIN         11  -0.0%   51.21      0.1250E-03   0.000       1.205       0.000      0.5000E-01   0.000    
    9725   6.189      0.6364E-03 SPRIN         11  -0.0%   51.33      0.1250E-03   0.000       1.330       0.000      0.5000E-01   0.000    
    9726   6.190      0.6364E-03 SPRIN         11  -0.0%   51.46      0.1250E-03   0.000       1.456       0.000      0.5000E-01   0.000    
    9727   6.190      0.6364E-03 SPRIN         11  -0.0%   51.58      0.1250E-03   0.000       1.582       0.000      0.5000E-01   0.000    
    9728   6.191      0.6364E-03 SPRIN         11  -0.0%   51.71      0.1250E-03   0.000       1.708       0.000      0.5000E-01   0.000    
    9729   6.191      0.6364E-03 SPRIN         11  -0.0%   51.83      0.1250E-03   0.000       1.834       0.000      0.5000E-01   0.000    
    9730   6.192      0.6364E-03 SPRIN         11  -0.0%   51.96      0.1250E-03   0.000       1.962       0.000      0.5000E-01   0.000    
    9731   6.193      0.6364E-03 SPRIN         11  -0.0%   52.09      0.1250E-03   0.000       2.089       0.000      0.5000E-01   0.000    
    9732   6.193      0.6364E-03 SPRIN         11  -0.0%   52.22      0.1250E-03   0.000       2.217       0.000      0.5000E-01   0.000    
    9733   6.194      0.6364E-03 SPRIN         11  -0.0%   52.34      0.1250E-03   0.000       2.345       0.000      0.5000E-01   0.000    
    9734   6.195      0.6364E-03 SPRIN         11  -0.0%   52.47      0.1250E-03   0.000       2.474       0.000      0.5000E-01   0.000    
   CYCLE    TIME      TIME-STEP  ELEMENT          ERROR  I-ENERGY    K-ENERGY T  K-ENERGY R  EXT-WORK     MAS.ERR     TOTAL MASS  MASS ADDED
    9735   6.195      0.6364E-03 SPRIN         11  -0.0%   52.60      0.1250E-03   0.000       2.603       0.000      0.5000E-01   0.000    
    9736   6.196      0.6364E-03 SPRIN         11  -0.0%   52.73      0.1250E-03   0.000       2.732       0.000      0.5000E-01   0.000    
    9737   6.197      0.6364E-03 SPRIN         11  -0.0%   52.86      0.1250E-03   0.000       2.862       0.000      0.5000E-01   0.000    
    9738   6.197      0.6364E-03 SPRIN         11  -0.0%   52.99      0.1250E-03   0.000       2.992       0.000      0.5000E-01   0.000    
    9739   6.198      0.6364E-03 SPRIN         11  -0.0%   53.12      0.1250E-03   0.000       3.123       0.000      0.5000E-01   0.000    
    9740   6.198      0.6364E-03 SPRIN         11  -0.0%   53.25      0.1250E-03   0.000       3.254       0.000      0.5000E-01   0.000    
    9741   6.199      0.6364E-03 SPRIN         11  -0.0%   53.39      0.1250E-03   0.000       3.386       0.000      0.5000E-01   0.000    
    9742   6.200      0.6364E-03 SPRIN         11  -0.0%   53.52      0.1250E-03   0.000       3.517       0.000      0.5000E-01   0.000    
    9743   6.200      0.6364E-03 SPRIN         11  -0.0%   53.65      0.1250E-03   0.000       3.650       0.000      0.5000E-01   0.000    
     ANIMATION FILE: SPR_PRE_2FLAGA032 WRITTEN
    9744   6.201      0.6364E-03 SPRIN         11  -0.0%   53.78      0.1250E-03   0.000       3.782       0.000      0.5000E-01   0.000    
    9745   6.202      0.6364E-03 SPRIN         11  -0.0%   53.92      0.1250E-03   0.000       3.916       0.000      0.5000E-01   0.000    
    9746   6.202      0.6364E-03 SPRIN         11  -0.0%   54.05      0.1250E-03   0.000       4.049       0.000      0.5000E-01   0.000    
    9747   6.203      0.6364E-03 SPRIN         11  -0.0%   54.18      0.1250E-03   0.000       4.183       0.000      0.5000E-01   0.000    
    9748   6.204      0.6364E-03 SPRIN         11  -0.0%   54.32      0.1250E-03   0.000       4.317       0.000      0.5000E-01   0.000    
    9749   6.204      0.6364E-03 SPRIN         11  -0.0%   54.45      0.1250E-03   0.000       4.452       0.000      0.5000E-01   0.000    
    9750   6.205      0.6364E-03 SPRIN         11  -0.0%   54.59      0.1250E-03   0.000       4.587       0.000      0.5000E-01   0.000    
    9751   6.205      0.6364E-03 SPRIN         11  -0.0%   54.72      0.1250E-03   0.000       4.723       0.000      0.5000E-01   0.000    
    9752   6.206      0.6364E-03 SPRIN         11  -0.0%   54.86      0.1250E-03   0.000       4.859       0.000      0.5000E-01   0.000    
    9753   6.207      0.6364E-03 SPRIN         11  -0.0%   54.99      0.1250E-03   0.000       4.995       0.000      0.5000E-01   0.000    
    9754   6.207      0.6364E-03 SPRIN         11  -0.0%   55.13      0.1250E-03   0.000       5.132       0.000      0.5000E-01   0.000    
    9755   6.208      0.6364E-03 SPRIN         11  -0.0%   55.27      0.1250E-03   0.000       5.269       0.000      0.5000E-01   0.000    
    9756   6.209      0.6364E-03 SPRIN         11  -0.0%   55.41      0.1250E-03   0.000       5.406       0.000      0.5000E-01   0.000    
    9757   6.209      0.6364E-03 SPRIN         11  -0.0%   55.54      0.1250E-03   0.000       5.544       0.000      0.5000E-01   0.000    
    9758   6.210      0.6364E-03 SPRIN         11  -0.0%   55.68      0.1250E-03   0.000       5.683       0.000      0.5000E-01   0.000    
    9759   6.211      0.6364E-03 SPRIN         11  -0.0%   55.82      0.1250E-03   0.000       5.822       0.000      0.5000E-01   0.000    
    9760   6.211      0.6364E-03 SPRIN         11  -0.0%   55.96      0.1250E-03   0.000       5.961       0.000      0.5000E-01   0.000    
    9761   6.212      0.6364E-03 SPRIN         11  -0.0%   56.10      0.1250E-03   0.000       6.100       0.000      0.5000E-01   0.000    
    9762   6.212      0.6364E-03 SPRIN         11  -0.0%   56.24      0.1250E-03   0.000       6.240       0.000      0.5000E-01   0.000    
    9763   6.213      0.6364E-03 SPRIN         11  -0.0%   56.38      0.1250E-03   0.000       6.381       0.000      0.5000E-01   0.000    
    9764   6.214      0.6364E-03 SPRIN         11  -0.0%   56.52      0.1250E-03   0.000       6.522       0.000      0.5000E-01   0.000    
    9765   6.214      0.6364E-03 SPRIN         11  -0.0%   56.66      0.1250E-03   0.000       6.663       0.000      0.5000E-01   0.000    
    9766   6.215      0.6364E-03 SPRIN         11  -0.0%   56.80      0.1250E-03   0.000       6.804       0.000      0.5000E-01   0.000    
    9767   6.216      0.6364E-03 SPRIN         11  -0.0%   56.95      0.1250E-03   0.000       6.946       0.000      0.5000E-01   0.000    
    9768   6.216      0.6364E-03 SPRIN         11  -0.0%   57.09      0.1250E-03   0.000       7.089       0.000      0.5000E-01   0.000    
    9769   6.217      0.6364E-03 SPRIN         11  -0.0%   57.23      0.1250E-03   0.000       7.232       0.000      0.5000E-01   0.000    
    9770   6.218      0.6364E-03 SPRIN         11  -0.0%   57.37      0.1250E-03   0.000       7.375       0.000      0.5000E-01   0.000    
    9771   6.218      0.6364E-03 SPRIN         11  -0.0%   57.52      0.1250E-03   0.000       7.518       0.000      0.5000E-01   0.000    
    9772   6.219      0.6364E-03 SPRIN         11  -0.0%   57.66      0.1250E-03   0.000       7.662       0.000      0.5000E-01   0.000    
    9773   6.219      0.6364E-03 SPRIN         11  -0.0%   57.81      0.1250E-03   0.000       7.807       0.000      0.5000E-01   0.000    
    9774   6.220      0.6364E-03 SPRIN         11  -0.0%   57.95      0.1250E-03   0.000       7.952       0.000      0.5000E-01   0.000    
    9775   6.221      0.6364E-03 SPRIN         11  -0.0%   58.10      0.1250E-03   0.000       8.097       0.000      0.5000E-01   0.000    
    9776   6.221      0.6364E-03 SPRIN         11  -0.0%   58.24      0.1250E-03   0.000       8.243       0.000      0.5000E-01   0.000    
    9777   6.222      0.6364E-03 SPRIN         11  -0.0%   58.39      0.1250E-03   0.000       8.389       0.000      0.5000E-01   0.000    
    9778   6.223      0.6364E-03 SPRIN         11  -0.0%   58.54      0.1250E-03   0.000       8.535       0.000      0.5000E-01   0.000    
    9779   6.223      0.6364E-03 SPRIN         11  -0.0%   58.68      0.1250E-03   0.000       8.682       0.000      0.5000E-01   0.000    
    9780   6.224      0.6364E-03 SPRIN         11  -0.0%   58.83      0.1250E-03   0.000       8.829       0.000      0.5000E-01   0.000    
    9781   6.225      0.6364E-03 SPRIN         11  -0.0%   58.98      0.1250E-03   0.000       8.977       0.000      0.5000E-01   0.000    
    9782   6.225      0.6364E-03 SPRIN         11  -0.0%   59.13      0.1250E-03   0.000       9.125       0.000      0.5000E-01   0.000    
    9783   6.226      0.6364E-03 SPRIN         11  -0.0%   59.27      0.1250E-03   0.000       9.274       0.000      0.5000E-01   0.000    
    9784   6.226      0.6364E-03 SPRIN         11  -0.0%   59.42      0.1250E-03   0.000       9.423       0.000      0.5000E-01   0.000    
    9785   6.227      0.6364E-03 SPRIN         11  -0.0%   59.57      0.1250E-03   0.000       9.572       0.000      0.5000E-01   0.000    
    9786   6.228      0.6364E-03 SPRIN         11  -0.0%   59.72      0.1250E-03   0.000       9.722       0.000      0.5000E-01   0.000    
    9787   6.228      0.6364E-03 SPRIN         11  -0.0%   59.87      0.1250E-03   0.000       9.872       0.000      0.5000E-01   0.000    
    9788   6.229      0.6364E-03 SPRIN         11  -0.0%   60.02      0.1250E-03   0.000       10.02       0.000      0.5000E-01   0.000    
    9789   6.230      0.6364E-03 SPRIN         11  -0.0%   60.17      0.1250E-03   0.000       10.17       0.000      0.5000E-01   0.000    
   CYCLE    TIME      TIME-STEP  ELEMENT          ERROR  I-ENERGY    K-ENERGY T  K-ENERGY R  EXT-WORK     MAS.ERR     TOTAL MASS  MASS ADDED
    9790   6.230      0.6364E-03 SPRIN         11  -0.0%   60.32      0.1250E-03   0.000       10.32       0.000      0.5000E-01   0.000    
    9791   6.231      0.6364E-03 SPRIN         11  -0.0%   60.48      0.1250E-03   0.000       10.48       0.000      0.5000E-01   0.000    
    9792   6.232      0.6364E-03 SPRIN         11  -0.0%   60.63      0.1250E-03   0.000       10.63       0.000      0.5000E-01   0.000    
    9793   6.232      0.6364E-03 SPRIN         11  -0.0%   60.78      0.1250E-03   0.000       10.78       0.000      0.5000E-01   0.000    
    9794   6.233      0.6364E-03 SPRIN         11  -0.0%   60.93      0.1250E-03   0.000       10.93       0.000      0.5000E-01   0.000    
    9795   6.233      0.6364E-03 SPRIN         11  -0.0%   61.09      0.1250E-03   0.000       11.09       0.000      0.5000E-01   0.000    
    9796   6.234      0.6364E-03 SPRIN         11  -0.0%   61.24      0.1250E-03   0.000       11.24       0.000      0.5000E-01   0.000    
    9797   6.235      0.6364E-03 SPRIN         11  -0.0%   61.39      0.1250E-03   0.000       11.40       0.000      0.5000E-01   0.000    
    9798   6.235      0.6364E-03 SPRIN         11  -0.0%   61.55      0.1250E-03   0.000       11.55       0.000      0.5000E-01   0.000    
    9799   6.236      0.6364E-03 SPRIN         11  -0.0%   61.70      0.1250E-03   0.000       11.70       0.000      0.5000E-01   0.000    
    9800   6.237      0.6364E-03 SPRIN         11  -0.0%   61.86      0.1250E-03   0.000       11.86       0.000      0.5000E-01   0.000    
    9801   6.237      0.6364E-03 SPRIN         11  -0.0%   62.02      0.1250E-03   0.000       12.02       0.000      0.5000E-01   0.000    
    9802   6.238      0.6364E-03 SPRIN         11  -0.0%   62.17      0.1250E-03   0.000       12.17       0.000      0.5000E-01   0.000    
    9803   6.239      0.6364E-03 SPRIN         11  -0.0%   62.33      0.1250E-03   0.000       12.33       0.000      0.5000E-01   0.000    
    9804   6.239      0.6364E-03 SPRIN         11  -0.0%   62.49      0.1250E-03   0.000       12.49       0.000      0.5000E-01   0.000    
    9805   6.240      0.6364E-03 SPRIN         11  -0.0%   62.64      0.1250E-03   0.000       12.64       0.000      0.5000E-01   0.000    
    9806   6.241      0.6364E-03 SPRIN         11  -0.0%   62.80      0.1250E-03   0.000       12.80       0.000      0.5000E-01   0.000    
    9807   6.241      0.6364E-03 SPRIN         11  -0.0%   62.96      0.1250E-03   0.000       12.96       0.000      0.5000E-01   0.000    
    9808   6.242      0.6364E-03 SPRIN         11  -0.0%   63.12      0.1250E-03   0.000       13.12       0.000      0.5000E-01   0.000    
    9809   6.242      0.6364E-03 SPRIN         11  -0.0%   63.28      0.1250E-03   0.000       13.28       0.000      0.5000E-01   0.000    
    9810   6.243      0.6364E-03 SPRIN         11  -0.0%   63.44      0.1250E-03   0.000       13.44       0.000      0.5000E-01   0.000    
    9811   6.244      0.6364E-03 SPRIN         11  -0.0%   63.60      0.1250E-03   0.000       13.60       0.000      0.5000E-01   0.000    
    9812   6.244      0.6364E-03 SPRIN         11  -0.0%   63.76      0.1250E-03   0.000       13.76       0.000      0.5000E-01   0.000    
    9813   6.245      0.6364E-03 SPRIN         11  -0.0%   63.92      0.1250E-03   0.000       13.92       0.000      0.5000E-01   0.000    
    9814   6.246      0.6364E-03 SPRIN         11  -0.0%   64.08      0.1250E-03   0.000       14.08       0.000      0.5000E-01   0.000    
    9815   6.246      0.6364E-03 SPRIN         11  -0.0%   64.24      0.1250E-03   0.000       14.24       0.000      0.5000E-01   0.000    
    9816   6.247      0.6364E-03 SPRIN         11  -0.0%   64.40      0.1250E-03   0.000       14.40       0.000      0.5000E-01   0.000    
    9817   6.248      0.6364E-03 SPRIN         11  -0.0%   64.56      0.1250E-03   0.000       14.56       0.000      0.5000E-01   0.000    
    9818   6.248      0.6364E-03 SPRIN         11  -0.0%   64.73      0.1250E-03   0.000       14.73       0.000      0.5000E-01   0.000    
    9819   6.249      0.6364E-03 SPRIN         11  -0.0%   64.89      0.1250E-03   0.000       14.89       0.000      0.5000E-01   0.000    
    9820   6.249      0.6364E-03 SPRIN         11  -0.0%   65.05      0.1250E-03   0.000       15.05       0.000      0.5000E-01   0.000    
    9821   6.250      0.6364E-03 SPRIN         11  -0.0%   65.22      0.1250E-03   0.000       15.22       0.000      0.5000E-01   0.000    
    9822   6.251      0.6364E-03 SPRIN         11  -0.0%   65.38      0.1250E-03   0.000       15.38       0.000      0.5000E-01   0.000    
    9823   6.251      0.6364E-03 SPRIN         11  -0.0%   65.55      0.1250E-03   0.000       15.55       0.000      0.5000E-01   0.000    
    9824   6.252      0.6364E-03 SPRIN         11  -0.0%   65.71      0.1250E-03   0.000       15.71       0.000      0.5000E-01   0.000    
    9825   6.253      0.6364E-03 SPRIN         11  -0.0%   65.88      0.1250E-03   0.000       15.88       0.000      0.5000E-01   0.000    
    9826   6.253      0.6364E-03 SPRIN         11  -0.0%   66.04      0.1250E-03   0.000       16.04       0.000      0.5000E-01   0.000    
    9827   6.254      0.6364E-03 SPRIN         11  -0.0%   66.21      0.1250E-03   0.000       16.21       0.000      0.5000E-01   0.000    
    9828   6.255      0.6364E-03 SPRIN         11  -0.0%   66.37      0.1250E-03   0.000       16.38       0.000      0.5000E-01   0.000    
    9829   6.255      0.6364E-03 SPRIN         11  -0.0%   66.54      0.1250E-03   0.000       16.54       0.000      0.5000E-01   0.000    
    9830   6.256      0.6364E-03 SPRIN         11  -0.0%   66.71      0.1250E-03   0.000       16.71       0.000      0.5000E-01   0.000    
    9831   6.256      0.6364E-03 SPRIN         11  -0.0%   66.88      0.1250E-03   0.000       16.88       0.000      0.5000E-01   0.000    
    9832   6.257      0.6364E-03 SPRIN         11  -0.0%   67.05      0.1250E-03   0.000       17.05       0.000      0.5000E-01   0.000    
    9833   6.258      0.6364E-03 SPRIN         11  -0.0%   67.21      0.1250E-03   0.000       17.21       0.000      0.5000E-01   0.000    
    9834   6.258      0.6364E-03 SPRIN         11  -0.0%   67.38      0.1250E-03   0.000       17.38       0.000      0.5000E-01   0.000    
    9835   6.259      0.6364E-03 SPRIN         11  -0.0%   67.55      0.1250E-03   0.000       17.55       0.000      0.5000E-01   0.000    
    9836   6.260      0.6364E-03 SPRIN         11  -0.0%   67.72      0.1250E-03   0.000       17.72       0.000      0.5000E-01   0.000    
    9837   6.260      0.6364E-03 SPRIN         11  -0.0%   67.89      0.1250E-03   0.000       17.89       0.000      0.5000E-01   0.000    
    9838   6.261      0.6364E-03 SPRIN         11  -0.0%   68.06      0.1250E-03   0.000       18.06       0.000      0.5000E-01   0.000    
    9839   6.262      0.6364E-03 SPRIN         11  -0.0%   68.24      0.1250E-03   0.000       18.24       0.000      0.5000E-01   0.000    
    9840   6.262      0.6364E-03 SPRIN         11  -0.0%   68.41      0.1250E-03   0.000       18.41       0.000      0.5000E-01   0.000    
    9841   6.263      0.6364E-03 SPRIN         11  -0.0%   68.58      0.1250E-03   0.000       18.58       0.000      0.5000E-01   0.000    
    9842   6.263      0.6364E-03 SPRIN         11  -0.0%   68.75      0.1250E-03   0.000       18.75       0.000      0.5000E-01   0.000    
    9843   6.264      0.6364E-03 SPRIN         11  -0.0%   68.92      0.1250E-03   0.000       18.92       0.000      0.5000E-01   0.000    
    9844   6.265      0.6364E-03 SPRIN         11  -0.0%   69.10      0.1250E-03   0.000       19.10       0.000      0.5000E-01   0.000    
   CYCLE    TIME      TIME-STEP  ELEMENT          ERROR  I-ENERGY    K-ENERGY T  K-ENERGY R  EXT-WORK     MAS.ERR     TOTAL MASS  MASS ADDED
    9845   6.265      0.6364E-03 SPRIN         11  -0.0%   69.27      0.1250E-03   0.000       19.27       0.000      0.5000E-01   0.000    
    9846   6.266      0.6364E-03 SPRIN         11  -0.0%   69.45      0.1250E-03   0.000       19.45       0.000      0.5000E-01   0.000    
    9847   6.267      0.6364E-03 SPRIN         11  -0.0%   69.62      0.1250E-03   0.000       19.62       0.000      0.5000E-01   0.000    
    9848   6.267      0.6364E-03 SPRIN         11  -0.0%   69.79      0.1250E-03   0.000       19.79       0.000      0.5000E-01   0.000    
    9849   6.268      0.6364E-03 SPRIN         11  -0.0%   69.97      0.1250E-03   0.000       19.97       0.000      0.5000E-01   0.000    
    9850   6.269      0.6364E-03 SPRIN         11  -0.0%   70.15      0.1250E-03   0.000       20.15       0.000      0.5000E-01   0.000    
    9851   6.269      0.6364E-03 SPRIN         11  -0.0%   70.32      0.1250E-03   0.000       20.32       0.000      0.5000E-01   0.000    
    9852   6.270      0.6364E-03 SPRIN         11  -0.0%   70.50      0.1250E-03   0.000       20.50       0.000      0.5000E-01   0.000    
    9853   6.270      0.6364E-03 SPRIN         11  -0.0%   70.67      0.1250E-03   0.000       20.67       0.000      0.5000E-01   0.000    
    9854   6.271      0.6364E-03 SPRIN         11  -0.0%   70.85      0.1250E-03   0.000       20.85       0.000      0.5000E-01   0.000    
    9855   6.272      0.6364E-03 SPRIN         11  -0.0%   71.03      0.1250E-03   0.000       21.03       0.000      0.5000E-01   0.000    
    9856   6.272      0.6364E-03 SPRIN         11  -0.0%   71.21      0.1250E-03   0.000       21.21       0.000      0.5000E-01   0.000    
    9857   6.273      0.6364E-03 SPRIN         11  -0.0%   71.39      0.1250E-03   0.000       21.39       0.000      0.5000E-01   0.000    
    9858   6.274      0.6364E-03 SPRIN         11  -0.0%   71.56      0.1250E-03   0.000       21.57       0.000      0.5000E-01   0.000    
    9859   6.274      0.6364E-03 SPRIN         11  -0.0%   71.74      0.1250E-03   0.000       21.74       0.000      0.5000E-01   0.000    
    9860   6.275      0.6364E-03 SPRIN         11  -0.0%   71.92      0.1250E-03   0.000       21.92       0.000      0.5000E-01   0.000    
    9861   6.276      0.6364E-03 SPRIN         11  -0.0%   72.10      0.1250E-03   0.000       22.10       0.000      0.5000E-01   0.000    
    9862   6.276      0.6364E-03 SPRIN         11  -0.0%   72.28      0.1250E-03   0.000       22.28       0.000      0.5000E-01   0.000    
    9863   6.277      0.6364E-03 SPRIN         11  -0.0%   72.47      0.1250E-03   0.000       22.47       0.000      0.5000E-01   0.000    
    9864   6.277      0.6364E-03 SPRIN         11  -0.0%   72.65      0.1250E-03   0.000       22.65       0.000      0.5000E-01   0.000    
    9865   6.278      0.6364E-03 SPRIN         11  -0.0%   72.83      0.1250E-03   0.000       22.83       0.000      0.5000E-01   0.000    
    9866   6.279      0.6364E-03 SPRIN         11  -0.0%   73.01      0.1250E-03   0.000       23.01       0.000      0.5000E-01   0.000    
    9867   6.279      0.6364E-03 SPRIN         11  -0.0%   73.19      0.1250E-03   0.000       23.19       0.000      0.5000E-01   0.000    
    9868   6.280      0.6364E-03 SPRIN         11  -0.0%   73.38      0.1250E-03   0.000       23.38       0.000      0.5000E-01   0.000    
    9869   6.281      0.6364E-03 SPRIN         11  -0.0%   73.56      0.1250E-03   0.000       23.56       0.000      0.5000E-01   0.000    
    9870   6.281      0.6364E-03 SPRIN         11  -0.0%   73.74      0.1250E-03   0.000       23.74       0.000      0.5000E-01   0.000    
    9871   6.282      0.6364E-03 SPRIN         11  -0.0%   73.93      0.1250E-03   0.000       23.93       0.000      0.5000E-01   0.000    
    9872   6.283      0.6364E-03 SPRIN         11  -0.0%   74.11      0.1250E-03   0.000       24.11       0.000      0.5000E-01   0.000    
    9873   6.283      0.6364E-03 SPRIN         11  -0.0%   74.30      0.1250E-03   0.000       24.30       0.000      0.5000E-01   0.000    
    9874   6.284      0.6364E-03 SPRIN         11  -0.0%   74.48      0.1250E-03   0.000       24.48       0.000      0.5000E-01   0.000    
    9875   6.284      0.6364E-03 SPRIN         11  -0.0%   74.67      0.1250E-03   0.000       24.67       0.000      0.5000E-01   0.000    
    9876   6.285      0.6364E-03 SPRIN         11  -0.0%   74.85      0.1250E-03   0.000       24.85       0.000      0.5000E-01   0.000    
    9877   6.286      0.6364E-03 SPRIN         11  -0.0%   75.04      0.1250E-03   0.000       25.04       0.000      0.5000E-01   0.000    
    9878   6.286      0.6364E-03 SPRIN         11  -0.0%   75.23      0.1250E-03   0.000       25.23       0.000      0.5000E-01   0.000    
    9879   6.287      0.6364E-03 SPRIN         11  -0.0%   75.41      0.1250E-03   0.000       25.41       0.000      0.5000E-01   0.000    
    9880   6.288      0.6364E-03 SPRIN         11  -0.0%   75.60      0.1250E-03   0.000       25.60       0.000      0.5000E-01   0.000    
    9881   6.288      0.6364E-03 SPRIN         11  -0.0%   75.79      0.1250E-03   0.000       25.79       0.000      0.5000E-01   0.000    
    9882   6.289      0.6364E-03 SPRIN         11  -0.0%   75.98      0.1250E-03   0.000       25.98       0.000      0.5000E-01   0.000    
    9883   6.290      0.6364E-03 SPRIN         11  -0.0%   76.17      0.1250E-03   0.000       26.17       0.000      0.5000E-01   0.000    
    9884   6.290      0.6364E-03 SPRIN         11  -0.0%   76.36      0.1250E-03   0.000       26.36       0.000      0.5000E-01   0.000    
    9885   6.291      0.6364E-03 SPRIN         11  -0.0%   76.55      0.1250E-03   0.000       26.55       0.000      0.5000E-01   0.000    
    9886   6.291      0.6364E-03 SPRIN         11  -0.0%   76.74      0.1250E-03   0.000       26.74       0.000      0.5000E-01   0.000    
    9887   6.292      0.6364E-03 SPRIN         11  -0.0%   76.93      0.1250E-03   0.000       26.93       0.000      0.5000E-01   0.000    
    9888   6.293      0.6364E-03 SPRIN         11  -0.0%   77.12      0.1250E-03   0.000       27.12       0.000      0.5000E-01   0.000    
    9889   6.293      0.6364E-03 SPRIN         11  -0.0%   77.31      0.1250E-03   0.000       27.31       0.000      0.5000E-01   0.000    
    9890   6.294      0.6364E-03 SPRIN         11  -0.0%   77.50      0.1250E-03   0.000       27.50       0.000      0.5000E-01   0.000    
    9891   6.295      0.6364E-03 SPRIN         11  -0.0%   77.69      0.1250E-03   0.000       27.69       0.000      0.5000E-01   0.000    
    9892   6.295      0.6364E-03 SPRIN         11  -0.0%   77.89      0.1250E-03   0.000       27.89       0.000      0.5000E-01   0.000    
    9893   6.296      0.6364E-03 SPRIN         11  -0.0%   78.08      0.1250E-03   0.000       28.08       0.000      0.5000E-01   0.000    
    9894   6.297      0.6364E-03 SPRIN         11  -0.0%   78.27      0.1250E-03   0.000       28.27       0.000      0.5000E-01   0.000    
    9895   6.297      0.6364E-03 SPRIN         11  -0.0%   78.47      0.1250E-03   0.000       28.47       0.000      0.5000E-01   0.000    
    9896   6.298      0.6364E-03 SPRIN         11  -0.0%   78.66      0.1250E-03   0.000       28.66       0.000      0.5000E-01   0.000    
    9897   6.298      0.6364E-03 SPRIN         11  -0.0%   78.86      0.1250E-03   0.000       28.86       0.000      0.5000E-01   0.000    
    9898   6.299      0.6364E-03 SPRIN         11  -0.0%   79.05      0.1250E-03   0.000       29.05       0.000      0.5000E-01   0.000    
    9899   6.300      0.6364E-03 SPRIN         11  -0.0%   79.25      0.1250E-03   0.000       29.25       0.000      0.5000E-01   0.000    
   CYCLE    TIME      TIME-STEP  ELEMENT          ERROR  I-ENERGY    K-ENERGY T  K-ENERGY R  EXT-WORK     MAS.ERR     TOTAL MASS  MASS ADDED
    9900   6.300      0.6364E-03 SPRIN         11  -0.0%   79.44      0.1250E-03   0.000       29.44       0.000      0.5000E-01   0.000    
    9901   6.301      0.6364E-03 SPRIN         11  -0.0%   79.64      0.1250E-03   0.000       29.64       0.000      0.5000E-01   0.000    
    9902   6.302      0.6364E-03 SPRIN         11  -0.0%   79.84      0.1250E-03   0.000       29.84       0.000      0.5000E-01   0.000    
    9903   6.302      0.6364E-03 SPRIN         11  -0.0%   80.03      0.1250E-03   0.000       30.03       0.000      0.5000E-01   0.000    
    9904   6.303      0.6364E-03 SPRIN         11  -0.0%   80.23      0.1250E-03   0.000       30.23       0.000      0.5000E-01   0.000    
    9905   6.304      0.6364E-03 SPRIN         11  -0.0%   80.43      0.1250E-03   0.000       30.43       0.000      0.5000E-01   0.000    
    9906   6.304      0.6364E-03 SPRIN         11  -0.0%   80.63      0.1250E-03   0.000       30.63       0.000      0.5000E-01   0.000    
    9907   6.305      0.6364E-03 SPRIN         11  -0.0%   80.83      0.1250E-03   0.000       30.83       0.000      0.5000E-01   0.000    
    9908   6.305      0.6364E-03 SPRIN         11  -0.0%   81.02      0.1250E-03   0.000       31.02       0.000      0.5000E-01   0.000    
    9909   6.306      0.6364E-03 SPRIN         11  -0.0%   81.22      0.1250E-03   0.000       31.22       0.000      0.5000E-01   0.000    
    9910   6.307      0.6364E-03 SPRIN         11  -0.0%   81.42      0.1250E-03   0.000       31.42       0.000      0.5000E-01   0.000    
    9911   6.307      0.6364E-03 SPRIN         11  -0.0%   81.62      0.1250E-03   0.000       31.62       0.000      0.5000E-01   0.000    
    9912   6.308      0.6364E-03 SPRIN         11  -0.0%   81.83      0.1250E-03   0.000       31.83       0.000      0.5000E-01   0.000    
    9913   6.309      0.6364E-03 SPRIN         11  -0.0%   82.03      0.1250E-03   0.000       32.03       0.000      0.5000E-01   0.000    
    9914   6.309      0.6364E-03 SPRIN         11  -0.0%   82.23      0.1250E-03   0.000       32.23       0.000      0.5000E-01   0.000    
    9915   6.310      0.6364E-03 SPRIN         11  -0.0%   82.43      0.1250E-03   0.000       32.43       0.000      0.5000E-01   0.000    
    9916   6.311      0.6364E-03 SPRIN         11  -0.0%   82.63      0.1250E-03   0.000       32.63       0.000      0.5000E-01   0.000    
    9917   6.311      0.6364E-03 SPRIN         11  -0.0%   82.84      0.1250E-03   0.000       32.84       0.000      0.5000E-01   0.000    
    9918   6.312      0.6364E-03 SPRIN         11  -0.0%   83.04      0.1250E-03   0.000       33.04       0.000      0.5000E-01   0.000    
    9919   6.312      0.6364E-03 SPRIN         11  -0.0%   83.24      0.1250E-03   0.000       33.24       0.000      0.5000E-01   0.000    
    9920   6.313      0.6364E-03 SPRIN         11  -0.0%   83.45      0.1250E-03   0.000       33.45       0.000      0.5000E-01   0.000    
    9921   6.314      0.6364E-03 SPRIN         11  -0.0%   83.65      0.1250E-03   0.000       33.65       0.000      0.5000E-01   0.000    
    9922   6.314      0.6364E-03 SPRIN         11  -0.0%   83.86      0.1250E-03   0.000       33.86       0.000      0.5000E-01   0.000    
    9923   6.315      0.6364E-03 SPRIN         11  -0.0%   84.06      0.1250E-03   0.000       34.06       0.000      0.5000E-01   0.000    
    9924   6.316      0.6364E-03 SPRIN         11  -0.0%   84.27      0.1250E-03   0.000       34.27       0.000      0.5000E-01   0.000    
    9925   6.316      0.6364E-03 SPRIN         11  -0.0%   84.47      0.1250E-03   0.000       34.47       0.000      0.5000E-01   0.000    
    9926   6.317      0.6364E-03 SPRIN         11  -0.0%   84.68      0.1250E-03   0.000       34.68       0.000      0.5000E-01   0.000    
    9927   6.318      0.6364E-03 SPRIN         11  -0.0%   84.89      0.1250E-03   0.000       34.89       0.000      0.5000E-01   0.000    
    9928   6.318      0.6364E-03 SPRIN         11  -0.0%   85.09      0.1250E-03   0.000       35.09       0.000      0.5000E-01   0.000    
    9929   6.319      0.6364E-03 SPRIN         11  -0.0%   85.30      0.1250E-03   0.000       35.30       0.000      0.5000E-01   0.000    
    9930   6.319      0.6364E-03 SPRIN         11  -0.0%   85.51      0.1250E-03   0.000       35.51       0.000      0.5000E-01   0.000    
    9931   6.320      0.6364E-03 SPRIN         11  -0.0%   85.72      0.1250E-03   0.000       35.72       0.000      0.5000E-01   0.000    
    9932   6.321      0.6364E-03 SPRIN         11  -0.0%   85.93      0.1250E-03   0.000       35.93       0.000      0.5000E-01   0.000    
    9933   6.321      0.6364E-03 SPRIN         11  -0.0%   86.13      0.1250E-03   0.000       36.13       0.000      0.5000E-01   0.000    
    9934   6.322      0.6364E-03 SPRIN         11  -0.0%   86.34      0.1250E-03   0.000       36.34       0.000      0.5000E-01   0.000    
    9935   6.323      0.6364E-03 SPRIN         11  -0.0%   86.55      0.1250E-03   0.000       36.55       0.000      0.5000E-01   0.000    
    9936   6.323      0.6364E-03 SPRIN         11  -0.0%   86.76      0.1250E-03   0.000       36.76       0.000      0.5000E-01   0.000    
    9937   6.324      0.6364E-03 SPRIN         11  -0.0%   86.98      0.1250E-03   0.000       36.98       0.000      0.5000E-01   0.000    
    9938   6.325      0.6364E-03 SPRIN         11  -0.0%   87.19      0.1250E-03   0.000       37.19       0.000      0.5000E-01   0.000    
    9939   6.325      0.6364E-03 SPRIN         11  -0.0%   87.40      0.1250E-03   0.000       37.40       0.000      0.5000E-01   0.000    
    9940   6.326      0.6364E-03 SPRIN         11  -0.0%   87.61      0.1250E-03   0.000       37.61       0.000      0.5000E-01   0.000    
    9941   6.326      0.6364E-03 SPRIN         11  -0.0%   87.82      0.1250E-03   0.000       37.82       0.000      0.5000E-01   0.000    
    9942   6.327      0.6364E-03 SPRIN         11  -0.0%   88.04      0.1250E-03   0.000       38.04       0.000      0.5000E-01   0.000    
    9943   6.328      0.6364E-03 SPRIN         11  -0.0%   88.25      0.1250E-03   0.000       38.25       0.000      0.5000E-01   0.000    
    9944   6.328      0.6364E-03 SPRIN         11  -0.0%   88.46      0.1250E-03   0.000       38.46       0.000      0.5000E-01   0.000    
    9945   6.329      0.6364E-03 SPRIN         11  -0.0%   88.68      0.1250E-03   0.000       38.68       0.000      0.5000E-01   0.000    
    9946   6.330      0.6364E-03 SPRIN         11  -0.0%   88.89      0.1250E-03   0.000       38.89       0.000      0.5000E-01   0.000    
    9947   6.330      0.6364E-03 SPRIN         11  -0.0%   89.11      0.1250E-03   0.000       39.11       0.000      0.5000E-01   0.000    
    9948   6.331      0.6364E-03 SPRIN         11  -0.0%   89.32      0.1250E-03   0.000       39.32       0.000      0.5000E-01   0.000    
    9949   6.332      0.6364E-03 SPRIN         11  -0.0%   89.54      0.1250E-03   0.000       39.54       0.000      0.5000E-01   0.000    
    9950   6.332      0.6364E-03 SPRIN         11  -0.0%   89.75      0.1250E-03   0.000       39.75       0.000      0.5000E-01   0.000    
    9951   6.333      0.6364E-03 SPRIN         11  -0.0%   89.97      0.1250E-03   0.000       39.97       0.000      0.5000E-01   0.000    
    9952   6.333      0.6364E-03 SPRIN         11  -0.0%   90.19      0.1250E-03   0.000       40.19       0.000      0.5000E-01   0.000    
    9953   6.334      0.6364E-03 SPRIN         11  -0.0%   90.40      0.1250E-03   0.000       40.40       0.000      0.5000E-01   0.000    
    9954   6.335      0.6364E-03 SPRIN         11  -0.0%   90.62      0.1250E-03   0.000       40.62       0.000      0.5000E-01   0.000    
   CYCLE    TIME      TIME-STEP  ELEMENT          ERROR  I-ENERGY    K-ENERGY T  K-ENERGY R  EXT-WORK     MAS.ERR     TOTAL MASS  MASS ADDED
    9955   6.335      0.6364E-03 SPRIN         11  -0.0%   90.84      0.1250E-03   0.000       40.84       0.000      0.5000E-01   0.000    
    9956   6.336      0.6364E-03 SPRIN         11  -0.0%   91.06      0.1250E-03   0.000       41.06       0.000      0.5000E-01   0.000    
    9957   6.337      0.6364E-03 SPRIN         11  -0.0%   91.28      0.1250E-03   0.000       41.28       0.000      0.5000E-01   0.000    
    9958   6.337      0.6364E-03 SPRIN         11  -0.0%   91.50      0.1250E-03   0.000       41.50       0.000      0.5000E-01   0.000    
    9959   6.338      0.6364E-03 SPRIN         11  -0.0%   91.72      0.1250E-03   0.000       41.72       0.000      0.5000E-01   0.000    
    9960   6.339      0.6364E-03 SPRIN         11  -0.0%   91.94      0.1250E-03   0.000       41.94       0.000      0.5000E-01   0.000    
    9961   6.339      0.6364E-03 SPRIN         11  -0.0%   92.16      0.1250E-03   0.000       42.16       0.000      0.5000E-01   0.000    
    9962   6.340      0.6364E-03 SPRIN         11  -0.0%   92.38      0.1250E-03   0.000       42.38       0.000      0.5000E-01   0.000    
    9963   6.340      0.6364E-03 SPRIN         11  -0.0%   92.60      0.1250E-03   0.000       42.60       0.000      0.5000E-01   0.000    
    9964   6.341      0.6364E-03 SPRIN         11  -0.0%   92.82      0.1250E-03   0.000       42.82       0.000      0.5000E-01   0.000    
    9965   6.342      0.6364E-03 SPRIN         11  -0.0%   93.04      0.1250E-03   0.000       43.04       0.000      0.5000E-01   0.000    
    9966   6.342      0.6364E-03 SPRIN         11  -0.0%   93.27      0.1250E-03   0.000       43.27       0.000      0.5000E-01   0.000    
    9967   6.343      0.6364E-03 SPRIN         11  -0.0%   93.49      0.1250E-03   0.000       43.49       0.000      0.5000E-01   0.000    
    9968   6.344      0.6364E-03 SPRIN         11  -0.0%   93.71      0.1250E-03   0.000       43.71       0.000      0.5000E-01   0.000    
    9969   6.344      0.6364E-03 SPRIN         11  -0.0%   93.94      0.1250E-03   0.000       43.94       0.000      0.5000E-01   0.000    
    9970   6.345      0.6364E-03 SPRIN         11  -0.0%   94.16      0.1250E-03   0.000       44.16       0.000      0.5000E-01   0.000    
    9971   6.346      0.6364E-03 SPRIN         11  -0.0%   94.39      0.1250E-03   0.000       44.39       0.000      0.5000E-01   0.000    
    9972   6.346      0.6364E-03 SPRIN         11  -0.0%   94.61      0.1250E-03   0.000       44.61       0.000      0.5000E-01   0.000    
    9973   6.347      0.6364E-03 SPRIN         11  -0.0%   94.84      0.1250E-03   0.000       44.84       0.000      0.5000E-01   0.000    
    9974   6.347      0.6364E-03 SPRIN         11  -0.0%   95.06      0.1250E-03   0.000       45.06       0.000      0.5000E-01   0.000    
    9975   6.348      0.6364E-03 SPRIN         11  -0.0%   95.29      0.1250E-03   0.000       45.29       0.000      0.5000E-01   0.000    
    9976   6.349      0.6364E-03 SPRIN         11  -0.0%   95.52      0.1250E-03   0.000       45.52       0.000      0.5000E-01   0.000    
    9977   6.349      0.6364E-03 SPRIN         11  -0.0%   95.74      0.1250E-03   0.000       45.74       0.000      0.5000E-01   0.000    
    9978   6.350      0.6364E-03 SPRIN         11  -0.0%   95.97      0.1250E-03   0.000       45.97       0.000      0.5000E-01   0.000    
    9979   6.351      0.6364E-03 SPRIN         11  -0.0%   96.20      0.1250E-03   0.000       46.20       0.000      0.5000E-01   0.000    
    9980   6.351      0.6364E-03 SPRIN         11  -0.0%   96.43      0.1250E-03   0.000       46.43       0.000      0.5000E-01   0.000    
    9981   6.352      0.6364E-03 SPRIN         11  -0.0%   96.65      0.1250E-03   0.000       46.65       0.000      0.5000E-01   0.000    
    9982   6.353      0.6364E-03 SPRIN         11  -0.0%   96.88      0.1250E-03   0.000       46.88       0.000      0.5000E-01   0.000    
    9983   6.353      0.6364E-03 SPRIN         11  -0.0%   97.11      0.1250E-03   0.000       47.11       0.000      0.5000E-01   0.000    
    9984   6.354      0.6364E-03 SPRIN         11  -0.0%   97.34      0.1250E-03   0.000       47.34       0.000      0.5000E-01   0.000    
    9985   6.354      0.6364E-03 SPRIN         11  -0.0%   97.57      0.1250E-03   0.000       47.57       0.000      0.5000E-01   0.000    
    9986   6.355      0.6364E-03 SPRIN         11  -0.0%   97.80      0.1250E-03   0.000       47.80       0.000      0.5000E-01   0.000    
    9987   6.356      0.6364E-03 SPRIN         11  -0.0%   98.04      0.1250E-03   0.000       48.04       0.000      0.5000E-01   0.000    
    9988   6.356      0.6364E-03 SPRIN         11  -0.0%   98.27      0.1250E-03   0.000       48.27       0.000      0.5000E-01   0.000    
    9989   6.357      0.6364E-03 SPRIN         11  -0.0%   98.50      0.1250E-03   0.000       48.50       0.000      0.5000E-01   0.000    
    9990   6.358      0.6364E-03 SPRIN         11  -0.0%   98.73      0.1250E-03   0.000       48.73       0.000      0.5000E-01   0.000    
    9991   6.358      0.6364E-03 SPRIN         11  -0.0%   98.96      0.1250E-03   0.000       48.96       0.000      0.5000E-01   0.000    
    9992   6.359      0.6364E-03 SPRIN         11  -0.0%   99.20      0.1250E-03   0.000       49.20       0.000      0.5000E-01   0.000    
    9993   6.360      0.6364E-03 SPRIN         11  -0.0%   99.43      0.1250E-03   0.000       49.43       0.000      0.5000E-01   0.000    
    9994   6.360      0.6364E-03 SPRIN         11  -0.0%   99.66      0.1250E-03   0.000       49.66       0.000      0.5000E-01   0.000    
    9995   6.361      0.6364E-03 SPRIN         11  -0.0%   99.90      0.1250E-03   0.000       49.90       0.000      0.5000E-01   0.000    
    9996   6.361      0.6364E-03 SPRIN         11  -0.0%   100.1      0.1250E-03   0.000       50.13       0.000      0.5000E-01   0.000    
    9997   6.362      0.6364E-03 SPRIN         11  -0.0%   100.4      0.1250E-03   0.000       50.37       0.000      0.5000E-01   0.000    
    9998   6.363      0.6364E-03 SPRIN         11  -0.0%   100.6      0.1250E-03   0.000       50.60       0.000      0.5000E-01   0.000    
    9999   6.363      0.6364E-03 SPRIN         11  -0.0%   100.8      0.1250E-03   0.000       50.84       0.000      0.5000E-01   0.000    
   10000   6.364      0.6364E-03 SPRIN         11  -0.0%   101.1      0.1250E-03   0.000       51.08       0.000      0.5000E-01   0.000    
   10001   6.365      0.6364E-03 SPRIN         11  -0.0%   101.3      0.1250E-03   0.000       51.31       0.000      0.5000E-01   0.000    
   10002   6.365      0.6364E-03 SPRIN         11  -0.0%   101.6      0.1250E-03   0.000       51.55       0.000      0.5000E-01   0.000    
   10003   6.366      0.6364E-03 SPRIN         11  -0.0%   101.8      0.1250E-03   0.000       51.79       0.000      0.5000E-01   0.000    
   10004   6.367      0.6364E-03 SPRIN         11  -0.0%   102.0      0.1250E-03   0.000       52.03       0.000      0.5000E-01   0.000    
   10005   6.367      0.6364E-03 SPRIN         11  -0.0%   102.3      0.1250E-03   0.000       52.26       0.000      0.5000E-01   0.000    
   10006   6.368      0.6364E-03 SPRIN         11  -0.0%   102.5      0.1250E-03   0.000       52.50       0.000      0.5000E-01   0.000    
   10007   6.368      0.6364E-03 SPRIN         11  -0.0%   102.7      0.1250E-03   0.000       52.74       0.000      0.5000E-01   0.000    
   10008   6.369      0.6364E-03 SPRIN         11  -0.0%   103.0      0.1250E-03   0.000       52.98       0.000      0.5000E-01   0.000    
   10009   6.370      0.6364E-03 SPRIN         11  -0.0%   103.2      0.1250E-03   0.000       53.22       0.000      0.5000E-01   0.000    
   CYCLE    TIME      TIME-STEP  ELEMENT          ERROR  I-ENERGY    K-ENERGY T  K-ENERGY R  EXT-WORK     MAS.ERR     TOTAL MASS  MASS ADDED
   10010   6.370      0.6364E-03 SPRIN         11  -0.0%   103.5      0.1250E-03   0.000       53.46       0.000      0.5000E-01   0.000    
   10011   6.371      0.6364E-03 SPRIN         11  -0.0%   103.7      0.1250E-03   0.000       53.70       0.000      0.5000E-01   0.000    
   10012   6.372      0.6364E-03 SPRIN         11  -0.0%   103.9      0.1250E-03   0.000       53.94       0.000      0.5000E-01   0.000    
   10013   6.372      0.6364E-03 SPRIN         11  -0.0%   104.2      0.1250E-03   0.000       54.19       0.000      0.5000E-01   0.000    
   10014   6.373      0.6364E-03 SPRIN         11  -0.0%   104.4      0.1250E-03   0.000       54.43       0.000      0.5000E-01   0.000    
   10015   6.374      0.6364E-03 SPRIN         11  -0.0%   104.7      0.1250E-03   0.000       54.67       0.000      0.5000E-01   0.000    
   10016   6.374      0.6364E-03 SPRIN         11  -0.0%   104.9      0.1250E-03   0.000       54.91       0.000      0.5000E-01   0.000    
   10017   6.375      0.6364E-03 SPRIN         11  -0.0%   105.2      0.1250E-03   0.000       55.16       0.000      0.5000E-01   0.000    
   10018   6.375      0.6364E-03 SPRIN         11  -0.0%   105.4      0.1250E-03   0.000       55.40       0.000      0.5000E-01   0.000    
   10019   6.376      0.6364E-03 SPRIN         11  -0.0%   105.6      0.1250E-03   0.000       55.64       0.000      0.5000E-01   0.000    
   10020   6.377      0.6364E-03 SPRIN         11  -0.0%   105.9      0.1250E-03   0.000       55.89       0.000      0.5000E-01   0.000    
   10021   6.377      0.6364E-03 SPRIN         11  -0.0%   106.1      0.1250E-03   0.000       56.13       0.000      0.5000E-01   0.000    
   10022   6.378      0.6364E-03 SPRIN         11  -0.0%   106.4      0.1250E-03   0.000       56.38       0.000      0.5000E-01   0.000    
   10023   6.379      0.6364E-03 SPRIN         11  -0.0%   106.6      0.1250E-03   0.000       56.63       0.000      0.5000E-01   0.000    
   10024   6.379      0.6364E-03 SPRIN         11  -0.0%   106.9      0.1250E-03   0.000       56.87       0.000      0.5000E-01   0.000    
   10025   6.380      0.6364E-03 SPRIN         11  -0.0%   107.1      0.1250E-03   0.000       57.12       0.000      0.5000E-01   0.000    
   10026   6.381      0.6364E-03 SPRIN         11  -0.0%   107.4      0.1250E-03   0.000       57.36       0.000      0.5000E-01   0.000    
   10027   6.381      0.6364E-03 SPRIN         11  -0.0%   107.6      0.1250E-03   0.000       57.61       0.000      0.5000E-01   0.000    
   10028   6.382      0.6364E-03 SPRIN         11  -0.0%   107.9      0.1250E-03   0.000       57.86       0.000      0.5000E-01   0.000    
   10029   6.382      0.6364E-03 SPRIN         11  -0.0%   108.1      0.1250E-03   0.000       58.11       0.000      0.5000E-01   0.000    
   10030   6.383      0.6364E-03 SPRIN         11  -0.0%   108.4      0.1250E-03   0.000       58.36       0.000      0.5000E-01   0.000    
   10031   6.384      0.6364E-03 SPRIN         11  -0.0%   108.6      0.1250E-03   0.000       58.61       0.000      0.5000E-01   0.000    
   10032   6.384      0.6364E-03 SPRIN         11  -0.0%   108.9      0.1250E-03   0.000       58.85       0.000      0.5000E-01   0.000    
   10033   6.385      0.6364E-03 SPRIN         11  -0.0%   109.1      0.1250E-03   0.000       59.10       0.000      0.5000E-01   0.000    
   10034   6.386      0.6364E-03 SPRIN         11  -0.0%   109.4      0.1250E-03   0.000       59.35       0.000      0.5000E-01   0.000    
   10035   6.386      0.6364E-03 SPRIN         11  -0.0%   109.6      0.1250E-03   0.000       59.61       0.000      0.5000E-01   0.000    
   10036   6.387      0.6364E-03 SPRIN         11  -0.0%   109.9      0.1250E-03   0.000       59.86       0.000      0.5000E-01   0.000    
   10037   6.388      0.6364E-03 SPRIN         11  -0.0%   110.1      0.1250E-03   0.000       60.11       0.000      0.5000E-01   0.000    
   10038   6.388      0.6364E-03 SPRIN         11  -0.0%   110.4      0.1250E-03   0.000       60.36       0.000      0.5000E-01   0.000    
   10039   6.389      0.6364E-03 SPRIN         11  -0.0%   110.6      0.1250E-03   0.000       60.61       0.000      0.5000E-01   0.000    
   10040   6.389      0.6364E-03 SPRIN         11  -0.0%   110.9      0.1250E-03   0.000       60.86       0.000      0.5000E-01   0.000    
   10041   6.390      0.6364E-03 SPRIN         11  -0.0%   111.1      0.1250E-03   0.000       61.12       0.000      0.5000E-01   0.000    
   10042   6.391      0.6364E-03 SPRIN         11  -0.0%   111.4      0.1250E-03   0.000       61.37       0.000      0.5000E-01   0.000    
   10043   6.391      0.6364E-03 SPRIN         11  -0.0%   111.6      0.1250E-03   0.000       61.62       0.000      0.5000E-01   0.000    
   10044   6.392      0.6364E-03 SPRIN         11  -0.0%   111.9      0.1250E-03   0.000       61.88       0.000      0.5000E-01   0.000    
   10045   6.393      0.6364E-03 SPRIN         11  -0.0%   112.1      0.1250E-03   0.000       62.13       0.000      0.5000E-01   0.000    
   10046   6.393      0.6364E-03 SPRIN         11  -0.0%   112.4      0.1250E-03   0.000       62.39       0.000      0.5000E-01   0.000    
   10047   6.394      0.6364E-03 SPRIN         11  -0.0%   112.6      0.1250E-03   0.000       62.64       0.000      0.5000E-01   0.000    
   10048   6.395      0.6364E-03 SPRIN         11  -0.0%   112.9      0.1250E-03   0.000       62.90       0.000      0.5000E-01   0.000    
   10049   6.395      0.6364E-03 SPRIN         11  -0.0%   113.2      0.1250E-03   0.000       63.16       0.000      0.5000E-01   0.000    
   10050   6.396      0.6364E-03 SPRIN         11  -0.0%   113.4      0.1250E-03   0.000       63.41       0.000      0.5000E-01   0.000    
   10051   6.396      0.6364E-03 SPRIN         11  -0.0%   113.7      0.1250E-03   0.000       63.67       0.000      0.5000E-01   0.000    
   10052   6.397      0.6364E-03 SPRIN         11  -0.0%   113.9      0.1250E-03   0.000       63.93       0.000      0.5000E-01   0.000    
   10053   6.398      0.6364E-03 SPRIN         11  -0.0%   114.2      0.1250E-03   0.000       64.18       0.000      0.5000E-01   0.000    
   10054   6.398      0.6364E-03 SPRIN         11  -0.0%   114.4      0.1250E-03   0.000       64.44       0.000      0.5000E-01   0.000    
   10055   6.399      0.6364E-03 SPRIN         11  -0.0%   114.7      0.1250E-03   0.000       64.70       0.000      0.5000E-01   0.000    
   10056   6.400      0.6364E-03 SPRIN         11  -0.0%   115.0      0.1250E-03   0.000       64.96       0.000      0.5000E-01   0.000    
   10057   6.400      0.6364E-03 SPRIN         11  -0.0%   115.2      0.1250E-03   0.000       65.22       0.000      0.5000E-01   0.000    
     ANIMATION FILE: SPR_PRE_2FLAGA033 WRITTEN
   10058   6.401      0.6364E-03 SPRIN         11  -0.0%   115.5      0.1250E-03   0.000       65.48       0.000      0.5000E-01   0.000    
   10059   6.402      0.6364E-03 SPRIN         11  -0.0%   115.7      0.1250E-03   0.000       65.74       0.000      0.5000E-01   0.000    
   10060   6.402      0.6364E-03 SPRIN         11  -0.0%   116.0      0.1250E-03   0.000       66.00       0.000      0.5000E-01   0.000    
   10061   6.403      0.6364E-03 SPRIN         11  -0.0%   116.3      0.1250E-03   0.000       66.26       0.000      0.5000E-01   0.000    
   10062   6.403      0.6364E-03 SPRIN         11  -0.0%   116.5      0.1250E-03   0.000       66.52       0.000      0.5000E-01   0.000    
   10063   6.404      0.6364E-03 SPRIN         11  -0.0%   116.8      0.1250E-03   0.000       66.78       0.000      0.5000E-01   0.000    
   10064   6.405      0.6364E-03 SPRIN         11  -0.0%   117.0      0.1250E-03   0.000       67.05       0.000      0.5000E-01   0.000    
   CYCLE    TIME      TIME-STEP  ELEMENT          ERROR  I-ENERGY    K-ENERGY T  K-ENERGY R  EXT-WORK     MAS.ERR     TOTAL MASS  MASS ADDED
   10065   6.405      0.6364E-03 SPRIN         11  -0.0%   117.3      0.1250E-03   0.000       67.31       0.000      0.5000E-01   0.000    
   10066   6.406      0.6364E-03 SPRIN         11  -0.0%   117.6      0.1250E-03   0.000       67.57       0.000      0.5000E-01   0.000    
   10067   6.407      0.6364E-03 SPRIN         11  -0.0%   117.8      0.1250E-03   0.000       67.84       0.000      0.5000E-01   0.000    
   10068   6.407      0.6364E-03 SPRIN         11  -0.0%   118.1      0.1250E-03   0.000       68.10       0.000      0.5000E-01   0.000    
   10069   6.408      0.6364E-03 SPRIN         11  -0.0%   118.4      0.1250E-03   0.000       68.36       0.000      0.5000E-01   0.000    
   10070   6.409      0.6364E-03 SPRIN         11  -0.0%   118.6      0.1250E-03   0.000       68.63       0.000      0.5000E-01   0.000    
   10071   6.409      0.6364E-03 SPRIN         11  -0.0%   118.9      0.1250E-03   0.000       68.89       0.000      0.5000E-01   0.000    
   10072   6.410      0.6364E-03 SPRIN         11  -0.0%   119.2      0.1250E-03   0.000       69.16       0.000      0.5000E-01   0.000    
   10073   6.410      0.6364E-03 SPRIN         11  -0.0%   119.4      0.1250E-03   0.000       69.43       0.000      0.5000E-01   0.000    
   10074   6.411      0.6364E-03 SPRIN         11  -0.0%   119.7      0.1250E-03   0.000       69.69       0.000      0.5000E-01   0.000    
   10075   6.412      0.6364E-03 SPRIN         11  -0.0%   120.0      0.1250E-03   0.000       69.96       0.000      0.5000E-01   0.000    
   10076   6.412      0.6364E-03 SPRIN         11  -0.0%   120.2      0.1250E-03   0.000       70.23       0.000      0.5000E-01   0.000    
   10077   6.413      0.6364E-03 SPRIN         11  -0.0%   120.5      0.1250E-03   0.000       70.49       0.000      0.5000E-01   0.000    
   10078   6.414      0.6364E-03 SPRIN         11  -0.0%   120.8      0.1250E-03   0.000       70.76       0.000      0.5000E-01   0.000    
   10079   6.414      0.6364E-03 SPRIN         11  -0.0%   121.0      0.1250E-03   0.000       71.03       0.000      0.5000E-01   0.000    
   10080   6.415      0.6364E-03 SPRIN         11  -0.0%   121.3      0.1250E-03   0.000       71.30       0.000      0.5000E-01   0.000    
   10081   6.416      0.6364E-03 SPRIN         11  -0.0%   121.6      0.1250E-03   0.000       71.57       0.000      0.5000E-01   0.000    
   10082   6.416      0.6364E-03 SPRIN         11  -0.0%   121.8      0.1250E-03   0.000       71.84       0.000      0.5000E-01   0.000    
   10083   6.417      0.6364E-03 SPRIN         11  -0.0%   122.1      0.1250E-03   0.000       72.11       0.000      0.5000E-01   0.000    
   10084   6.417      0.6364E-03 SPRIN         11  -0.0%   122.4      0.1250E-03   0.000       72.38       0.000      0.5000E-01   0.000    
   10085   6.418      0.6364E-03 SPRIN         11  -0.0%   122.6      0.1250E-03   0.000       72.65       0.000      0.5000E-01   0.000    
   10086   6.419      0.6364E-03 SPRIN         11  -0.0%   122.9      0.1250E-03   0.000       72.92       0.000      0.5000E-01   0.000    
   10087   6.419      0.6364E-03 SPRIN         11  -0.0%   123.2      0.1250E-03   0.000       73.19       0.000      0.5000E-01   0.000    
   10088   6.420      0.6364E-03 SPRIN         11  -0.0%   123.5      0.1250E-03   0.000       73.46       0.000      0.5000E-01   0.000    
   10089   6.421      0.6364E-03 SPRIN         11  -0.0%   123.7      0.1250E-03   0.000       73.74       0.000      0.5000E-01   0.000    
   10090   6.421      0.6364E-03 SPRIN         11  -0.0%   124.0      0.1250E-03   0.000       74.01       0.000      0.5000E-01   0.000    
   10091   6.422      0.6364E-03 SPRIN         11  -0.0%   124.3      0.1250E-03   0.000       74.28       0.000      0.5000E-01   0.000    
   10092   6.423      0.6364E-03 SPRIN         11  -0.0%   124.6      0.1250E-03   0.000       74.56       0.000      0.5000E-01   0.000    
   10093   6.423      0.6364E-03 SPRIN         11  -0.0%   124.8      0.1250E-03   0.000       74.83       0.000      0.5000E-01   0.000    
   10094   6.424      0.6364E-03 SPRIN         11  -0.0%   125.1      0.1250E-03   0.000       75.10       0.000      0.5000E-01   0.000    
   10095   6.424      0.6364E-03 SPRIN         11  -0.0%   125.4      0.1250E-03   0.000       75.38       0.000      0.5000E-01   0.000    
   10096   6.425      0.6364E-03 SPRIN         11  -0.0%   125.7      0.1250E-03   0.000       75.65       0.000      0.5000E-01   0.000    
   10097   6.426      0.6364E-03 SPRIN         11  -0.0%   125.9      0.1250E-03   0.000       75.93       0.000      0.5000E-01   0.000    
   10098   6.426      0.6364E-03 SPRIN         11  -0.0%   126.2      0.1250E-03   0.000       76.21       0.000      0.5000E-01   0.000    
   10099   6.427      0.6364E-03 SPRIN         11  -0.0%   126.5      0.1250E-03   0.000       76.48       0.000      0.5000E-01   0.000    
   10100   6.428      0.6364E-03 SPRIN         11  -0.0%   126.8      0.1250E-03   0.000       76.76       0.000      0.5000E-01   0.000    
   10101   6.428      0.6364E-03 SPRIN         11  -0.0%   127.0      0.1250E-03   0.000       77.04       0.000      0.5000E-01   0.000    
   10102   6.429      0.6364E-03 SPRIN         11  -0.0%   127.3      0.1250E-03   0.000       77.31       0.000      0.5000E-01   0.000    
   10103   6.430      0.6364E-03 SPRIN         11  -0.0%   127.6      0.1250E-03   0.000       77.59       0.000      0.5000E-01   0.000    
   10104   6.430      0.6364E-03 SPRIN         11  -0.0%   127.9      0.1250E-03   0.000       77.87       0.000      0.5000E-01   0.000    
   10105   6.431      0.6364E-03 SPRIN         11  -0.0%   128.2      0.1250E-03   0.000       78.15       0.000      0.5000E-01   0.000    
   10106   6.431      0.6364E-03 SPRIN         11  -0.0%   128.4      0.1250E-03   0.000       78.43       0.000      0.5000E-01   0.000    
   10107   6.432      0.6364E-03 SPRIN         11  -0.0%   128.7      0.1250E-03   0.000       78.71       0.000      0.5000E-01   0.000    
   10108   6.433      0.6364E-03 SPRIN         11  -0.0%   129.0      0.1250E-03   0.000       78.99       0.000      0.5000E-01   0.000    
   10109   6.433      0.6364E-03 SPRIN         11  -0.0%   129.3      0.1250E-03   0.000       79.27       0.000      0.5000E-01   0.000    
   10110   6.434      0.6364E-03 SPRIN         11  -0.0%   129.6      0.1250E-03   0.000       79.55       0.000      0.5000E-01   0.000    
   10111   6.435      0.6364E-03 SPRIN         11  -0.0%   129.8      0.1250E-03   0.000       79.83       0.000      0.5000E-01   0.000    
   10112   6.435      0.6364E-03 SPRIN         11  -0.0%   130.1      0.1250E-03   0.000       80.11       0.000      0.5000E-01   0.000    
   10113   6.436      0.6364E-03 SPRIN         11  -0.0%   130.4      0.1250E-03   0.000       80.40       0.000      0.5000E-01   0.000    
   10114   6.437      0.6364E-03 SPRIN         11  -0.0%   130.7      0.1250E-03   0.000       80.68       0.000      0.5000E-01   0.000    
   10115   6.437      0.6364E-03 SPRIN         11  -0.0%   131.0      0.1250E-03   0.000       80.96       0.000      0.5000E-01   0.000    
   10116   6.438      0.6364E-03 SPRIN         11  -0.0%   131.2      0.1250E-03   0.000       81.24       0.000      0.5000E-01   0.000    
   10117   6.438      0.6364E-03 SPRIN         11  -0.0%   131.5      0.1250E-03   0.000       81.53       0.000      0.5000E-01   0.000    
   10118   6.439      0.6364E-03 SPRIN         11  -0.0%   131.8      0.1250E-03   0.000       81.81       0.000      0.5000E-01   0.000    
   10119   6.440      0.6364E-03 SPRIN         11  -0.0%   132.1      0.1250E-03   0.000       82.10       0.000      0.5000E-01   0.000    
   CYCLE    TIME      TIME-STEP  ELEMENT          ERROR  I-ENERGY    K-ENERGY T  K-ENERGY R  EXT-WORK     MAS.ERR     TOTAL MASS  MASS ADDED
   10120   6.440      0.6364E-03 SPRIN         11  -0.0%   132.4      0.1250E-03   0.000       82.38       0.000      0.5000E-01   0.000    
   10121   6.441      0.6364E-03 SPRIN         11  -0.0%   132.7      0.1250E-03   0.000       82.67       0.000      0.5000E-01   0.000    
   10122   6.442      0.6364E-03 SPRIN         11  -0.0%   133.0      0.1250E-03   0.000       82.95       0.000      0.5000E-01   0.000    
   10123   6.442      0.6364E-03 SPRIN         11  -0.0%   133.2      0.1250E-03   0.000       83.24       0.000      0.5000E-01   0.000    
   10124   6.443      0.6364E-03 SPRIN         11  -0.0%   133.5      0.1250E-03   0.000       83.53       0.000      0.5000E-01   0.000    
   10125   6.444      0.6364E-03 SPRIN         11  -0.0%   133.8      0.1250E-03   0.000       83.81       0.000      0.5000E-01   0.000    
   10126   6.444      0.6364E-03 SPRIN         11  -0.0%   134.1      0.1250E-03   0.000       84.10       0.000      0.5000E-01   0.000    
   10127   6.445      0.6364E-03 SPRIN         11  -0.0%   134.4      0.1250E-03   0.000       84.39       0.000      0.5000E-01   0.000    
   10128   6.445      0.6364E-03 SPRIN         11  -0.0%   134.7      0.1250E-03   0.000       84.68       0.000      0.5000E-01   0.000    
   10129   6.446      0.6364E-03 SPRIN         11  -0.0%   135.0      0.1250E-03   0.000       84.97       0.000      0.5000E-01   0.000    
   10130   6.447      0.6364E-03 SPRIN         11  -0.0%   135.3      0.1250E-03   0.000       85.25       0.000      0.5000E-01   0.000    
   10131   6.447      0.6364E-03 SPRIN         11  -0.0%   135.5      0.1250E-03   0.000       85.54       0.000      0.5000E-01   0.000    
   10132   6.448      0.6364E-03 SPRIN         11  -0.0%   135.8      0.1250E-03   0.000       85.83       0.000      0.5000E-01   0.000    
   10133   6.449      0.6364E-03 SPRIN         11  -0.0%   136.1      0.1250E-03   0.000       86.12       0.000      0.5000E-01   0.000    
   10134   6.449      0.6364E-03 SPRIN         11  -0.0%   136.4      0.1250E-03   0.000       86.41       0.000      0.5000E-01   0.000    
   10135   6.450      0.6364E-03 SPRIN         11  -0.0%   136.7      0.1250E-03   0.000       86.71       0.000      0.5000E-01   0.000    
   10136   6.451      0.6364E-03 SPRIN         11  -0.0%   137.0      0.1250E-03   0.000       87.00       0.000      0.5000E-01   0.000    
   10137   6.451      0.6364E-03 SPRIN         11  -0.0%   137.3      0.1250E-03   0.000       87.29       0.000      0.5000E-01   0.000    
   10138   6.452      0.6364E-03 SPRIN         11  -0.0%   137.6      0.1250E-03   0.000       87.58       0.000      0.5000E-01   0.000    
   10139   6.452      0.6364E-03 SPRIN         11  -0.0%   137.9      0.1250E-03   0.000       87.87       0.000      0.5000E-01   0.000    
   10140   6.453      0.6364E-03 SPRIN         11  -0.0%   138.2      0.1250E-03   0.000       88.17       0.000      0.5000E-01   0.000    
   10141   6.454      0.6364E-03 SPRIN         11  -0.0%   138.5      0.1250E-03   0.000       88.46       0.000      0.5000E-01   0.000    
   10142   6.454      0.6364E-03 SPRIN         11  -0.0%   138.8      0.1250E-03   0.000       88.75       0.000      0.5000E-01   0.000    
   10143   6.455      0.6364E-03 SPRIN         11  -0.0%   139.0      0.1250E-03   0.000       89.05       0.000      0.5000E-01   0.000    
   10144   6.456      0.6364E-03 SPRIN         11  -0.0%   139.3      0.1250E-03   0.000       89.34       0.000      0.5000E-01   0.000    
   10145   6.456      0.6364E-03 SPRIN         11  -0.0%   139.6      0.1250E-03   0.000       89.64       0.000      0.5000E-01   0.000    
   10146   6.457      0.6364E-03 SPRIN         11  -0.0%   139.9      0.1250E-03   0.000       89.93       0.000      0.5000E-01   0.000    
   10147   6.458      0.6364E-03 SPRIN         11  -0.0%   140.2      0.1250E-03   0.000       90.23       0.000      0.5000E-01   0.000    
   10148   6.458      0.6364E-03 SPRIN         11  -0.0%   140.5      0.1250E-03   0.000       90.53       0.000      0.5000E-01   0.000    
   10149   6.459      0.6364E-03 SPRIN         11  -0.0%   140.8      0.1250E-03   0.000       90.82       0.000      0.5000E-01   0.000    
   10150   6.459      0.6364E-03 SPRIN         11  -0.0%   141.1      0.1250E-03   0.000       91.12       0.000      0.5000E-01   0.000    
   10151   6.460      0.6364E-03 SPRIN         11  -0.0%   141.4      0.1250E-03   0.000       91.42       0.000      0.5000E-01   0.000    
   10152   6.461      0.6364E-03 SPRIN         11  -0.0%   141.7      0.1250E-03   0.000       91.72       0.000      0.5000E-01   0.000    
   10153   6.461      0.6364E-03 SPRIN         11  -0.0%   142.0      0.1250E-03   0.000       92.01       0.000      0.5000E-01   0.000    
   10154   6.462      0.6364E-03 SPRIN         11  -0.0%   142.3      0.1250E-03   0.000       92.31       0.000      0.5000E-01   0.000    
   10155   6.463      0.6364E-03 SPRIN         11  -0.0%   142.6      0.1250E-03   0.000       92.61       0.000      0.5000E-01   0.000    
   10156   6.463      0.6364E-03 SPRIN         11  -0.0%   142.9      0.1250E-03   0.000       92.91       0.000      0.5000E-01   0.000    
   10157   6.464      0.6364E-03 SPRIN         11  -0.0%   143.2      0.1250E-03   0.000       93.21       0.000      0.5000E-01   0.000    
   10158   6.465      0.6364E-03 SPRIN         11  -0.0%   143.5      0.1250E-03   0.000       93.51       0.000      0.5000E-01   0.000    
   10159   6.465      0.6364E-03 SPRIN         11  -0.0%   143.8      0.1250E-03   0.000       93.81       0.000      0.5000E-01   0.000    
   10160   6.466      0.6364E-03 SPRIN         11  -0.0%   144.1      0.1250E-03   0.000       94.11       0.000      0.5000E-01   0.000    
   10161   6.466      0.6364E-03 SPRIN         11  -0.0%   144.4      0.1250E-03   0.000       94.42       0.000      0.5000E-01   0.000    
   10162   6.467      0.6364E-03 SPRIN         11  -0.0%   144.7      0.1250E-03   0.000       94.72       0.000      0.5000E-01   0.000    
   10163   6.468      0.6364E-03 SPRIN         11  -0.0%   145.0      0.1250E-03   0.000       95.02       0.000      0.5000E-01   0.000    
   10164   6.468      0.6364E-03 SPRIN         11  -0.0%   145.3      0.1250E-03   0.000       95.32       0.000      0.5000E-01   0.000    
   10165   6.469      0.6364E-03 SPRIN         11  -0.0%   145.6      0.1250E-03   0.000       95.63       0.000      0.5000E-01   0.000    
   10166   6.470      0.6364E-03 SPRIN         11  -0.0%   145.9      0.1250E-03   0.000       95.93       0.000      0.5000E-01   0.000    
   10167   6.470      0.6364E-03 SPRIN         11  -0.0%   146.2      0.1250E-03   0.000       96.23       0.000      0.5000E-01   0.000    
   10168   6.471      0.6364E-03 SPRIN         11  -0.0%   146.5      0.1250E-03   0.000       96.54       0.000      0.5000E-01   0.000    
   10169   6.472      0.6364E-03 SPRIN         11  -0.0%   146.8      0.1250E-03   0.000       96.84       0.000      0.5000E-01   0.000    
   10170   6.472      0.6364E-03 SPRIN         11  -0.0%   147.1      0.1250E-03   0.000       97.15       0.000      0.5000E-01   0.000    
   10171   6.473      0.6364E-03 SPRIN         11  -0.0%   147.5      0.1250E-03   0.000       97.45       0.000      0.5000E-01   0.000    
   10172   6.473      0.6364E-03 SPRIN         11  -0.0%   147.8      0.1250E-03   0.000       97.76       0.000      0.5000E-01   0.000    
   10173   6.474      0.6364E-03 SPRIN         11  -0.0%   148.1      0.1250E-03   0.000       98.07       0.000      0.5000E-01   0.000    
   10174   6.475      0.6364E-03 SPRIN         11  -0.0%   148.4      0.1250E-03   0.000       98.37       0.000      0.5000E-01   0.000    
   CYCLE    TIME      TIME-STEP  ELEMENT          ERROR  I-ENERGY    K-ENERGY T  K-ENERGY R  EXT-WORK     MAS.ERR     TOTAL MASS  MASS ADDED
   10175   6.475      0.6364E-03 SPRIN         11  -0.0%   148.7      0.1250E-03   0.000       98.68       0.000      0.5000E-01   0.000    
   10176   6.476      0.6364E-03 SPRIN         11  -0.0%   149.0      0.1250E-03   0.000       98.99       0.000      0.5000E-01   0.000    
   10177   6.477      0.6364E-03 SPRIN         11  -0.0%   149.3      0.1250E-03   0.000       99.30       0.000      0.5000E-01   0.000    
   10178   6.477      0.6364E-03 SPRIN         11  -0.0%   149.6      0.1250E-03   0.000       99.60       0.000      0.5000E-01   0.000    
   10179   6.478      0.6364E-03 SPRIN         11  -0.0%   149.9      0.1250E-03   0.000       99.91       0.000      0.5000E-01   0.000    
   10180   6.479      0.6364E-03 SPRIN         11  -0.0%   150.2      0.1250E-03   0.000       100.2       0.000      0.5000E-01   0.000    
   10181   6.479      0.6364E-03 SPRIN         11  -0.0%   150.5      0.1250E-03   0.000       100.5       0.000      0.5000E-01   0.000    
   10182   6.480      0.6364E-03 SPRIN         11  -0.0%   150.8      0.1250E-03   0.000       100.8       0.000      0.5000E-01   0.000    
   10183   6.480      0.6364E-03 SPRIN         11  -0.0%   151.2      0.1250E-03   0.000       101.2       0.000      0.5000E-01   0.000    
   10184   6.481      0.6364E-03 SPRIN         11  -0.0%   151.5      0.1250E-03   0.000       101.5       0.000      0.5000E-01   0.000    
   10185   6.482      0.6364E-03 SPRIN         11  -0.0%   151.8      0.1250E-03   0.000       101.8       0.000      0.5000E-01   0.000    
   10186   6.482      0.6364E-03 SPRIN         11  -0.0%   152.1      0.1250E-03   0.000       102.1       0.000      0.5000E-01   0.000    
   10187   6.483      0.6364E-03 SPRIN         11  -0.0%   152.4      0.1250E-03   0.000       102.4       0.000      0.5000E-01   0.000    
   10188   6.484      0.6364E-03 SPRIN         11  -0.0%   152.7      0.1250E-03   0.000       102.7       0.000      0.5000E-01   0.000    
   10189   6.484      0.6364E-03 SPRIN         11  -0.0%   153.0      0.1250E-03   0.000       103.0       0.000      0.5000E-01   0.000    
   10190   6.485      0.6364E-03 SPRIN         11  -0.0%   153.3      0.1250E-03   0.000       103.3       0.000      0.5000E-01   0.000    
   10191   6.486      0.6364E-03 SPRIN         11  -0.0%   153.7      0.1250E-03   0.000       103.7       0.000      0.5000E-01   0.000    
   10192   6.486      0.6364E-03 SPRIN         11  -0.0%   154.0      0.1250E-03   0.000       104.0       0.000      0.5000E-01   0.000    
   10193   6.487      0.6364E-03 SPRIN         11  -0.0%   154.3      0.1250E-03   0.000       104.3       0.000      0.5000E-01   0.000    
   10194   6.487      0.6364E-03 SPRIN         11  -0.0%   154.6      0.1250E-03   0.000       104.6       0.000      0.5000E-01   0.000    
   10195   6.488      0.6364E-03 SPRIN         11  -0.0%   154.9      0.1250E-03   0.000       104.9       0.000      0.5000E-01   0.000    
   10196   6.489      0.6364E-03 SPRIN         11  -0.0%   155.2      0.1250E-03   0.000       105.2       0.000      0.5000E-01   0.000    
   10197   6.489      0.6364E-03 SPRIN         11  -0.0%   155.5      0.1250E-03   0.000       105.5       0.000      0.5000E-01   0.000    
   10198   6.490      0.6364E-03 SPRIN         11  -0.0%   155.9      0.1250E-03   0.000       105.9       0.000      0.5000E-01   0.000    
   10199   6.491      0.6364E-03 SPRIN         11  -0.0%   156.2      0.1250E-03   0.000       106.2       0.000      0.5000E-01   0.000    
   10200   6.491      0.6364E-03 SPRIN         11  -0.0%   156.5      0.1250E-03   0.000       106.5       0.000      0.5000E-01   0.000    
   10201   6.492      0.6364E-03 SPRIN         11  -0.0%   156.8      0.1250E-03   0.000       106.8       0.000      0.5000E-01   0.000    
   10202   6.493      0.6364E-03 SPRIN         11  -0.0%   157.1      0.1250E-03   0.000       107.1       0.000      0.5000E-01   0.000    
   10203   6.493      0.6364E-03 SPRIN         11  -0.0%   157.4      0.1250E-03   0.000       107.4       0.000      0.5000E-01   0.000    
   10204   6.494      0.6364E-03 SPRIN         11  -0.0%   157.8      0.1250E-03   0.000       107.8       0.000      0.5000E-01   0.000    
   10205   6.494      0.6364E-03 SPRIN         11  -0.0%   158.1      0.1250E-03   0.000       108.1       0.000      0.5000E-01   0.000    
   10206   6.495      0.6364E-03 SPRIN         11  -0.0%   158.4      0.1250E-03   0.000       108.4       0.000      0.5000E-01   0.000    
   10207   6.496      0.6364E-03 SPRIN         11  -0.0%   158.7      0.1250E-03   0.000       108.7       0.000      0.5000E-01   0.000    
   10208   6.496      0.6364E-03 SPRIN         11  -0.0%   159.0      0.1250E-03   0.000       109.0       0.000      0.5000E-01   0.000    
   10209   6.497      0.6364E-03 SPRIN         11  -0.0%   159.4      0.1250E-03   0.000       109.4       0.000      0.5000E-01   0.000    
   10210   6.498      0.6364E-03 SPRIN         11  -0.0%   159.7      0.1250E-03   0.000       109.7       0.000      0.5000E-01   0.000    
   10211   6.498      0.6364E-03 SPRIN         11  -0.0%   160.0      0.1250E-03   0.000       110.0       0.000      0.5000E-01   0.000    
   10212   6.499      0.6364E-03 SPRIN         11  -0.0%   160.3      0.1250E-03   0.000       110.3       0.000      0.5000E-01   0.000    
   10213   6.500      0.6364E-03 SPRIN         11  -0.0%   160.7      0.1250E-03   0.000       110.7       0.000      0.5000E-01   0.000    
   10214   6.500      0.6364E-03 SPRIN         11  -0.0%   161.0      0.1250E-03   0.000       111.0       0.000      0.5000E-01   0.000    
   10215   6.501      0.6364E-03 SPRIN         11  -0.0%   161.3      0.1250E-03   0.000       111.3       0.000      0.5000E-01   0.000    
   10216   6.501      0.6364E-03 SPRIN         11  -0.0%   161.6      0.1250E-03   0.000       111.6       0.000      0.5000E-01   0.000    
   10217   6.502      0.6364E-03 SPRIN         11  -0.0%   162.0      0.1250E-03   0.000       112.0       0.000      0.5000E-01   0.000    
   10218   6.503      0.6364E-03 SPRIN         11  -0.0%   162.3      0.1250E-03   0.000       112.3       0.000      0.5000E-01   0.000    
   10219   6.503      0.6364E-03 SPRIN         11  -0.0%   162.6      0.1250E-03   0.000       112.6       0.000      0.5000E-01   0.000    
   10220   6.504      0.6364E-03 SPRIN         11  -0.0%   162.9      0.1250E-03   0.000       112.9       0.000      0.5000E-01   0.000    
   10221   6.505      0.6364E-03 SPRIN         11  -0.0%   163.3      0.1250E-03   0.000       113.3       0.000      0.5000E-01   0.000    
   10222   6.505      0.6364E-03 SPRIN         11  -0.0%   163.6      0.1250E-03   0.000       113.6       0.000      0.5000E-01   0.000    
   10223   6.506      0.6364E-03 SPRIN         11  -0.0%   163.9      0.1250E-03   0.000       113.9       0.000      0.5000E-01   0.000    
   10224   6.507      0.6364E-03 SPRIN         11  -0.0%   164.2      0.1250E-03   0.000       114.2       0.000      0.5000E-01   0.000    
   10225   6.507      0.6364E-03 SPRIN         11  -0.0%   164.6      0.1250E-03   0.000       114.6       0.000      0.5000E-01   0.000    
   10226   6.508      0.6364E-03 SPRIN         11  -0.0%   164.9      0.1250E-03   0.000       114.9       0.000      0.5000E-01   0.000    
   10227   6.508      0.6364E-03 SPRIN         11  -0.0%   165.2      0.1250E-03   0.000       115.2       0.000      0.5000E-01   0.000    
   10228   6.509      0.6364E-03 SPRIN         11  -0.0%   165.5      0.1250E-03   0.000       115.5       0.000      0.5000E-01   0.000    
   10229   6.510      0.6364E-03 SPRIN         11  -0.0%   165.9      0.1250E-03   0.000       115.9       0.000      0.5000E-01   0.000    
   CYCLE    TIME      TIME-STEP  ELEMENT          ERROR  I-ENERGY    K-ENERGY T  K-ENERGY R  EXT-WORK     MAS.ERR     TOTAL MASS  MASS ADDED
   10230   6.510      0.6364E-03 SPRIN         11  -0.0%   166.2      0.1250E-03   0.000       116.2       0.000      0.5000E-01   0.000    
   10231   6.511      0.6364E-03 SPRIN         11  -0.0%   166.5      0.1250E-03   0.000       116.5       0.000      0.5000E-01   0.000    
   10232   6.512      0.6364E-03 SPRIN         11  -0.0%   166.9      0.1250E-03   0.000       116.9       0.000      0.5000E-01   0.000    
   10233   6.512      0.6364E-03 SPRIN         11  -0.0%   167.2      0.1250E-03   0.000       117.2       0.000      0.5000E-01   0.000    
   10234   6.513      0.6364E-03 SPRIN         11  -0.0%   167.5      0.1250E-03   0.000       117.5       0.000      0.5000E-01   0.000    
   10235   6.514      0.6364E-03 SPRIN         11  -0.0%   167.9      0.1250E-03   0.000       117.9       0.000      0.5000E-01   0.000    
   10236   6.514      0.6364E-03 SPRIN         11  -0.0%   168.2      0.1250E-03   0.000       118.2       0.000      0.5000E-01   0.000    
   10237   6.515      0.6364E-03 SPRIN         11  -0.0%   168.5      0.1250E-03   0.000       118.5       0.000      0.5000E-01   0.000    
   10238   6.515      0.6364E-03 SPRIN         11  -0.0%   168.9      0.1250E-03   0.000       118.9       0.000      0.5000E-01   0.000    
   10239   6.516      0.6364E-03 SPRIN         11  -0.0%   169.2      0.1250E-03   0.000       119.2       0.000      0.5000E-01   0.000    
   10240   6.517      0.6364E-03 SPRIN         11  -0.0%   169.5      0.1250E-03   0.000       119.5       0.000      0.5000E-01   0.000    
   10241   6.517      0.6364E-03 SPRIN         11  -0.0%   169.9      0.1250E-03   0.000       119.9       0.000      0.5000E-01   0.000    
   10242   6.518      0.6364E-03 SPRIN         11  -0.0%   170.2      0.1250E-03   0.000       120.2       0.000      0.5000E-01   0.000    
   10243   6.519      0.6364E-03 SPRIN         11  -0.0%   170.5      0.1250E-03   0.000       120.5       0.000      0.5000E-01   0.000    
   10244   6.519      0.6364E-03 SPRIN         11  -0.0%   170.9      0.1250E-03   0.000       120.9       0.000      0.5000E-01   0.000    
   10245   6.520      0.6364E-03 SPRIN         11  -0.0%   171.2      0.1250E-03   0.000       121.2       0.000      0.5000E-01   0.000    
   10246   6.521      0.6364E-03 SPRIN         11  -0.0%   171.5      0.1250E-03   0.000       121.5       0.000      0.5000E-01   0.000    
   10247   6.521      0.6364E-03 SPRIN         11  -0.0%   171.9      0.1250E-03   0.000       121.9       0.000      0.5000E-01   0.000    
   10248   6.522      0.6364E-03 SPRIN         11  -0.0%   172.2      0.1250E-03   0.000       122.2       0.000      0.5000E-01   0.000    
   10249   6.522      0.6364E-03 SPRIN         11  -0.0%   172.5      0.1250E-03   0.000       122.5       0.000      0.5000E-01   0.000    
   10250   6.523      0.6364E-03 SPRIN         11  -0.0%   172.9      0.1250E-03   0.000       122.9       0.000      0.5000E-01   0.000    
   10251   6.524      0.6364E-03 SPRIN         11  -0.0%   173.2      0.1250E-03   0.000       123.2       0.000      0.5000E-01   0.000    
   10252   6.524      0.6364E-03 SPRIN         11  -0.0%   173.6      0.1250E-03   0.000       123.6       0.000      0.5000E-01   0.000    
   10253   6.525      0.6364E-03 SPRIN         11  -0.0%   173.9      0.1250E-03   0.000       123.9       0.000      0.5000E-01   0.000    
   10254   6.526      0.6364E-03 SPRIN         11  -0.0%   174.2      0.1250E-03   0.000       124.2       0.000      0.5000E-01   0.000    
   10255   6.526      0.6364E-03 SPRIN         11  -0.0%   174.6      0.1250E-03   0.000       124.6       0.000      0.5000E-01   0.000    
   10256   6.527      0.6364E-03 SPRIN         11  -0.0%   174.9      0.1250E-03   0.000       124.9       0.000      0.5000E-01   0.000    
   10257   6.528      0.6364E-03 SPRIN         11  -0.0%   175.3      0.1250E-03   0.000       125.3       0.000      0.5000E-01   0.000    
   10258   6.528      0.6364E-03 SPRIN         11  -0.0%   175.6      0.1250E-03   0.000       125.6       0.000      0.5000E-01   0.000    
   10259   6.529      0.6364E-03 SPRIN         11  -0.0%   175.9      0.1250E-03   0.000       125.9       0.000      0.5000E-01   0.000    
   10260   6.529      0.6364E-03 SPRIN         11  -0.0%   176.3      0.1250E-03   0.000       126.3       0.000      0.5000E-01   0.000    
   10261   6.530      0.6364E-03 SPRIN         11  -0.0%   176.6      0.1250E-03   0.000       126.6       0.000      0.5000E-01   0.000    
   10262   6.531      0.6364E-03 SPRIN         11  -0.0%   177.0      0.1250E-03   0.000       127.0       0.000      0.5000E-01   0.000    
   10263   6.531      0.6364E-03 SPRIN         11  -0.0%   177.3      0.1250E-03   0.000       127.3       0.000      0.5000E-01   0.000    
   10264   6.532      0.6364E-03 SPRIN         11  -0.0%   177.6      0.1250E-03   0.000       127.6       0.000      0.5000E-01   0.000    
   10265   6.533      0.6364E-03 SPRIN         11  -0.0%   178.0      0.1250E-03   0.000       128.0       0.000      0.5000E-01   0.000    
   10266   6.533      0.6364E-03 SPRIN         11  -0.0%   178.3      0.1250E-03   0.000       128.3       0.000      0.5000E-01   0.000    
   10267   6.534      0.6364E-03 SPRIN         11  -0.0%   178.7      0.1250E-03   0.000       128.7       0.000      0.5000E-01   0.000    
   10268   6.535      0.6364E-03 SPRIN         11  -0.0%   179.0      0.1250E-03   0.000       129.0       0.000      0.5000E-01   0.000    
   10269   6.535      0.6364E-03 SPRIN         11  -0.0%   179.4      0.1250E-03   0.000       129.4       0.000      0.5000E-01   0.000    
   10270   6.536      0.6364E-03 SPRIN         11  -0.0%   179.7      0.1250E-03   0.000       129.7       0.000      0.5000E-01   0.000    
   10271   6.536      0.6364E-03 SPRIN         11  -0.0%   180.1      0.1250E-03   0.000       130.1       0.000      0.5000E-01   0.000    
   10272   6.537      0.6364E-03 SPRIN         11  -0.0%   180.4      0.1250E-03   0.000       130.4       0.000      0.5000E-01   0.000    
   10273   6.538      0.6364E-03 SPRIN         11  -0.0%   180.8      0.1250E-03   0.000       130.8       0.000      0.5000E-01   0.000    
   10274   6.538      0.6364E-03 SPRIN         11  -0.0%   181.1      0.1250E-03   0.000       131.1       0.000      0.5000E-01   0.000    
   10275   6.539      0.6364E-03 SPRIN         11  -0.0%   181.5      0.1250E-03   0.000       131.5       0.000      0.5000E-01   0.000    
   10276   6.540      0.6364E-03 SPRIN         11  -0.0%   181.8      0.1250E-03   0.000       131.8       0.000      0.5000E-01   0.000    
   10277   6.540      0.6364E-03 SPRIN         11  -0.0%   182.1      0.1250E-03   0.000       132.1       0.000      0.5000E-01   0.000    
   10278   6.541      0.6364E-03 SPRIN         11  -0.0%   182.5      0.1250E-03   0.000       132.5       0.000      0.5000E-01   0.000    
   10279   6.542      0.6364E-03 SPRIN         11  -0.0%   182.8      0.1250E-03   0.000       132.8       0.000      0.5000E-01   0.000    
   10280   6.542      0.6364E-03 SPRIN         11  -0.0%   183.2      0.1250E-03   0.000       133.2       0.000      0.5000E-01   0.000    
   10281   6.543      0.6364E-03 SPRIN         11  -0.0%   183.5      0.1250E-03   0.000       133.5       0.000      0.5000E-01   0.000    
   10282   6.543      0.6364E-03 SPRIN         11  -0.0%   183.9      0.1250E-03   0.000       133.9       0.000      0.5000E-01   0.000    
   10283   6.544      0.6364E-03 SPRIN         11  -0.0%   184.2      0.1250E-03   0.000       134.2       0.000      0.5000E-01   0.000    
   10284   6.545      0.6364E-03 SPRIN         11  -0.0%   184.6      0.1250E-03   0.000       134.6       0.000      0.5000E-01   0.000    
   CYCLE    TIME      TIME-STEP  ELEMENT          ERROR  I-ENERGY    K-ENERGY T  K-ENERGY R  EXT-WORK     MAS.ERR     TOTAL MASS  MASS ADDED
   10285   6.545      0.6364E-03 SPRIN         11  -0.0%   185.0      0.1250E-03   0.000       135.0       0.000      0.5000E-01   0.000    
   10286   6.546      0.6364E-03 SPRIN         11  -0.0%   185.3      0.1250E-03   0.000       135.3       0.000      0.5000E-01   0.000    
   10287   6.547      0.6364E-03 SPRIN         11  -0.0%   185.7      0.1250E-03   0.000       135.7       0.000      0.5000E-01   0.000    
   10288   6.547      0.6364E-03 SPRIN         11  -0.0%   186.0      0.1250E-03   0.000       136.0       0.000      0.5000E-01   0.000    
   10289   6.548      0.6364E-03 SPRIN         11  -0.0%   186.4      0.1250E-03   0.000       136.4       0.000      0.5000E-01   0.000    
   10290   6.549      0.6364E-03 SPRIN         11  -0.0%   186.7      0.1250E-03   0.000       136.7       0.000      0.5000E-01   0.000    
   10291   6.549      0.6364E-03 SPRIN         11  -0.0%   187.1      0.1250E-03   0.000       137.1       0.000      0.5000E-01   0.000    
   10292   6.550      0.6364E-03 SPRIN         11  -0.0%   187.4      0.1250E-03   0.000       137.4       0.000      0.5000E-01   0.000    
   10293   6.550      0.6364E-03 SPRIN         11  -0.0%   187.8      0.1250E-03   0.000       137.8       0.000      0.5000E-01   0.000    
   10294   6.551      0.6364E-03 SPRIN         11  -0.0%   188.1      0.1250E-03   0.000       138.1       0.000      0.5000E-01   0.000    
   10295   6.552      0.6364E-03 SPRIN         11  -0.0%   188.5      0.1250E-03   0.000       138.5       0.000      0.5000E-01   0.000    
   10296   6.552      0.6364E-03 SPRIN         11  -0.0%   188.8      0.1250E-03   0.000       138.8       0.000      0.5000E-01   0.000    
   10297   6.553      0.6364E-03 SPRIN         11  -0.0%   189.2      0.1250E-03   0.000       139.2       0.000      0.5000E-01   0.000    
   10298   6.554      0.6364E-03 SPRIN         11  -0.0%   189.6      0.1250E-03   0.000       139.6       0.000      0.5000E-01   0.000    
   10299   6.554      0.6364E-03 SPRIN         11  -0.0%   189.9      0.1250E-03   0.000       139.9       0.000      0.5000E-01   0.000    
   10300   6.555      0.6364E-03 SPRIN         11  -0.0%   190.3      0.1250E-03   0.000       140.3       0.000      0.5000E-01   0.000    
   10301   6.556      0.6364E-03 SPRIN         11  -0.0%   190.6      0.1250E-03   0.000       140.6       0.000      0.5000E-01   0.000    
   10302   6.556      0.6364E-03 SPRIN         11  -0.0%   191.0      0.1250E-03   0.000       141.0       0.000      0.5000E-01   0.000    
   10303   6.557      0.6364E-03 SPRIN         11  -0.0%   191.4      0.1250E-03   0.000       141.4       0.000      0.5000E-01   0.000    
   10304   6.557      0.6364E-03 SPRIN         11  -0.0%   191.7      0.1250E-03   0.000       141.7       0.000      0.5000E-01   0.000    
   10305   6.558      0.6364E-03 SPRIN         11  -0.0%   192.1      0.1250E-03   0.000       142.1       0.000      0.5000E-01   0.000    
   10306   6.559      0.6364E-03 SPRIN         11  -0.0%   192.4      0.1250E-03   0.000       142.4       0.000      0.5000E-01   0.000    
   10307   6.559      0.6364E-03 SPRIN         11  -0.0%   192.8      0.1250E-03   0.000       142.8       0.000      0.5000E-01   0.000    
   10308   6.560      0.6364E-03 SPRIN         11  -0.0%   193.2      0.1250E-03   0.000       143.2       0.000      0.5000E-01   0.000    
   10309   6.561      0.6364E-03 SPRIN         11  -0.0%   193.5      0.1250E-03   0.000       143.5       0.000      0.5000E-01   0.000    
   10310   6.561      0.6364E-03 SPRIN         11  -0.0%   193.9      0.1250E-03   0.000       143.9       0.000      0.5000E-01   0.000    
   10311   6.562      0.6364E-03 SPRIN         11  -0.0%   194.2      0.1250E-03   0.000       144.2       0.000      0.5000E-01   0.000    
   10312   6.563      0.6364E-03 SPRIN         11  -0.0%   194.6      0.1250E-03   0.000       144.6       0.000      0.5000E-01   0.000    
   10313   6.563      0.6364E-03 SPRIN         11  -0.0%   195.0      0.1250E-03   0.000       145.0       0.000      0.5000E-01   0.000    
   10314   6.564      0.6364E-03 SPRIN         11  -0.0%   195.3      0.1250E-03   0.000       145.3       0.000      0.5000E-01   0.000    
   10315   6.564      0.6364E-03 SPRIN         11  -0.0%   195.7      0.1250E-03   0.000       145.7       0.000      0.5000E-01   0.000    
   10316   6.565      0.6364E-03 SPRIN         11  -0.0%   196.1      0.1250E-03   0.000       146.1       0.000      0.5000E-01   0.000    
   10317   6.566      0.6364E-03 SPRIN         11  -0.0%   196.4      0.1250E-03   0.000       146.4       0.000      0.5000E-01   0.000    
   10318   6.566      0.6364E-03 SPRIN         11  -0.0%   196.8      0.1250E-03   0.000       146.8       0.000      0.5000E-01   0.000    
   10319   6.567      0.6364E-03 SPRIN         11  -0.0%   197.2      0.1250E-03   0.000       147.2       0.000      0.5000E-01   0.000    
   10320   6.568      0.6364E-03 SPRIN         11  -0.0%   197.5      0.1250E-03   0.000       147.5       0.000      0.5000E-01   0.000    
   10321   6.568      0.6364E-03 SPRIN         11  -0.0%   197.9      0.1250E-03   0.000       147.9       0.000      0.5000E-01   0.000    
   10322   6.569      0.6364E-03 SPRIN         11  -0.0%   198.3      0.1250E-03   0.000       148.3       0.000      0.5000E-01   0.000    
   10323   6.570      0.6364E-03 SPRIN         11  -0.0%   198.6      0.1250E-03   0.000       148.6       0.000      0.5000E-01   0.000    
   10324   6.570      0.6364E-03 SPRIN         11  -0.0%   199.0      0.1250E-03   0.000       149.0       0.000      0.5000E-01   0.000    
   10325   6.571      0.6364E-03 SPRIN         11  -0.0%   199.4      0.1250E-03   0.000       149.4       0.000      0.5000E-01   0.000    
   10326   6.571      0.6364E-03 SPRIN         11  -0.0%   199.7      0.1250E-03   0.000       149.7       0.000      0.5000E-01   0.000    
   10327   6.572      0.6364E-03 SPRIN         11  -0.0%   200.1      0.1250E-03   0.000       150.1       0.000      0.5000E-01   0.000    
   10328   6.573      0.6364E-03 SPRIN         11  -0.0%   200.5      0.1250E-03   0.000       150.5       0.000      0.5000E-01   0.000    
   10329   6.573      0.6364E-03 SPRIN         11  -0.0%   200.8      0.1250E-03   0.000       150.8       0.000      0.5000E-01   0.000    
   10330   6.574      0.6364E-03 SPRIN         11  -0.0%   201.2      0.1250E-03   0.000       151.2       0.000      0.5000E-01   0.000    
   10331   6.575      0.6364E-03 SPRIN         11  -0.0%   201.6      0.1250E-03   0.000       151.6       0.000      0.5000E-01   0.000    
   10332   6.575      0.6364E-03 SPRIN         11  -0.0%   201.9      0.1250E-03   0.000       151.9       0.000      0.5000E-01   0.000    
   10333   6.576      0.6364E-03 SPRIN         11  -0.0%   202.3      0.1250E-03   0.000       152.3       0.000      0.5000E-01   0.000    
   10334   6.577      0.6364E-03 SPRIN         11  -0.0%   202.7      0.1250E-03   0.000       152.7       0.000      0.5000E-01   0.000    
   10335   6.577      0.6364E-03 SPRIN         11  -0.0%   203.1      0.1250E-03   0.000       153.1       0.000      0.5000E-01   0.000    
   10336   6.578      0.6364E-03 SPRIN         11  -0.0%   203.4      0.1250E-03   0.000       153.4       0.000      0.5000E-01   0.000    
   10337   6.578      0.6364E-03 SPRIN         11  -0.0%   203.8      0.1250E-03   0.000       153.8       0.000      0.5000E-01   0.000    
   10338   6.579      0.6364E-03 SPRIN         11  -0.0%   204.2      0.1250E-03   0.000       154.2       0.000      0.5000E-01   0.000    
   10339   6.580      0.6364E-03 SPRIN         11  -0.0%   204.5      0.1250E-03   0.000       154.5       0.000      0.5000E-01   0.000    
   CYCLE    TIME      TIME-STEP  ELEMENT          ERROR  I-ENERGY    K-ENERGY T  K-ENERGY R  EXT-WORK     MAS.ERR     TOTAL MASS  MASS ADDED
   10340   6.580      0.6364E-03 SPRIN         11  -0.0%   204.9      0.1250E-03   0.000       154.9       0.000      0.5000E-01   0.000    
   10341   6.581      0.6364E-03 SPRIN         11  -0.0%   205.3      0.1250E-03   0.000       155.3       0.000      0.5000E-01   0.000    
   10342   6.582      0.6364E-03 SPRIN         11  -0.0%   205.7      0.1250E-03   0.000       155.7       0.000      0.5000E-01   0.000    
   10343   6.582      0.6364E-03 SPRIN         11  -0.0%   206.0      0.1250E-03   0.000       156.0       0.000      0.5000E-01   0.000    
   10344   6.583      0.6364E-03 SPRIN         11  -0.0%   206.4      0.1250E-03   0.000       156.4       0.000      0.5000E-01   0.000    
   10345   6.584      0.6364E-03 SPRIN         11  -0.0%   206.8      0.1250E-03   0.000       156.8       0.000      0.5000E-01   0.000    
   10346   6.584      0.6364E-03 SPRIN         11  -0.0%   207.2      0.1250E-03   0.000       157.2       0.000      0.5000E-01   0.000    
   10347   6.585      0.6364E-03 SPRIN         11  -0.0%   207.6      0.1250E-03   0.000       157.6       0.000      0.5000E-01   0.000    
   10348   6.585      0.6364E-03 SPRIN         11  -0.0%   207.9      0.1250E-03   0.000       157.9       0.000      0.5000E-01   0.000    
   10349   6.586      0.6364E-03 SPRIN         11  -0.0%   208.3      0.1250E-03   0.000       158.3       0.000      0.5000E-01   0.000    
   10350   6.587      0.6364E-03 SPRIN         11  -0.0%   208.7      0.1250E-03   0.000       158.7       0.000      0.5000E-01   0.000    
   10351   6.587      0.6364E-03 SPRIN         11  -0.0%   209.1      0.1250E-03   0.000       159.1       0.000      0.5000E-01   0.000    
   10352   6.588      0.6364E-03 SPRIN         11  -0.0%   209.4      0.1250E-03   0.000       159.4       0.000      0.5000E-01   0.000    
   10353   6.589      0.6364E-03 SPRIN         11  -0.0%   209.8      0.1250E-03   0.000       159.8       0.000      0.5000E-01   0.000    
   10354   6.589      0.6364E-03 SPRIN         11  -0.0%   210.2      0.1250E-03   0.000       160.2       0.000      0.5000E-01   0.000    
   10355   6.590      0.6364E-03 SPRIN         11  -0.0%   210.6      0.1250E-03   0.000       160.6       0.000      0.5000E-01   0.000    
   10356   6.591      0.6364E-03 SPRIN         11  -0.0%   211.0      0.1250E-03   0.000       161.0       0.000      0.5000E-01   0.000    
   10357   6.591      0.6364E-03 SPRIN         11  -0.0%   211.3      0.1250E-03   0.000       161.3       0.000      0.5000E-01   0.000    
   10358   6.592      0.6364E-03 SPRIN         11  -0.0%   211.7      0.1250E-03   0.000       161.7       0.000      0.5000E-01   0.000    
   10359   6.592      0.6364E-03 SPRIN         11  -0.0%   212.1      0.1250E-03   0.000       162.1       0.000      0.5000E-01   0.000    
   10360   6.593      0.6364E-03 SPRIN         11  -0.0%   212.5      0.1250E-03   0.000       162.5       0.000      0.5000E-01   0.000    
   10361   6.594      0.6364E-03 SPRIN         11  -0.0%   212.9      0.1250E-03   0.000       162.9       0.000      0.5000E-01   0.000    
   10362   6.594      0.6364E-03 SPRIN         11  -0.0%   213.3      0.1250E-03   0.000       163.3       0.000      0.5000E-01   0.000    
   10363   6.595      0.6364E-03 SPRIN         11  -0.0%   213.6      0.1250E-03   0.000       163.6       0.000      0.5000E-01   0.000    
   10364   6.596      0.6364E-03 SPRIN         11  -0.0%   214.0      0.1250E-03   0.000       164.0       0.000      0.5000E-01   0.000    
   10365   6.596      0.6364E-03 SPRIN         11  -0.0%   214.4      0.1250E-03   0.000       164.4       0.000      0.5000E-01   0.000    
   10366   6.597      0.6364E-03 SPRIN         11  -0.0%   214.8      0.1250E-03   0.000       164.8       0.000      0.5000E-01   0.000    
   10367   6.598      0.6364E-03 SPRIN         11  -0.0%   215.2      0.1250E-03   0.000       165.2       0.000      0.5000E-01   0.000    
   10368   6.598      0.6364E-03 SPRIN         11  -0.0%   215.6      0.1250E-03   0.000       165.6       0.000      0.5000E-01   0.000    
   10369   6.599      0.6364E-03 SPRIN         11  -0.0%   215.9      0.1250E-03   0.000       165.9       0.000      0.5000E-01   0.000    
   10370   6.599      0.6364E-03 SPRIN         11  -0.0%   216.3      0.1250E-03   0.000       166.3       0.000      0.5000E-01   0.000    
   10371   6.600      0.6364E-03 SPRIN         11  -0.0%   216.7      0.1250E-03   0.000       166.7       0.000      0.5000E-01   0.000    
     ANIMATION FILE: SPR_PRE_2FLAGA034 WRITTEN
   10372   6.601      0.6364E-03 SPRIN         11  -0.0%   217.1      0.1250E-03   0.000       167.1       0.000      0.5000E-01   0.000    
   10373   6.601      0.6364E-03 SPRIN         11  -0.0%   217.5      0.1250E-03   0.000       167.5       0.000      0.5000E-01   0.000    
   10374   6.602      0.6364E-03 SPRIN         11  -0.0%   217.9      0.1250E-03   0.000       167.9       0.000      0.5000E-01   0.000    
   10375   6.603      0.6364E-03 SPRIN         11  -0.0%   218.3      0.1250E-03   0.000       168.3       0.000      0.5000E-01   0.000    
   10376   6.603      0.6364E-03 SPRIN         11  -0.0%   218.7      0.1250E-03   0.000       168.7       0.000      0.5000E-01   0.000    
   10377   6.604      0.6364E-03 SPRIN         11  -0.0%   219.0      0.1250E-03   0.000       169.0       0.000      0.5000E-01   0.000    
   10378   6.605      0.6364E-03 SPRIN         11  -0.0%   219.4      0.1250E-03   0.000       169.4       0.000      0.5000E-01   0.000    
   10379   6.605      0.6364E-03 SPRIN         11  -0.0%   219.8      0.1250E-03   0.000       169.8       0.000      0.5000E-01   0.000    
   10380   6.606      0.6364E-03 SPRIN         11  -0.0%   220.2      0.1250E-03   0.000       170.2       0.000      0.5000E-01   0.000    
   10381   6.606      0.6364E-03 SPRIN         11  -0.0%   220.6      0.1250E-03   0.000       170.6       0.000      0.5000E-01   0.000    
   10382   6.607      0.6364E-03 SPRIN         11  -0.0%   221.0      0.1250E-03   0.000       171.0       0.000      0.5000E-01   0.000    
   10383   6.608      0.6364E-03 SPRIN         11  -0.0%   221.4      0.1250E-03   0.000       171.4       0.000      0.5000E-01   0.000    
   10384   6.608      0.6364E-03 SPRIN         11  -0.0%   221.8      0.1250E-03   0.000       171.8       0.000      0.5000E-01   0.000    
   10385   6.609      0.6364E-03 SPRIN         11  -0.0%   222.2      0.1250E-03   0.000       172.2       0.000      0.5000E-01   0.000    
   10386   6.610      0.6364E-03 SPRIN         11  -0.0%   222.6      0.1250E-03   0.000       172.6       0.000      0.5000E-01   0.000    
   10387   6.610      0.6364E-03 SPRIN         11  -0.0%   223.0      0.1250E-03   0.000       173.0       0.000      0.5000E-01   0.000    
   10388   6.611      0.6364E-03 SPRIN         11  -0.0%   223.4      0.1250E-03   0.000       173.4       0.000      0.5000E-01   0.000    
   10389   6.612      0.6364E-03 SPRIN         11  -0.0%   223.7      0.1250E-03   0.000       173.7       0.000      0.5000E-01   0.000    
   10390   6.612      0.6364E-03 SPRIN         11  -0.0%   224.1      0.1250E-03   0.000       174.1       0.000      0.5000E-01   0.000    
   10391   6.613      0.6364E-03 SPRIN         11  -0.0%   224.5      0.1250E-03   0.000       174.5       0.000      0.5000E-01   0.000    
   10392   6.613      0.6364E-03 SPRIN         11  -0.0%   224.9      0.1250E-03   0.000       174.9       0.000      0.5000E-01   0.000    
   10393   6.614      0.6364E-03 SPRIN         11  -0.0%   225.3      0.1250E-03   0.000       175.3       0.000      0.5000E-01   0.000    
   10394   6.615      0.6364E-03 SPRIN         11  -0.0%   225.7      0.1250E-03   0.000       175.7       0.000      0.5000E-01   0.000    
   CYCLE    TIME      TIME-STEP  ELEMENT          ERROR  I-ENERGY    K-ENERGY T  K-ENERGY R  EXT-WORK     MAS.ERR     TOTAL MASS  MASS ADDED
   10395   6.615      0.6364E-03 SPRIN         11  -0.0%   226.1      0.1250E-03   0.000       176.1       0.000      0.5000E-01   0.000    
   10396   6.616      0.6364E-03 SPRIN         11  -0.0%   226.5      0.1250E-03   0.000       176.5       0.000      0.5000E-01   0.000    
   10397   6.617      0.6364E-03 SPRIN         11  -0.0%   226.9      0.1250E-03   0.000       176.9       0.000      0.5000E-01   0.000    
   10398   6.617      0.6364E-03 SPRIN         11  -0.0%   227.3      0.1250E-03   0.000       177.3       0.000      0.5000E-01   0.000    
   10399   6.618      0.6364E-03 SPRIN         11  -0.0%   227.7      0.1250E-03   0.000       177.7       0.000      0.5000E-01   0.000    
   10400   6.619      0.6364E-03 SPRIN         11  -0.0%   228.1      0.1250E-03   0.000       178.1       0.000      0.5000E-01   0.000    
   10401   6.619      0.6364E-03 SPRIN         11  -0.0%   228.5      0.1250E-03   0.000       178.5       0.000      0.5000E-01   0.000    
   10402   6.620      0.6364E-03 SPRIN         11  -0.0%   228.9      0.1250E-03   0.000       178.9       0.000      0.5000E-01   0.000    
   10403   6.620      0.6364E-03 SPRIN         11  -0.0%   229.3      0.1250E-03   0.000       179.3       0.000      0.5000E-01   0.000    
   10404   6.621      0.6364E-03 SPRIN         11  -0.0%   229.7      0.1250E-03   0.000       179.7       0.000      0.5000E-01   0.000    
   10405   6.622      0.6364E-03 SPRIN         11  -0.0%   230.1      0.1250E-03   0.000       180.1       0.000      0.5000E-01   0.000    
   10406   6.622      0.6364E-03 SPRIN         11  -0.0%   230.5      0.1250E-03   0.000       180.5       0.000      0.5000E-01   0.000    
   10407   6.623      0.6364E-03 SPRIN         11  -0.0%   230.9      0.1250E-03   0.000       180.9       0.000      0.5000E-01   0.000    
   10408   6.624      0.6364E-03 SPRIN         11  -0.0%   231.3      0.1250E-03   0.000       181.3       0.000      0.5000E-01   0.000    
   10409   6.624      0.6364E-03 SPRIN         11  -0.0%   231.7      0.1250E-03   0.000       181.7       0.000      0.5000E-01   0.000    
   10410   6.625      0.6364E-03 SPRIN         11  -0.0%   232.1      0.1250E-03   0.000       182.1       0.000      0.5000E-01   0.000    
   10411   6.626      0.6364E-03 SPRIN         11  -0.0%   232.5      0.1250E-03   0.000       182.5       0.000      0.5000E-01   0.000    
   10412   6.626      0.6364E-03 SPRIN         11  -0.0%   232.9      0.1250E-03   0.000       182.9       0.000      0.5000E-01   0.000    
   10413   6.627      0.6364E-03 SPRIN         11  -0.0%   233.3      0.1250E-03   0.000       183.3       0.000      0.5000E-01   0.000    
   10414   6.627      0.6364E-03 SPRIN         11  -0.0%   233.7      0.1250E-03   0.000       183.7       0.000      0.5000E-01   0.000    
   10415   6.628      0.6364E-03 SPRIN         11  -0.0%   234.1      0.1250E-03   0.000       184.1       0.000      0.5000E-01   0.000    
   10416   6.629      0.6364E-03 SPRIN         11  -0.0%   234.5      0.1250E-03   0.000       184.5       0.000      0.5000E-01   0.000    
   10417   6.629      0.6364E-03 SPRIN         11  -0.0%   234.9      0.1250E-03   0.000       184.9       0.000      0.5000E-01   0.000    
   10418   6.630      0.6364E-03 SPRIN         11  -0.0%   235.3      0.1250E-03   0.000       185.3       0.000      0.5000E-01   0.000    
   10419   6.631      0.6364E-03 SPRIN         11  -0.0%   235.8      0.1250E-03   0.000       185.8       0.000      0.5000E-01   0.000    
   10420   6.631      0.6364E-03 SPRIN         11  -0.0%   236.2      0.1250E-03   0.000       186.2       0.000      0.5000E-01   0.000    
   10421   6.632      0.6364E-03 SPRIN         11  -0.0%   236.6      0.1250E-03   0.000       186.6       0.000      0.5000E-01   0.000    
   10422   6.633      0.6364E-03 SPRIN         11  -0.0%   237.0      0.1250E-03   0.000       187.0       0.000      0.5000E-01   0.000    
   10423   6.633      0.6364E-03 SPRIN         11  -0.0%   237.4      0.1250E-03   0.000       187.4       0.000      0.5000E-01   0.000    
   10424   6.634      0.6364E-03 SPRIN         11  -0.0%   237.8      0.1250E-03   0.000       187.8       0.000      0.5000E-01   0.000    
   10425   6.634      0.6364E-03 SPRIN         11  -0.0%   238.2      0.1250E-03   0.000       188.2       0.000      0.5000E-01   0.000    
   10426   6.635      0.6364E-03 SPRIN         11  -0.0%   238.6      0.1250E-03   0.000       188.6       0.000      0.5000E-01   0.000    
   10427   6.636      0.6364E-03 SPRIN         11  -0.0%   239.0      0.1250E-03   0.000       189.0       0.000      0.5000E-01   0.000    
   10428   6.636      0.6364E-03 SPRIN         11  -0.0%   239.4      0.1250E-03   0.000       189.4       0.000      0.5000E-01   0.000    
   10429   6.637      0.6364E-03 SPRIN         11  -0.0%   239.8      0.1250E-03   0.000       189.8       0.000      0.5000E-01   0.000    
   10430   6.638      0.6364E-03 SPRIN         11  -0.0%   240.2      0.1250E-03   0.000       190.2       0.000      0.5000E-01   0.000    
   10431   6.638      0.6364E-03 SPRIN         11  -0.0%   240.7      0.1250E-03   0.000       190.7       0.000      0.5000E-01   0.000    
   10432   6.639      0.6364E-03 SPRIN         11  -0.0%   241.1      0.1250E-03   0.000       191.1       0.000      0.5000E-01   0.000    
   10433   6.640      0.6364E-03 SPRIN         11  -0.0%   241.5      0.1250E-03   0.000       191.5       0.000      0.5000E-01   0.000    
   10434   6.640      0.6364E-03 SPRIN         11  -0.0%   241.9      0.1250E-03   0.000       191.9       0.000      0.5000E-01   0.000    
   10435   6.641      0.6364E-03 SPRIN         11  -0.0%   242.3      0.1250E-03   0.000       192.3       0.000      0.5000E-01   0.000    
   10436   6.641      0.6364E-03 SPRIN         11  -0.0%   242.7      0.1250E-03   0.000       192.7       0.000      0.5000E-01   0.000    
   10437   6.642      0.6364E-03 SPRIN         11  -0.0%   243.1      0.1250E-03   0.000       193.1       0.000      0.5000E-01   0.000    
   10438   6.643      0.6364E-03 SPRIN         11  -0.0%   243.5      0.1250E-03   0.000       193.5       0.000      0.5000E-01   0.000    
   10439   6.643      0.6364E-03 SPRIN         11  -0.0%   244.0      0.1250E-03   0.000       194.0       0.000      0.5000E-01   0.000    
   10440   6.644      0.6364E-03 SPRIN         11  -0.0%   244.4      0.1250E-03   0.000       194.4       0.000      0.5000E-01   0.000    
   10441   6.645      0.6364E-03 SPRIN         11  -0.0%   244.8      0.1250E-03   0.000       194.8       0.000      0.5000E-01   0.000    
   10442   6.645      0.6364E-03 SPRIN         11  -0.0%   245.2      0.1250E-03   0.000       195.2       0.000      0.5000E-01   0.000    
   10443   6.646      0.6364E-03 SPRIN         11  -0.0%   245.6      0.1250E-03   0.000       195.6       0.000      0.5000E-01   0.000    
   10444   6.647      0.6364E-03 SPRIN         11  -0.0%   246.0      0.1250E-03   0.000       196.0       0.000      0.5000E-01   0.000    
   10445   6.647      0.6364E-03 SPRIN         11  -0.0%   246.5      0.1250E-03   0.000       196.5       0.000      0.5000E-01   0.000    
   10446   6.648      0.6364E-03 SPRIN         11  -0.0%   246.9      0.1250E-03   0.000       196.9       0.000      0.5000E-01   0.000    
   10447   6.648      0.6364E-03 SPRIN         11  -0.0%   247.3      0.1250E-03   0.000       197.3       0.000      0.5000E-01   0.000    
   10448   6.649      0.6364E-03 SPRIN         11  -0.0%   247.7      0.1250E-03   0.000       197.7       0.000      0.5000E-01   0.000    
   10449   6.650      0.6364E-03 SPRIN         11  -0.0%   248.1      0.1250E-03   0.000       198.1       0.000      0.5000E-01   0.000    
   CYCLE    TIME      TIME-STEP  ELEMENT          ERROR  I-ENERGY    K-ENERGY T  K-ENERGY R  EXT-WORK     MAS.ERR     TOTAL MASS  MASS ADDED
   10450   6.650      0.6364E-03 SPRIN         11  -0.0%   248.5      0.1250E-03   0.000       198.5       0.000      0.5000E-01   0.000    
   10451   6.651      0.6364E-03 SPRIN         11  -0.0%   249.0      0.1250E-03   0.000       199.0       0.000      0.5000E-01   0.000    
   10452   6.652      0.6364E-03 SPRIN         11  -0.0%   249.4      0.1250E-03   0.000       199.4       0.000      0.5000E-01   0.000    
   10453   6.652      0.6364E-03 SPRIN         11  -0.0%   249.8      0.1250E-03   0.000       199.8       0.000      0.5000E-01   0.000    
   10454   6.653      0.6364E-03 SPRIN         11  -0.0%   250.2      0.1250E-03   0.000       200.2       0.000      0.5000E-01   0.000    
   10455   6.654      0.6364E-03 SPRIN         11  -0.0%   250.6      0.1250E-03   0.000       200.6       0.000      0.5000E-01   0.000    
   10456   6.654      0.6364E-03 SPRIN         11  -0.0%   251.1      0.1250E-03   0.000       201.1       0.000      0.5000E-01   0.000    
   10457   6.655      0.6364E-03 SPRIN         11  -0.0%   251.5      0.1250E-03   0.000       201.5       0.000      0.5000E-01   0.000    
   10458   6.655      0.6364E-03 SPRIN         11  -0.0%   251.9      0.1250E-03   0.000       201.9       0.000      0.5000E-01   0.000    
   10459   6.656      0.6364E-03 SPRIN         11  -0.0%   252.3      0.1250E-03   0.000       202.3       0.000      0.5000E-01   0.000    
   10460   6.657      0.6364E-03 SPRIN         11  -0.0%   252.8      0.1250E-03   0.000       202.8       0.000      0.5000E-01   0.000    
   10461   6.657      0.6364E-03 SPRIN         11  -0.0%   253.2      0.1250E-03   0.000       203.2       0.000      0.5000E-01   0.000    
   10462   6.658      0.6364E-03 SPRIN         11  -0.0%   253.6      0.1250E-03   0.000       203.6       0.000      0.5000E-01   0.000    
   10463   6.659      0.6364E-03 SPRIN         11  -0.0%   254.0      0.1250E-03   0.000       204.0       0.000      0.5000E-01   0.000    
   10464   6.659      0.6364E-03 SPRIN         11  -0.0%   254.4      0.1250E-03   0.000       204.4       0.000      0.5000E-01   0.000    
   10465   6.660      0.6364E-03 SPRIN         11  -0.0%   254.9      0.1250E-03   0.000       204.9       0.000      0.5000E-01   0.000    
   10466   6.661      0.6364E-03 SPRIN         11  -0.0%   255.3      0.1250E-03   0.000       205.3       0.000      0.5000E-01   0.000    
   10467   6.661      0.6364E-03 SPRIN         11  -0.0%   255.7      0.1250E-03   0.000       205.7       0.000      0.5000E-01   0.000    
   10468   6.662      0.6364E-03 SPRIN         11  -0.0%   256.1      0.1250E-03   0.000       206.1       0.000      0.5000E-01   0.000    
   10469   6.662      0.6364E-03 SPRIN         11  -0.0%   256.6      0.1250E-03   0.000       206.6       0.000      0.5000E-01   0.000    
   10470   6.663      0.6364E-03 SPRIN         11  -0.0%   257.0      0.1250E-03   0.000       207.0       0.000      0.5000E-01   0.000    
   10471   6.664      0.6364E-03 SPRIN         11  -0.0%   257.4      0.1250E-03   0.000       207.4       0.000      0.5000E-01   0.000    
   10472   6.664      0.6364E-03 SPRIN         11  -0.0%   257.9      0.1250E-03   0.000       207.9       0.000      0.5000E-01   0.000    
   10473   6.665      0.6364E-03 SPRIN         11  -0.0%   258.3      0.1250E-03   0.000       208.3       0.000      0.5000E-01   0.000    
   10474   6.666      0.6364E-03 SPRIN         11  -0.0%   258.7      0.1250E-03   0.000       208.7       0.000      0.5000E-01   0.000    
   10475   6.666      0.6364E-03 SPRIN         11  -0.0%   259.1      0.1250E-03   0.000       209.1       0.000      0.5000E-01   0.000    
   10476   6.667      0.6364E-03 SPRIN         11  -0.0%   259.6      0.1250E-03   0.000       209.6       0.000      0.5000E-01   0.000    
   10477   6.668      0.6364E-03 SPRIN         11  -0.0%   260.0      0.1250E-03   0.000       210.0       0.000      0.5000E-01   0.000    
   10478   6.668      0.6364E-03 SPRIN         11  -0.0%   260.4      0.1250E-03   0.000       210.4       0.000      0.5000E-01   0.000    
   10479   6.669      0.6364E-03 SPRIN         11  -0.0%   260.9      0.1250E-03   0.000       210.9       0.000      0.5000E-01   0.000    
   10480   6.669      0.6364E-03 SPRIN         11  -0.0%   261.3      0.1250E-03   0.000       211.3       0.000      0.5000E-01   0.000    
   10481   6.670      0.6364E-03 SPRIN         11  -0.0%   261.7      0.1250E-03   0.000       211.7       0.000      0.5000E-01   0.000    
   10482   6.671      0.6364E-03 SPRIN         11  -0.0%   262.2      0.1250E-03   0.000       212.2       0.000      0.5000E-01   0.000    
   10483   6.671      0.6364E-03 SPRIN         11  -0.0%   262.6      0.1250E-03   0.000       212.6       0.000      0.5000E-01   0.000    
   10484   6.672      0.6364E-03 SPRIN         11  -0.0%   263.0      0.1250E-03   0.000       213.0       0.000      0.5000E-01   0.000    
   10485   6.673      0.6364E-03 SPRIN         11  -0.0%   263.5      0.1250E-03   0.000       213.5       0.000      0.5000E-01   0.000    
   10486   6.673      0.6364E-03 SPRIN         11  -0.0%   263.9      0.1250E-03   0.000       213.9       0.000      0.5000E-01   0.000    
   10487   6.674      0.6364E-03 SPRIN         11  -0.0%   264.3      0.1250E-03   0.000       214.3       0.000      0.5000E-01   0.000    
   10488   6.675      0.6364E-03 SPRIN         11  -0.0%   264.8      0.1250E-03   0.000       214.8       0.000      0.5000E-01   0.000    
   10489   6.675      0.6364E-03 SPRIN         11  -0.0%   265.2      0.1250E-03   0.000       215.2       0.000      0.5000E-01   0.000    
   10490   6.676      0.6364E-03 SPRIN         11  -0.0%   265.6      0.1250E-03   0.000       215.6       0.000      0.5000E-01   0.000    
   10491   6.676      0.6364E-03 SPRIN         11  -0.0%   266.1      0.1250E-03   0.000       216.1       0.000      0.5000E-01   0.000    
   10492   6.677      0.6364E-03 SPRIN         11  -0.0%   266.5      0.1250E-03   0.000       216.5       0.000      0.5000E-01   0.000    
   10493   6.678      0.6364E-03 SPRIN         11  -0.0%   266.9      0.1250E-03   0.000       216.9       0.000      0.5000E-01   0.000    
   10494   6.678      0.6364E-03 SPRIN         11  -0.0%   267.4      0.1250E-03   0.000       217.4       0.000      0.5000E-01   0.000    
   10495   6.679      0.6364E-03 SPRIN         11  -0.0%   267.8      0.1250E-03   0.000       217.8       0.000      0.5000E-01   0.000    
   10496   6.680      0.6364E-03 SPRIN         11  -0.0%   268.2      0.1250E-03   0.000       218.2       0.000      0.5000E-01   0.000    
   10497   6.680      0.6364E-03 SPRIN         11  -0.0%   268.7      0.1250E-03   0.000       218.7       0.000      0.5000E-01   0.000    
   10498   6.681      0.6364E-03 SPRIN         11  -0.0%   269.1      0.1250E-03   0.000       219.1       0.000      0.5000E-01   0.000    
   10499   6.682      0.6364E-03 SPRIN         11  -0.0%   269.6      0.1250E-03   0.000       219.6       0.000      0.5000E-01   0.000    
   10500   6.682      0.6364E-03 SPRIN         11  -0.0%   270.0      0.1250E-03   0.000       220.0       0.000      0.5000E-01   0.000    
   10501   6.683      0.6364E-03 SPRIN         11  -0.0%   270.4      0.1250E-03   0.000       220.4       0.000      0.5000E-01   0.000    
   10502   6.683      0.6364E-03 SPRIN         11  -0.0%   270.9      0.1250E-03   0.000       220.9       0.000      0.5000E-01   0.000    
   10503   6.684      0.6364E-03 SPRIN         11  -0.0%   271.3      0.1250E-03   0.000       221.3       0.000      0.5000E-01   0.000    
   10504   6.685      0.6364E-03 SPRIN         11  -0.0%   271.8      0.1250E-03   0.000       221.8       0.000      0.5000E-01   0.000    
   CYCLE    TIME      TIME-STEP  ELEMENT          ERROR  I-ENERGY    K-ENERGY T  K-ENERGY R  EXT-WORK     MAS.ERR     TOTAL MASS  MASS ADDED
   10505   6.685      0.6364E-03 SPRIN         11  -0.0%   272.2      0.1250E-03   0.000       222.2       0.000      0.5000E-01   0.000    
   10506   6.686      0.6364E-03 SPRIN         11  -0.0%   272.6      0.1250E-03   0.000       222.6       0.000      0.5000E-01   0.000    
   10507   6.687      0.6364E-03 SPRIN         11  -0.0%   273.1      0.1250E-03   0.000       223.1       0.000      0.5000E-01   0.000    
   10508   6.687      0.6364E-03 SPRIN         11  -0.0%   273.5      0.1250E-03   0.000       223.5       0.000      0.5000E-01   0.000    
   10509   6.688      0.6364E-03 SPRIN         11  -0.0%   274.0      0.1250E-03   0.000       224.0       0.000      0.5000E-01   0.000    
   10510   6.689      0.6364E-03 SPRIN         11  -0.0%   274.4      0.1250E-03   0.000       224.4       0.000      0.5000E-01   0.000    
   10511   6.689      0.6364E-03 SPRIN         11  -0.0%   274.8      0.1250E-03   0.000       224.8       0.000      0.5000E-01   0.000    
   10512   6.690      0.6364E-03 SPRIN         11  -0.0%   275.3      0.1250E-03   0.000       225.3       0.000      0.5000E-01   0.000    
   10513   6.690      0.6364E-03 SPRIN         11  -0.0%   275.7      0.1250E-03   0.000       225.7       0.000      0.5000E-01   0.000    
   10514   6.691      0.6364E-03 SPRIN         11  -0.0%   276.2      0.1250E-03   0.000       226.2       0.000      0.5000E-01   0.000    
   10515   6.692      0.6364E-03 SPRIN         11  -0.0%   276.6      0.1250E-03   0.000       226.6       0.000      0.5000E-01   0.000    
   10516   6.692      0.6364E-03 SPRIN         11  -0.0%   277.1      0.1250E-03   0.000       227.1       0.000      0.5000E-01   0.000    
   10517   6.693      0.6364E-03 SPRIN         11  -0.0%   277.5      0.1250E-03   0.000       227.5       0.000      0.5000E-01   0.000    
   10518   6.694      0.6364E-03 SPRIN         11  -0.0%   278.0      0.1250E-03   0.000       228.0       0.000      0.5000E-01   0.000    
   10519   6.694      0.6364E-03 SPRIN         11  -0.0%   278.4      0.1250E-03   0.000       228.4       0.000      0.5000E-01   0.000    
   10520   6.695      0.6364E-03 SPRIN         11  -0.0%   278.9      0.1250E-03   0.000       228.9       0.000      0.5000E-01   0.000    
   10521   6.696      0.6364E-03 SPRIN         11  -0.0%   279.3      0.1250E-03   0.000       229.3       0.000      0.5000E-01   0.000    
   10522   6.696      0.6364E-03 SPRIN         11  -0.0%   279.8      0.1250E-03   0.000       229.8       0.000      0.5000E-01   0.000    
   10523   6.697      0.6364E-03 SPRIN         11  -0.0%   280.2      0.1250E-03   0.000       230.2       0.000      0.5000E-01   0.000    
   10524   6.697      0.6364E-03 SPRIN         11  -0.0%   280.6      0.1250E-03   0.000       230.6       0.000      0.5000E-01   0.000    
   10525   6.698      0.6364E-03 SPRIN         11  -0.0%   281.1      0.1250E-03   0.000       231.1       0.000      0.5000E-01   0.000    
   10526   6.699      0.6364E-03 SPRIN         11  -0.0%   281.5      0.1250E-03   0.000       231.5       0.000      0.5000E-01   0.000    
   10527   6.699      0.6364E-03 SPRIN         11  -0.0%   282.0      0.1250E-03   0.000       232.0       0.000      0.5000E-01   0.000    
   10528   6.700      0.6364E-03 SPRIN         11  -0.0%   282.4      0.1250E-03   0.000       232.4       0.000      0.5000E-01   0.000    
   10529   6.701      0.6364E-03 SPRIN         11  -0.0%   282.9      0.1250E-03   0.000       232.9       0.000      0.5000E-01   0.000    
   10530   6.701      0.6364E-03 SPRIN         11  -0.0%   283.3      0.1250E-03   0.000       233.3       0.000      0.5000E-01   0.000    
   10531   6.702      0.6364E-03 SPRIN         11  -0.0%   283.8      0.1250E-03   0.000       233.8       0.000      0.5000E-01   0.000    
   10532   6.703      0.6364E-03 SPRIN         11  -0.0%   284.3      0.1250E-03   0.000       234.3       0.000      0.5000E-01   0.000    
   10533   6.703      0.6364E-03 SPRIN         11  -0.0%   284.7      0.1250E-03   0.000       234.7       0.000      0.5000E-01   0.000    
   10534   6.704      0.6364E-03 SPRIN         11  -0.0%   285.2      0.1250E-03   0.000       235.2       0.000      0.5000E-01   0.000    
   10535   6.704      0.6364E-03 SPRIN         11  -0.0%   285.6      0.1250E-03   0.000       235.6       0.000      0.5000E-01   0.000    
   10536   6.705      0.6364E-03 SPRIN         11  -0.0%   286.1      0.1250E-03   0.000       236.1       0.000      0.5000E-01   0.000    
   10537   6.706      0.6364E-03 SPRIN         11  -0.0%   286.5      0.1250E-03   0.000       236.5       0.000      0.5000E-01   0.000    
   10538   6.706      0.6364E-03 SPRIN         11  -0.0%   287.0      0.1250E-03   0.000       237.0       0.000      0.5000E-01   0.000    
   10539   6.707      0.6364E-03 SPRIN         11  -0.0%   287.4      0.1250E-03   0.000       237.4       0.000      0.5000E-01   0.000    
   10540   6.708      0.6364E-03 SPRIN         11  -0.0%   287.9      0.1250E-03   0.000       237.9       0.000      0.5000E-01   0.000    
   10541   6.708      0.6364E-03 SPRIN         11  -0.0%   288.3      0.1250E-03   0.000       238.3       0.000      0.5000E-01   0.000    
   10542   6.709      0.6364E-03 SPRIN         11  -0.0%   288.8      0.1250E-03   0.000       238.8       0.000      0.5000E-01   0.000    
   10543   6.710      0.6364E-03 SPRIN         11  -0.0%   289.2      0.1250E-03   0.000       239.2       0.000      0.5000E-01   0.000    
   10544   6.710      0.6364E-03 SPRIN         11  -0.0%   289.7      0.1250E-03   0.000       239.7       0.000      0.5000E-01   0.000    
   10545   6.711      0.6364E-03 SPRIN         11  -0.0%   290.2      0.1250E-03   0.000       240.2       0.000      0.5000E-01   0.000    
   10546   6.711      0.6364E-03 SPRIN         11  -0.0%   290.6      0.1250E-03   0.000       240.6       0.000      0.5000E-01   0.000    
   10547   6.712      0.6364E-03 SPRIN         11  -0.0%   291.1      0.1250E-03   0.000       241.1       0.000      0.5000E-01   0.000    
   10548   6.713      0.6364E-03 SPRIN         11  -0.0%   291.5      0.1250E-03   0.000       241.5       0.000      0.5000E-01   0.000    
   10549   6.713      0.6364E-03 SPRIN         11  -0.0%   292.0      0.1250E-03   0.000       242.0       0.000      0.5000E-01   0.000    
   10550   6.714      0.6364E-03 SPRIN         11  -0.0%   292.5      0.1250E-03   0.000       242.5       0.000      0.5000E-01   0.000    
   10551   6.715      0.6364E-03 SPRIN         11  -0.0%   292.9      0.1250E-03   0.000       242.9       0.000      0.5000E-01   0.000    
   10552   6.715      0.6364E-03 SPRIN         11  -0.0%   293.4      0.1250E-03   0.000       243.4       0.000      0.5000E-01   0.000    
   10553   6.716      0.6364E-03 SPRIN         11  -0.0%   293.8      0.1250E-03   0.000       243.8       0.000      0.5000E-01   0.000    
   10554   6.717      0.6364E-03 SPRIN         11  -0.0%   294.3      0.1250E-03   0.000       244.3       0.000      0.5000E-01   0.000    
   10555   6.717      0.6364E-03 SPRIN         11  -0.0%   294.8      0.1250E-03   0.000       244.8       0.000      0.5000E-01   0.000    
   10556   6.718      0.6364E-03 SPRIN         11  -0.0%   295.2      0.1250E-03   0.000       245.2       0.000      0.5000E-01   0.000    
   10557   6.718      0.6364E-03 SPRIN         11  -0.0%   295.7      0.1250E-03   0.000       245.7       0.000      0.5000E-01   0.000    
   10558   6.719      0.6364E-03 SPRIN         11  -0.0%   296.1      0.1250E-03   0.000       246.1       0.000      0.5000E-01   0.000    
   10559   6.720      0.6364E-03 SPRIN         11  -0.0%   296.6      0.1250E-03   0.000       246.6       0.000      0.5000E-01   0.000    
   CYCLE    TIME      TIME-STEP  ELEMENT          ERROR  I-ENERGY    K-ENERGY T  K-ENERGY R  EXT-WORK     MAS.ERR     TOTAL MASS  MASS ADDED
   10560   6.720      0.6364E-03 SPRIN         11  -0.0%   297.1      0.1250E-03   0.000       247.1       0.000      0.5000E-01   0.000    
   10561   6.721      0.6364E-03 SPRIN         11  -0.0%   297.5      0.1250E-03   0.000       247.5       0.000      0.5000E-01   0.000    
   10562   6.722      0.6364E-03 SPRIN         11  -0.0%   298.0      0.1250E-03   0.000       248.0       0.000      0.5000E-01   0.000    
   10563   6.722      0.6364E-03 SPRIN         11  -0.0%   298.5      0.1250E-03   0.000       248.5       0.000      0.5000E-01   0.000    
   10564   6.723      0.6364E-03 SPRIN         11  -0.0%   298.9      0.1250E-03   0.000       248.9       0.000      0.5000E-01   0.000    
   10565   6.724      0.6364E-03 SPRIN         11  -0.0%   299.4      0.1250E-03   0.000       249.4       0.000      0.5000E-01   0.000    
   10566   6.724      0.6364E-03 SPRIN         11  -0.0%   299.9      0.1250E-03   0.000       249.9       0.000      0.5000E-01   0.000    
   10567   6.725      0.6364E-03 SPRIN         11  -0.0%   300.3      0.1250E-03   0.000       250.3       0.000      0.5000E-01   0.000    
   10568   6.725      0.6364E-03 SPRIN         11  -0.0%   300.8      0.1250E-03   0.000       250.8       0.000      0.5000E-01   0.000    
   10569   6.726      0.6364E-03 SPRIN         11  -0.0%   301.3      0.1250E-03   0.000       251.3       0.000      0.5000E-01   0.000    
   10570   6.727      0.6364E-03 SPRIN         11  -0.0%   301.7      0.1250E-03   0.000       251.7       0.000      0.5000E-01   0.000    
   10571   6.727      0.6364E-03 SPRIN         11  -0.0%   302.2      0.1250E-03   0.000       252.2       0.000      0.5000E-01   0.000    
   10572   6.728      0.6364E-03 SPRIN         11  -0.0%   302.7      0.1250E-03   0.000       252.7       0.000      0.5000E-01   0.000    
   10573   6.729      0.6364E-03 SPRIN         11  -0.0%   303.1      0.1250E-03   0.000       253.1       0.000      0.5000E-01   0.000    
   10574   6.729      0.6364E-03 SPRIN         11  -0.0%   303.6      0.1250E-03   0.000       253.6       0.000      0.5000E-01   0.000    
   10575   6.730      0.6364E-03 SPRIN         11  -0.0%   304.1      0.1250E-03   0.000       254.1       0.000      0.5000E-01   0.000    
   10576   6.731      0.6364E-03 SPRIN         11  -0.0%   304.5      0.1250E-03   0.000       254.5       0.000      0.5000E-01   0.000    
   10577   6.731      0.6364E-03 SPRIN         11  -0.0%   305.0      0.1250E-03   0.000       255.0       0.000      0.5000E-01   0.000    
   10578   6.732      0.6364E-03 SPRIN         11  -0.0%   305.5      0.1250E-03   0.000       255.5       0.000      0.5000E-01   0.000    
   10579   6.732      0.6364E-03 SPRIN         11  -0.0%   305.9      0.1250E-03   0.000       255.9       0.000      0.5000E-01   0.000    
   10580   6.733      0.6364E-03 SPRIN         11  -0.0%   306.4      0.1250E-03   0.000       256.4       0.000      0.5000E-01   0.000    
   10581   6.734      0.6364E-03 SPRIN         11  -0.0%   306.9      0.1250E-03   0.000       256.9       0.000      0.5000E-01   0.000    
   10582   6.734      0.6364E-03 SPRIN         11  -0.0%   307.4      0.1250E-03   0.000       257.4       0.000      0.5000E-01   0.000    
   10583   6.735      0.6364E-03 SPRIN         11  -0.0%   307.8      0.1250E-03   0.000       257.8       0.000      0.5000E-01   0.000    
   10584   6.736      0.6364E-03 SPRIN         11  -0.0%   308.3      0.1250E-03   0.000       258.3       0.000      0.5000E-01   0.000    
   10585   6.736      0.6364E-03 SPRIN         11  -0.0%   308.8      0.1250E-03   0.000       258.8       0.000      0.5000E-01   0.000    
   10586   6.737      0.6364E-03 SPRIN         11  -0.0%   309.3      0.1250E-03   0.000       259.3       0.000      0.5000E-01   0.000    
   10587   6.738      0.6364E-03 SPRIN         11  -0.0%   309.7      0.1250E-03   0.000       259.7       0.000      0.5000E-01   0.000    
   10588   6.738      0.6364E-03 SPRIN         11  -0.0%   310.2      0.1250E-03   0.000       260.2       0.000      0.5000E-01   0.000    
   10589   6.739      0.6364E-03 SPRIN         11  -0.0%   310.7      0.1250E-03   0.000       260.7       0.000      0.5000E-01   0.000    
   10590   6.739      0.6364E-03 SPRIN         11  -0.0%   311.2      0.1250E-03   0.000       261.2       0.000      0.5000E-01   0.000    
   10591   6.740      0.6364E-03 SPRIN         11  -0.0%   311.6      0.1250E-03   0.000       261.6       0.000      0.5000E-01   0.000    
   10592   6.741      0.6364E-03 SPRIN         11  -0.0%   312.1      0.1250E-03   0.000       262.1       0.000      0.5000E-01   0.000    
   10593   6.741      0.6364E-03 SPRIN         11  -0.0%   312.6      0.1250E-03   0.000       262.6       0.000      0.5000E-01   0.000    
   10594   6.742      0.6364E-03 SPRIN         11  -0.0%   313.1      0.1250E-03   0.000       263.1       0.000      0.5000E-01   0.000    
   10595   6.743      0.6364E-03 SPRIN         11  -0.0%   313.5      0.1250E-03   0.000       263.5       0.000      0.5000E-01   0.000    
   10596   6.743      0.6364E-03 SPRIN         11  -0.0%   314.0      0.1250E-03   0.000       264.0       0.000      0.5000E-01   0.000    
   10597   6.744      0.6364E-03 SPRIN         11  -0.0%   314.5      0.1250E-03   0.000       264.5       0.000      0.5000E-01   0.000    
   10598   6.745      0.6364E-03 SPRIN         11  -0.0%   315.0      0.1250E-03   0.000       265.0       0.000      0.5000E-01   0.000    
   10599   6.745      0.6364E-03 SPRIN         11  -0.0%   315.4      0.1250E-03   0.000       265.4       0.000      0.5000E-01   0.000    
   10600   6.746      0.6364E-03 SPRIN         11  -0.0%   315.9      0.1250E-03   0.000       265.9       0.000      0.5000E-01   0.000    
   10601   6.746      0.6364E-03 SPRIN         11  -0.0%   316.4      0.1250E-03   0.000       266.4       0.000      0.5000E-01   0.000    
   10602   6.747      0.6364E-03 SPRIN         11  -0.0%   316.9      0.1250E-03   0.000       266.9       0.000      0.5000E-01   0.000    
   10603   6.748      0.6364E-03 SPRIN         11  -0.0%   317.4      0.1250E-03   0.000       267.4       0.000      0.5000E-01   0.000    
   10604   6.748      0.6364E-03 SPRIN         11  -0.0%   317.8      0.1250E-03   0.000       267.8       0.000      0.5000E-01   0.000    
   10605   6.749      0.6364E-03 SPRIN         11  -0.0%   318.3      0.1250E-03   0.000       268.3       0.000      0.5000E-01   0.000    
   10606   6.750      0.6364E-03 SPRIN         11  -0.0%   318.8      0.1250E-03   0.000       268.8       0.000      0.5000E-01   0.000    
   10607   6.750      0.6364E-03 SPRIN         11  -0.0%   319.3      0.1250E-03   0.000       269.3       0.000      0.5000E-01   0.000    
   10608   6.751      0.6364E-03 SPRIN         11  -0.0%   319.8      0.1250E-03   0.000       269.8       0.000      0.5000E-01   0.000    
   10609   6.752      0.6364E-03 SPRIN         11  -0.0%   320.3      0.1250E-03   0.000       270.3       0.000      0.5000E-01   0.000    
   10610   6.752      0.6364E-03 SPRIN         11  -0.0%   320.7      0.1250E-03   0.000       270.7       0.000      0.5000E-01   0.000    
   10611   6.753      0.6364E-03 SPRIN         11  -0.0%   321.2      0.1250E-03   0.000       271.2       0.000      0.5000E-01   0.000    
   10612   6.753      0.6364E-03 SPRIN         11  -0.0%   321.7      0.1250E-03   0.000       271.7       0.000      0.5000E-01   0.000    
   10613   6.754      0.6364E-03 SPRIN         11  -0.0%   322.2      0.1250E-03   0.000       272.2       0.000      0.5000E-01   0.000    
   10614   6.755      0.6364E-03 SPRIN         11  -0.0%   322.7      0.1250E-03   0.000       272.7       0.000      0.5000E-01   0.000    
   CYCLE    TIME      TIME-STEP  ELEMENT          ERROR  I-ENERGY    K-ENERGY T  K-ENERGY R  EXT-WORK     MAS.ERR     TOTAL MASS  MASS ADDED
   10615   6.755      0.6364E-03 SPRIN         11  -0.0%   323.2      0.1250E-03   0.000       273.2       0.000      0.5000E-01   0.000    
   10616   6.756      0.6364E-03 SPRIN         11  -0.0%   323.7      0.1250E-03   0.000       273.7       0.000      0.5000E-01   0.000    
   10617   6.757      0.6364E-03 SPRIN         11  -0.0%   324.1      0.1250E-03   0.000       274.1       0.000      0.5000E-01   0.000    
   10618   6.757      0.6364E-03 SPRIN         11  -0.0%   324.6      0.1250E-03   0.000       274.6       0.000      0.5000E-01   0.000    
   10619   6.758      0.6364E-03 SPRIN         11  -0.0%   325.1      0.1250E-03   0.000       275.1       0.000      0.5000E-01   0.000    
   10620   6.759      0.6364E-03 SPRIN         11  -0.0%   325.6      0.1250E-03   0.000       275.6       0.000      0.5000E-01   0.000    
   10621   6.759      0.6364E-03 SPRIN         11  -0.0%   326.1      0.1250E-03   0.000       276.1       0.000      0.5000E-01   0.000    
   10622   6.760      0.6364E-03 SPRIN         11  -0.0%   326.6      0.1250E-03   0.000       276.6       0.000      0.5000E-01   0.000    
   10623   6.760      0.6364E-03 SPRIN         11  -0.0%   327.1      0.1250E-03   0.000       277.1       0.000      0.5000E-01   0.000    
   10624   6.761      0.6364E-03 SPRIN         11  -0.0%   327.6      0.1250E-03   0.000       277.6       0.000      0.5000E-01   0.000    
   10625   6.762      0.6364E-03 SPRIN         11  -0.0%   328.0      0.1250E-03   0.000       278.0       0.000      0.5000E-01   0.000    
   10626   6.762      0.6364E-03 SPRIN         11  -0.0%   328.5      0.1250E-03   0.000       278.5       0.000      0.5000E-01   0.000    
   10627   6.763      0.6364E-03 SPRIN         11  -0.0%   329.0      0.1250E-03   0.000       279.0       0.000      0.5000E-01   0.000    
   10628   6.764      0.6364E-03 SPRIN         11  -0.0%   329.5      0.1250E-03   0.000       279.5       0.000      0.5000E-01   0.000    
   10629   6.764      0.6364E-03 SPRIN         11  -0.0%   330.0      0.1250E-03   0.000       280.0       0.000      0.5000E-01   0.000    
   10630   6.765      0.6364E-03 SPRIN         11  -0.0%   330.5      0.1250E-03   0.000       280.5       0.000      0.5000E-01   0.000    
   10631   6.766      0.6364E-03 SPRIN         11  -0.0%   331.0      0.1250E-03   0.000       281.0       0.000      0.5000E-01   0.000    
   10632   6.766      0.6364E-03 SPRIN         11  -0.0%   331.5      0.1250E-03   0.000       281.5       0.000      0.5000E-01   0.000    
   10633   6.767      0.6364E-03 SPRIN         11  -0.0%   332.0      0.1250E-03   0.000       282.0       0.000      0.5000E-01   0.000    
   10634   6.767      0.6364E-03 SPRIN         11  -0.0%   332.5      0.1250E-03   0.000       282.5       0.000      0.5000E-01   0.000    
   10635   6.768      0.6364E-03 SPRIN         11  -0.0%   333.0      0.1250E-03   0.000       283.0       0.000      0.5000E-01   0.000    
   10636   6.769      0.6364E-03 SPRIN         11  -0.0%   333.5      0.1250E-03   0.000       283.5       0.000      0.5000E-01   0.000    
   10637   6.769      0.6364E-03 SPRIN         11  -0.0%   333.9      0.1250E-03   0.000       283.9       0.000      0.5000E-01   0.000    
   10638   6.770      0.6364E-03 SPRIN         11  -0.0%   334.4      0.1250E-03   0.000       284.4       0.000      0.5000E-01   0.000    
   10639   6.771      0.6364E-03 SPRIN         11  -0.0%   334.9      0.1250E-03   0.000       284.9       0.000      0.5000E-01   0.000    
   10640   6.771      0.6364E-03 SPRIN         11  -0.0%   335.4      0.1250E-03   0.000       285.4       0.000      0.5000E-01   0.000    
   10641   6.772      0.6364E-03 SPRIN         11  -0.0%   335.9      0.1250E-03   0.000       285.9       0.000      0.5000E-01   0.000    
   10642   6.773      0.6364E-03 SPRIN         11  -0.0%   336.4      0.1250E-03   0.000       286.4       0.000      0.5000E-01   0.000    
   10643   6.773      0.6364E-03 SPRIN         11  -0.0%   336.9      0.1250E-03   0.000       286.9       0.000      0.5000E-01   0.000    
   10644   6.774      0.6364E-03 SPRIN         11  -0.0%   337.4      0.1250E-03   0.000       287.4       0.000      0.5000E-01   0.000    
   10645   6.774      0.6364E-03 SPRIN         11  -0.0%   337.9      0.1250E-03   0.000       287.9       0.000      0.5000E-01   0.000    
   10646   6.775      0.6364E-03 SPRIN         11  -0.0%   338.4      0.1250E-03   0.000       288.4       0.000      0.5000E-01   0.000    
   10647   6.776      0.6364E-03 SPRIN         11  -0.0%   338.9      0.1250E-03   0.000       288.9       0.000      0.5000E-01   0.000    
   10648   6.776      0.6364E-03 SPRIN         11  -0.0%   339.4      0.1250E-03   0.000       289.4       0.000      0.5000E-01   0.000    
   10649   6.777      0.6364E-03 SPRIN         11  -0.0%   339.9      0.1250E-03   0.000       289.9       0.000      0.5000E-01   0.000    
   10650   6.778      0.6364E-03 SPRIN         11  -0.0%   340.4      0.1250E-03   0.000       290.4       0.000      0.5000E-01   0.000    
   10651   6.778      0.6364E-03 SPRIN         11  -0.0%   340.9      0.1250E-03   0.000       290.9       0.000      0.5000E-01   0.000    
   10652   6.779      0.6364E-03 SPRIN         11  -0.0%   341.4      0.1250E-03   0.000       291.4       0.000      0.5000E-01   0.000    
   10653   6.780      0.6364E-03 SPRIN         11  -0.0%   341.9      0.1250E-03   0.000       291.9       0.000      0.5000E-01   0.000    
   10654   6.780      0.6364E-03 SPRIN         11  -0.0%   342.4      0.1250E-03   0.000       292.4       0.000      0.5000E-01   0.000    
   10655   6.781      0.6364E-03 SPRIN         11  -0.0%   342.9      0.1250E-03   0.000       292.9       0.000      0.5000E-01   0.000    
   10656   6.781      0.6364E-03 SPRIN         11  -0.0%   343.4      0.1250E-03   0.000       293.4       0.000      0.5000E-01   0.000    
   10657   6.782      0.6364E-03 SPRIN         11  -0.0%   343.9      0.1250E-03   0.000       293.9       0.000      0.5000E-01   0.000    
   10658   6.783      0.6364E-03 SPRIN         11  -0.0%   344.4      0.1250E-03   0.000       294.4       0.000      0.5000E-01   0.000    
   10659   6.783      0.6364E-03 SPRIN         11  -0.0%   344.9      0.1250E-03   0.000       294.9       0.000      0.5000E-01   0.000    
   10660   6.784      0.6364E-03 SPRIN         11  -0.0%   345.4      0.1250E-03   0.000       295.4       0.000      0.5000E-01   0.000    
   10661   6.785      0.6364E-03 SPRIN         11  -0.0%   345.9      0.1250E-03   0.000       295.9       0.000      0.5000E-01   0.000    
   10662   6.785      0.6364E-03 SPRIN         11  -0.0%   346.4      0.1250E-03   0.000       296.4       0.000      0.5000E-01   0.000    
   10663   6.786      0.6364E-03 SPRIN         11  -0.0%   346.9      0.1250E-03   0.000       296.9       0.000      0.5000E-01   0.000    
   10664   6.787      0.6364E-03 SPRIN         11  -0.0%   347.4      0.1250E-03   0.000       297.4       0.000      0.5000E-01   0.000    
   10665   6.787      0.6364E-03 SPRIN         11  -0.0%   348.0      0.1250E-03   0.000       298.0       0.000      0.5000E-01   0.000    
   10666   6.788      0.6364E-03 SPRIN         11  -0.0%   348.5      0.1250E-03   0.000       298.5       0.000      0.5000E-01   0.000    
   10667   6.788      0.6364E-03 SPRIN         11  -0.0%   349.0      0.1250E-03   0.000       299.0       0.000      0.5000E-01   0.000    
   10668   6.789      0.6364E-03 SPRIN         11  -0.0%   349.5      0.1250E-03   0.000       299.5       0.000      0.5000E-01   0.000    
   10669   6.790      0.6364E-03 SPRIN         11  -0.0%   350.0      0.1250E-03   0.000       300.0       0.000      0.5000E-01   0.000    
   CYCLE    TIME      TIME-STEP  ELEMENT          ERROR  I-ENERGY    K-ENERGY T  K-ENERGY R  EXT-WORK     MAS.ERR     TOTAL MASS  MASS ADDED
   10670   6.790      0.6364E-03 SPRIN         11  -0.0%   350.5      0.1250E-03   0.000       300.5       0.000      0.5000E-01   0.000    
   10671   6.791      0.6364E-03 SPRIN         11  -0.0%   351.0      0.1250E-03   0.000       301.0       0.000      0.5000E-01   0.000    
   10672   6.792      0.6364E-03 SPRIN         11  -0.0%   351.5      0.1250E-03   0.000       301.5       0.000      0.5000E-01   0.000    
   10673   6.792      0.6364E-03 SPRIN         11  -0.0%   352.0      0.1250E-03   0.000       302.0       0.000      0.5000E-01   0.000    
   10674   6.793      0.6364E-03 SPRIN         11  -0.0%   352.5      0.1250E-03   0.000       302.5       0.000      0.5000E-01   0.000    
   10675   6.794      0.6364E-03 SPRIN         11  -0.0%   353.0      0.1250E-03   0.000       303.0       0.000      0.5000E-01   0.000    
   10676   6.794      0.6364E-03 SPRIN         11  -0.0%   353.5      0.1250E-03   0.000       303.5       0.000      0.5000E-01   0.000    
   10677   6.795      0.6364E-03 SPRIN         11  -0.0%   354.1      0.1250E-03   0.000       304.1       0.000      0.5000E-01   0.000    
   10678   6.795      0.6364E-03 SPRIN         11  -0.0%   354.6      0.1250E-03   0.000       304.6       0.000      0.5000E-01   0.000    
   10679   6.796      0.6364E-03 SPRIN         11  -0.0%   355.1      0.1250E-03   0.000       305.1       0.000      0.5000E-01   0.000    
   10680   6.797      0.6364E-03 SPRIN         11  -0.0%   355.6      0.1250E-03   0.000       305.6       0.000      0.5000E-01   0.000    
   10681   6.797      0.6364E-03 SPRIN         11  -0.0%   356.1      0.1250E-03   0.000       306.1       0.000      0.5000E-01   0.000    
   10682   6.798      0.6364E-03 SPRIN         11  -0.0%   356.6      0.1250E-03   0.000       306.6       0.000      0.5000E-01   0.000    
   10683   6.799      0.6364E-03 SPRIN         11  -0.0%   357.1      0.1250E-03   0.000       307.1       0.000      0.5000E-01   0.000    
   10684   6.799      0.6364E-03 SPRIN         11  -0.0%   357.6      0.1250E-03   0.000       307.6       0.000      0.5000E-01   0.000    
   10685   6.800      0.6364E-03 SPRIN         11  -0.0%   358.2      0.1250E-03   0.000       308.2       0.000      0.5000E-01   0.000    
   10686   6.801      0.6364E-03 SPRIN         11  -0.0%   358.7      0.1250E-03   0.000       308.7       0.000      0.5000E-01   0.000    
     ANIMATION FILE: SPR_PRE_2FLAGA035 WRITTEN
   10687   6.801      0.6364E-03 SPRIN         11  -0.0%   359.2      0.1250E-03   0.000       309.2       0.000      0.5000E-01   0.000    
   10688   6.802      0.6364E-03 SPRIN         11  -0.0%   359.7      0.1250E-03   0.000       309.7       0.000      0.5000E-01   0.000    
   10689   6.802      0.6364E-03 SPRIN         11  -0.0%   360.2      0.1250E-03   0.000       310.2       0.000      0.5000E-01   0.000    
   10690   6.803      0.6364E-03 SPRIN         11  -0.0%   360.7      0.1250E-03   0.000       310.7       0.000      0.5000E-01   0.000    
   10691   6.804      0.6364E-03 SPRIN         11  -0.0%   361.2      0.1250E-03   0.000       311.2       0.000      0.5000E-01   0.000    
   10692   6.804      0.6364E-03 SPRIN         11  -0.0%   361.8      0.1250E-03   0.000       311.8       0.000      0.5000E-01   0.000    
   10693   6.805      0.6364E-03 SPRIN         11  -0.0%   362.3      0.1250E-03   0.000       312.3       0.000      0.5000E-01   0.000    
   10694   6.806      0.6364E-03 SPRIN         11  -0.0%   362.8      0.1250E-03   0.000       312.8       0.000      0.5000E-01   0.000    
   10695   6.806      0.6364E-03 SPRIN         11  -0.0%   363.3      0.1250E-03   0.000       313.3       0.000      0.5000E-01   0.000    
   10696   6.807      0.6364E-03 SPRIN         11  -0.0%   363.8      0.1250E-03   0.000       313.8       0.000      0.5000E-01   0.000    
   10697   6.808      0.6364E-03 SPRIN         11  -0.0%   364.4      0.1250E-03   0.000       314.4       0.000      0.5000E-01   0.000    
   10698   6.808      0.6364E-03 SPRIN         11  -0.0%   364.9      0.1250E-03   0.000       314.9       0.000      0.5000E-01   0.000    
   10699   6.809      0.6364E-03 SPRIN         11  -0.0%   365.4      0.1250E-03   0.000       315.4       0.000      0.5000E-01   0.000    
   10700   6.809      0.6364E-03 SPRIN         11  -0.0%   365.9      0.1250E-03   0.000       315.9       0.000      0.5000E-01   0.000    
   10701   6.810      0.6364E-03 SPRIN         11  -0.0%   366.4      0.1250E-03   0.000       316.4       0.000      0.5000E-01   0.000    
   10702   6.811      0.6364E-03 SPRIN         11  -0.0%   367.0      0.1250E-03   0.000       317.0       0.000      0.5000E-01   0.000    
   10703   6.811      0.6364E-03 SPRIN         11  -0.0%   367.5      0.1250E-03   0.000       317.5       0.000      0.5000E-01   0.000    
   10704   6.812      0.6364E-03 SPRIN         11  -0.0%   368.0      0.1250E-03   0.000       318.0       0.000      0.5000E-01   0.000    
   10705   6.813      0.6364E-03 SPRIN         11  -0.0%   368.5      0.1250E-03   0.000       318.5       0.000      0.5000E-01   0.000    
   10706   6.813      0.6364E-03 SPRIN         11  -0.0%   369.0      0.1250E-03   0.000       319.0       0.000      0.5000E-01   0.000    
   10707   6.814      0.6364E-03 SPRIN         11  -0.0%   369.6      0.1250E-03   0.000       319.6       0.000      0.5000E-01   0.000    
   10708   6.815      0.6364E-03 SPRIN         11  -0.0%   370.1      0.1250E-03   0.000       320.1       0.000      0.5000E-01   0.000    
   10709   6.815      0.6364E-03 SPRIN         11  -0.0%   370.6      0.1250E-03   0.000       320.6       0.000      0.5000E-01   0.000    
   10710   6.816      0.6364E-03 SPRIN         11  -0.0%   371.1      0.1250E-03   0.000       321.1       0.000      0.5000E-01   0.000    
   10711   6.816      0.6364E-03 SPRIN         11  -0.0%   371.7      0.1250E-03   0.000       321.7       0.000      0.5000E-01   0.000    
   10712   6.817      0.6364E-03 SPRIN         11  -0.0%   372.2      0.1250E-03   0.000       322.2       0.000      0.5000E-01   0.000    
   10713   6.818      0.6364E-03 SPRIN         11  -0.0%   372.7      0.1250E-03   0.000       322.7       0.000      0.5000E-01   0.000    
   10714   6.818      0.6364E-03 SPRIN         11  -0.0%   373.2      0.1250E-03   0.000       323.2       0.000      0.5000E-01   0.000    
   10715   6.819      0.6364E-03 SPRIN         11  -0.0%   373.8      0.1250E-03   0.000       323.8       0.000      0.5000E-01   0.000    
   10716   6.820      0.6364E-03 SPRIN         11  -0.0%   374.3      0.1250E-03   0.000       324.3       0.000      0.5000E-01   0.000    
   10717   6.820      0.6364E-03 SPRIN         11  -0.0%   374.8      0.1250E-03   0.000       324.8       0.000      0.5000E-01   0.000    
   10718   6.821      0.6364E-03 SPRIN         11  -0.0%   375.3      0.1250E-03   0.000       325.3       0.000      0.5000E-01   0.000    
   10719   6.822      0.6364E-03 SPRIN         11  -0.0%   375.9      0.1250E-03   0.000       325.9       0.000      0.5000E-01   0.000    
   10720   6.822      0.6364E-03 SPRIN         11  -0.0%   376.4      0.1250E-03   0.000       326.4       0.000      0.5000E-01   0.000    
   10721   6.823      0.6364E-03 SPRIN         11  -0.0%   376.9      0.1250E-03   0.000       326.9       0.000      0.5000E-01   0.000    
   10722   6.823      0.6364E-03 SPRIN         11  -0.0%   377.4      0.1250E-03   0.000       327.4       0.000      0.5000E-01   0.000    
   10723   6.824      0.6364E-03 SPRIN         11  -0.0%   378.0      0.1250E-03   0.000       328.0       0.000      0.5000E-01   0.000    
   10724   6.825      0.6364E-03 SPRIN         11  -0.0%   378.5      0.1250E-03   0.000       328.5       0.000      0.5000E-01   0.000    
   CYCLE    TIME      TIME-STEP  ELEMENT          ERROR  I-ENERGY    K-ENERGY T  K-ENERGY R  EXT-WORK     MAS.ERR     TOTAL MASS  MASS ADDED
   10725   6.825      0.6364E-03 SPRIN         11  -0.0%   379.0      0.1250E-03   0.000       329.0       0.000      0.5000E-01   0.000    
   10726   6.826      0.6364E-03 SPRIN         11  -0.0%   379.6      0.1250E-03   0.000       329.6       0.000      0.5000E-01   0.000    
   10727   6.827      0.6364E-03 SPRIN         11  -0.0%   380.1      0.1250E-03   0.000       330.1       0.000      0.5000E-01   0.000    
   10728   6.827      0.6364E-03 SPRIN         11  -0.0%   380.6      0.1250E-03   0.000       330.6       0.000      0.5000E-01   0.000    
   10729   6.828      0.6364E-03 SPRIN         11  -0.0%   381.2      0.1250E-03   0.000       331.2       0.000      0.5000E-01   0.000    
   10730   6.829      0.6364E-03 SPRIN         11  -0.0%   381.7      0.1250E-03   0.000       331.7       0.000      0.5000E-01   0.000    
   10731   6.829      0.6364E-03 SPRIN         11  -0.0%   382.2      0.1250E-03   0.000       332.2       0.000      0.5000E-01   0.000    
   10732   6.830      0.6364E-03 SPRIN         11  -0.0%   382.8      0.1250E-03   0.000       332.8       0.000      0.5000E-01   0.000    
   10733   6.830      0.6364E-03 SPRIN         11  -0.0%   383.3      0.1250E-03   0.000       333.3       0.000      0.5000E-01   0.000    
   10734   6.831      0.6364E-03 SPRIN         11  -0.0%   383.8      0.1250E-03   0.000       333.8       0.000      0.5000E-01   0.000    
   10735   6.832      0.6364E-03 SPRIN         11  -0.0%   384.4      0.1250E-03   0.000       334.4       0.000      0.5000E-01   0.000    
   10736   6.832      0.6364E-03 SPRIN         11  -0.0%   384.9      0.1250E-03   0.000       334.9       0.000      0.5000E-01   0.000    
   10737   6.833      0.6364E-03 SPRIN         11  -0.0%   385.4      0.1250E-03   0.000       335.4       0.000      0.5000E-01   0.000    
   10738   6.834      0.6364E-03 SPRIN         11  -0.0%   386.0      0.1250E-03   0.000       336.0       0.000      0.5000E-01   0.000    
   10739   6.834      0.6364E-03 SPRIN         11  -0.0%   386.5      0.1250E-03   0.000       336.5       0.000      0.5000E-01   0.000    
   10740   6.835      0.6364E-03 SPRIN         11  -0.0%   387.0      0.1250E-03   0.000       337.0       0.000      0.5000E-01   0.000    
   10741   6.836      0.6364E-03 SPRIN         11  -0.0%   387.6      0.1250E-03   0.000       337.6       0.000      0.5000E-01   0.000    
   10742   6.836      0.6364E-03 SPRIN         11  -0.0%   388.1      0.1250E-03   0.000       338.1       0.000      0.5000E-01   0.000    
   10743   6.837      0.6364E-03 SPRIN         11  -0.0%   388.6      0.1250E-03   0.000       338.6       0.000      0.5000E-01   0.000    
   10744   6.837      0.6364E-03 SPRIN         11  -0.0%   389.2      0.1250E-03   0.000       339.2       0.000      0.5000E-01   0.000    
   10745   6.838      0.6364E-03 SPRIN         11  -0.0%   389.7      0.1250E-03   0.000       339.7       0.000      0.5000E-01   0.000    
   10746   6.839      0.6364E-03 SPRIN         11  -0.0%   390.3      0.1250E-03   0.000       340.3       0.000      0.5000E-01   0.000    
   10747   6.839      0.6364E-03 SPRIN         11  -0.0%   390.8      0.1250E-03   0.000       340.8       0.000      0.5000E-01   0.000    
   10748   6.840      0.6364E-03 SPRIN         11  -0.0%   391.3      0.1250E-03   0.000       341.3       0.000      0.5000E-01   0.000    
   10749   6.841      0.6364E-03 SPRIN         11  -0.0%   391.9      0.1250E-03   0.000       341.9       0.000      0.5000E-01   0.000    
   10750   6.841      0.6364E-03 SPRIN         11  -0.0%   392.4      0.1250E-03   0.000       342.4       0.000      0.5000E-01   0.000    
   10751   6.842      0.6364E-03 SPRIN         11  -0.0%   393.0      0.1250E-03   0.000       343.0       0.000      0.5000E-01   0.000    
   10752   6.843      0.6364E-03 SPRIN         11  -0.0%   393.5      0.1250E-03   0.000       343.5       0.000      0.5000E-01   0.000    
   10753   6.843      0.6364E-03 SPRIN         11  -0.0%   394.0      0.1250E-03   0.000       344.0       0.000      0.5000E-01   0.000    
   10754   6.844      0.6364E-03 SPRIN         11  -0.0%   394.6      0.1250E-03   0.000       344.6       0.000      0.5000E-01   0.000    
   10755   6.844      0.6364E-03 SPRIN         11  -0.0%   395.1      0.1250E-03   0.000       345.1       0.000      0.5000E-01   0.000    
   10756   6.845      0.6364E-03 SPRIN         11  -0.0%   395.7      0.1250E-03   0.000       345.7       0.000      0.5000E-01   0.000    
   10757   6.846      0.6364E-03 SPRIN         11  -0.0%   396.2      0.1250E-03   0.000       346.2       0.000      0.5000E-01   0.000    
   10758   6.846      0.6364E-03 SPRIN         11  -0.0%   396.8      0.1250E-03   0.000       346.8       0.000      0.5000E-01   0.000    
   10759   6.847      0.6364E-03 SPRIN         11  -0.0%   397.3      0.1250E-03   0.000       347.3       0.000      0.5000E-01   0.000    
   10760   6.848      0.6364E-03 SPRIN         11  -0.0%   397.8      0.1250E-03   0.000       347.8       0.000      0.5000E-01   0.000    
   10761   6.848      0.6364E-03 SPRIN         11  -0.0%   398.4      0.1250E-03   0.000       348.4       0.000      0.5000E-01   0.000    
   10762   6.849      0.6364E-03 SPRIN         11  -0.0%   398.9      0.1250E-03   0.000       348.9       0.000      0.5000E-01   0.000    
   10763   6.850      0.6364E-03 SPRIN         11  -0.0%   399.5      0.1250E-03   0.000       349.5       0.000      0.5000E-01   0.000    
   10764   6.850      0.6364E-03 SPRIN         11  -0.0%   400.0      0.1250E-03   0.000       350.0       0.000      0.5000E-01   0.000    
   10765   6.851      0.6364E-03 SPRIN         11  -0.0%   400.6      0.1250E-03   0.000       350.6       0.000      0.5000E-01   0.000    
   10766   6.851      0.6364E-03 SPRIN         11  -0.0%   401.1      0.1250E-03   0.000       351.1       0.000      0.5000E-01   0.000    
   10767   6.852      0.6364E-03 SPRIN         11  -0.0%   401.7      0.1250E-03   0.000       351.7       0.000      0.5000E-01   0.000    
   10768   6.853      0.6364E-03 SPRIN         11  -0.0%   402.2      0.1250E-03   0.000       352.2       0.000      0.5000E-01   0.000    
   10769   6.853      0.6364E-03 SPRIN         11  -0.0%   402.8      0.1250E-03   0.000       352.8       0.000      0.5000E-01   0.000    
   10770   6.854      0.6364E-03 SPRIN         11  -0.0%   403.3      0.1250E-03   0.000       353.3       0.000      0.5000E-01   0.000    
   10771   6.855      0.6364E-03 SPRIN         11  -0.0%   403.9      0.1250E-03   0.000       353.9       0.000      0.5000E-01   0.000    
   10772   6.855      0.6364E-03 SPRIN         11  -0.0%   404.4      0.1250E-03   0.000       354.4       0.000      0.5000E-01   0.000    
   10773   6.856      0.6364E-03 SPRIN         11  -0.0%   405.0      0.1250E-03   0.000       355.0       0.000      0.5000E-01   0.000    
   10774   6.857      0.6364E-03 SPRIN         11  -0.0%   405.5      0.1250E-03   0.000       355.5       0.000      0.5000E-01   0.000    
   10775   6.857      0.6364E-03 SPRIN         11  -0.0%   406.1      0.1250E-03   0.000       356.1       0.000      0.5000E-01   0.000    
   10776   6.858      0.6364E-03 SPRIN         11  -0.0%   406.6      0.1250E-03   0.000       356.6       0.000      0.5000E-01   0.000    
   10777   6.858      0.6364E-03 SPRIN         11  -0.0%   407.2      0.1250E-03   0.000       357.2       0.000      0.5000E-01   0.000    
   10778   6.859      0.6364E-03 SPRIN         11  -0.0%   407.7      0.1250E-03   0.000       357.7       0.000      0.5000E-01   0.000    
   10779   6.860      0.6364E-03 SPRIN         11  -0.0%   408.3      0.1250E-03   0.000       358.3       0.000      0.5000E-01   0.000    
   CYCLE    TIME      TIME-STEP  ELEMENT          ERROR  I-ENERGY    K-ENERGY T  K-ENERGY R  EXT-WORK     MAS.ERR     TOTAL MASS  MASS ADDED
   10780   6.860      0.6364E-03 SPRIN         11  -0.0%   408.8      0.1250E-03   0.000       358.8       0.000      0.5000E-01   0.000    
   10781   6.861      0.6364E-03 SPRIN         11  -0.0%   409.4      0.1250E-03   0.000       359.4       0.000      0.5000E-01   0.000    
   10782   6.862      0.6364E-03 SPRIN         11  -0.0%   409.9      0.1250E-03   0.000       359.9       0.000      0.5000E-01   0.000    
   10783   6.862      0.6364E-03 SPRIN         11  -0.0%   410.5      0.1250E-03   0.000       360.5       0.000      0.5000E-01   0.000    
   10784   6.863      0.6364E-03 SPRIN         11  -0.0%   411.0      0.1250E-03   0.000       361.0       0.000      0.5000E-01   0.000    
   10785   6.864      0.6364E-03 SPRIN         11  -0.0%   411.6      0.1250E-03   0.000       361.6       0.000      0.5000E-01   0.000    
   10786   6.864      0.6364E-03 SPRIN         11  -0.0%   412.1      0.1250E-03   0.000       362.1       0.000      0.5000E-01   0.000    
   10787   6.865      0.6364E-03 SPRIN         11  -0.0%   412.7      0.1250E-03   0.000       362.7       0.000      0.5000E-01   0.000    
   10788   6.865      0.6364E-03 SPRIN         11  -0.0%   413.2      0.1250E-03   0.000       363.2       0.000      0.5000E-01   0.000    
   10789   6.866      0.6364E-03 SPRIN         11  -0.0%   413.8      0.1250E-03   0.000       363.8       0.000      0.5000E-01   0.000    
   10790   6.867      0.6364E-03 SPRIN         11  -0.0%   414.4      0.1250E-03   0.000       364.4       0.000      0.5000E-01   0.000    
   10791   6.867      0.6364E-03 SPRIN         11  -0.0%   414.9      0.1250E-03   0.000       364.9       0.000      0.5000E-01   0.000    
   10792   6.868      0.6364E-03 SPRIN         11  -0.0%   415.5      0.1250E-03   0.000       365.5       0.000      0.5000E-01   0.000    
   10793   6.869      0.6364E-03 SPRIN         11  -0.0%   416.0      0.1250E-03   0.000       366.0       0.000      0.5000E-01   0.000    
   10794   6.869      0.6364E-03 SPRIN         11  -0.0%   416.6      0.1250E-03   0.000       366.6       0.000      0.5000E-01   0.000    
   10795   6.870      0.6364E-03 SPRIN         11  -0.0%   417.1      0.1250E-03   0.000       367.1       0.000      0.5000E-01   0.000    
   10796   6.871      0.6364E-03 SPRIN         11  -0.0%   417.7      0.1250E-03   0.000       367.7       0.000      0.5000E-01   0.000    
   10797   6.871      0.6364E-03 SPRIN         11  -0.0%   418.3      0.1250E-03   0.000       368.3       0.000      0.5000E-01   0.000    
   10798   6.872      0.6364E-03 SPRIN         11  -0.0%   418.8      0.1250E-03   0.000       368.8       0.000      0.5000E-01   0.000    
   10799   6.872      0.6364E-03 SPRIN         11  -0.0%   419.4      0.1250E-03   0.000       369.4       0.000      0.5000E-01   0.000    
   10800   6.873      0.6364E-03 SPRIN         11  -0.0%   419.9      0.1250E-03   0.000       369.9       0.000      0.5000E-01   0.000    
   10801   6.874      0.6364E-03 SPRIN         11  -0.0%   420.5      0.1250E-03   0.000       370.5       0.000      0.5000E-01   0.000    
   10802   6.874      0.6364E-03 SPRIN         11  -0.0%   421.1      0.1250E-03   0.000       371.1       0.000      0.5000E-01   0.000    
   10803   6.875      0.6364E-03 SPRIN         11  -0.0%   421.6      0.1250E-03   0.000       371.6       0.000      0.5000E-01   0.000    
   10804   6.876      0.6364E-03 SPRIN         11  -0.0%   422.2      0.1250E-03   0.000       372.2       0.000      0.5000E-01   0.000    
   10805   6.876      0.6364E-03 SPRIN         11  -0.0%   422.8      0.1250E-03   0.000       372.8       0.000      0.5000E-01   0.000    
   10806   6.877      0.6364E-03 SPRIN         11  -0.0%   423.3      0.1250E-03   0.000       373.3       0.000      0.5000E-01   0.000    
   10807   6.878      0.6364E-03 SPRIN         11  -0.0%   423.9      0.1250E-03   0.000       373.9       0.000      0.5000E-01   0.000    
   10808   6.878      0.6364E-03 SPRIN         11  -0.0%   424.4      0.1250E-03   0.000       374.4       0.000      0.5000E-01   0.000    
   10809   6.879      0.6364E-03 SPRIN         11  -0.0%   425.0      0.1250E-03   0.000       375.0       0.000      0.5000E-01   0.000    
   10810   6.879      0.6364E-03 SPRIN         11  -0.0%   425.6      0.1250E-03   0.000       375.6       0.000      0.5000E-01   0.000    
   10811   6.880      0.6364E-03 SPRIN         11  -0.0%   426.1      0.1250E-03   0.000       376.1       0.000      0.5000E-01   0.000    
   10812   6.881      0.6364E-03 SPRIN         11  -0.0%   426.7      0.1250E-03   0.000       376.7       0.000      0.5000E-01   0.000    
   10813   6.881      0.6364E-03 SPRIN         11  -0.0%   427.3      0.1250E-03   0.000       377.3       0.000      0.5000E-01   0.000    
   10814   6.882      0.6364E-03 SPRIN         11  -0.0%   427.8      0.1250E-03   0.000       377.8       0.000      0.5000E-01   0.000    
   10815   6.883      0.6364E-03 SPRIN         11  -0.0%   428.4      0.1250E-03   0.000       378.4       0.000      0.5000E-01   0.000    
   10816   6.883      0.6364E-03 SPRIN         11  -0.0%   429.0      0.1250E-03   0.000       379.0       0.000      0.5000E-01   0.000    
   10817   6.884      0.6364E-03 SPRIN         11  -0.0%   429.5      0.1250E-03   0.000       379.5       0.000      0.5000E-01   0.000    
   10818   6.885      0.6364E-03 SPRIN         11  -0.0%   430.1      0.1250E-03   0.000       380.1       0.000      0.5000E-01   0.000    
   10819   6.885      0.6364E-03 SPRIN         11  -0.0%   430.7      0.1250E-03   0.000       380.7       0.000      0.5000E-01   0.000    
   10820   6.886      0.6364E-03 SPRIN         11  -0.0%   431.2      0.1250E-03   0.000       381.2       0.000      0.5000E-01   0.000    
   10821   6.886      0.6364E-03 SPRIN         11  -0.0%   431.8      0.1250E-03   0.000       381.8       0.000      0.5000E-01   0.000    
   10822   6.887      0.6364E-03 SPRIN         11  -0.0%   432.4      0.1250E-03   0.000       382.4       0.000      0.5000E-01   0.000    
   10823   6.888      0.6364E-03 SPRIN         11  -0.0%   432.9      0.1250E-03   0.000       382.9       0.000      0.5000E-01   0.000    
   10824   6.888      0.6364E-03 SPRIN         11  -0.0%   433.5      0.1250E-03   0.000       383.5       0.000      0.5000E-01   0.000    
   10825   6.889      0.6364E-03 SPRIN         11  -0.0%   434.1      0.1250E-03   0.000       384.1       0.000      0.5000E-01   0.000    
   10826   6.890      0.6364E-03 SPRIN         11  -0.0%   434.7      0.1250E-03   0.000       384.7       0.000      0.5000E-01   0.000    
   10827   6.890      0.6364E-03 SPRIN         11  -0.0%   435.2      0.1250E-03   0.000       385.2       0.000      0.5000E-01   0.000    
   10828   6.891      0.6364E-03 SPRIN         11  -0.0%   435.8      0.1250E-03   0.000       385.8       0.000      0.5000E-01   0.000    
   10829   6.892      0.6364E-03 SPRIN         11  -0.0%   436.4      0.1250E-03   0.000       386.4       0.000      0.5000E-01   0.000    
   10830   6.892      0.6364E-03 SPRIN         11  -0.0%   436.9      0.1250E-03   0.000       386.9       0.000      0.5000E-01   0.000    
   10831   6.893      0.6364E-03 SPRIN         11  -0.0%   437.5      0.1250E-03   0.000       387.5       0.000      0.5000E-01   0.000    
   10832   6.893      0.6364E-03 SPRIN         11  -0.0%   438.1      0.1250E-03   0.000       388.1       0.000      0.5000E-01   0.000    
   10833   6.894      0.6364E-03 SPRIN         11  -0.0%   438.7      0.1250E-03   0.000       388.7       0.000      0.5000E-01   0.000    
   10834   6.895      0.6364E-03 SPRIN         11  -0.0%   439.2      0.1250E-03   0.000       389.2       0.000      0.5000E-01   0.000    
   CYCLE    TIME      TIME-STEP  ELEMENT          ERROR  I-ENERGY    K-ENERGY T  K-ENERGY R  EXT-WORK     MAS.ERR     TOTAL MASS  MASS ADDED
   10835   6.895      0.6364E-03 SPRIN         11  -0.0%   439.8      0.1250E-03   0.000       389.8       0.000      0.5000E-01   0.000    
   10836   6.896      0.6364E-03 SPRIN         11  -0.0%   440.4      0.1250E-03   0.000       390.4       0.000      0.5000E-01   0.000    
   10837   6.897      0.6364E-03 SPRIN         11  -0.0%   441.0      0.1250E-03   0.000       391.0       0.000      0.5000E-01   0.000    
   10838   6.897      0.6364E-03 SPRIN         11  -0.0%   441.5      0.1250E-03   0.000       391.5       0.000      0.5000E-01   0.000    
   10839   6.898      0.6364E-03 SPRIN         11  -0.0%   442.1      0.1250E-03   0.000       392.1       0.000      0.5000E-01   0.000    
   10840   6.899      0.6364E-03 SPRIN         11  -0.0%   442.7      0.1250E-03   0.000       392.7       0.000      0.5000E-01   0.000    
   10841   6.899      0.6364E-03 SPRIN         11  -0.0%   443.3      0.1250E-03   0.000       393.3       0.000      0.5000E-01   0.000    
   10842   6.900      0.6364E-03 SPRIN         11  -0.0%   443.8      0.1250E-03   0.000       393.8       0.000      0.5000E-01   0.000    
   10843   6.900      0.6364E-03 SPRIN         11  -0.0%   444.4      0.1250E-03   0.000       394.4       0.000      0.5000E-01   0.000    
   10844   6.901      0.6364E-03 SPRIN         11  -0.0%   445.0      0.1250E-03   0.000       395.0       0.000      0.5000E-01   0.000    
   10845   6.902      0.6364E-03 SPRIN         11  -0.0%   445.6      0.1250E-03   0.000       395.6       0.000      0.5000E-01   0.000    
   10846   6.902      0.6364E-03 SPRIN         11  -0.0%   446.2      0.1250E-03   0.000       396.2       0.000      0.5000E-01   0.000    
   10847   6.903      0.6364E-03 SPRIN         11  -0.0%   446.7      0.1250E-03   0.000       396.7       0.000      0.5000E-01   0.000    
   10848   6.904      0.6364E-03 SPRIN         11  -0.0%   447.3      0.1250E-03   0.000       397.3       0.000      0.5000E-01   0.000    
   10849   6.904      0.6364E-03 SPRIN         11  -0.0%   447.9      0.1250E-03   0.000       397.9       0.000      0.5000E-01   0.000    
   10850   6.905      0.6364E-03 SPRIN         11  -0.0%   448.5      0.1250E-03   0.000       398.5       0.000      0.5000E-01   0.000    
   10851   6.906      0.6364E-03 SPRIN         11  -0.0%   449.1      0.1250E-03   0.000       399.1       0.000      0.5000E-01   0.000    
   10852   6.906      0.6364E-03 SPRIN         11  -0.0%   449.6      0.1250E-03   0.000       399.6       0.000      0.5000E-01   0.000    
   10853   6.907      0.6364E-03 SPRIN         11  -0.0%   450.2      0.1250E-03   0.000       400.2       0.000      0.5000E-01   0.000    
   10854   6.907      0.6364E-03 SPRIN         11  -0.0%   450.8      0.1250E-03   0.000       400.8       0.000      0.5000E-01   0.000    
   10855   6.908      0.6364E-03 SPRIN         11  -0.0%   451.4      0.1250E-03   0.000       401.4       0.000      0.5000E-01   0.000    
   10856   6.909      0.6364E-03 SPRIN         11  -0.0%   452.0      0.1250E-03   0.000       402.0       0.000      0.5000E-01   0.000    
   10857   6.909      0.6364E-03 SPRIN         11  -0.0%   452.6      0.1250E-03   0.000       402.6       0.000      0.5000E-01   0.000    
   10858   6.910      0.6364E-03 SPRIN         11  -0.0%   453.1      0.1250E-03   0.000       403.1       0.000      0.5000E-01   0.000    
   10859   6.911      0.6364E-03 SPRIN         11  -0.0%   453.7      0.1250E-03   0.000       403.7       0.000      0.5000E-01   0.000    
   10860   6.911      0.6364E-03 SPRIN         11  -0.0%   454.3      0.1250E-03   0.000       404.3       0.000      0.5000E-01   0.000    
   10861   6.912      0.6364E-03 SPRIN         11  -0.0%   454.9      0.1250E-03   0.000       404.9       0.000      0.5000E-01   0.000    
   10862   6.913      0.6364E-03 SPRIN         11  -0.0%   455.5      0.1250E-03   0.000       405.5       0.000      0.5000E-01   0.000    
   10863   6.913      0.6364E-03 SPRIN         11  -0.0%   456.1      0.1250E-03   0.000       406.1       0.000      0.5000E-01   0.000    
   10864   6.914      0.6364E-03 SPRIN         11  -0.0%   456.6      0.1250E-03   0.000       406.6       0.000      0.5000E-01   0.000    
   10865   6.914      0.6364E-03 SPRIN         11  -0.0%   457.2      0.1250E-03   0.000       407.2       0.000      0.5000E-01   0.000    
   10866   6.915      0.6364E-03 SPRIN         11  -0.0%   457.8      0.1250E-03   0.000       407.8       0.000      0.5000E-01   0.000    
   10867   6.916      0.6364E-03 SPRIN         11  -0.0%   458.4      0.1250E-03   0.000       408.4       0.000      0.5000E-01   0.000    
   10868   6.916      0.6364E-03 SPRIN         11  -0.0%   459.0      0.1250E-03   0.000       409.0       0.000      0.5000E-01   0.000    
   10869   6.917      0.6364E-03 SPRIN         11  -0.0%   459.6      0.1250E-03   0.000       409.6       0.000      0.5000E-01   0.000    
   10870   6.918      0.6364E-03 SPRIN         11  -0.0%   460.2      0.1250E-03   0.000       410.2       0.000      0.5000E-01   0.000    
   10871   6.918      0.6364E-03 SPRIN         11  -0.0%   460.8      0.1250E-03   0.000       410.8       0.000      0.5000E-01   0.000    
   10872   6.919      0.6364E-03 SPRIN         11  -0.0%   461.4      0.1250E-03   0.000       411.4       0.000      0.5000E-01   0.000    
   10873   6.920      0.6364E-03 SPRIN         11  -0.0%   461.9      0.1250E-03   0.000       411.9       0.000      0.5000E-01   0.000    
   10874   6.920      0.6364E-03 SPRIN         11  -0.0%   462.5      0.1250E-03   0.000       412.5       0.000      0.5000E-01   0.000    
   10875   6.921      0.6364E-03 SPRIN         11  -0.0%   463.1      0.1250E-03   0.000       413.1       0.000      0.5000E-01   0.000    
   10876   6.921      0.6364E-03 SPRIN         11  -0.0%   463.7      0.1250E-03   0.000       413.7       0.000      0.5000E-01   0.000    
   10877   6.922      0.6364E-03 SPRIN         11  -0.0%   464.3      0.1250E-03   0.000       414.3       0.000      0.5000E-01   0.000    
   10878   6.923      0.6364E-03 SPRIN         11  -0.0%   464.9      0.1250E-03   0.000       414.9       0.000      0.5000E-01   0.000    
   10879   6.923      0.6364E-03 SPRIN         11  -0.0%   465.5      0.1250E-03   0.000       415.5       0.000      0.5000E-01   0.000    
   10880   6.924      0.6364E-03 SPRIN         11  -0.0%   466.1      0.1250E-03   0.000       416.1       0.000      0.5000E-01   0.000    
   10881   6.925      0.6364E-03 SPRIN         11  -0.0%   466.7      0.1250E-03   0.000       416.7       0.000      0.5000E-01   0.000    
   10882   6.925      0.6364E-03 SPRIN         11  -0.0%   467.3      0.1250E-03   0.000       417.3       0.000      0.5000E-01   0.000    
   10883   6.926      0.6364E-03 SPRIN         11  -0.0%   467.9      0.1250E-03   0.000       417.9       0.000      0.5000E-01   0.000    
   10884   6.927      0.6364E-03 SPRIN         11  -0.0%   468.5      0.1250E-03   0.000       418.5       0.000      0.5000E-01   0.000    
   10885   6.927      0.6364E-03 SPRIN         11  -0.0%   469.1      0.1250E-03   0.000       419.1       0.000      0.5000E-01   0.000    
   10886   6.928      0.6364E-03 SPRIN         11  -0.0%   469.7      0.1250E-03   0.000       419.7       0.000      0.5000E-01   0.000    
   10887   6.928      0.6364E-03 SPRIN         11  -0.0%   470.2      0.1250E-03   0.000       420.2       0.000      0.5000E-01   0.000    
   10888   6.929      0.6364E-03 SPRIN         11  -0.0%   470.8      0.1250E-03   0.000       420.8       0.000      0.5000E-01   0.000    
   10889   6.930      0.6364E-03 SPRIN         11  -0.0%   471.4      0.1250E-03   0.000       421.4       0.000      0.5000E-01   0.000    
   CYCLE    TIME      TIME-STEP  ELEMENT          ERROR  I-ENERGY    K-ENERGY T  K-ENERGY R  EXT-WORK     MAS.ERR     TOTAL MASS  MASS ADDED
   10890   6.930      0.6364E-03 SPRIN         11  -0.0%   472.0      0.1250E-03   0.000       422.0       0.000      0.5000E-01   0.000    
   10891   6.931      0.6364E-03 SPRIN         11  -0.0%   472.6      0.1250E-03   0.000       422.6       0.000      0.5000E-01   0.000    
   10892   6.932      0.6364E-03 SPRIN         11  -0.0%   473.2      0.1250E-03   0.000       423.2       0.000      0.5000E-01   0.000    
   10893   6.932      0.6364E-03 SPRIN         11  -0.0%   473.8      0.1250E-03   0.000       423.8       0.000      0.5000E-01   0.000    
   10894   6.933      0.6364E-03 SPRIN         11  -0.0%   474.4      0.1250E-03   0.000       424.4       0.000      0.5000E-01   0.000    
   10895   6.934      0.6364E-03 SPRIN         11  -0.0%   475.0      0.1250E-03   0.000       425.0       0.000      0.5000E-01   0.000    
   10896   6.934      0.6364E-03 SPRIN         11  -0.0%   475.6      0.1250E-03   0.000       425.6       0.000      0.5000E-01   0.000    
   10897   6.935      0.6364E-03 SPRIN         11  -0.0%   476.2      0.1250E-03   0.000       426.2       0.000      0.5000E-01   0.000    
   10898   6.935      0.6364E-03 SPRIN         11  -0.0%   476.8      0.1250E-03   0.000       426.8       0.000      0.5000E-01   0.000    
   10899   6.936      0.6364E-03 SPRIN         11  -0.0%   477.4      0.1250E-03   0.000       427.4       0.000      0.5000E-01   0.000    
   10900   6.937      0.6364E-03 SPRIN         11  -0.0%   478.0      0.1250E-03   0.000       428.0       0.000      0.5000E-01   0.000    
   10901   6.937      0.6364E-03 SPRIN         11  -0.0%   478.6      0.1250E-03   0.000       428.6       0.000      0.5000E-01   0.000    
   10902   6.938      0.6364E-03 SPRIN         11  -0.0%   479.2      0.1250E-03   0.000       429.2       0.000      0.5000E-01   0.000    
   10903   6.939      0.6364E-03 SPRIN         11  -0.0%   479.8      0.1250E-03   0.000       429.8       0.000      0.5000E-01   0.000    
   10904   6.939      0.6364E-03 SPRIN         11  -0.0%   480.4      0.1250E-03   0.000       430.4       0.000      0.5000E-01   0.000    
   10905   6.940      0.6364E-03 SPRIN         11  -0.0%   481.0      0.1250E-03   0.000       431.0       0.000      0.5000E-01   0.000    
   10906   6.941      0.6364E-03 SPRIN         11  -0.0%   481.6      0.1250E-03   0.000       431.6       0.000      0.5000E-01   0.000    
   10907   6.941      0.6364E-03 SPRIN         11  -0.0%   482.2      0.1250E-03   0.000       432.2       0.000      0.5000E-01   0.000    
   10908   6.942      0.6364E-03 SPRIN         11  -0.0%   482.8      0.1250E-03   0.000       432.8       0.000      0.5000E-01   0.000    
   10909   6.942      0.6364E-03 SPRIN         11  -0.0%   483.5      0.1250E-03   0.000       433.5       0.000      0.5000E-01   0.000    
   10910   6.943      0.6364E-03 SPRIN         11  -0.0%   484.1      0.1250E-03   0.000       434.1       0.000      0.5000E-01   0.000    
   10911   6.944      0.6364E-03 SPRIN         11  -0.0%   484.7      0.1250E-03   0.000       434.7       0.000      0.5000E-01   0.000    
   10912   6.944      0.6364E-03 SPRIN         11  -0.0%   485.3      0.1250E-03   0.000       435.3       0.000      0.5000E-01   0.000    
   10913   6.945      0.6364E-03 SPRIN         11  -0.0%   485.9      0.1250E-03   0.000       435.9       0.000      0.5000E-01   0.000    
   10914   6.946      0.6364E-03 SPRIN         11  -0.0%   486.5      0.1250E-03   0.000       436.5       0.000      0.5000E-01   0.000    
   10915   6.946      0.6364E-03 SPRIN         11  -0.0%   487.1      0.1250E-03   0.000       437.1       0.000      0.5000E-01   0.000    
   10916   6.947      0.6364E-03 SPRIN         11  -0.0%   487.7      0.1250E-03   0.000       437.7       0.000      0.5000E-01   0.000    
   10917   6.948      0.6364E-03 SPRIN         11  -0.0%   488.3      0.1250E-03   0.000       438.3       0.000      0.5000E-01   0.000    
   10918   6.948      0.6364E-03 SPRIN         11  -0.0%   488.9      0.1250E-03   0.000       438.9       0.000      0.5000E-01   0.000    
   10919   6.949      0.6364E-03 SPRIN         11  -0.0%   489.5      0.1250E-03   0.000       439.5       0.000      0.5000E-01   0.000    
   10920   6.949      0.6364E-03 SPRIN         11  -0.0%   490.1      0.1250E-03   0.000       440.1       0.000      0.5000E-01   0.000    
   10921   6.950      0.6364E-03 SPRIN         11  -0.0%   490.7      0.1250E-03   0.000       440.7       0.000      0.5000E-01   0.000    
   10922   6.951      0.6364E-03 SPRIN         11  -0.0%   491.3      0.1250E-03   0.000       441.3       0.000      0.5000E-01   0.000    
   10923   6.951      0.6364E-03 SPRIN         11  -0.0%   492.0      0.1250E-03   0.000       442.0       0.000      0.5000E-01   0.000    
   10924   6.952      0.6364E-03 SPRIN         11  -0.0%   492.6      0.1250E-03   0.000       442.6       0.000      0.5000E-01   0.000    
   10925   6.953      0.6364E-03 SPRIN         11  -0.0%   493.2      0.1250E-03   0.000       443.2       0.000      0.5000E-01   0.000    
   10926   6.953      0.6364E-03 SPRIN         11  -0.0%   493.8      0.1250E-03   0.000       443.8       0.000      0.5000E-01   0.000    
   10927   6.954      0.6364E-03 SPRIN         11  -0.0%   494.4      0.1250E-03   0.000       444.4       0.000      0.5000E-01   0.000    
   10928   6.955      0.6364E-03 SPRIN         11  -0.0%   495.0      0.1250E-03   0.000       445.0       0.000      0.5000E-01   0.000    
   10929   6.955      0.6364E-03 SPRIN         11  -0.0%   495.6      0.1250E-03   0.000       445.6       0.000      0.5000E-01   0.000    
   10930   6.956      0.6364E-03 SPRIN         11  -0.0%   496.2      0.1250E-03   0.000       446.2       0.000      0.5000E-01   0.000    
   10931   6.956      0.6364E-03 SPRIN         11  -0.0%   496.9      0.1250E-03   0.000       446.9       0.000      0.5000E-01   0.000    
   10932   6.957      0.6364E-03 SPRIN         11  -0.0%   497.5      0.1250E-03   0.000       447.5       0.000      0.5000E-01   0.000    
   10933   6.958      0.6364E-03 SPRIN         11  -0.0%   498.1      0.1250E-03   0.000       448.1       0.000      0.5000E-01   0.000    
   10934   6.958      0.6364E-03 SPRIN         11  -0.0%   498.7      0.1250E-03   0.000       448.7       0.000      0.5000E-01   0.000    
   10935   6.959      0.6364E-03 SPRIN         11  -0.0%   499.3      0.1250E-03   0.000       449.3       0.000      0.5000E-01   0.000    
   10936   6.960      0.6364E-03 SPRIN         11  -0.0%   499.9      0.1250E-03   0.000       449.9       0.000      0.5000E-01   0.000    
   10937   6.960      0.6364E-03 SPRIN         11  -0.0%   500.5      0.1250E-03   0.000       450.5       0.000      0.5000E-01   0.000    
   10938   6.961      0.6364E-03 SPRIN         11  -0.0%   501.2      0.1250E-03   0.000       451.2       0.000      0.5000E-01   0.000    
   10939   6.962      0.6364E-03 SPRIN         11  -0.0%   501.8      0.1250E-03   0.000       451.8       0.000      0.5000E-01   0.000    
   10940   6.962      0.6364E-03 SPRIN         11  -0.0%   502.4      0.1250E-03   0.000       452.4       0.000      0.5000E-01   0.000    
   10941   6.963      0.6364E-03 SPRIN         11  -0.0%   503.0      0.1250E-03   0.000       453.0       0.000      0.5000E-01   0.000    
   10942   6.963      0.6364E-03 SPRIN         11  -0.0%   503.6      0.1250E-03   0.000       453.6       0.000      0.5000E-01   0.000    
   10943   6.964      0.6364E-03 SPRIN         11  -0.0%   504.2      0.1250E-03   0.000       454.2       0.000      0.5000E-01   0.000    
   10944   6.965      0.6364E-03 SPRIN         11  -0.0%   504.9      0.1250E-03   0.000       454.9       0.000      0.5000E-01   0.000    
   CYCLE    TIME      TIME-STEP  ELEMENT          ERROR  I-ENERGY    K-ENERGY T  K-ENERGY R  EXT-WORK     MAS.ERR     TOTAL MASS  MASS ADDED
   10945   6.965      0.6364E-03 SPRIN         11  -0.0%   505.5      0.1250E-03   0.000       455.5       0.000      0.5000E-01   0.000    
   10946   6.966      0.6364E-03 SPRIN         11  -0.0%   506.1      0.1250E-03   0.000       456.1       0.000      0.5000E-01   0.000    
   10947   6.967      0.6364E-03 SPRIN         11  -0.0%   506.7      0.1250E-03   0.000       456.7       0.000      0.5000E-01   0.000    
   10948   6.967      0.6364E-03 SPRIN         11  -0.0%   507.3      0.1250E-03   0.000       457.3       0.000      0.5000E-01   0.000    
   10949   6.968      0.6364E-03 SPRIN         11  -0.0%   508.0      0.1250E-03   0.000       458.0       0.000      0.5000E-01   0.000    
   10950   6.969      0.6364E-03 SPRIN         11  -0.0%   508.6      0.1250E-03   0.000       458.6       0.000      0.5000E-01   0.000    
   10951   6.969      0.6364E-03 SPRIN         11  -0.0%   509.2      0.1250E-03   0.000       459.2       0.000      0.5000E-01   0.000    
   10952   6.970      0.6364E-03 SPRIN         11  -0.0%   509.8      0.1250E-03   0.000       459.8       0.000      0.5000E-01   0.000    
   10953   6.970      0.6364E-03 SPRIN         11  -0.0%   510.5      0.1250E-03   0.000       460.5       0.000      0.5000E-01   0.000    
   10954   6.971      0.6364E-03 SPRIN         11  -0.0%   511.1      0.1250E-03   0.000       461.1       0.000      0.5000E-01   0.000    
   10955   6.972      0.6364E-03 SPRIN         11  -0.0%   511.7      0.1250E-03   0.000       461.7       0.000      0.5000E-01   0.000    
   10956   6.972      0.6364E-03 SPRIN         11  -0.0%   512.3      0.1250E-03   0.000       462.3       0.000      0.5000E-01   0.000    
   10957   6.973      0.6364E-03 SPRIN         11  -0.0%   512.9      0.1250E-03   0.000       462.9       0.000      0.5000E-01   0.000    
   10958   6.974      0.6364E-03 SPRIN         11  -0.0%   513.6      0.1250E-03   0.000       463.6       0.000      0.5000E-01   0.000    
   10959   6.974      0.6364E-03 SPRIN         11  -0.0%   514.2      0.1250E-03   0.000       464.2       0.000      0.5000E-01   0.000    
   10960   6.975      0.6364E-03 SPRIN         11  -0.0%   514.8      0.1250E-03   0.000       464.8       0.000      0.5000E-01   0.000    
   10961   6.976      0.6364E-03 SPRIN         11  -0.0%   515.4      0.1250E-03   0.000       465.4       0.000      0.5000E-01   0.000    
   10962   6.976      0.6364E-03 SPRIN         11  -0.0%   516.1      0.1250E-03   0.000       466.1       0.000      0.5000E-01   0.000    
   10963   6.977      0.6364E-03 SPRIN         11  -0.0%   516.7      0.1250E-03   0.000       466.7       0.000      0.5000E-01   0.000    
   10964   6.977      0.6364E-03 SPRIN         11  -0.0%   517.3      0.1250E-03   0.000       467.3       0.000      0.5000E-01   0.000    
   10965   6.978      0.6364E-03 SPRIN         11  -0.0%   518.0      0.1250E-03   0.000       468.0       0.000      0.5000E-01   0.000    
   10966   6.979      0.6364E-03 SPRIN         11  -0.0%   518.6      0.1250E-03   0.000       468.6       0.000      0.5000E-01   0.000    
   10967   6.979      0.6364E-03 SPRIN         11  -0.0%   519.2      0.1250E-03   0.000       469.2       0.000      0.5000E-01   0.000    
   10968   6.980      0.6364E-03 SPRIN         11  -0.0%   519.8      0.1250E-03   0.000       469.8       0.000      0.5000E-01   0.000    
   10969   6.981      0.6364E-03 SPRIN         11  -0.0%   520.5      0.1250E-03   0.000       470.5       0.000      0.5000E-01   0.000    
   10970   6.981      0.6364E-03 SPRIN         11  -0.0%   521.1      0.1250E-03   0.000       471.1       0.000      0.5000E-01   0.000    
   10971   6.982      0.6364E-03 SPRIN         11  -0.0%   521.7      0.1250E-03   0.000       471.7       0.000      0.5000E-01   0.000    
   10972   6.983      0.6364E-03 SPRIN         11  -0.0%   522.4      0.1250E-03   0.000       472.4       0.000      0.5000E-01   0.000    
   10973   6.983      0.6364E-03 SPRIN         11  -0.0%   523.0      0.1250E-03   0.000       473.0       0.000      0.5000E-01   0.000    
   10974   6.984      0.6364E-03 SPRIN         11  -0.0%   523.6      0.1250E-03   0.000       473.6       0.000      0.5000E-01   0.000    
   10975   6.984      0.6364E-03 SPRIN         11  -0.0%   524.2      0.1250E-03   0.000       474.2       0.000      0.5000E-01   0.000    
   10976   6.985      0.6364E-03 SPRIN         11  -0.0%   524.9      0.1250E-03   0.000       474.9       0.000      0.5000E-01   0.000    
   10977   6.986      0.6364E-03 SPRIN         11  -0.0%   525.5      0.1250E-03   0.000       475.5       0.000      0.5000E-01   0.000    
   10978   6.986      0.6364E-03 SPRIN         11  -0.0%   526.1      0.1250E-03   0.000       476.1       0.000      0.5000E-01   0.000    
   10979   6.987      0.6364E-03 SPRIN         11  -0.0%   526.8      0.1250E-03   0.000       476.8       0.000      0.5000E-01   0.000    
   10980   6.988      0.6364E-03 SPRIN         11  -0.0%   527.4      0.1250E-03   0.000       477.4       0.000      0.5000E-01   0.000    
   10981   6.988      0.6364E-03 SPRIN         11  -0.0%   528.0      0.1250E-03   0.000       478.0       0.000      0.5000E-01   0.000    
   10982   6.989      0.6364E-03 SPRIN         11  -0.0%   528.7      0.1250E-03   0.000       478.7       0.000      0.5000E-01   0.000    
   10983   6.990      0.6364E-03 SPRIN         11  -0.0%   529.3      0.1250E-03   0.000       479.3       0.000      0.5000E-01   0.000    
   10984   6.990      0.6364E-03 SPRIN         11  -0.0%   529.9      0.1250E-03   0.000       479.9       0.000      0.5000E-01   0.000    
   10985   6.991      0.6364E-03 SPRIN         11  -0.0%   530.6      0.1250E-03   0.000       480.6       0.000      0.5000E-01   0.000    
   10986   6.991      0.6364E-03 SPRIN         11  -0.0%   531.2      0.1250E-03   0.000       481.2       0.000      0.5000E-01   0.000    
   10987   6.992      0.6364E-03 SPRIN         11  -0.0%   531.9      0.1250E-03   0.000       481.9       0.000      0.5000E-01   0.000    
   10988   6.993      0.6364E-03 SPRIN         11  -0.0%   532.5      0.1250E-03   0.000       482.5       0.000      0.5000E-01   0.000    
   10989   6.993      0.6364E-03 SPRIN         11  -0.0%   533.1      0.1250E-03   0.000       483.1       0.000      0.5000E-01   0.000    
   10990   6.994      0.6364E-03 SPRIN         11  -0.0%   533.8      0.1250E-03   0.000       483.8       0.000      0.5000E-01   0.000    
   10991   6.995      0.6364E-03 SPRIN         11  -0.0%   534.4      0.1250E-03   0.000       484.4       0.000      0.5000E-01   0.000    
   10992   6.995      0.6364E-03 SPRIN         11  -0.0%   535.0      0.1250E-03   0.000       485.0       0.000      0.5000E-01   0.000    
   10993   6.996      0.6364E-03 SPRIN         11  -0.0%   535.7      0.1250E-03   0.000       485.7       0.000      0.5000E-01   0.000    
   10994   6.997      0.6364E-03 SPRIN         11  -0.0%   536.3      0.1250E-03   0.000       486.3       0.000      0.5000E-01   0.000    
   10995   6.997      0.6364E-03 SPRIN         11  -0.0%   537.0      0.1250E-03   0.000       487.0       0.000      0.5000E-01   0.000    
   10996   6.998      0.6364E-03 SPRIN         11  -0.0%   537.6      0.1250E-03   0.000       487.6       0.000      0.5000E-01   0.000    
   10997   6.998      0.6364E-03 SPRIN         11  -0.0%   538.2      0.1250E-03   0.000       488.2       0.000      0.5000E-01   0.000    
   10998   6.999      0.6364E-03 SPRIN         11  -0.0%   538.9      0.1250E-03   0.000       488.9       0.000      0.5000E-01   0.000    
   10999   7.000      0.6364E-03 SPRIN         11  -0.0%   539.5      0.1250E-03   0.000       489.5       0.000      0.5000E-01   0.000    
   CYCLE    TIME      TIME-STEP  ELEMENT          ERROR  I-ENERGY    K-ENERGY T  K-ENERGY R  EXT-WORK     MAS.ERR     TOTAL MASS  MASS ADDED
   11000   7.000      0.6364E-03 SPRIN         11  38.2%   540.2       205.5       0.000       489.5       0.000      0.5000E-01   0.000    
     ANIMATION FILE: SPR_PRE_2FLAGA036 WRITTEN
   11001   7.001      0.6364E-03 SPRIN         11  14.7%   226.9       391.9       0.000       489.5       0.000      0.5000E-01   0.000    
   11002   7.002      0.6364E-03 SPRIN         11  58.3%   807.5       46.41       0.000       489.5       0.000      0.5000E-01   0.000    
   11003   7.002      0.6364E-03 SPRIN         11   0.9%   43.40       501.1       0.000       489.5       0.000      0.5000E-01   0.000    
   11004   7.003      0.6364E-03 SPRIN         11  63.8%   880.7       2.868       0.000       489.5       0.000      0.5000E-01   0.000    
   11005   7.004      0.6364E-03 SPRIN         11   4.5%   91.12       472.7       0.000       489.5       0.000      0.5000E-01   0.000    
   11006   7.004      0.6364E-03 SPRIN         11  51.6%   719.0       99.10       0.000       489.5       0.000      0.5000E-01   0.000    
   11007   7.005      0.6364E-03 SPRIN         11  23.4%   343.5       322.5       0.000       489.5       0.000      0.5000E-01   0.000    
   11008   7.005      0.6364E-03 SPRIN         11  28.6%   412.4       281.5       0.000       489.5       0.000      0.5000E-01   0.000    
   11009   7.006      0.6364E-03 SPRIN         11  47.2%   660.1       134.1       0.000       489.5       0.000      0.5000E-01   0.000    
   11010   7.007      0.6364E-03 SPRIN         11   7.5%   131.6       448.6       0.000       489.5       0.000      0.5000E-01   0.000    
   11011   7.007      0.6364E-03 SPRIN         11  62.6%   864.5       12.49       0.000       489.5       0.000      0.5000E-01   0.000    
   11012   7.008      0.6364E-03 SPRIN         11   0.1%   32.95       507.3       0.000       489.5       0.000      0.5000E-01   0.000    
   11013   7.009      0.6364E-03 SPRIN         11  60.9%   843.1       25.25       0.000       489.5       0.000      0.5000E-01   0.000    
   11014   7.009      0.6364E-03 SPRIN         11  10.5%   171.4       424.9       0.000       489.5       0.000      0.5000E-01   0.000    
   11015   7.010      0.6364E-03 SPRIN         11  43.3%   607.7       165.3       0.000       489.5       0.000      0.5000E-01   0.000    
   11016   7.011      0.6364E-03 SPRIN         11  32.9%   469.8       247.3       0.000       489.5       0.000      0.5000E-01   0.000    
   11017   7.011      0.6364E-03 SPRIN         11  19.4%   289.3       354.7       0.000       489.5       0.000      0.5000E-01   0.000    
   11018   7.012      0.6364E-03 SPRIN         11  54.9%   762.1       73.45       0.000       489.5       0.000      0.5000E-01   0.000    
   11019   7.012      0.6364E-03 SPRIN         11   2.6%   65.32       488.0       0.000       489.5       0.000      0.5000E-01   0.000    
   11020   7.013      0.6364E-03 SPRIN         11  64.1%   885.5      0.3077E-01   0.000       489.5       0.000      0.5000E-01   0.000    
   11021   7.014      0.6364E-03 SPRIN         11   2.2%   60.36       491.0       0.000       489.5       0.000      0.5000E-01   0.000    
   11022   7.014      0.6364E-03 SPRIN         11  55.6%   771.3       67.97       0.000       489.5       0.000      0.5000E-01   0.000    
   11023   7.015      0.6364E-03 SPRIN         11  18.5%   277.2       362.0       0.000       489.5       0.000      0.5000E-01   0.000    
   11024   7.016      0.6364E-03 SPRIN         11  33.9%   483.1       239.4       0.000       489.5       0.000      0.5000E-01   0.000    
   11025   7.016      0.6364E-03 SPRIN         11  42.3%   595.1       172.8       0.000       489.5       0.000      0.5000E-01   0.000    
   11026   7.017      0.6364E-03 SPRIN         11  11.3%   181.3       419.0       0.000       489.5       0.000      0.5000E-01   0.000    
   11027   7.018      0.6364E-03 SPRIN         11  60.5%   837.1       28.80       0.000       489.5       0.000      0.5000E-01   0.000    
   11028   7.018      0.6364E-03 SPRIN         11   0.2%   34.05       506.6       0.000       489.5       0.000      0.5000E-01   0.000    
   11029   7.019      0.6364E-03 SPRIN         11  62.9%   868.5       10.15       0.000       489.5       0.000      0.5000E-01   0.000    
   11030   7.019      0.6364E-03 SPRIN         11   6.9%   123.2       453.6       0.000       489.5       0.000      0.5000E-01   0.000    
   11031   7.020      0.6364E-03 SPRIN         11  48.1%   671.7       127.2       0.000       489.5       0.000      0.5000E-01   0.000    
   11032   7.021      0.6364E-03 SPRIN         11  27.6%   399.2       289.4       0.000       489.5       0.000      0.5000E-01   0.000    
   11033   7.021      0.6364E-03 SPRIN         11  24.4%   356.4       314.8       0.000       489.5       0.000      0.5000E-01   0.000    
   11034   7.022      0.6364E-03 SPRIN         11  50.8%   708.3       105.4       0.000       489.5       0.000      0.5000E-01   0.000    
   11035   7.023      0.6364E-03 SPRIN         11   5.0%   98.05       468.5       0.000       489.5       0.000      0.5000E-01   0.000    
   11036   7.023      0.6364E-03 SPRIN         11  63.6%   878.5       4.174       0.000       489.5       0.000      0.5000E-01   0.000    
   11037   7.024      0.6364E-03 SPRIN         11   0.7%   40.55       502.8       0.000       489.5       0.000      0.5000E-01   0.000    
   11038   7.025      0.6364E-03 SPRIN         11  58.8%   815.0       41.96       0.000       489.5       0.000      0.5000E-01   0.000    
   11039   7.025      0.6364E-03 SPRIN         11  13.9%   215.9       398.4       0.000       489.5       0.000      0.5000E-01   0.000    
   11040   7.026      0.6364E-03 SPRIN         11  39.2%   553.2       197.8       0.000       489.5       0.000      0.5000E-01   0.000    
   11041   7.026      0.6364E-03 SPRIN         11  37.2%   526.4       213.7       0.000       489.5       0.000      0.5000E-01   0.000    
   11042   7.027      0.6364E-03 SPRIN         11  15.6%   238.7       384.8       0.000       489.5       0.000      0.5000E-01   0.000    
   11043   7.028      0.6364E-03 SPRIN         11  57.7%   799.3       51.30       0.000       489.5       0.000      0.5000E-01   0.000    
   11044   7.028      0.6364E-03 SPRIN         11   1.2%   46.82       499.0       0.000       489.5       0.000      0.5000E-01   0.000    
   11045   7.029      0.6364E-03 SPRIN         11  63.9%   882.6       1.759       0.000       489.5       0.000      0.5000E-01   0.000    
   11046   7.030      0.6364E-03 SPRIN         11   4.0%   84.24       476.8       0.000       489.5       0.000      0.5000E-01   0.000    
   11047   7.030      0.6364E-03 SPRIN         11  52.4%   729.9       92.61       0.000       489.5       0.000      0.5000E-01   0.000    
   11048   7.031      0.6364E-03 SPRIN         11  22.4%   330.2       330.4       0.000       489.5       0.000      0.5000E-01   0.000    
   11049   7.032      0.6364E-03 SPRIN         11  29.7%   426.2       273.3       0.000       489.5       0.000      0.5000E-01   0.000    
   11050   7.032      0.6364E-03 SPRIN         11  46.3%   647.7       141.5       0.000       489.5       0.000      0.5000E-01   0.000    
   11051   7.033      0.6364E-03 SPRIN         11   8.2%   140.7       443.2       0.000       489.5       0.000      0.5000E-01   0.000    
   11052   7.033      0.6364E-03 SPRIN         11  62.2%   860.0       15.18       0.000       489.5       0.000      0.5000E-01   0.000    
   11053   7.034      0.6364E-03 SPRIN         11   0.1%   32.23       507.7       0.000       489.5       0.000      0.5000E-01   0.000    
   11054   7.035      0.6364E-03 SPRIN         11  61.4%   848.9       21.77       0.000       489.5       0.000      0.5000E-01   0.000    
   CYCLE    TIME      TIME-STEP  ELEMENT          ERROR  I-ENERGY    K-ENERGY T  K-ENERGY R  EXT-WORK     MAS.ERR     TOTAL MASS  MASS ADDED
   11055   7.035      0.6364E-03 SPRIN         11   9.8%   161.2       431.0       0.000       489.5       0.000      0.5000E-01   0.000    
   11056   7.036      0.6364E-03 SPRIN         11  44.2%   620.6       157.6       0.000       489.5       0.000      0.5000E-01   0.000    
   11057   7.037      0.6364E-03 SPRIN         11  31.9%   455.9       255.6       0.000       489.5       0.000      0.5000E-01   0.000    
   11058   7.037      0.6364E-03 SPRIN         11  20.3%   302.2       347.1       0.000       489.5       0.000      0.5000E-01   0.000    
   11059   7.038      0.6364E-03 SPRIN         11  54.1%   752.1       79.38       0.000       489.5       0.000      0.5000E-01   0.000    
   11060   7.039      0.6364E-03 SPRIN         11   3.0%   70.93       484.7       0.000       489.5       0.000      0.5000E-01   0.000    
   11061   7.039      0.6364E-03 SPRIN         11  64.1%   885.0      0.2953       0.000       489.5       0.000      0.5000E-01   0.000    
   11062   7.040      0.6364E-03 SPRIN         11   1.8%   55.57       493.8       0.000       489.5       0.000      0.5000E-01   0.000    
   11063   7.040      0.6364E-03 SPRIN         11  56.3%   780.6       62.43       0.000       489.5       0.000      0.5000E-01   0.000    
   11064   7.041      0.6364E-03 SPRIN         11  17.5%   264.7       369.4       0.000       489.5       0.000      0.5000E-01   0.000    
   11065   7.042      0.6364E-03 SPRIN         11  35.0%   497.0       231.2       0.000       489.5       0.000      0.5000E-01   0.000    
   11066   7.042      0.6364E-03 SPRIN         11  41.3%   581.8       180.7       0.000       489.5       0.000      0.5000E-01   0.000    
   11067   7.043      0.6364E-03 SPRIN         11  12.1%   192.1       412.6       0.000       489.5       0.000      0.5000E-01   0.000    
   11068   7.044      0.6364E-03 SPRIN         11  60.0%   830.5       32.76       0.000       489.5       0.000      0.5000E-01   0.000    
   11069   7.044      0.6364E-03 SPRIN         11   0.3%   35.65       505.7       0.000       489.5       0.000      0.5000E-01   0.000    
   11070   7.045      0.6364E-03 SPRIN         11  63.1%   872.1       7.963       0.000       489.5       0.000      0.5000E-01   0.000    
   11071   7.046      0.6364E-03 SPRIN         11   6.3%   114.8       458.6       0.000       489.5       0.000      0.5000E-01   0.000    
   11072   7.046      0.6364E-03 SPRIN         11  49.0%   683.7       120.1       0.000       489.5       0.000      0.5000E-01   0.000    
   11073   7.047      0.6364E-03 SPRIN         11  26.6%   385.4       297.6       0.000       489.5       0.000      0.5000E-01   0.000    
   11074   7.047      0.6364E-03 SPRIN         11  25.4%   370.0       306.8       0.000       489.5       0.000      0.5000E-01   0.000    
   11075   7.048      0.6364E-03 SPRIN         11  50.0%   696.9       112.2       0.000       489.5       0.000      0.5000E-01   0.000    
   11076   7.049      0.6364E-03 SPRIN         11   5.6%   105.7       464.0       0.000       489.5       0.000      0.5000E-01   0.000    
   11077   7.049      0.6364E-03 SPRIN         11  63.4%   875.8       5.805       0.000       489.5       0.000      0.5000E-01   0.000    
   11078   7.050      0.6364E-03 SPRIN         11   0.5%   37.99       504.3       0.000       489.5       0.000      0.5000E-01   0.000    
   11079   7.051      0.6364E-03 SPRIN         11  59.4%   822.5       37.50       0.000       489.5       0.000      0.5000E-01   0.000    
   11080   7.051      0.6364E-03 SPRIN         11  13.0%   204.6       405.2       0.000       489.5       0.000      0.5000E-01   0.000    
   11081   7.052      0.6364E-03 SPRIN         11  40.2%   566.7       189.7       0.000       489.5       0.000      0.5000E-01   0.000    
   11082   7.053      0.6364E-03 SPRIN         11  36.1%   512.6       221.9       0.000       489.5       0.000      0.5000E-01   0.000    
   11083   7.053      0.6364E-03 SPRIN         11  16.5%   250.8       377.7       0.000       489.5       0.000      0.5000E-01   0.000    
   11084   7.054      0.6364E-03 SPRIN         11  57.0%   790.7       56.41       0.000       489.5       0.000      0.5000E-01   0.000    
   11085   7.054      0.6364E-03 SPRIN         11   1.5%   50.69       496.7       0.000       489.5       0.000      0.5000E-01   0.000    
   11086   7.055      0.6364E-03 SPRIN         11  64.0%   884.0      0.9190       0.000       489.5       0.000      0.5000E-01   0.000    
   11087   7.056      0.6364E-03 SPRIN         11   3.5%   77.76       480.6       0.000       489.5       0.000      0.5000E-01   0.000    
   11088   7.056      0.6364E-03 SPRIN         11  53.2%   740.5       86.29       0.000       489.5       0.000      0.5000E-01   0.000    
   11089   7.057      0.6364E-03 SPRIN         11  21.5%   316.9       338.3       0.000       489.5       0.000      0.5000E-01   0.000    
   11090   7.058      0.6364E-03 SPRIN         11  30.7%   440.1       265.0       0.000       489.5       0.000      0.5000E-01   0.000    
   11091   7.058      0.6364E-03 SPRIN         11  45.3%   635.1       149.0       0.000       489.5       0.000      0.5000E-01   0.000    
   11092   7.059      0.6364E-03 SPRIN         11   8.9%   150.2       437.5       0.000       489.5       0.000      0.5000E-01   0.000    
   11093   7.060      0.6364E-03 SPRIN         11  61.8%   855.0       18.14       0.000       489.5       0.000      0.5000E-01   0.000    
   11094   7.060      0.6364E-03 SPRIN         11   0.1%   31.98       507.9       0.000       489.5       0.000      0.5000E-01   0.000    
   11095   7.061      0.6364E-03 SPRIN         11  61.8%   854.4       18.53       0.000       489.5       0.000      0.5000E-01   0.000    
   11096   7.061      0.6364E-03 SPRIN         11   9.0%   151.4       436.8       0.000       489.5       0.000      0.5000E-01   0.000    
   11097   7.062      0.6364E-03 SPRIN         11  45.2%   633.4       150.0       0.000       489.5       0.000      0.5000E-01   0.000    
   11098   7.063      0.6364E-03 SPRIN         11  30.8%   441.9       263.9       0.000       489.5       0.000      0.5000E-01   0.000    
   11099   7.063      0.6364E-03 SPRIN         11  21.3%   315.2       339.3       0.000       489.5       0.000      0.5000E-01   0.000    
   11100   7.064      0.6364E-03 SPRIN         11  53.3%   741.8       85.49       0.000       489.5       0.000      0.5000E-01   0.000    
   11101   7.065      0.6364E-03 SPRIN         11   3.4%   76.95       481.1       0.000       489.5       0.000      0.5000E-01   0.000    
   11102   7.065      0.6364E-03 SPRIN         11  64.0%   884.1      0.8304       0.000       489.5       0.000      0.5000E-01   0.000    
   11103   7.066      0.6364E-03 SPRIN         11   1.5%   51.22       496.4       0.000       489.5       0.000      0.5000E-01   0.000    
   11104   7.067      0.6364E-03 SPRIN         11  56.9%   789.6       57.08       0.000       489.5       0.000      0.5000E-01   0.000    
   11105   7.067      0.6364E-03 SPRIN         11  16.6%   252.4       376.7       0.000       489.5       0.000      0.5000E-01   0.000    
   11106   7.068      0.6364E-03 SPRIN         11  36.0%   510.9       222.9       0.000       489.5       0.000      0.5000E-01   0.000    
   11107   7.068      0.6364E-03 SPRIN         11  40.3%   568.4       188.7       0.000       489.5       0.000      0.5000E-01   0.000    
   11108   7.069      0.6364E-03 SPRIN         11  12.9%   203.1       406.0       0.000       489.5       0.000      0.5000E-01   0.000    
   11109   7.070      0.6364E-03 SPRIN         11  59.5%   823.4       36.95       0.000       489.5       0.000      0.5000E-01   0.000    
   CYCLE    TIME      TIME-STEP  ELEMENT          ERROR  I-ENERGY    K-ENERGY T  K-ENERGY R  EXT-WORK     MAS.ERR     TOTAL MASS  MASS ADDED
   11110   7.070      0.6364E-03 SPRIN         11   0.5%   37.69       504.5       0.000       489.5       0.000      0.5000E-01   0.000    
   11111   7.071      0.6364E-03 SPRIN         11  63.4%   875.4       6.034       0.000       489.5       0.000      0.5000E-01   0.000    
   11112   7.072      0.6364E-03 SPRIN         11   5.7%   106.7       463.4       0.000       489.5       0.000      0.5000E-01   0.000    
   11113   7.072      0.6364E-03 SPRIN         11  49.9%   695.4       113.1       0.000       489.5       0.000      0.5000E-01   0.000    
   11114   7.073      0.6364E-03 SPRIN         11  25.6%   371.7       305.7       0.000       489.5       0.000      0.5000E-01   0.000    
   11115   7.074      0.6364E-03 SPRIN         11  26.5%   383.6       298.6       0.000       489.5       0.000      0.5000E-01   0.000    
   11116   7.074      0.6364E-03 SPRIN         11  49.1%   685.2       119.2       0.000       489.5       0.000      0.5000E-01   0.000    
   11117   7.075      0.6364E-03 SPRIN         11   6.2%   113.7       459.2       0.000       489.5       0.000      0.5000E-01   0.000    
   11118   7.075      0.6364E-03 SPRIN         11  63.2%   872.6       7.700       0.000       489.5       0.000      0.5000E-01   0.000    
   11119   7.076      0.6364E-03 SPRIN         11   0.4%   35.88       505.5       0.000       489.5       0.000      0.5000E-01   0.000    
   11120   7.077      0.6364E-03 SPRIN         11  59.9%   829.6       33.28       0.000       489.5       0.000      0.5000E-01   0.000    
   11121   7.077      0.6364E-03 SPRIN         11  12.2%   193.5       411.8       0.000       489.5       0.000      0.5000E-01   0.000    
   11122   7.078      0.6364E-03 SPRIN         11  41.2%   580.1       181.7       0.000       489.5       0.000      0.5000E-01   0.000    
   11123   7.079      0.6364E-03 SPRIN         11  35.1%   498.8       230.1       0.000       489.5       0.000      0.5000E-01   0.000    
   11124   7.079      0.6364E-03 SPRIN         11  17.4%   263.1       370.3       0.000       489.5       0.000      0.5000E-01   0.000    
   11125   7.080      0.6364E-03 SPRIN         11  56.3%   781.8       61.73       0.000       489.5       0.000      0.5000E-01   0.000    
   11126   7.081      0.6364E-03 SPRIN         11   1.8%   54.99       494.2       0.000       489.5       0.000      0.5000E-01   0.000    
   11127   7.081      0.6364E-03 SPRIN         11  64.1%   884.9      0.3490       0.000       489.5       0.000      0.5000E-01   0.000    
   11128   7.082      0.6364E-03 SPRIN         11   3.0%   71.68       484.2       0.000       489.5       0.000      0.5000E-01   0.000    
   11129   7.082      0.6364E-03 SPRIN         11  54.0%   750.8       80.15       0.000       489.5       0.000      0.5000E-01   0.000    
   11130   7.083      0.6364E-03 SPRIN         11  20.5%   303.9       346.1       0.000       489.5       0.000      0.5000E-01   0.000    
   11131   7.084      0.6364E-03 SPRIN         11  31.7%   454.1       256.7       0.000       489.5       0.000      0.5000E-01   0.000    
   11132   7.084      0.6364E-03 SPRIN         11  44.4%   622.3       156.6       0.000       489.5       0.000      0.5000E-01   0.000    
   11133   7.085      0.6364E-03 SPRIN         11   9.7%   160.0       431.7       0.000       489.5       0.000      0.5000E-01   0.000    
   11134   7.086      0.6364E-03 SPRIN         11  61.4%   849.7       21.34       0.000       489.5       0.000      0.5000E-01   0.000    
   11135   7.086      0.6364E-03 SPRIN         11   0.1%   32.18       507.7       0.000       489.5       0.000      0.5000E-01   0.000    
   11136   7.087      0.6364E-03 SPRIN         11  62.2%   859.4       15.55       0.000       489.5       0.000      0.5000E-01   0.000    
   11137   7.088      0.6364E-03 SPRIN         11   8.3%   141.9       442.5       0.000       489.5       0.000      0.5000E-01   0.000    
   11138   7.088      0.6364E-03 SPRIN         11  46.2%   646.1       142.5       0.000       489.5       0.000      0.5000E-01   0.000    
   11139   7.089      0.6364E-03 SPRIN         11  29.8%   428.0       272.2       0.000       489.5       0.000      0.5000E-01   0.000    
   11140   7.089      0.6364E-03 SPRIN         11  22.3%   328.5       331.5       0.000       489.5       0.000      0.5000E-01   0.000    
   11141   7.090      0.6364E-03 SPRIN         11  52.6%   731.3       91.79       0.000       489.5       0.000      0.5000E-01   0.000    
   11142   7.091      0.6364E-03 SPRIN         11   3.9%   83.38       477.3       0.000       489.5       0.000      0.5000E-01   0.000    
   11143   7.091      0.6364E-03 SPRIN         11  63.9%   882.8       1.636       0.000       489.5       0.000      0.5000E-01   0.000    
   11144   7.092      0.6364E-03 SPRIN         11   1.2%   47.30       498.7       0.000       489.5       0.000      0.5000E-01   0.000    
   11145   7.093      0.6364E-03 SPRIN         11  57.6%   798.2       51.95       0.000       489.5       0.000      0.5000E-01   0.000    
   11146   7.093      0.6364E-03 SPRIN         11  15.7%   240.3       383.9       0.000       489.5       0.000      0.5000E-01   0.000    
   11147   7.094      0.6364E-03 SPRIN         11  37.0%   524.7       214.7       0.000       489.5       0.000      0.5000E-01   0.000    
   11148   7.095      0.6364E-03 SPRIN         11  39.3%   554.9       196.7       0.000       489.5       0.000      0.5000E-01   0.000    
   11149   7.095      0.6364E-03 SPRIN         11  13.8%   214.4       399.3       0.000       489.5       0.000      0.5000E-01   0.000    
   11150   7.096      0.6364E-03 SPRIN         11  58.9%   816.0       41.37       0.000       489.5       0.000      0.5000E-01   0.000    
   11151   7.096      0.6364E-03 SPRIN         11   0.7%   40.19       503.0       0.000       489.5       0.000      0.5000E-01   0.000    
   11152   7.097      0.6364E-03 SPRIN         11  63.6%   878.2       4.369       0.000       489.5       0.000      0.5000E-01   0.000    
   11153   7.098      0.6364E-03 SPRIN         11   5.1%   99.01       468.0       0.000       489.5       0.000      0.5000E-01   0.000    
   11154   7.098      0.6364E-03 SPRIN         11  50.7%   706.9       106.3       0.000       489.5       0.000      0.5000E-01   0.000    
   11155   7.099      0.6364E-03 SPRIN         11  24.5%   358.1       313.8       0.000       489.5       0.000      0.5000E-01   0.000    
   11156   7.100      0.6364E-03 SPRIN         11  27.5%   397.4       290.4       0.000       489.5       0.000      0.5000E-01   0.000    
   11157   7.100      0.6364E-03 SPRIN         11  48.2%   673.2       126.3       0.000       489.5       0.000      0.5000E-01   0.000    
   11158   7.101      0.6364E-03 SPRIN         11   6.8%   122.1       454.2       0.000       489.5       0.000      0.5000E-01   0.000    
   11159   7.102      0.6364E-03 SPRIN         11  62.9%   869.0       9.858       0.000       489.5       0.000      0.5000E-01   0.000    
   11160   7.102      0.6364E-03 SPRIN         11   0.2%   34.23       506.5       0.000       489.5       0.000      0.5000E-01   0.000    
   11161   7.103      0.6364E-03 SPRIN         11  60.4%   836.3       29.30       0.000       489.5       0.000      0.5000E-01   0.000    
   11162   7.103      0.6364E-03 SPRIN         11  11.4%   182.7       418.2       0.000       489.5       0.000      0.5000E-01   0.000    
   11163   7.104      0.6364E-03 SPRIN         11  42.2%   593.4       173.8       0.000       489.5       0.000      0.5000E-01   0.000    
   11164   7.105      0.6364E-03 SPRIN         11  34.1%   484.9       238.4       0.000       489.5       0.000      0.5000E-01   0.000    
   CYCLE    TIME      TIME-STEP  ELEMENT          ERROR  I-ENERGY    K-ENERGY T  K-ENERGY R  EXT-WORK     MAS.ERR     TOTAL MASS  MASS ADDED
   11165   7.105      0.6364E-03 SPRIN         11  18.3%   275.6       362.9       0.000       489.5       0.000      0.5000E-01   0.000    
   11166   7.106      0.6364E-03 SPRIN         11  55.6%   772.5       67.25       0.000       489.5       0.000      0.5000E-01   0.000    
   11167   7.107      0.6364E-03 SPRIN         11   2.1%   59.72       491.4       0.000       489.5       0.000      0.5000E-01   0.000    
   11168   7.107      0.6364E-03 SPRIN         11  64.1%   885.4      0.4964E-01   0.000       489.5       0.000      0.5000E-01   0.000    
   11169   7.108      0.6364E-03 SPRIN         11   2.6%   66.01       487.6       0.000       489.5       0.000      0.5000E-01   0.000    
   11170   7.109      0.6364E-03 SPRIN         11  54.8%   760.8       74.20       0.000       489.5       0.000      0.5000E-01   0.000    
   11171   7.109      0.6364E-03 SPRIN         11  19.5%   291.0       353.8       0.000       489.5       0.000      0.5000E-01   0.000    
   11172   7.110      0.6364E-03 SPRIN         11  32.8%   468.0       248.4       0.000       489.5       0.000      0.5000E-01   0.000    
   11173   7.110      0.6364E-03 SPRIN         11  43.4%   609.3       164.3       0.000       489.5       0.000      0.5000E-01   0.000    
   11174   7.111      0.6364E-03 SPRIN         11  10.4%   170.1       425.7       0.000       489.5       0.000      0.5000E-01   0.000    
   11175   7.112      0.6364E-03 SPRIN         11  61.0%   843.9       24.79       0.000       489.5       0.000      0.5000E-01   0.000    
   11176   7.112      0.6364E-03 SPRIN         11   0.1%   32.83       507.4       0.000       489.5       0.000      0.5000E-01   0.000    
   11177   7.113      0.6364E-03 SPRIN         11  62.5%   864.0       12.82       0.000       489.5       0.000      0.5000E-01   0.000    
   11178   7.114      0.6364E-03 SPRIN         11   7.6%   132.7       447.9       0.000       489.5       0.000      0.5000E-01   0.000    
   11179   7.114      0.6364E-03 SPRIN         11  47.1%   658.5       135.1       0.000       489.5       0.000      0.5000E-01   0.000    
   11180   7.115      0.6364E-03 SPRIN         11  28.7%   414.1       280.5       0.000       489.5       0.000      0.5000E-01   0.000    
   11181   7.116      0.6364E-03 SPRIN         11  23.3%   341.8       323.5       0.000       489.5       0.000      0.5000E-01   0.000    
   11182   7.116      0.6364E-03 SPRIN         11  51.7%   720.4       98.26       0.000       489.5       0.000      0.5000E-01   0.000    
   11183   7.117      0.6364E-03 SPRIN         11   4.4%   90.21       473.2       0.000       489.5       0.000      0.5000E-01   0.000    
   11184   7.117      0.6364E-03 SPRIN         11  63.8%   881.0       2.710       0.000       489.5       0.000      0.5000E-01   0.000    
   11185   7.118      0.6364E-03 SPRIN         11   0.9%   43.82       500.8       0.000       489.5       0.000      0.5000E-01   0.000    
   11186   7.119      0.6364E-03 SPRIN         11  58.2%   806.5       47.03       0.000       489.5       0.000      0.5000E-01   0.000    
   11187   7.119      0.6364E-03 SPRIN         11  14.8%   228.4       391.0       0.000       489.5       0.000      0.5000E-01   0.000    
   11188   7.120      0.6364E-03 SPRIN         11  38.1%   538.4       206.5       0.000       489.5       0.000      0.5000E-01   0.000    
   11189   7.121      0.6364E-03 SPRIN         11  38.3%   541.3       204.8       0.000       489.5       0.000      0.5000E-01   0.000    
   11190   7.121      0.6364E-03 SPRIN         11  14.6%   226.0       392.4       0.000       489.5       0.000      0.5000E-01   0.000    
   11191   7.122      0.6364E-03 SPRIN         11  58.3%   808.2       46.02       0.000       489.5       0.000      0.5000E-01   0.000    
   11192   7.123      0.6364E-03 SPRIN         11   0.9%   43.14       501.2       0.000       489.5       0.000      0.5000E-01   0.000    
   11193   7.123      0.6364E-03 SPRIN         11  63.8%   880.5       2.970       0.000       489.5       0.000      0.5000E-01   0.000    
   11194   7.124      0.6364E-03 SPRIN         11   4.5%   91.70       472.3       0.000       489.5       0.000      0.5000E-01   0.000    
   11195   7.124      0.6364E-03 SPRIN         11  51.6%   718.1       99.64       0.000       489.5       0.000      0.5000E-01   0.000    
   11196   7.125      0.6364E-03 SPRIN         11  23.5%   344.6       321.8       0.000       489.5       0.000      0.5000E-01   0.000    
   11197   7.126      0.6364E-03 SPRIN         11  28.5%   411.2       282.2       0.000       489.5       0.000      0.5000E-01   0.000    
   11198   7.126      0.6364E-03 SPRIN         11  47.3%   661.1       133.5       0.000       489.5       0.000      0.5000E-01   0.000    
   11199   7.127      0.6364E-03 SPRIN         11   7.5%   130.8       449.0       0.000       489.5       0.000      0.5000E-01   0.000    
   11200   7.128      0.6364E-03 SPRIN         11  62.6%   864.9       12.28       0.000       489.5       0.000      0.5000E-01   0.000    
   11201   7.128      0.6364E-03 SPRIN         11   0.1%   33.02       507.2       0.000       489.5       0.000      0.5000E-01   0.000    
   11202   7.129      0.6364E-03 SPRIN         11  60.9%   842.6       25.55       0.000       489.5       0.000      0.5000E-01   0.000    
   11203   7.130      0.6364E-03 SPRIN         11  10.6%   172.2       424.4       0.000       489.5       0.000      0.5000E-01   0.000    
   11204   7.130      0.6364E-03 SPRIN         11  43.2%   606.6       166.0       0.000       489.5       0.000      0.5000E-01   0.000    
   11205   7.131      0.6364E-03 SPRIN         11  33.0%   471.0       246.7       0.000       489.5       0.000      0.5000E-01   0.000    
   11206   7.131      0.6364E-03 SPRIN         11  19.3%   288.3       355.4       0.000       489.5       0.000      0.5000E-01   0.000    
   11207   7.132      0.6364E-03 SPRIN         11  54.9%   762.9       72.97       0.000       489.5       0.000      0.5000E-01   0.000    
   11208   7.133      0.6364E-03 SPRIN         11   2.5%   64.87       488.3       0.000       489.5       0.000      0.5000E-01   0.000    
   11209   7.133      0.6364E-03 SPRIN         11  64.1%   885.5      0.2109E-01   0.000       489.5       0.000      0.5000E-01   0.000    
   11210   7.134      0.6364E-03 SPRIN         11   2.2%   60.77       490.7       0.000       489.5       0.000      0.5000E-01   0.000    
   11211   7.135      0.6364E-03 SPRIN         11  55.5%   770.5       68.44       0.000       489.5       0.000      0.5000E-01   0.000    
   11212   7.135      0.6364E-03 SPRIN         11  18.5%   278.2       361.3       0.000       489.5       0.000      0.5000E-01   0.000    
   11213   7.136      0.6364E-03 SPRIN         11  33.8%   482.0       240.1       0.000       489.5       0.000      0.5000E-01   0.000    
   11214   7.137      0.6364E-03 SPRIN         11  42.4%   596.2       172.1       0.000       489.5       0.000      0.5000E-01   0.000    
   11215   7.137      0.6364E-03 SPRIN         11  11.2%   180.5       419.5       0.000       489.5       0.000      0.5000E-01   0.000    
   11216   7.138      0.6364E-03 SPRIN         11  60.5%   837.7       28.49       0.000       489.5       0.000      0.5000E-01   0.000    
   11217   7.138      0.6364E-03 SPRIN         11   0.2%   33.94       506.7       0.000       489.5       0.000      0.5000E-01   0.000    
   11218   7.139      0.6364E-03 SPRIN         11  62.8%   868.1       10.35       0.000       489.5       0.000      0.5000E-01   0.000    
   11219   7.140      0.6364E-03 SPRIN         11   7.0%   123.9       453.2       0.000       489.5       0.000      0.5000E-01   0.000    
   CYCLE    TIME      TIME-STEP  ELEMENT          ERROR  I-ENERGY    K-ENERGY T  K-ENERGY R  EXT-WORK     MAS.ERR     TOTAL MASS  MASS ADDED
   11220   7.140      0.6364E-03 SPRIN         11  48.0%   670.7       127.8       0.000       489.5       0.000      0.5000E-01   0.000    
   11221   7.141      0.6364E-03 SPRIN         11  27.7%   400.3       288.7       0.000       489.5       0.000      0.5000E-01   0.000    
   11222   7.142      0.6364E-03 SPRIN         11  24.3%   355.3       315.5       0.000       489.5       0.000      0.5000E-01   0.000    
   11223   7.142      0.6364E-03 SPRIN         11  50.9%   709.2       104.9       0.000       489.5       0.000      0.5000E-01   0.000    
   11224   7.143      0.6364E-03 SPRIN         11   5.0%   97.44       468.9       0.000       489.5       0.000      0.5000E-01   0.000    
   11225   7.144      0.6364E-03 SPRIN         11  63.6%   878.7       4.052       0.000       489.5       0.000      0.5000E-01   0.000    
   11226   7.144      0.6364E-03 SPRIN         11   0.7%   40.78       502.6       0.000       489.5       0.000      0.5000E-01   0.000    
   11227   7.145      0.6364E-03 SPRIN         11  58.8%   814.4       42.33       0.000       489.5       0.000      0.5000E-01   0.000    
   11228   7.145      0.6364E-03 SPRIN         11  13.9%   216.8       397.9       0.000       489.5       0.000      0.5000E-01   0.000    
   11229   7.146      0.6364E-03 SPRIN         11  39.1%   552.0       198.4       0.000       489.5       0.000      0.5000E-01   0.000    
   11230   7.147      0.6364E-03 SPRIN         11  37.3%   527.6       213.0       0.000       489.5       0.000      0.5000E-01   0.000    
   11231   7.147      0.6364E-03 SPRIN         11  15.5%   237.8       385.4       0.000       489.5       0.000      0.5000E-01   0.000    
   11232   7.148      0.6364E-03 SPRIN         11  57.7%   800.0       50.89       0.000       489.5       0.000      0.5000E-01   0.000    
   11233   7.149      0.6364E-03 SPRIN         11   1.2%   46.53       499.2       0.000       489.5       0.000      0.5000E-01   0.000    
   11234   7.149      0.6364E-03 SPRIN         11  63.9%   882.4       1.840       0.000       489.5       0.000      0.5000E-01   0.000    
   11235   7.150      0.6364E-03 SPRIN         11   4.0%   84.79       476.4       0.000       489.5       0.000      0.5000E-01   0.000    
   11236   7.151      0.6364E-03 SPRIN         11  52.4%   729.0       93.14       0.000       489.5       0.000      0.5000E-01   0.000    
   11237   7.151      0.6364E-03 SPRIN         11  22.5%   331.3       329.8       0.000       489.5       0.000      0.5000E-01   0.000    
   11238   7.152      0.6364E-03 SPRIN         11  29.6%   425.1       274.0       0.000       489.5       0.000      0.5000E-01   0.000    
   11239   7.152      0.6364E-03 SPRIN         11  46.4%   648.7       140.9       0.000       489.5       0.000      0.5000E-01   0.000    
   11240   7.153      0.6364E-03 SPRIN         11   8.2%   139.9       443.6       0.000       489.5       0.000      0.5000E-01   0.000    
   11241   7.154      0.6364E-03 SPRIN         11  62.2%   860.4       14.95       0.000       489.5       0.000      0.5000E-01   0.000    
   11242   7.154      0.6364E-03 SPRIN         11   0.1%   32.28       507.7       0.000       489.5       0.000      0.5000E-01   0.000    
   11243   7.155      0.6364E-03 SPRIN         11  61.4%   848.5       22.05       0.000       489.5       0.000      0.5000E-01   0.000    
   11244   7.156      0.6364E-03 SPRIN         11   9.8%   162.1       430.5       0.000       489.5       0.000      0.5000E-01   0.000    
   11245   7.156      0.6364E-03 SPRIN         11  44.2%   619.6       158.2       0.000       489.5       0.000      0.5000E-01   0.000    
   11246   7.157      0.6364E-03 SPRIN         11  32.0%   457.0       255.0       0.000       489.5       0.000      0.5000E-01   0.000    
   11247   7.158      0.6364E-03 SPRIN         11  20.3%   301.1       347.7       0.000       489.5       0.000      0.5000E-01   0.000    
   11248   7.158      0.6364E-03 SPRIN         11  54.2%   752.9       78.88       0.000       489.5       0.000      0.5000E-01   0.000    
   11249   7.159      0.6364E-03 SPRIN         11   2.9%   70.45       485.0       0.000       489.5       0.000      0.5000E-01   0.000    
   11250   7.159      0.6364E-03 SPRIN         11  64.1%   885.1      0.2634       0.000       489.5       0.000      0.5000E-01   0.000    
   11251   7.160      0.6364E-03 SPRIN         11   1.9%   55.95       493.6       0.000       489.5       0.000      0.5000E-01   0.000    
   11252   7.161      0.6364E-03 SPRIN         11  56.2%   779.9       62.87       0.000       489.5       0.000      0.5000E-01   0.000    
   11253   7.161      0.6364E-03 SPRIN         11  17.6%   265.7       368.8       0.000       489.5       0.000      0.5000E-01   0.000    
   11254   7.162      0.6364E-03 SPRIN         11  34.9%   495.9       231.9       0.000       489.5       0.000      0.5000E-01   0.000    
   11255   7.163      0.6364E-03 SPRIN         11  41.4%   582.9       180.0       0.000       489.5       0.000      0.5000E-01   0.000    
   11256   7.163      0.6364E-03 SPRIN         11  12.0%   191.2       413.1       0.000       489.5       0.000      0.5000E-01   0.000    
   11257   7.164      0.6364E-03 SPRIN         11  60.0%   831.0       32.42       0.000       489.5       0.000      0.5000E-01   0.000    
   11258   7.165      0.6364E-03 SPRIN         11   0.3%   35.50       505.8       0.000       489.5       0.000      0.5000E-01   0.000    
   11259   7.165      0.6364E-03 SPRIN         11  63.1%   871.9       8.133       0.000       489.5       0.000      0.5000E-01   0.000    
   11260   7.166      0.6364E-03 SPRIN         11   6.3%   115.4       458.2       0.000       489.5       0.000      0.5000E-01   0.000    
   11261   7.166      0.6364E-03 SPRIN         11  48.9%   682.7       120.7       0.000       489.5       0.000      0.5000E-01   0.000    
   11262   7.167      0.6364E-03 SPRIN         11  26.7%   386.5       296.9       0.000       489.5       0.000      0.5000E-01   0.000    
   11263   7.168      0.6364E-03 SPRIN         11  25.3%   368.8       307.4       0.000       489.5       0.000      0.5000E-01   0.000    
   11264   7.168      0.6364E-03 SPRIN         11  50.0%   697.8       111.7       0.000       489.5       0.000      0.5000E-01   0.000    
   11265   7.169      0.6364E-03 SPRIN         11   5.5%   105.0       464.4       0.000       489.5       0.000      0.5000E-01   0.000    
   11266   7.170      0.6364E-03 SPRIN         11  63.4%   876.0       5.661       0.000       489.5       0.000      0.5000E-01   0.000    
   11267   7.170      0.6364E-03 SPRIN         11   0.5%   38.18       504.2       0.000       489.5       0.000      0.5000E-01   0.000    
   11268   7.171      0.6364E-03 SPRIN         11  59.4%   821.9       37.86       0.000       489.5       0.000      0.5000E-01   0.000    
   11269   7.172      0.6364E-03 SPRIN         11  13.1%   205.5       404.6       0.000       489.5       0.000      0.5000E-01   0.000    
   11270   7.172      0.6364E-03 SPRIN         11  40.1%   565.6       190.4       0.000       489.5       0.000      0.5000E-01   0.000    
   11271   7.173      0.6364E-03 SPRIN         11  36.2%   513.8       221.2       0.000       489.5       0.000      0.5000E-01   0.000    
   11272   7.173      0.6364E-03 SPRIN         11  16.4%   249.8       378.2       0.000       489.5       0.000      0.5000E-01   0.000    
   11273   7.174      0.6364E-03 SPRIN         11  57.1%   791.4       55.98       0.000       489.5       0.000      0.5000E-01   0.000    
   11274   7.175      0.6364E-03 SPRIN         11   1.4%   50.36       496.9       0.000       489.5       0.000      0.5000E-01   0.000    
   CYCLE    TIME      TIME-STEP  ELEMENT          ERROR  I-ENERGY    K-ENERGY T  K-ENERGY R  EXT-WORK     MAS.ERR     TOTAL MASS  MASS ADDED
   11275   7.175      0.6364E-03 SPRIN         11  64.0%   883.9      0.9776       0.000       489.5       0.000      0.5000E-01   0.000    
   11276   7.176      0.6364E-03 SPRIN         11   3.5%   78.27       480.3       0.000       489.5       0.000      0.5000E-01   0.000    
   11277   7.177      0.6364E-03 SPRIN         11  53.2%   739.6       86.80       0.000       489.5       0.000      0.5000E-01   0.000    
   11278   7.177      0.6364E-03 SPRIN         11  21.5%   318.0       337.7       0.000       489.5       0.000      0.5000E-01   0.000    
   11279   7.178      0.6364E-03 SPRIN         11  30.6%   439.0       265.7       0.000       489.5       0.000      0.5000E-01   0.000    
   11280   7.179      0.6364E-03 SPRIN         11  45.4%   636.1       148.4       0.000       489.5       0.000      0.5000E-01   0.000    
   11281   7.179      0.6364E-03 SPRIN         11   8.9%   149.4       438.0       0.000       489.5       0.000      0.5000E-01   0.000    
   11282   7.180      0.6364E-03 SPRIN         11  61.9%   855.5       17.88       0.000       489.5       0.000      0.5000E-01   0.000    
   11283   7.180      0.6364E-03 SPRIN         11   0.1%   31.98       507.9       0.000       489.5       0.000      0.5000E-01   0.000    
   11284   7.181      0.6364E-03 SPRIN         11  61.8%   853.9       18.79       0.000       489.5       0.000      0.5000E-01   0.000    
   11285   7.182      0.6364E-03 SPRIN         11   9.1%   152.2       436.3       0.000       489.5       0.000      0.5000E-01   0.000    
   11286   7.182      0.6364E-03 SPRIN         11  45.1%   632.4       150.6       0.000       489.5       0.000      0.5000E-01   0.000    
   11287   7.183      0.6364E-03 SPRIN         11  30.9%   443.1       263.3       0.000       489.5       0.000      0.5000E-01   0.000    
   11288   7.184      0.6364E-03 SPRIN         11  21.2%   314.2       340.0       0.000       489.5       0.000      0.5000E-01   0.000    
   11289   7.184      0.6364E-03 SPRIN         11  53.4%   742.7       84.98       0.000       489.5       0.000      0.5000E-01   0.000    
   11290   7.185      0.6364E-03 SPRIN         11   3.4%   76.44       481.4       0.000       489.5       0.000      0.5000E-01   0.000    
   11291   7.186      0.6364E-03 SPRIN         11  64.0%   884.2      0.7764       0.000       489.5       0.000      0.5000E-01   0.000    
   11292   7.186      0.6364E-03 SPRIN         11   1.5%   51.56       496.2       0.000       489.5       0.000      0.5000E-01   0.000    
   11293   7.187      0.6364E-03 SPRIN         11  56.9%   788.9       57.51       0.000       489.5       0.000      0.5000E-01   0.000    
   11294   7.187      0.6364E-03 SPRIN         11  16.7%   253.4       376.1       0.000       489.5       0.000      0.5000E-01   0.000    
   11295   7.188      0.6364E-03 SPRIN         11  35.9%   509.7       223.6       0.000       489.5       0.000      0.5000E-01   0.000    
   11296   7.189      0.6364E-03 SPRIN         11  40.4%   569.5       188.0       0.000       489.5       0.000      0.5000E-01   0.000    
   11297   7.189      0.6364E-03 SPRIN         11  12.8%   202.2       406.6       0.000       489.5       0.000      0.5000E-01   0.000    
   11298   7.190      0.6364E-03 SPRIN         11  59.5%   824.0       36.60       0.000       489.5       0.000      0.5000E-01   0.000    
   11299   7.191      0.6364E-03 SPRIN         11   0.5%   37.51       504.6       0.000       489.5       0.000      0.5000E-01   0.000    
   11300   7.191      0.6364E-03 SPRIN         11  63.4%   875.1       6.182       0.000       489.5       0.000      0.5000E-01   0.000    
   11301   7.192      0.6364E-03 SPRIN         11   5.7%   107.3       463.0       0.000       489.5       0.000      0.5000E-01   0.000    
   11302   7.193      0.6364E-03 SPRIN         11  49.8%   694.4       113.7       0.000       489.5       0.000      0.5000E-01   0.000    
   11303   7.193      0.6364E-03 SPRIN         11  25.6%   372.8       305.1       0.000       489.5       0.000      0.5000E-01   0.000    
   11304   7.194      0.6364E-03 SPRIN         11  26.4%   382.5       299.3       0.000       489.5       0.000      0.5000E-01   0.000    
   11305   7.194      0.6364E-03 SPRIN         11  49.2%   686.1       118.6       0.000       489.5       0.000      0.5000E-01   0.000    
   11306   7.195      0.6364E-03 SPRIN         11   6.1%   113.0       459.6       0.000       489.5       0.000      0.5000E-01   0.000    
   11307   7.196      0.6364E-03 SPRIN         11  63.2%   872.9       7.535       0.000       489.5       0.000      0.5000E-01   0.000    
   11308   7.196      0.6364E-03 SPRIN         11   0.4%   36.04       505.4       0.000       489.5       0.000      0.5000E-01   0.000    
   11309   7.197      0.6364E-03 SPRIN         11  59.9%   829.0       33.62       0.000       489.5       0.000      0.5000E-01   0.000    
   11310   7.198      0.6364E-03 SPRIN         11  12.3%   194.4       411.2       0.000       489.5       0.000      0.5000E-01   0.000    
   11311   7.198      0.6364E-03 SPRIN         11  41.1%   579.0       182.4       0.000       489.5       0.000      0.5000E-01   0.000    
   11312   7.199      0.6364E-03 SPRIN         11  35.2%   499.9       229.4       0.000       489.5       0.000      0.5000E-01   0.000    
   11313   7.200      0.6364E-03 SPRIN         11  17.3%   262.1       371.0       0.000       489.5       0.000      0.5000E-01   0.000    
   11314   7.200      0.6364E-03 SPRIN         11  56.4%   782.5       61.28       0.000       489.5       0.000      0.5000E-01   0.000    
     ANIMATION FILE: SPR_PRE_2FLAGA037 WRITTEN
   11315   7.201      0.6364E-03 SPRIN         11   1.8%   54.62       494.4       0.000       489.5       0.000      0.5000E-01   0.000    
   11316   7.201      0.6364E-03 SPRIN         11  64.1%   884.9      0.3856       0.000       489.5       0.000      0.5000E-01   0.000    
   11317   7.202      0.6364E-03 SPRIN         11   3.1%   72.16       484.0       0.000       489.5       0.000      0.5000E-01   0.000    
   11318   7.203      0.6364E-03 SPRIN         11  54.0%   750.0       80.65       0.000       489.5       0.000      0.5000E-01   0.000    
   11319   7.203      0.6364E-03 SPRIN         11  20.5%   304.9       345.5       0.000       489.5       0.000      0.5000E-01   0.000    
   11320   7.204      0.6364E-03 SPRIN         11  31.7%   452.9       257.4       0.000       489.5       0.000      0.5000E-01   0.000    
   11321   7.205      0.6364E-03 SPRIN         11  44.5%   623.3       156.0       0.000       489.5       0.000      0.5000E-01   0.000    
   11322   7.205      0.6364E-03 SPRIN         11   9.6%   159.1       432.2       0.000       489.5       0.000      0.5000E-01   0.000    
   11323   7.206      0.6364E-03 SPRIN         11  61.5%   850.1       21.07       0.000       489.5       0.000      0.5000E-01   0.000    
   11324   7.207      0.6364E-03 SPRIN         11   0.1%   32.14       507.8       0.000       489.5       0.000      0.5000E-01   0.000    
   11325   7.207      0.6364E-03 SPRIN         11  62.1%   859.0       15.78       0.000       489.5       0.000      0.5000E-01   0.000    
   11326   7.208      0.6364E-03 SPRIN         11   8.4%   142.7       442.0       0.000       489.5       0.000      0.5000E-01   0.000    
   11327   7.208      0.6364E-03 SPRIN         11  46.1%   645.0       143.1       0.000       489.5       0.000      0.5000E-01   0.000    
   11328   7.209      0.6364E-03 SPRIN         11  29.9%   429.2       271.5       0.000       489.5       0.000      0.5000E-01   0.000    
   11329   7.210      0.6364E-03 SPRIN         11  22.2%   327.4       332.1       0.000       489.5       0.000      0.5000E-01   0.000    
   CYCLE    TIME      TIME-STEP  ELEMENT          ERROR  I-ENERGY    K-ENERGY T  K-ENERGY R  EXT-WORK     MAS.ERR     TOTAL MASS  MASS ADDED
   11330   7.210      0.6364E-03 SPRIN         11  52.6%   732.1       91.27       0.000       489.5       0.000      0.5000E-01   0.000    
   11331   7.211      0.6364E-03 SPRIN         11   3.9%   82.84       477.6       0.000       489.5       0.000      0.5000E-01   0.000    
   11332   7.212      0.6364E-03 SPRIN         11  63.9%   882.9       1.559       0.000       489.5       0.000      0.5000E-01   0.000    
   11333   7.212      0.6364E-03 SPRIN         11   1.2%   47.60       498.6       0.000       489.5       0.000      0.5000E-01   0.000    
   11334   7.213      0.6364E-03 SPRIN         11  57.5%   797.5       52.36       0.000       489.5       0.000      0.5000E-01   0.000    
   11335   7.214      0.6364E-03 SPRIN         11  15.8%   241.3       383.3       0.000       489.5       0.000      0.5000E-01   0.000    
   11336   7.214      0.6364E-03 SPRIN         11  37.0%   523.5       215.4       0.000       489.5       0.000      0.5000E-01   0.000    
   11337   7.215      0.6364E-03 SPRIN         11  39.4%   556.0       196.1       0.000       489.5       0.000      0.5000E-01   0.000    
   11338   7.215      0.6364E-03 SPRIN         11  13.7%   213.5       399.9       0.000       489.5       0.000      0.5000E-01   0.000    
   11339   7.216      0.6364E-03 SPRIN         11  59.0%   816.6       41.00       0.000       489.5       0.000      0.5000E-01   0.000    
   11340   7.217      0.6364E-03 SPRIN         11   0.7%   39.97       503.1       0.000       489.5       0.000      0.5000E-01   0.000    
   11341   7.217      0.6364E-03 SPRIN         11  63.6%   878.0       4.495       0.000       489.5       0.000      0.5000E-01   0.000    
   11342   7.218      0.6364E-03 SPRIN         11   5.1%   99.63       467.6       0.000       489.5       0.000      0.5000E-01   0.000    
   11343   7.219      0.6364E-03 SPRIN         11  50.7%   705.9       106.9       0.000       489.5       0.000      0.5000E-01   0.000    
   11344   7.219      0.6364E-03 SPRIN         11  24.6%   359.2       313.2       0.000       489.5       0.000      0.5000E-01   0.000    
   11345   7.220      0.6364E-03 SPRIN         11  27.4%   396.3       291.1       0.000       489.5       0.000      0.5000E-01   0.000    
   11346   7.221      0.6364E-03 SPRIN         11  48.3%   674.2       125.7       0.000       489.5       0.000      0.5000E-01   0.000    
   11347   7.221      0.6364E-03 SPRIN         11   6.8%   121.4       454.7       0.000       489.5       0.000      0.5000E-01   0.000    
   11348   7.222      0.6364E-03 SPRIN         11  62.9%   869.3       9.671       0.000       489.5       0.000      0.5000E-01   0.000    
   11349   7.222      0.6364E-03 SPRIN         11   0.2%   34.35       506.5       0.000       489.5       0.000      0.5000E-01   0.000    
   11350   7.223      0.6364E-03 SPRIN         11  60.4%   835.8       29.61       0.000       489.5       0.000      0.5000E-01   0.000    
   11351   7.224      0.6364E-03 SPRIN         11  11.4%   183.6       417.7       0.000       489.5       0.000      0.5000E-01   0.000    
   11352   7.224      0.6364E-03 SPRIN         11  42.1%   592.3       174.4       0.000       489.5       0.000      0.5000E-01   0.000    
   11353   7.225      0.6364E-03 SPRIN         11  34.1%   486.0       237.7       0.000       489.5       0.000      0.5000E-01   0.000    
   11354   7.226      0.6364E-03 SPRIN         11  18.3%   274.6       363.5       0.000       489.5       0.000      0.5000E-01   0.000    
   11355   7.226      0.6364E-03 SPRIN         11  55.7%   773.3       66.79       0.000       489.5       0.000      0.5000E-01   0.000    
   11356   7.227      0.6364E-03 SPRIN         11   2.1%   59.31       491.6       0.000       489.5       0.000      0.5000E-01   0.000    
   11357   7.228      0.6364E-03 SPRIN         11  64.1%   885.4      0.6399E-01   0.000       489.5       0.000      0.5000E-01   0.000    
   11358   7.228      0.6364E-03 SPRIN         11   2.6%   66.46       487.3       0.000       489.5       0.000      0.5000E-01   0.000    
   11359   7.229      0.6364E-03 SPRIN         11  54.7%   760.0       74.68       0.000       489.5       0.000      0.5000E-01   0.000    
   11360   7.229      0.6364E-03 SPRIN         11  19.6%   292.0       353.1       0.000       489.5       0.000      0.5000E-01   0.000    
   11361   7.230      0.6364E-03 SPRIN         11  32.7%   466.9       249.1       0.000       489.5       0.000      0.5000E-01   0.000    
   11362   7.231      0.6364E-03 SPRIN         11  43.5%   610.4       163.7       0.000       489.5       0.000      0.5000E-01   0.000    
   11363   7.231      0.6364E-03 SPRIN         11  10.4%   169.2       426.2       0.000       489.5       0.000      0.5000E-01   0.000    
   11364   7.232      0.6364E-03 SPRIN         11  61.0%   844.4       24.50       0.000       489.5       0.000      0.5000E-01   0.000    
   11365   7.233      0.6364E-03 SPRIN         11   0.1%   32.76       507.4       0.000       489.5       0.000      0.5000E-01   0.000    
   11366   7.233      0.6364E-03 SPRIN         11  62.5%   863.6       13.03       0.000       489.5       0.000      0.5000E-01   0.000    
   11367   7.234      0.6364E-03 SPRIN         11   7.7%   133.5       447.5       0.000       489.5       0.000      0.5000E-01   0.000    
   11368   7.235      0.6364E-03 SPRIN         11  47.0%   657.5       135.7       0.000       489.5       0.000      0.5000E-01   0.000    
   11369   7.235      0.6364E-03 SPRIN         11  28.8%   415.3       279.8       0.000       489.5       0.000      0.5000E-01   0.000    
   11370   7.236      0.6364E-03 SPRIN         11  23.2%   340.7       324.2       0.000       489.5       0.000      0.5000E-01   0.000    
   11371   7.236      0.6364E-03 SPRIN         11  51.8%   721.3       97.72       0.000       489.5       0.000      0.5000E-01   0.000    
   11372   7.237      0.6364E-03 SPRIN         11   4.4%   89.64       473.6       0.000       489.5       0.000      0.5000E-01   0.000    
   11373   7.238      0.6364E-03 SPRIN         11  63.8%   881.1       2.612       0.000       489.5       0.000      0.5000E-01   0.000    
   11374   7.238      0.6364E-03 SPRIN         11   1.0%   44.08       500.7       0.000       489.5       0.000      0.5000E-01   0.000    
   11375   7.239      0.6364E-03 SPRIN         11  58.1%   805.8       47.43       0.000       489.5       0.000      0.5000E-01   0.000    
   11376   7.240      0.6364E-03 SPRIN         11  14.9%   229.4       390.4       0.000       489.5       0.000      0.5000E-01   0.000    
   11377   7.240      0.6364E-03 SPRIN         11  38.0%   537.3       207.2       0.000       489.5       0.000      0.5000E-01   0.000    
   11378   7.241      0.6364E-03 SPRIN         11  38.4%   542.4       204.2       0.000       489.5       0.000      0.5000E-01   0.000    
   11379   7.242      0.6364E-03 SPRIN         11  14.5%   225.0       393.0       0.000       489.5       0.000      0.5000E-01   0.000    
   11380   7.242      0.6364E-03 SPRIN         11  58.4%   808.8       45.63       0.000       489.5       0.000      0.5000E-01   0.000    
   11381   7.243      0.6364E-03 SPRIN         11   0.9%   42.88       501.4       0.000       489.5       0.000      0.5000E-01   0.000    
   11382   7.243      0.6364E-03 SPRIN         11  63.7%   880.4       3.075       0.000       489.5       0.000      0.5000E-01   0.000    
   11383   7.244      0.6364E-03 SPRIN         11   4.6%   92.29       472.0       0.000       489.5       0.000      0.5000E-01   0.000    
   11384   7.245      0.6364E-03 SPRIN         11  51.5%   717.2       100.2       0.000       489.5       0.000      0.5000E-01   0.000    
   CYCLE    TIME      TIME-STEP  ELEMENT          ERROR  I-ENERGY    K-ENERGY T  K-ENERGY R  EXT-WORK     MAS.ERR     TOTAL MASS  MASS ADDED
   11385   7.245      0.6364E-03 SPRIN         11  23.6%   345.7       321.2       0.000       489.5       0.000      0.5000E-01   0.000    
   11386   7.246      0.6364E-03 SPRIN         11  28.4%   410.1       282.9       0.000       489.5       0.000      0.5000E-01   0.000    
   11387   7.247      0.6364E-03 SPRIN         11  47.4%   662.1       132.9       0.000       489.5       0.000      0.5000E-01   0.000    
   11388   7.247      0.6364E-03 SPRIN         11   7.4%   130.1       449.5       0.000       489.5       0.000      0.5000E-01   0.000    
   11389   7.248      0.6364E-03 SPRIN         11  62.6%   865.2       12.07       0.000       489.5       0.000      0.5000E-01   0.000    
   11390   7.249      0.6364E-03 SPRIN         11   0.1%   33.11       507.2       0.000       489.5       0.000      0.5000E-01   0.000    
   11391   7.249      0.6364E-03 SPRIN         11  60.9%   842.1       25.85       0.000       489.5       0.000      0.5000E-01   0.000    
   11392   7.250      0.6364E-03 SPRIN         11  10.7%   173.1       423.9       0.000       489.5       0.000      0.5000E-01   0.000    
   11393   7.250      0.6364E-03 SPRIN         11  43.1%   605.5       166.6       0.000       489.5       0.000      0.5000E-01   0.000    
   11394   7.251      0.6364E-03 SPRIN         11  33.1%   472.1       246.0       0.000       489.5       0.000      0.5000E-01   0.000    
   11395   7.252      0.6364E-03 SPRIN         11  19.2%   287.2       356.0       0.000       489.5       0.000      0.5000E-01   0.000    
   11396   7.252      0.6364E-03 SPRIN         11  55.0%   763.7       72.49       0.000       489.5       0.000      0.5000E-01   0.000    
   11397   7.253      0.6364E-03 SPRIN         11   2.5%   64.44       488.5       0.000       489.5       0.000      0.5000E-01   0.000    
   11398   7.254      0.6364E-03 SPRIN         11  64.1%   885.5      0.1324E-01   0.000       489.5       0.000      0.5000E-01   0.000    
   11399   7.254      0.6364E-03 SPRIN         11   2.3%   61.18       490.5       0.000       489.5       0.000      0.5000E-01   0.000    
   11400   7.255      0.6364E-03 SPRIN         11  55.4%   769.7       68.90       0.000       489.5       0.000      0.5000E-01   0.000    
   11401   7.256      0.6364E-03 SPRIN         11  18.6%   279.3       360.7       0.000       489.5       0.000      0.5000E-01   0.000    
   11402   7.256      0.6364E-03 SPRIN         11  33.8%   480.8       240.8       0.000       489.5       0.000      0.5000E-01   0.000    
   11403   7.257      0.6364E-03 SPRIN         11  42.5%   597.3       171.5       0.000       489.5       0.000      0.5000E-01   0.000    
   11404   7.257      0.6364E-03 SPRIN         11  11.1%   179.6       420.0       0.000       489.5       0.000      0.5000E-01   0.000    
   11405   7.258      0.6364E-03 SPRIN         11  60.6%   838.2       28.17       0.000       489.5       0.000      0.5000E-01   0.000    
   11406   7.259      0.6364E-03 SPRIN         11   0.2%   33.83       506.8       0.000       489.5       0.000      0.5000E-01   0.000    
   11407   7.259      0.6364E-03 SPRIN         11  62.8%   867.8       10.54       0.000       489.5       0.000      0.5000E-01   0.000    
   11408   7.260      0.6364E-03 SPRIN         11   7.0%   124.6       452.7       0.000       489.5       0.000      0.5000E-01   0.000    
   11409   7.261      0.6364E-03 SPRIN         11  47.9%   669.7       128.4       0.000       489.5       0.000      0.5000E-01   0.000    
   11410   7.261      0.6364E-03 SPRIN         11  27.8%   401.4       288.0       0.000       489.5       0.000      0.5000E-01   0.000    
   11411   7.262      0.6364E-03 SPRIN         11  24.2%   354.2       316.2       0.000       489.5       0.000      0.5000E-01   0.000    
   11412   7.263      0.6364E-03 SPRIN         11  51.0%   710.2       104.3       0.000       489.5       0.000      0.5000E-01   0.000    
   11413   7.263      0.6364E-03 SPRIN         11   4.9%   96.83       469.3       0.000       489.5       0.000      0.5000E-01   0.000    
   11414   7.264      0.6364E-03 SPRIN         11  63.6%   878.9       3.932       0.000       489.5       0.000      0.5000E-01   0.000    
   11415   7.264      0.6364E-03 SPRIN         11   0.7%   41.01       502.5       0.000       489.5       0.000      0.5000E-01   0.000    
   11416   7.265      0.6364E-03 SPRIN         11  58.7%   813.7       42.71       0.000       489.5       0.000      0.5000E-01   0.000    
   11417   7.266      0.6364E-03 SPRIN         11  14.0%   217.8       397.3       0.000       489.5       0.000      0.5000E-01   0.000    
   11418   7.266      0.6364E-03 SPRIN         11  39.0%   550.9       199.1       0.000       489.5       0.000      0.5000E-01   0.000    
   11419   7.267      0.6364E-03 SPRIN         11  37.3%   528.7       212.3       0.000       489.5       0.000      0.5000E-01   0.000    
   11420   7.268      0.6364E-03 SPRIN         11  15.4%   236.8       386.0       0.000       489.5       0.000      0.5000E-01   0.000    
   11421   7.268      0.6364E-03 SPRIN         11  57.8%   800.7       50.49       0.000       489.5       0.000      0.5000E-01   0.000    
   11422   7.269      0.6364E-03 SPRIN         11   1.1%   46.23       499.4       0.000       489.5       0.000      0.5000E-01   0.000    
   11423   7.270      0.6364E-03 SPRIN         11  63.9%   882.3       1.922       0.000       489.5       0.000      0.5000E-01   0.000    
   11424   7.270      0.6364E-03 SPRIN         11   4.1%   85.34       476.1       0.000       489.5       0.000      0.5000E-01   0.000    
   11425   7.271      0.6364E-03 SPRIN         11  52.3%   728.1       93.66       0.000       489.5       0.000      0.5000E-01   0.000    
   11426   7.271      0.6364E-03 SPRIN         11  22.6%   332.3       329.1       0.000       489.5       0.000      0.5000E-01   0.000    
   11427   7.272      0.6364E-03 SPRIN         11  29.5%   424.0       274.6       0.000       489.5       0.000      0.5000E-01   0.000    
   11428   7.273      0.6364E-03 SPRIN         11  46.4%   649.7       140.3       0.000       489.5       0.000      0.5000E-01   0.000    
   11429   7.273      0.6364E-03 SPRIN         11   8.1%   139.2       444.1       0.000       489.5       0.000      0.5000E-01   0.000    
   11430   7.274      0.6364E-03 SPRIN         11  62.3%   860.8       14.72       0.000       489.5       0.000      0.5000E-01   0.000    
   11431   7.275      0.6364E-03 SPRIN         11   0.1%   32.32       507.7       0.000       489.5       0.000      0.5000E-01   0.000    
   11432   7.275      0.6364E-03 SPRIN         11  61.3%   848.0       22.32       0.000       489.5       0.000      0.5000E-01   0.000    
   11433   7.276      0.6364E-03 SPRIN         11   9.9%   162.9       430.0       0.000       489.5       0.000      0.5000E-01   0.000    
   11434   7.277      0.6364E-03 SPRIN         11  44.1%   618.5       158.9       0.000       489.5       0.000      0.5000E-01   0.000    
   11435   7.277      0.6364E-03 SPRIN         11  32.1%   458.2       254.3       0.000       489.5       0.000      0.5000E-01   0.000    
   11436   7.278      0.6364E-03 SPRIN         11  20.2%   300.1       348.3       0.000       489.5       0.000      0.5000E-01   0.000    
   11437   7.278      0.6364E-03 SPRIN         11  54.2%   753.8       78.39       0.000       489.5       0.000      0.5000E-01   0.000    
   11438   7.279      0.6364E-03 SPRIN         11   2.9%   69.98       485.3       0.000       489.5       0.000      0.5000E-01   0.000    
   11439   7.280      0.6364E-03 SPRIN         11  64.1%   885.1      0.2334       0.000       489.5       0.000      0.5000E-01   0.000    
   CYCLE    TIME      TIME-STEP  ELEMENT          ERROR  I-ENERGY    K-ENERGY T  K-ENERGY R  EXT-WORK     MAS.ERR     TOTAL MASS  MASS ADDED
   11440   7.280      0.6364E-03 SPRIN         11   1.9%   56.33       493.4       0.000       489.5       0.000      0.5000E-01   0.000    
   11441   7.281      0.6364E-03 SPRIN         11  56.1%   779.1       63.32       0.000       489.5       0.000      0.5000E-01   0.000    
   11442   7.282      0.6364E-03 SPRIN         11  17.7%   266.7       368.2       0.000       489.5       0.000      0.5000E-01   0.000    
   11443   7.282      0.6364E-03 SPRIN         11  34.8%   494.7       232.5       0.000       489.5       0.000      0.5000E-01   0.000    
   11444   7.283      0.6364E-03 SPRIN         11  41.5%   584.0       179.4       0.000       489.5       0.000      0.5000E-01   0.000    
   11445   7.284      0.6364E-03 SPRIN         11  11.9%   190.3       413.7       0.000       489.5       0.000      0.5000E-01   0.000    
   11446   7.284      0.6364E-03 SPRIN         11  60.1%   831.6       32.09       0.000       489.5       0.000      0.5000E-01   0.000    
   11447   7.285      0.6364E-03 SPRIN         11   0.3%   35.35       505.9       0.000       489.5       0.000      0.5000E-01   0.000    
   11448   7.285      0.6364E-03 SPRIN         11  63.1%   871.6       8.304       0.000       489.5       0.000      0.5000E-01   0.000    
   11449   7.286      0.6364E-03 SPRIN         11   6.4%   116.1       457.8       0.000       489.5       0.000      0.5000E-01   0.000    
   11450   7.287      0.6364E-03 SPRIN         11  48.8%   681.7       121.3       0.000       489.5       0.000      0.5000E-01   0.000    
   11451   7.287      0.6364E-03 SPRIN         11  26.8%   387.7       296.2       0.000       489.5       0.000      0.5000E-01   0.000    
   11452   7.288      0.6364E-03 SPRIN         11  25.3%   367.7       308.1       0.000       489.5       0.000      0.5000E-01   0.000    
   11453   7.289      0.6364E-03 SPRIN         11  50.1%   698.8       111.1       0.000       489.5       0.000      0.5000E-01   0.000    
   11454   7.289      0.6364E-03 SPRIN         11   5.5%   104.4       464.8       0.000       489.5       0.000      0.5000E-01   0.000    
   11455   7.290      0.6364E-03 SPRIN         11  63.4%   876.3       5.519       0.000       489.5       0.000      0.5000E-01   0.000    
   11456   7.291      0.6364E-03 SPRIN         11   0.5%   38.38       504.1       0.000       489.5       0.000      0.5000E-01   0.000    
   11457   7.291      0.6364E-03 SPRIN         11  59.3%   821.3       38.22       0.000       489.5       0.000      0.5000E-01   0.000    
   11458   7.292      0.6364E-03 SPRIN         11  13.2%   206.4       404.1       0.000       489.5       0.000      0.5000E-01   0.000    
   11459   7.292      0.6364E-03 SPRIN         11  40.0%   564.5       191.0       0.000       489.5       0.000      0.5000E-01   0.000    
   11460   7.293      0.6364E-03 SPRIN         11  36.3%   514.9       220.5       0.000       489.5       0.000      0.5000E-01   0.000    
   11461   7.294      0.6364E-03 SPRIN         11  16.3%   248.8       378.8       0.000       489.5       0.000      0.5000E-01   0.000    
   11462   7.294      0.6364E-03 SPRIN         11  57.1%   792.2       55.56       0.000       489.5       0.000      0.5000E-01   0.000    
   11463   7.295      0.6364E-03 SPRIN         11   1.4%   50.03       497.1       0.000       489.5       0.000      0.5000E-01   0.000    
   11464   7.296      0.6364E-03 SPRIN         11  64.0%   883.8       1.038       0.000       489.5       0.000      0.5000E-01   0.000    
   11465   7.296      0.6364E-03 SPRIN         11   3.6%   78.79       480.0       0.000       489.5       0.000      0.5000E-01   0.000    
   11466   7.297      0.6364E-03 SPRIN         11  53.1%   738.8       87.32       0.000       489.5       0.000      0.5000E-01   0.000    
   11467   7.298      0.6364E-03 SPRIN         11  21.6%   319.1       337.0       0.000       489.5       0.000      0.5000E-01   0.000    
   11468   7.298      0.6364E-03 SPRIN         11  30.5%   437.9       266.4       0.000       489.5       0.000      0.5000E-01   0.000    
   11469   7.299      0.6364E-03 SPRIN         11  45.5%   637.2       147.8       0.000       489.5       0.000      0.5000E-01   0.000    
   11470   7.299      0.6364E-03 SPRIN         11   8.8%   148.6       438.5       0.000       489.5       0.000      0.5000E-01   0.000    
   11471   7.300      0.6364E-03 SPRIN         11  61.9%   855.9       17.63       0.000       489.5       0.000      0.5000E-01   0.000    
   11472   7.301      0.6364E-03 SPRIN         11   0.1%   31.99       507.9       0.000       489.5       0.000      0.5000E-01   0.000    
   11473   7.301      0.6364E-03 SPRIN         11  61.7%   853.5       19.05       0.000       489.5       0.000      0.5000E-01   0.000    
   11474   7.302      0.6364E-03 SPRIN         11   9.1%   153.0       435.9       0.000       489.5       0.000      0.5000E-01   0.000    
   11475   7.303      0.6364E-03 SPRIN         11  45.1%   631.4       151.2       0.000       489.5       0.000      0.5000E-01   0.000    
   11476   7.303      0.6364E-03 SPRIN         11  31.0%   444.2       262.6       0.000       489.5       0.000      0.5000E-01   0.000    
   11477   7.304      0.6364E-03 SPRIN         11  21.2%   313.1       340.6       0.000       489.5       0.000      0.5000E-01   0.000    
   11478   7.305      0.6364E-03 SPRIN         11  53.5%   743.5       84.48       0.000       489.5       0.000      0.5000E-01   0.000    
   11479   7.305      0.6364E-03 SPRIN         11   3.4%   75.93       481.7       0.000       489.5       0.000      0.5000E-01   0.000    
   11480   7.306      0.6364E-03 SPRIN         11  64.0%   884.3      0.7242       0.000       489.5       0.000      0.5000E-01   0.000    
   11481   7.306      0.6364E-03 SPRIN         11   1.6%   51.90       496.0       0.000       489.5       0.000      0.5000E-01   0.000    
   11482   7.307      0.6364E-03 SPRIN         11  56.8%   788.1       57.94       0.000       489.5       0.000      0.5000E-01   0.000    
   11483   7.308      0.6364E-03 SPRIN         11  16.8%   254.4       375.5       0.000       489.5       0.000      0.5000E-01   0.000    
   11484   7.308      0.6364E-03 SPRIN         11  35.8%   508.6       224.3       0.000       489.5       0.000      0.5000E-01   0.000    
   11485   7.309      0.6364E-03 SPRIN         11  40.5%   570.6       187.4       0.000       489.5       0.000      0.5000E-01   0.000    
   11486   7.310      0.6364E-03 SPRIN         11  12.8%   201.3       407.1       0.000       489.5       0.000      0.5000E-01   0.000    
   11487   7.310      0.6364E-03 SPRIN         11  59.6%   824.6       36.24       0.000       489.5       0.000      0.5000E-01   0.000    
   11488   7.311      0.6364E-03 SPRIN         11   0.5%   37.33       504.7       0.000       489.5       0.000      0.5000E-01   0.000    
   11489   7.312      0.6364E-03 SPRIN         11  63.3%   874.9       6.332       0.000       489.5       0.000      0.5000E-01   0.000    
   11490   7.312      0.6364E-03 SPRIN         11   5.8%   108.0       462.6       0.000       489.5       0.000      0.5000E-01   0.000    
   11491   7.313      0.6364E-03 SPRIN         11  49.7%   693.5       114.3       0.000       489.5       0.000      0.5000E-01   0.000    
   11492   7.313      0.6364E-03 SPRIN         11  25.7%   373.9       304.4       0.000       489.5       0.000      0.5000E-01   0.000    
   11493   7.314      0.6364E-03 SPRIN         11  26.3%   381.4       300.0       0.000       489.5       0.000      0.5000E-01   0.000    
   11494   7.315      0.6364E-03 SPRIN         11  49.2%   687.1       118.1       0.000       489.5       0.000      0.5000E-01   0.000    
   CYCLE    TIME      TIME-STEP  ELEMENT          ERROR  I-ENERGY    K-ENERGY T  K-ENERGY R  EXT-WORK     MAS.ERR     TOTAL MASS  MASS ADDED
   11495   7.315      0.6364E-03 SPRIN         11   6.1%   112.4       460.0       0.000       489.5       0.000      0.5000E-01   0.000    
   11496   7.316      0.6364E-03 SPRIN         11  63.2%   873.1       7.371       0.000       489.5       0.000      0.5000E-01   0.000    
   11497   7.317      0.6364E-03 SPRIN         11   0.4%   36.20       505.3       0.000       489.5       0.000      0.5000E-01   0.000    
   11498   7.317      0.6364E-03 SPRIN         11  59.8%   828.5       33.96       0.000       489.5       0.000      0.5000E-01   0.000    
   11499   7.318      0.6364E-03 SPRIN         11  12.3%   195.3       410.7       0.000       489.5       0.000      0.5000E-01   0.000    
   11500   7.319      0.6364E-03 SPRIN         11  41.0%   577.9       183.0       0.000       489.5       0.000      0.5000E-01   0.000    
   11501   7.319      0.6364E-03 SPRIN         11  35.3%   501.1       228.8       0.000       489.5       0.000      0.5000E-01   0.000    
   11502   7.320      0.6364E-03 SPRIN         11  17.3%   261.1       371.6       0.000       489.5       0.000      0.5000E-01   0.000    
   11503   7.320      0.6364E-03 SPRIN         11  56.5%   783.3       60.84       0.000       489.5       0.000      0.5000E-01   0.000    
   11504   7.321      0.6364E-03 SPRIN         11   1.7%   54.25       494.6       0.000       489.5       0.000      0.5000E-01   0.000    
   11505   7.322      0.6364E-03 SPRIN         11  64.1%   884.8      0.4239       0.000       489.5       0.000      0.5000E-01   0.000    
   11506   7.322      0.6364E-03 SPRIN         11   3.1%   72.65       483.7       0.000       489.5       0.000      0.5000E-01   0.000    
   11507   7.323      0.6364E-03 SPRIN         11  53.9%   749.1       81.15       0.000       489.5       0.000      0.5000E-01   0.000    
   11508   7.324      0.6364E-03 SPRIN         11  20.6%   306.0       344.8       0.000       489.5       0.000      0.5000E-01   0.000    
   11509   7.324      0.6364E-03 SPRIN         11  31.6%   451.8       258.1       0.000       489.5       0.000      0.5000E-01   0.000    
   11510   7.325      0.6364E-03 SPRIN         11  44.5%   624.4       155.4       0.000       489.5       0.000      0.5000E-01   0.000    
   11511   7.326      0.6364E-03 SPRIN         11   9.5%   158.3       432.7       0.000       489.5       0.000      0.5000E-01   0.000    
   11512   7.326      0.6364E-03 SPRIN         11  61.5%   850.6       20.80       0.000       489.5       0.000      0.5000E-01   0.000    
   11513   7.327      0.6364E-03 SPRIN         11   0.1%   32.11       507.8       0.000       489.5       0.000      0.5000E-01   0.000    
   11514   7.327      0.6364E-03 SPRIN         11  62.1%   858.6       16.02       0.000       489.5       0.000      0.5000E-01   0.000    
   11515   7.328      0.6364E-03 SPRIN         11   8.4%   143.4       441.5       0.000       489.5       0.000      0.5000E-01   0.000    
   11516   7.329      0.6364E-03 SPRIN         11  46.0%   644.0       143.7       0.000       489.5       0.000      0.5000E-01   0.000    
   11517   7.329      0.6364E-03 SPRIN         11  30.0%   430.3       270.9       0.000       489.5       0.000      0.5000E-01   0.000    
   11518   7.330      0.6364E-03 SPRIN         11  22.2%   326.3       332.8       0.000       489.5       0.000      0.5000E-01   0.000    
   11519   7.331      0.6364E-03 SPRIN         11  52.7%   733.0       90.74       0.000       489.5       0.000      0.5000E-01   0.000    
   11520   7.331      0.6364E-03 SPRIN         11   3.8%   82.30       477.9       0.000       489.5       0.000      0.5000E-01   0.000    
   11521   7.332      0.6364E-03 SPRIN         11  63.9%   883.0       1.485       0.000       489.5       0.000      0.5000E-01   0.000    
   11522   7.333      0.6364E-03 SPRIN         11   1.3%   47.91       498.4       0.000       489.5       0.000      0.5000E-01   0.000    
   11523   7.333      0.6364E-03 SPRIN         11  57.5%   796.8       52.78       0.000       489.5       0.000      0.5000E-01   0.000    
   11524   7.334      0.6364E-03 SPRIN         11  15.8%   242.3       382.7       0.000       489.5       0.000      0.5000E-01   0.000    
   11525   7.334      0.6364E-03 SPRIN         11  36.9%   522.4       216.1       0.000       489.5       0.000      0.5000E-01   0.000    
   11526   7.335      0.6364E-03 SPRIN         11  39.5%   557.1       195.4       0.000       489.5       0.000      0.5000E-01   0.000    
   11527   7.336      0.6364E-03 SPRIN         11  13.6%   212.5       400.4       0.000       489.5       0.000      0.5000E-01   0.000    
   11528   7.336      0.6364E-03 SPRIN         11  59.0%   817.2       40.63       0.000       489.5       0.000      0.5000E-01   0.000    
   11529   7.337      0.6364E-03 SPRIN         11   0.6%   39.75       503.2       0.000       489.5       0.000      0.5000E-01   0.000    
   11530   7.338      0.6364E-03 SPRIN         11  63.5%   877.8       4.624       0.000       489.5       0.000      0.5000E-01   0.000    
   11531   7.338      0.6364E-03 SPRIN         11   5.2%   100.2       467.2       0.000       489.5       0.000      0.5000E-01   0.000    
   11532   7.339      0.6364E-03 SPRIN         11  50.6%   705.0       107.4       0.000       489.5       0.000      0.5000E-01   0.000    
   11533   7.340      0.6364E-03 SPRIN         11  24.7%   360.3       312.5       0.000       489.5       0.000      0.5000E-01   0.000    
   11534   7.340      0.6364E-03 SPRIN         11  27.3%   395.1       291.8       0.000       489.5       0.000      0.5000E-01   0.000    
   11535   7.341      0.6364E-03 SPRIN         11  48.3%   675.2       125.1       0.000       489.5       0.000      0.5000E-01   0.000    
   11536   7.341      0.6364E-03 SPRIN         11   6.7%   120.7       455.1       0.000       489.5       0.000      0.5000E-01   0.000    
   11537   7.342      0.6364E-03 SPRIN         11  62.9%   869.6       9.486       0.000       489.5       0.000      0.5000E-01   0.000    
   11538   7.343      0.6364E-03 SPRIN         11   0.2%   34.47       506.4       0.000       489.5       0.000      0.5000E-01   0.000    
   11539   7.343      0.6364E-03 SPRIN         11  60.4%   835.2       29.93       0.000       489.5       0.000      0.5000E-01   0.000    
   11540   7.344      0.6364E-03 SPRIN         11  11.5%   184.5       417.1       0.000       489.5       0.000      0.5000E-01   0.000    
   11541   7.345      0.6364E-03 SPRIN         11  42.0%   591.3       175.1       0.000       489.5       0.000      0.5000E-01   0.000    
   11542   7.345      0.6364E-03 SPRIN         11  34.2%   487.2       237.0       0.000       489.5       0.000      0.5000E-01   0.000    
   11543   7.346      0.6364E-03 SPRIN         11  18.2%   273.5       364.1       0.000       489.5       0.000      0.5000E-01   0.000    
   11544   7.347      0.6364E-03 SPRIN         11  55.8%   774.0       66.33       0.000       489.5       0.000      0.5000E-01   0.000    
   11545   7.347      0.6364E-03 SPRIN         11   2.1%   58.91       491.8       0.000       489.5       0.000      0.5000E-01   0.000    
   11546   7.348      0.6364E-03 SPRIN         11  64.1%   885.4      0.8016E-01   0.000       489.5       0.000      0.5000E-01   0.000    
   11547   7.348      0.6364E-03 SPRIN         11   2.7%   66.91       487.1       0.000       489.5       0.000      0.5000E-01   0.000    
   11548   7.349      0.6364E-03 SPRIN         11  54.7%   759.2       75.16       0.000       489.5       0.000      0.5000E-01   0.000    
   11549   7.350      0.6364E-03 SPRIN         11  19.7%   293.1       352.5       0.000       489.5       0.000      0.5000E-01   0.000    
   CYCLE    TIME      TIME-STEP  ELEMENT          ERROR  I-ENERGY    K-ENERGY T  K-ENERGY R  EXT-WORK     MAS.ERR     TOTAL MASS  MASS ADDED
   11550   7.350      0.6364E-03 SPRIN         11  32.6%   465.7       249.8       0.000       489.5       0.000      0.5000E-01   0.000    
   11551   7.351      0.6364E-03 SPRIN         11  43.6%   611.5       163.1       0.000       489.5       0.000      0.5000E-01   0.000    
   11552   7.352      0.6364E-03 SPRIN         11  10.3%   168.4       426.7       0.000       489.5       0.000      0.5000E-01   0.000    
   11553   7.352      0.6364E-03 SPRIN         11  61.1%   844.8       24.21       0.000       489.5       0.000      0.5000E-01   0.000    
   11554   7.353      0.6364E-03 SPRIN         11   0.1%   32.69       507.4       0.000       489.5       0.000      0.5000E-01   0.000    
   11555   7.354      0.6364E-03 SPRIN         11  62.5%   863.3       13.25       0.000       489.5       0.000      0.5000E-01   0.000    
   11556   7.354      0.6364E-03 SPRIN         11   7.7%   134.2       447.0       0.000       489.5       0.000      0.5000E-01   0.000    
   11557   7.355      0.6364E-03 SPRIN         11  46.9%   656.5       136.3       0.000       489.5       0.000      0.5000E-01   0.000    
   11558   7.355      0.6364E-03 SPRIN         11  28.9%   416.4       279.1       0.000       489.5       0.000      0.5000E-01   0.000    
   11559   7.356      0.6364E-03 SPRIN         11  23.2%   339.6       324.8       0.000       489.5       0.000      0.5000E-01   0.000    
   11560   7.357      0.6364E-03 SPRIN         11  51.9%   722.2       97.18       0.000       489.5       0.000      0.5000E-01   0.000    
   11561   7.357      0.6364E-03 SPRIN         11   4.3%   89.07       473.9       0.000       489.5       0.000      0.5000E-01   0.000    
   11562   7.358      0.6364E-03 SPRIN         11  63.8%   881.3       2.515       0.000       489.5       0.000      0.5000E-01   0.000    
   11563   7.359      0.6364E-03 SPRIN         11   1.0%   44.36       500.5       0.000       489.5       0.000      0.5000E-01   0.000    
   11564   7.359      0.6364E-03 SPRIN         11  58.1%   805.2       47.82       0.000       489.5       0.000      0.5000E-01   0.000    
   11565   7.360      0.6364E-03 SPRIN         11  15.0%   230.4       389.8       0.000       489.5       0.000      0.5000E-01   0.000    
   11566   7.361      0.6364E-03 SPRIN         11  37.9%   536.1       207.9       0.000       489.5       0.000      0.5000E-01   0.000    
   11567   7.361      0.6364E-03 SPRIN         11  38.5%   543.5       203.5       0.000       489.5       0.000      0.5000E-01   0.000    
   11568   7.362      0.6364E-03 SPRIN         11  14.5%   224.1       393.6       0.000       489.5       0.000      0.5000E-01   0.000    
   11569   7.362      0.6364E-03 SPRIN         11  58.4%   809.5       45.24       0.000       489.5       0.000      0.5000E-01   0.000    
   11570   7.363      0.6364E-03 SPRIN         11   0.9%   42.63       501.5       0.000       489.5       0.000      0.5000E-01   0.000    
   11571   7.364      0.6364E-03 SPRIN         11  63.7%   880.2       3.181       0.000       489.5       0.000      0.5000E-01   0.000    
   11572   7.364      0.6364E-03 SPRIN         11   4.6%   92.87       471.6       0.000       489.5       0.000      0.5000E-01   0.000    
   11573   7.365      0.6364E-03 SPRIN         11  51.4%   716.2       100.7       0.000       489.5       0.000      0.5000E-01   0.000    
   11574   7.366      0.6364E-03 SPRIN         11  23.7%   346.8       320.5       0.000       489.5       0.000      0.5000E-01   0.000    
   11575   7.366      0.6364E-03 SPRIN         11  28.4%   408.9       283.6       0.000       489.5       0.000      0.5000E-01   0.000    
   11576   7.367      0.6364E-03 SPRIN         11  47.4%   663.1       132.3       0.000       489.5       0.000      0.5000E-01   0.000    
   11577   7.368      0.6364E-03 SPRIN         11   7.4%   129.4       449.9       0.000       489.5       0.000      0.5000E-01   0.000    
   11578   7.368      0.6364E-03 SPRIN         11  62.6%   865.6       11.86       0.000       489.5       0.000      0.5000E-01   0.000    
   11579   7.369      0.6364E-03 SPRIN         11   0.2%   33.19       507.1       0.000       489.5       0.000      0.5000E-01   0.000    
   11580   7.369      0.6364E-03 SPRIN         11  60.8%   841.6       26.15       0.000       489.5       0.000      0.5000E-01   0.000    
   11581   7.370      0.6364E-03 SPRIN         11  10.7%   173.9       423.4       0.000       489.5       0.000      0.5000E-01   0.000    
   11582   7.371      0.6364E-03 SPRIN         11  43.0%   604.4       167.2       0.000       489.5       0.000      0.5000E-01   0.000    
   11583   7.371      0.6364E-03 SPRIN         11  33.2%   473.2       245.3       0.000       489.5       0.000      0.5000E-01   0.000    
   11584   7.372      0.6364E-03 SPRIN         11  19.1%   286.2       356.6       0.000       489.5       0.000      0.5000E-01   0.000    
   11585   7.373      0.6364E-03 SPRIN         11  55.0%   764.5       72.02       0.000       489.5       0.000      0.5000E-01   0.000    
   11586   7.373      0.6364E-03 SPRIN         11   2.5%   64.00       488.8       0.000       489.5       0.000      0.5000E-01   0.000    
   11587   7.374      0.6364E-03 SPRIN         11  64.1%   885.5      0.7210E-02   0.000       489.5       0.000      0.5000E-01   0.000    
   11588   7.375      0.6364E-03 SPRIN         11   2.3%   61.60       490.2       0.000       489.5       0.000      0.5000E-01   0.000    
   11589   7.375      0.6364E-03 SPRIN         11  55.4%   768.9       69.37       0.000       489.5       0.000      0.5000E-01   0.000    
   11590   7.376      0.6364E-03 SPRIN         11  18.7%   280.3       360.1       0.000       489.5       0.000      0.5000E-01   0.000    
   11591   7.376      0.6364E-03 SPRIN         11  33.7%   479.7       241.5       0.000       489.5       0.000      0.5000E-01   0.000    
   11592   7.377      0.6364E-03 SPRIN         11  42.6%   598.4       170.9       0.000       489.5       0.000      0.5000E-01   0.000    
   11593   7.378      0.6364E-03 SPRIN         11  11.1%   178.8       420.5       0.000       489.5       0.000      0.5000E-01   0.000    
   11594   7.378      0.6364E-03 SPRIN         11  60.6%   838.7       27.86       0.000       489.5       0.000      0.5000E-01   0.000    
   11595   7.379      0.6364E-03 SPRIN         11   0.2%   33.72       506.8       0.000       489.5       0.000      0.5000E-01   0.000    
   11596   7.380      0.6364E-03 SPRIN         11  62.8%   867.5       10.73       0.000       489.5       0.000      0.5000E-01   0.000    
   11597   7.380      0.6364E-03 SPRIN         11   7.1%   125.3       452.3       0.000       489.5       0.000      0.5000E-01   0.000    
   11598   7.381      0.6364E-03 SPRIN         11  47.9%   668.7       129.0       0.000       489.5       0.000      0.5000E-01   0.000    
   11599   7.382      0.6364E-03 SPRIN         11  27.9%   402.6       287.4       0.000       489.5       0.000      0.5000E-01   0.000    
   11600   7.382      0.6364E-03 SPRIN         11  24.2%   353.0       316.8       0.000       489.5       0.000      0.5000E-01   0.000    
   11601   7.383      0.6364E-03 SPRIN         11  51.0%   711.1       103.8       0.000       489.5       0.000      0.5000E-01   0.000    
   11602   7.383      0.6364E-03 SPRIN         11   4.9%   96.23       469.6       0.000       489.5       0.000      0.5000E-01   0.000    
   11603   7.384      0.6364E-03 SPRIN         11  63.7%   879.1       3.814       0.000       489.5       0.000      0.5000E-01   0.000    
   11604   7.385      0.6364E-03 SPRIN         11   0.8%   41.24       502.3       0.000       489.5       0.000      0.5000E-01   0.000    
   CYCLE    TIME      TIME-STEP  ELEMENT          ERROR  I-ENERGY    K-ENERGY T  K-ENERGY R  EXT-WORK     MAS.ERR     TOTAL MASS  MASS ADDED
   11605   7.385      0.6364E-03 SPRIN         11  58.7%   813.1       43.09       0.000       489.5       0.000      0.5000E-01   0.000    
   11606   7.386      0.6364E-03 SPRIN         11  14.1%   218.7       396.8       0.000       489.5       0.000      0.5000E-01   0.000    
   11607   7.387      0.6364E-03 SPRIN         11  38.9%   549.8       199.7       0.000       489.5       0.000      0.5000E-01   0.000    
   11608   7.387      0.6364E-03 SPRIN         11  37.4%   529.8       211.6       0.000       489.5       0.000      0.5000E-01   0.000    
   11609   7.388      0.6364E-03 SPRIN         11  15.4%   235.8       386.6       0.000       489.5       0.000      0.5000E-01   0.000    
   11610   7.389      0.6364E-03 SPRIN         11  57.8%   801.4       50.08       0.000       489.5       0.000      0.5000E-01   0.000    
   11611   7.389      0.6364E-03 SPRIN         11   1.1%   45.94       499.6       0.000       489.5       0.000      0.5000E-01   0.000    
   11612   7.390      0.6364E-03 SPRIN         11  63.9%   882.2       2.007       0.000       489.5       0.000      0.5000E-01   0.000    
   11613   7.390      0.6364E-03 SPRIN         11   4.1%   85.89       475.8       0.000       489.5       0.000      0.5000E-01   0.000    
   11614   7.391      0.6364E-03 SPRIN         11  52.2%   727.2       94.19       0.000       489.5       0.000      0.5000E-01   0.000    
   11615   7.392      0.6364E-03 SPRIN         11  22.7%   333.4       328.5       0.000       489.5       0.000      0.5000E-01   0.000    
   11616   7.392      0.6364E-03 SPRIN         11  29.4%   422.8       275.3       0.000       489.5       0.000      0.5000E-01   0.000    
   11617   7.393      0.6364E-03 SPRIN         11  46.5%   650.7       139.7       0.000       489.5       0.000      0.5000E-01   0.000    
   11618   7.394      0.6364E-03 SPRIN         11   8.0%   138.4       444.5       0.000       489.5       0.000      0.5000E-01   0.000    
   11619   7.394      0.6364E-03 SPRIN         11  62.3%   861.2       14.50       0.000       489.5       0.000      0.5000E-01   0.000    
   11620   7.395      0.6364E-03 SPRIN         11   0.1%   32.37       507.6       0.000       489.5       0.000      0.5000E-01   0.000    
   11621   7.396      0.6364E-03 SPRIN         11  61.3%   847.5       22.60       0.000       489.5       0.000      0.5000E-01   0.000    
   11622   7.396      0.6364E-03 SPRIN         11   9.9%   163.7       429.5       0.000       489.5       0.000      0.5000E-01   0.000    
   11623   7.397      0.6364E-03 SPRIN         11  44.0%   617.5       159.5       0.000       489.5       0.000      0.5000E-01   0.000    
   11624   7.397      0.6364E-03 SPRIN         11  32.1%   459.3       253.6       0.000       489.5       0.000      0.5000E-01   0.000    
   11625   7.398      0.6364E-03 SPRIN         11  20.1%   299.0       349.0       0.000       489.5       0.000      0.5000E-01   0.000    
   11626   7.399      0.6364E-03 SPRIN         11  54.3%   754.6       77.90       0.000       489.5       0.000      0.5000E-01   0.000    
   11627   7.399      0.6364E-03 SPRIN         11   2.9%   69.51       485.5       0.000       489.5       0.000      0.5000E-01   0.000    
   11628   7.400      0.6364E-03 SPRIN         11  64.1%   885.2      0.2051       0.000       489.5       0.000      0.5000E-01   0.000    
     ANIMATION FILE: SPR_PRE_2FLAGA038 WRITTEN
   11629   7.401      0.6364E-03 SPRIN         11   1.9%   56.71       493.1       0.000       489.5       0.000      0.5000E-01   0.000    
   11630   7.401      0.6364E-03 SPRIN         11  56.1%   778.3       63.77       0.000       489.5       0.000      0.5000E-01   0.000    
   11631   7.402      0.6364E-03 SPRIN         11  17.8%   267.7       367.6       0.000       489.5       0.000      0.5000E-01   0.000    
   11632   7.403      0.6364E-03 SPRIN         11  34.7%   493.6       233.2       0.000       489.5       0.000      0.5000E-01   0.000    
   11633   7.403      0.6364E-03 SPRIN         11  41.6%   585.1       178.7       0.000       489.5       0.000      0.5000E-01   0.000    
   11634   7.404      0.6364E-03 SPRIN         11  11.9%   189.4       414.2       0.000       489.5       0.000      0.5000E-01   0.000    
   11635   7.404      0.6364E-03 SPRIN         11  60.1%   832.1       31.76       0.000       489.5       0.000      0.5000E-01   0.000    
   11636   7.405      0.6364E-03 SPRIN         11   0.3%   35.21       505.9       0.000       489.5       0.000      0.5000E-01   0.000    
   11637   7.406      0.6364E-03 SPRIN         11  63.1%   871.3       8.478       0.000       489.5       0.000      0.5000E-01   0.000    
   11638   7.406      0.6364E-03 SPRIN         11   6.4%   116.8       457.4       0.000       489.5       0.000      0.5000E-01   0.000    
   11639   7.407      0.6364E-03 SPRIN         11  48.8%   680.7       121.9       0.000       489.5       0.000      0.5000E-01   0.000    
   11640   7.408      0.6364E-03 SPRIN         11  26.8%   388.8       295.6       0.000       489.5       0.000      0.5000E-01   0.000    
   11641   7.408      0.6364E-03 SPRIN         11  25.2%   366.6       308.8       0.000       489.5       0.000      0.5000E-01   0.000    
   11642   7.409      0.6364E-03 SPRIN         11  50.2%   699.7       110.6       0.000       489.5       0.000      0.5000E-01   0.000    
   11643   7.410      0.6364E-03 SPRIN         11   5.4%   103.8       465.1       0.000       489.5       0.000      0.5000E-01   0.000    
   11644   7.410      0.6364E-03 SPRIN         11  63.5%   876.5       5.379       0.000       489.5       0.000      0.5000E-01   0.000    
   11645   7.411      0.6364E-03 SPRIN         11   0.6%   38.58       503.9       0.000       489.5       0.000      0.5000E-01   0.000    
   11646   7.411      0.6364E-03 SPRIN         11  59.3%   820.7       38.58       0.000       489.5       0.000      0.5000E-01   0.000    
   11647   7.412      0.6364E-03 SPRIN         11  13.2%   207.3       403.5       0.000       489.5       0.000      0.5000E-01   0.000    
   11648   7.413      0.6364E-03 SPRIN         11  40.0%   563.4       191.7       0.000       489.5       0.000      0.5000E-01   0.000    
   11649   7.413      0.6364E-03 SPRIN         11  36.4%   516.0       219.8       0.000       489.5       0.000      0.5000E-01   0.000    
   11650   7.414      0.6364E-03 SPRIN         11  16.3%   247.8       379.4       0.000       489.5       0.000      0.5000E-01   0.000    
   11651   7.415      0.6364E-03 SPRIN         11  57.2%   792.9       55.13       0.000       489.5       0.000      0.5000E-01   0.000    
   11652   7.415      0.6364E-03 SPRIN         11   1.4%   49.70       497.3       0.000       489.5       0.000      0.5000E-01   0.000    
   11653   7.416      0.6364E-03 SPRIN         11  64.0%   883.7       1.100       0.000       489.5       0.000      0.5000E-01   0.000    
   11654   7.417      0.6364E-03 SPRIN         11   3.6%   79.31       479.7       0.000       489.5       0.000      0.5000E-01   0.000    
   11655   7.417      0.6364E-03 SPRIN         11  53.1%   737.9       87.83       0.000       489.5       0.000      0.5000E-01   0.000    
   11656   7.418      0.6364E-03 SPRIN         11  21.7%   320.2       336.4       0.000       489.5       0.000      0.5000E-01   0.000    
   11657   7.418      0.6364E-03 SPRIN         11  30.4%   436.7       267.0       0.000       489.5       0.000      0.5000E-01   0.000    
   11658   7.419      0.6364E-03 SPRIN         11  45.6%   638.2       147.2       0.000       489.5       0.000      0.5000E-01   0.000    
   11659   7.420      0.6364E-03 SPRIN         11   8.8%   147.8       438.9       0.000       489.5       0.000      0.5000E-01   0.000    
   CYCLE    TIME      TIME-STEP  ELEMENT          ERROR  I-ENERGY    K-ENERGY T  K-ENERGY R  EXT-WORK     MAS.ERR     TOTAL MASS  MASS ADDED
   11660   7.420      0.6364E-03 SPRIN         11  61.9%   856.3       17.39       0.000       489.5       0.000      0.5000E-01   0.000    
   11661   7.421      0.6364E-03 SPRIN         11   0.1%   32.00       507.8       0.000       489.5       0.000      0.5000E-01   0.000    
   11662   7.422      0.6364E-03 SPRIN         11  61.7%   853.1       19.31       0.000       489.5       0.000      0.5000E-01   0.000    
   11663   7.422      0.6364E-03 SPRIN         11   9.2%   153.8       435.4       0.000       489.5       0.000      0.5000E-01   0.000    
   11664   7.423      0.6364E-03 SPRIN         11  45.0%   630.3       151.9       0.000       489.5       0.000      0.5000E-01   0.000    
   11665   7.424      0.6364E-03 SPRIN         11  31.1%   445.4       261.9       0.000       489.5       0.000      0.5000E-01   0.000    
   11666   7.424      0.6364E-03 SPRIN         11  21.1%   312.0       341.2       0.000       489.5       0.000      0.5000E-01   0.000    
   11667   7.425      0.6364E-03 SPRIN         11  53.5%   744.4       83.97       0.000       489.5       0.000      0.5000E-01   0.000    
   11668   7.425      0.6364E-03 SPRIN         11   3.3%   75.43       482.0       0.000       489.5       0.000      0.5000E-01   0.000    
   11669   7.426      0.6364E-03 SPRIN         11  64.0%   884.4      0.6738       0.000       489.5       0.000      0.5000E-01   0.000    
   11670   7.427      0.6364E-03 SPRIN         11   1.6%   52.25       495.8       0.000       489.5       0.000      0.5000E-01   0.000    
   11671   7.427      0.6364E-03 SPRIN         11  56.8%   787.4       58.38       0.000       489.5       0.000      0.5000E-01   0.000    
   11672   7.428      0.6364E-03 SPRIN         11  16.8%   255.4       374.9       0.000       489.5       0.000      0.5000E-01   0.000    
   11673   7.429      0.6364E-03 SPRIN         11  35.8%   507.5       225.0       0.000       489.5       0.000      0.5000E-01   0.000    
   11674   7.429      0.6364E-03 SPRIN         11  40.6%   571.7       186.7       0.000       489.5       0.000      0.5000E-01   0.000    
   11675   7.430      0.6364E-03 SPRIN         11  12.7%   200.4       407.7       0.000       489.5       0.000      0.5000E-01   0.000    
   11676   7.431      0.6364E-03 SPRIN         11  59.6%   825.2       35.90       0.000       489.5       0.000      0.5000E-01   0.000    
   11677   7.431      0.6364E-03 SPRIN         11   0.4%   37.15       504.8       0.000       489.5       0.000      0.5000E-01   0.000    
   11678   7.432      0.6364E-03 SPRIN         11  63.3%   874.6       6.484       0.000       489.5       0.000      0.5000E-01   0.000    
   11679   7.432      0.6364E-03 SPRIN         11   5.8%   108.6       462.2       0.000       489.5       0.000      0.5000E-01   0.000    
   11680   7.433      0.6364E-03 SPRIN         11  49.6%   692.5       114.8       0.000       489.5       0.000      0.5000E-01   0.000    
   11681   7.434      0.6364E-03 SPRIN         11  25.8%   375.1       303.7       0.000       489.5       0.000      0.5000E-01   0.000    
   11682   7.434      0.6364E-03 SPRIN         11  26.2%   380.3       300.6       0.000       489.5       0.000      0.5000E-01   0.000    
   11683   7.435      0.6364E-03 SPRIN         11  49.3%   688.1       117.5       0.000       489.5       0.000      0.5000E-01   0.000    
   11684   7.436      0.6364E-03 SPRIN         11   6.0%   111.7       460.4       0.000       489.5       0.000      0.5000E-01   0.000    
   11685   7.436      0.6364E-03 SPRIN         11  63.2%   873.4       7.209       0.000       489.5       0.000      0.5000E-01   0.000    
   11686   7.437      0.6364E-03 SPRIN         11   0.4%   36.36       505.3       0.000       489.5       0.000      0.5000E-01   0.000    
   11687   7.438      0.6364E-03 SPRIN         11  59.8%   827.9       34.30       0.000       489.5       0.000      0.5000E-01   0.000    
   11688   7.438      0.6364E-03 SPRIN         11  12.4%   196.2       410.2       0.000       489.5       0.000      0.5000E-01   0.000    
   11689   7.439      0.6364E-03 SPRIN         11  41.0%   576.8       183.7       0.000       489.5       0.000      0.5000E-01   0.000    
   11690   7.439      0.6364E-03 SPRIN         11  35.4%   502.2       228.1       0.000       489.5       0.000      0.5000E-01   0.000    
   11691   7.440      0.6364E-03 SPRIN         11  17.2%   260.1       372.2       0.000       489.5       0.000      0.5000E-01   0.000    
   11692   7.441      0.6364E-03 SPRIN         11  56.5%   784.0       60.40       0.000       489.5       0.000      0.5000E-01   0.000    
   11693   7.441      0.6364E-03 SPRIN         11   1.7%   53.89       494.8       0.000       489.5       0.000      0.5000E-01   0.000    
   11694   7.442      0.6364E-03 SPRIN         11  64.1%   884.7      0.4641       0.000       489.5       0.000      0.5000E-01   0.000    
   11695   7.443      0.6364E-03 SPRIN         11   3.1%   73.13       483.4       0.000       489.5       0.000      0.5000E-01   0.000    
   11696   7.443      0.6364E-03 SPRIN         11  53.8%   748.3       81.65       0.000       489.5       0.000      0.5000E-01   0.000    
   11697   7.444      0.6364E-03 SPRIN         11  20.7%   307.1       344.2       0.000       489.5       0.000      0.5000E-01   0.000    
   11698   7.445      0.6364E-03 SPRIN         11  31.5%   450.7       258.7       0.000       489.5       0.000      0.5000E-01   0.000    
   11699   7.445      0.6364E-03 SPRIN         11  44.6%   625.5       154.7       0.000       489.5       0.000      0.5000E-01   0.000    
   11700   7.446      0.6364E-03 SPRIN         11   9.5%   157.5       433.2       0.000       489.5       0.000      0.5000E-01   0.000    
   11701   7.446      0.6364E-03 SPRIN         11  61.5%   851.0       20.53       0.000       489.5       0.000      0.5000E-01   0.000    
   11702   7.447      0.6364E-03 SPRIN         11   0.1%   32.08       507.8       0.000       489.5       0.000      0.5000E-01   0.000    
   11703   7.448      0.6364E-03 SPRIN         11  62.1%   858.2       16.26       0.000       489.5       0.000      0.5000E-01   0.000    
   11704   7.448      0.6364E-03 SPRIN         11   8.5%   144.2       441.1       0.000       489.5       0.000      0.5000E-01   0.000    
   11705   7.449      0.6364E-03 SPRIN         11  45.9%   643.0       144.3       0.000       489.5       0.000      0.5000E-01   0.000    
   11706   7.450      0.6364E-03 SPRIN         11  30.0%   431.4       270.2       0.000       489.5       0.000      0.5000E-01   0.000    
   11707   7.450      0.6364E-03 SPRIN         11  22.1%   325.2       333.4       0.000       489.5       0.000      0.5000E-01   0.000    
   11708   7.451      0.6364E-03 SPRIN         11  52.7%   733.9       90.22       0.000       489.5       0.000      0.5000E-01   0.000    
   11709   7.452      0.6364E-03 SPRIN         11   3.8%   81.76       478.2       0.000       489.5       0.000      0.5000E-01   0.000    
   11710   7.452      0.6364E-03 SPRIN         11  64.0%   883.2       1.413       0.000       489.5       0.000      0.5000E-01   0.000    
   11711   7.453      0.6364E-03 SPRIN         11   1.3%   48.22       498.2       0.000       489.5       0.000      0.5000E-01   0.000    
   11712   7.453      0.6364E-03 SPRIN         11  57.4%   796.1       53.19       0.000       489.5       0.000      0.5000E-01   0.000    
   11713   7.454      0.6364E-03 SPRIN         11  15.9%   243.2       382.2       0.000       489.5       0.000      0.5000E-01   0.000    
   11714   7.455      0.6364E-03 SPRIN         11  36.8%   521.3       216.7       0.000       489.5       0.000      0.5000E-01   0.000    
   CYCLE    TIME      TIME-STEP  ELEMENT          ERROR  I-ENERGY    K-ENERGY T  K-ENERGY R  EXT-WORK     MAS.ERR     TOTAL MASS  MASS ADDED
   11715   7.455      0.6364E-03 SPRIN         11  39.6%   558.2       194.7       0.000       489.5       0.000      0.5000E-01   0.000    
   11716   7.456      0.6364E-03 SPRIN         11  13.5%   211.6       401.0       0.000       489.5       0.000      0.5000E-01   0.000    
   11717   7.457      0.6364E-03 SPRIN         11  59.1%   817.9       40.26       0.000       489.5       0.000      0.5000E-01   0.000    
   11718   7.457      0.6364E-03 SPRIN         11   0.6%   39.54       503.4       0.000       489.5       0.000      0.5000E-01   0.000    
   11719   7.458      0.6364E-03 SPRIN         11  63.5%   877.5       4.754       0.000       489.5       0.000      0.5000E-01   0.000    
   11720   7.459      0.6364E-03 SPRIN         11   5.2%   100.9       466.9       0.000       489.5       0.000      0.5000E-01   0.000    
   11721   7.459      0.6364E-03 SPRIN         11  50.5%   704.1       108.0       0.000       489.5       0.000      0.5000E-01   0.000    
   11722   7.460      0.6364E-03 SPRIN         11  24.8%   361.4       311.8       0.000       489.5       0.000      0.5000E-01   0.000    
   11723   7.460      0.6364E-03 SPRIN         11  27.2%   394.0       292.5       0.000       489.5       0.000      0.5000E-01   0.000    
   11724   7.461      0.6364E-03 SPRIN         11  48.4%   676.2       124.5       0.000       489.5       0.000      0.5000E-01   0.000    
   11725   7.462      0.6364E-03 SPRIN         11   6.7%   120.0       455.5       0.000       489.5       0.000      0.5000E-01   0.000    
   11726   7.462      0.6364E-03 SPRIN         11  63.0%   869.9       9.303       0.000       489.5       0.000      0.5000E-01   0.000    
   11727   7.463      0.6364E-03 SPRIN         11   0.3%   34.59       506.3       0.000       489.5       0.000      0.5000E-01   0.000    
   11728   7.464      0.6364E-03 SPRIN         11  60.3%   834.7       30.25       0.000       489.5       0.000      0.5000E-01   0.000    
   11729   7.464      0.6364E-03 SPRIN         11  11.6%   185.3       416.6       0.000       489.5       0.000      0.5000E-01   0.000    
   11730   7.465      0.6364E-03 SPRIN         11  42.0%   590.2       175.7       0.000       489.5       0.000      0.5000E-01   0.000    
   11731   7.466      0.6364E-03 SPRIN         11  34.3%   488.3       236.3       0.000       489.5       0.000      0.5000E-01   0.000    
   11732   7.466      0.6364E-03 SPRIN         11  18.1%   272.5       364.8       0.000       489.5       0.000      0.5000E-01   0.000    
   11733   7.467      0.6364E-03 SPRIN         11  55.8%   774.8       65.87       0.000       489.5       0.000      0.5000E-01   0.000    
   11734   7.467      0.6364E-03 SPRIN         11   2.1%   58.52       492.1       0.000       489.5       0.000      0.5000E-01   0.000    
   11735   7.468      0.6364E-03 SPRIN         11  64.1%   885.4      0.9815E-01   0.000       489.5       0.000      0.5000E-01   0.000    
   11736   7.469      0.6364E-03 SPRIN         11   2.7%   67.37       486.8       0.000       489.5       0.000      0.5000E-01   0.000    
   11737   7.469      0.6364E-03 SPRIN         11  54.6%   758.4       75.65       0.000       489.5       0.000      0.5000E-01   0.000    
   11738   7.470      0.6364E-03 SPRIN         11  19.7%   294.1       351.9       0.000       489.5       0.000      0.5000E-01   0.000    
   11739   7.471      0.6364E-03 SPRIN         11  32.5%   464.6       250.5       0.000       489.5       0.000      0.5000E-01   0.000    
   11740   7.471      0.6364E-03 SPRIN         11  43.6%   612.5       162.4       0.000       489.5       0.000      0.5000E-01   0.000    
   11741   7.472      0.6364E-03 SPRIN         11  10.2%   167.5       427.2       0.000       489.5       0.000      0.5000E-01   0.000    
   11742   7.473      0.6364E-03 SPRIN         11  61.1%   845.3       23.92       0.000       489.5       0.000      0.5000E-01   0.000    
   11743   7.473      0.6364E-03 SPRIN         11   0.1%   32.63       507.5       0.000       489.5       0.000      0.5000E-01   0.000    
   11744   7.474      0.6364E-03 SPRIN         11  62.4%   862.9       13.47       0.000       489.5       0.000      0.5000E-01   0.000    
   11745   7.474      0.6364E-03 SPRIN         11   7.8%   134.9       446.6       0.000       489.5       0.000      0.5000E-01   0.000    
   11746   7.475      0.6364E-03 SPRIN         11  46.9%   655.5       136.9       0.000       489.5       0.000      0.5000E-01   0.000    
   11747   7.476      0.6364E-03 SPRIN         11  29.0%   417.5       278.4       0.000       489.5       0.000      0.5000E-01   0.000    
   11748   7.476      0.6364E-03 SPRIN         11  23.1%   338.5       325.5       0.000       489.5       0.000      0.5000E-01   0.000    
   11749   7.477      0.6364E-03 SPRIN         11  51.9%   723.1       96.65       0.000       489.5       0.000      0.5000E-01   0.000    
   11750   7.478      0.6364E-03 SPRIN         11   4.3%   88.50       474.2       0.000       489.5       0.000      0.5000E-01   0.000    
   11751   7.478      0.6364E-03 SPRIN         11  63.8%   881.5       2.421       0.000       489.5       0.000      0.5000E-01   0.000    
   11752   7.479      0.6364E-03 SPRIN         11   1.0%   44.63       500.3       0.000       489.5       0.000      0.5000E-01   0.000    
   11753   7.480      0.6364E-03 SPRIN         11  58.0%   804.5       48.22       0.000       489.5       0.000      0.5000E-01   0.000    
   11754   7.480      0.6364E-03 SPRIN         11  15.0%   231.3       389.2       0.000       489.5       0.000      0.5000E-01   0.000    
   11755   7.481      0.6364E-03 SPRIN         11  37.8%   535.0       208.5       0.000       489.5       0.000      0.5000E-01   0.000    
   11756   7.481      0.6364E-03 SPRIN         11  38.5%   544.6       202.8       0.000       489.5       0.000      0.5000E-01   0.000    
   11757   7.482      0.6364E-03 SPRIN         11  14.4%   223.1       394.1       0.000       489.5       0.000      0.5000E-01   0.000    
   11758   7.483      0.6364E-03 SPRIN         11  58.5%   810.1       44.86       0.000       489.5       0.000      0.5000E-01   0.000    
   11759   7.483      0.6364E-03 SPRIN         11   0.8%   42.37       501.7       0.000       489.5       0.000      0.5000E-01   0.000    
   11760   7.484      0.6364E-03 SPRIN         11  63.7%   880.0       3.290       0.000       489.5       0.000      0.5000E-01   0.000    
   11761   7.485      0.6364E-03 SPRIN         11   4.7%   93.46       471.3       0.000       489.5       0.000      0.5000E-01   0.000    
   11762   7.485      0.6364E-03 SPRIN         11  51.4%   715.3       101.3       0.000       489.5       0.000      0.5000E-01   0.000    
   11763   7.486      0.6364E-03 SPRIN         11  23.8%   347.9       319.9       0.000       489.5       0.000      0.5000E-01   0.000    
   11764   7.487      0.6364E-03 SPRIN         11  28.3%   407.8       284.2       0.000       489.5       0.000      0.5000E-01   0.000    
   11765   7.487      0.6364E-03 SPRIN         11  47.5%   664.1       131.8       0.000       489.5       0.000      0.5000E-01   0.000    
   11766   7.488      0.6364E-03 SPRIN         11   7.3%   128.7       450.3       0.000       489.5       0.000      0.5000E-01   0.000    
   11767   7.488      0.6364E-03 SPRIN         11  62.7%   865.9       11.66       0.000       489.5       0.000      0.5000E-01   0.000    
   11768   7.489      0.6364E-03 SPRIN         11   0.2%   33.28       507.1       0.000       489.5       0.000      0.5000E-01   0.000    
   11769   7.490      0.6364E-03 SPRIN         11  60.8%   841.1       26.45       0.000       489.5       0.000      0.5000E-01   0.000    
   CYCLE    TIME      TIME-STEP  ELEMENT          ERROR  I-ENERGY    K-ENERGY T  K-ENERGY R  EXT-WORK     MAS.ERR     TOTAL MASS  MASS ADDED
   11770   7.490      0.6364E-03 SPRIN         11  10.8%   174.8       422.9       0.000       489.5       0.000      0.5000E-01   0.000    
   11771   7.491      0.6364E-03 SPRIN         11  43.0%   603.4       167.9       0.000       489.5       0.000      0.5000E-01   0.000    
   11772   7.492      0.6364E-03 SPRIN         11  33.3%   474.4       244.6       0.000       489.5       0.000      0.5000E-01   0.000    
   11773   7.492      0.6364E-03 SPRIN         11  19.1%   285.1       357.2       0.000       489.5       0.000      0.5000E-01   0.000    
   11774   7.493      0.6364E-03 SPRIN         11  55.1%   765.3       71.54       0.000       489.5       0.000      0.5000E-01   0.000    
   11775   7.494      0.6364E-03 SPRIN         11   2.4%   63.57       489.1       0.000       489.5       0.000      0.5000E-01   0.000    
   11776   7.494      0.6364E-03 SPRIN         11  64.1%   885.5      0.2998E-02   0.000       489.5       0.000      0.5000E-01   0.000    
   11777   7.495      0.6364E-03 SPRIN         11   2.3%   62.02       490.0       0.000       489.5       0.000      0.5000E-01   0.000    
   11778   7.495      0.6364E-03 SPRIN         11  55.3%   768.2       69.84       0.000       489.5       0.000      0.5000E-01   0.000    
   11779   7.496      0.6364E-03 SPRIN         11  18.8%   281.4       359.5       0.000       489.5       0.000      0.5000E-01   0.000    
   11780   7.497      0.6364E-03 SPRIN         11  33.6%   478.5       242.2       0.000       489.5       0.000      0.5000E-01   0.000    
   11781   7.497      0.6364E-03 SPRIN         11  42.7%   599.5       170.2       0.000       489.5       0.000      0.5000E-01   0.000    
   11782   7.498      0.6364E-03 SPRIN         11  11.0%   177.9       421.0       0.000       489.5       0.000      0.5000E-01   0.000    
   11783   7.499      0.6364E-03 SPRIN         11  60.7%   839.2       27.56       0.000       489.5       0.000      0.5000E-01   0.000    
   11784   7.499      0.6364E-03 SPRIN         11   0.2%   33.62       506.9       0.000       489.5       0.000      0.5000E-01   0.000    
   11785   7.500      0.6364E-03 SPRIN         11  62.8%   867.2       10.93       0.000       489.5       0.000      0.5000E-01   0.000    
   11786   7.501      0.6364E-03 SPRIN         11   7.1%   126.0       451.9       0.000       489.5       0.000      0.5000E-01   0.000    
   11787   7.501      0.6364E-03 SPRIN         11  47.8%   667.7       129.6       0.000       489.5       0.000      0.5000E-01   0.000    
   11788   7.502      0.6364E-03 SPRIN         11  28.0%   403.7       286.7       0.000       489.5       0.000      0.5000E-01   0.000    
   11789   7.502      0.6364E-03 SPRIN         11  24.1%   351.9       317.5       0.000       489.5       0.000      0.5000E-01   0.000    
   11790   7.503      0.6364E-03 SPRIN         11  51.1%   712.0       103.2       0.000       489.5       0.000      0.5000E-01   0.000    
   11791   7.504      0.6364E-03 SPRIN         11   4.8%   95.63       470.0       0.000       489.5       0.000      0.5000E-01   0.000    
   11792   7.504      0.6364E-03 SPRIN         11  63.7%   879.3       3.697       0.000       489.5       0.000      0.5000E-01   0.000    
   11793   7.505      0.6364E-03 SPRIN         11   0.8%   41.48       502.2       0.000       489.5       0.000      0.5000E-01   0.000    
   11794   7.506      0.6364E-03 SPRIN         11  58.6%   812.5       43.47       0.000       489.5       0.000      0.5000E-01   0.000    
   11795   7.506      0.6364E-03 SPRIN         11  14.1%   219.7       396.2       0.000       489.5       0.000      0.5000E-01   0.000    
   11796   7.507      0.6364E-03 SPRIN         11  38.8%   548.7       200.4       0.000       489.5       0.000      0.5000E-01   0.000    
   11797   7.508      0.6364E-03 SPRIN         11  37.5%   530.9       211.0       0.000       489.5       0.000      0.5000E-01   0.000    
   11798   7.508      0.6364E-03 SPRIN         11  15.3%   234.8       387.2       0.000       489.5       0.000      0.5000E-01   0.000    
   11799   7.509      0.6364E-03 SPRIN         11  57.9%   802.0       49.68       0.000       489.5       0.000      0.5000E-01   0.000    
   11800   7.509      0.6364E-03 SPRIN         11   1.1%   45.65       499.7       0.000       489.5       0.000      0.5000E-01   0.000    
   11801   7.510      0.6364E-03 SPRIN         11  63.9%   882.0       2.093       0.000       489.5       0.000      0.5000E-01   0.000    
   11802   7.511      0.6364E-03 SPRIN         11   4.1%   86.45       475.4       0.000       489.5       0.000      0.5000E-01   0.000    
   11803   7.511      0.6364E-03 SPRIN         11  52.2%   726.3       94.72       0.000       489.5       0.000      0.5000E-01   0.000    
   11804   7.512      0.6364E-03 SPRIN         11  22.8%   334.5       327.8       0.000       489.5       0.000      0.5000E-01   0.000    
   11805   7.513      0.6364E-03 SPRIN         11  29.3%   421.7       276.0       0.000       489.5       0.000      0.5000E-01   0.000    
   11806   7.513      0.6364E-03 SPRIN         11  46.6%   651.8       139.1       0.000       489.5       0.000      0.5000E-01   0.000    
   11807   7.514      0.6364E-03 SPRIN         11   8.0%   137.7       445.0       0.000       489.5       0.000      0.5000E-01   0.000    
   11808   7.515      0.6364E-03 SPRIN         11  62.3%   861.5       14.27       0.000       489.5       0.000      0.5000E-01   0.000    
   11809   7.515      0.6364E-03 SPRIN         11   0.1%   32.42       507.6       0.000       489.5       0.000      0.5000E-01   0.000    
   11810   7.516      0.6364E-03 SPRIN         11  61.2%   847.1       22.88       0.000       489.5       0.000      0.5000E-01   0.000    
   11811   7.516      0.6364E-03 SPRIN         11  10.0%   164.5       429.0       0.000       489.5       0.000      0.5000E-01   0.000    
   11812   7.517      0.6364E-03 SPRIN         11  43.9%   616.4       160.1       0.000       489.5       0.000      0.5000E-01   0.000    
   11813   7.518      0.6364E-03 SPRIN         11  32.2%   460.4       252.9       0.000       489.5       0.000      0.5000E-01   0.000    
   11814   7.518      0.6364E-03 SPRIN         11  20.0%   298.0       349.6       0.000       489.5       0.000      0.5000E-01   0.000    
   11815   7.519      0.6364E-03 SPRIN         11  54.4%   755.4       77.41       0.000       489.5       0.000      0.5000E-01   0.000    
   11816   7.520      0.6364E-03 SPRIN         11   2.8%   69.04       485.8       0.000       489.5       0.000      0.5000E-01   0.000    
   11817   7.520      0.6364E-03 SPRIN         11  64.1%   885.2      0.1787       0.000       489.5       0.000      0.5000E-01   0.000    
   11818   7.521      0.6364E-03 SPRIN         11   1.9%   57.09       492.9       0.000       489.5       0.000      0.5000E-01   0.000    
   11819   7.522      0.6364E-03 SPRIN         11  56.0%   777.6       64.22       0.000       489.5       0.000      0.5000E-01   0.000    
   11820   7.522      0.6364E-03 SPRIN         11  17.8%   268.8       367.0       0.000       489.5       0.000      0.5000E-01   0.000    
   11821   7.523      0.6364E-03 SPRIN         11  34.6%   492.4       233.9       0.000       489.5       0.000      0.5000E-01   0.000    
   11822   7.523      0.6364E-03 SPRIN         11  41.7%   586.2       178.1       0.000       489.5       0.000      0.5000E-01   0.000    
   11823   7.524      0.6364E-03 SPRIN         11  11.8%   188.5       414.7       0.000       489.5       0.000      0.5000E-01   0.000    
   11824   7.525      0.6364E-03 SPRIN         11  60.2%   832.7       31.43       0.000       489.5       0.000      0.5000E-01   0.000    
   CYCLE    TIME      TIME-STEP  ELEMENT          ERROR  I-ENERGY    K-ENERGY T  K-ENERGY R  EXT-WORK     MAS.ERR     TOTAL MASS  MASS ADDED
   11825   7.525      0.6364E-03 SPRIN         11   0.3%   35.07       506.0       0.000       489.5       0.000      0.5000E-01   0.000    
   11826   7.526      0.6364E-03 SPRIN         11  63.0%   871.0       8.653       0.000       489.5       0.000      0.5000E-01   0.000    
   11827   7.527      0.6364E-03 SPRIN         11   6.5%   117.5       457.0       0.000       489.5       0.000      0.5000E-01   0.000    
   11828   7.527      0.6364E-03 SPRIN         11  48.7%   679.8       122.4       0.000       489.5       0.000      0.5000E-01   0.000    
   11829   7.528      0.6364E-03 SPRIN         11  26.9%   389.9       294.9       0.000       489.5       0.000      0.5000E-01   0.000    
   11830   7.529      0.6364E-03 SPRIN         11  25.1%   365.5       309.4       0.000       489.5       0.000      0.5000E-01   0.000    
   11831   7.529      0.6364E-03 SPRIN         11  50.3%   700.7       110.0       0.000       489.5       0.000      0.5000E-01   0.000    
   11832   7.530      0.6364E-03 SPRIN         11   5.4%   103.1       465.5       0.000       489.5       0.000      0.5000E-01   0.000    
   11833   7.530      0.6364E-03 SPRIN         11  63.5%   876.7       5.241       0.000       489.5       0.000      0.5000E-01   0.000    
   11834   7.531      0.6364E-03 SPRIN         11   0.6%   38.78       503.8       0.000       489.5       0.000      0.5000E-01   0.000    
   11835   7.532      0.6364E-03 SPRIN         11  59.2%   820.1       38.94       0.000       489.5       0.000      0.5000E-01   0.000    
   11836   7.532      0.6364E-03 SPRIN         11  13.3%   208.2       403.0       0.000       489.5       0.000      0.5000E-01   0.000    
   11837   7.533      0.6364E-03 SPRIN         11  39.9%   562.3       192.3       0.000       489.5       0.000      0.5000E-01   0.000    
   11838   7.534      0.6364E-03 SPRIN         11  36.5%   517.2       219.2       0.000       489.5       0.000      0.5000E-01   0.000    
   11839   7.534      0.6364E-03 SPRIN         11  16.2%   246.8       380.0       0.000       489.5       0.000      0.5000E-01   0.000    
   11840   7.535      0.6364E-03 SPRIN         11  57.2%   793.6       54.71       0.000       489.5       0.000      0.5000E-01   0.000    
   11841   7.536      0.6364E-03 SPRIN         11   1.4%   49.37       497.5       0.000       489.5       0.000      0.5000E-01   0.000    
   11842   7.536      0.6364E-03 SPRIN         11  64.0%   883.6       1.165       0.000       489.5       0.000      0.5000E-01   0.000    
   11843   7.537      0.6364E-03 SPRIN         11   3.7%   79.84       479.4       0.000       489.5       0.000      0.5000E-01   0.000    
   11844   7.537      0.6364E-03 SPRIN         11  53.0%   737.0       88.35       0.000       489.5       0.000      0.5000E-01   0.000    
   11845   7.538      0.6364E-03 SPRIN         11  21.8%   321.3       335.7       0.000       489.5       0.000      0.5000E-01   0.000    
   11846   7.539      0.6364E-03 SPRIN         11  30.4%   435.6       267.7       0.000       489.5       0.000      0.5000E-01   0.000    
   11847   7.539      0.6364E-03 SPRIN         11  45.6%   639.2       146.5       0.000       489.5       0.000      0.5000E-01   0.000    
   11848   7.540      0.6364E-03 SPRIN         11   8.7%   147.0       439.4       0.000       489.5       0.000      0.5000E-01   0.000    
   11849   7.541      0.6364E-03 SPRIN         11  62.0%   856.7       17.14       0.000       489.5       0.000      0.5000E-01   0.000    
   11850   7.541      0.6364E-03 SPRIN         11   0.1%   32.01       507.8       0.000       489.5       0.000      0.5000E-01   0.000    
   11851   7.542      0.6364E-03 SPRIN         11  61.7%   852.6       19.57       0.000       489.5       0.000      0.5000E-01   0.000    
   11852   7.543      0.6364E-03 SPRIN         11   9.3%   154.6       434.9       0.000       489.5       0.000      0.5000E-01   0.000    
   11853   7.543      0.6364E-03 SPRIN         11  44.9%   629.3       152.5       0.000       489.5       0.000      0.5000E-01   0.000    
   11854   7.544      0.6364E-03 SPRIN         11  31.2%   446.5       261.2       0.000       489.5       0.000      0.5000E-01   0.000    
   11855   7.544      0.6364E-03 SPRIN         11  21.0%   311.0       341.9       0.000       489.5       0.000      0.5000E-01   0.000    
   11856   7.545      0.6364E-03 SPRIN         11  53.6%   745.2       83.47       0.000       489.5       0.000      0.5000E-01   0.000    
   11857   7.546      0.6364E-03 SPRIN         11   3.3%   74.93       482.3       0.000       489.5       0.000      0.5000E-01   0.000    
   11858   7.546      0.6364E-03 SPRIN         11  64.1%   884.5      0.6252       0.000       489.5       0.000      0.5000E-01   0.000    
   11859   7.547      0.6364E-03 SPRIN         11   1.6%   52.60       495.6       0.000       489.5       0.000      0.5000E-01   0.000    
   11860   7.548      0.6364E-03 SPRIN         11  56.7%   786.7       58.81       0.000       489.5       0.000      0.5000E-01   0.000    
   11861   7.548      0.6364E-03 SPRIN         11  16.9%   256.4       374.3       0.000       489.5       0.000      0.5000E-01   0.000    
   11862   7.549      0.6364E-03 SPRIN         11  35.7%   506.3       225.6       0.000       489.5       0.000      0.5000E-01   0.000    
   11863   7.550      0.6364E-03 SPRIN         11  40.7%   572.8       186.0       0.000       489.5       0.000      0.5000E-01   0.000    
   11864   7.550      0.6364E-03 SPRIN         11  12.6%   199.5       408.2       0.000       489.5       0.000      0.5000E-01   0.000    
   11865   7.551      0.6364E-03 SPRIN         11  59.6%   825.8       35.55       0.000       489.5       0.000      0.5000E-01   0.000    
   11866   7.551      0.6364E-03 SPRIN         11   0.4%   36.97       504.9       0.000       489.5       0.000      0.5000E-01   0.000    
   11867   7.552      0.6364E-03 SPRIN         11  63.3%   874.4       6.637       0.000       489.5       0.000      0.5000E-01   0.000    
   11868   7.553      0.6364E-03 SPRIN         11   5.9%   109.3       461.9       0.000       489.5       0.000      0.5000E-01   0.000    
   11869   7.553      0.6364E-03 SPRIN         11  49.6%   691.6       115.4       0.000       489.5       0.000      0.5000E-01   0.000    
   11870   7.554      0.6364E-03 SPRIN         11  25.9%   376.2       303.1       0.000       489.5       0.000      0.5000E-01   0.000    
   11871   7.555      0.6364E-03 SPRIN         11  26.1%   379.1       301.3       0.000       489.5       0.000      0.5000E-01   0.000    
   11872   7.555      0.6364E-03 SPRIN         11  49.4%   689.0       116.9       0.000       489.5       0.000      0.5000E-01   0.000    
   11873   7.556      0.6364E-03 SPRIN         11   6.0%   111.0       460.8       0.000       489.5       0.000      0.5000E-01   0.000    
   11874   7.557      0.6364E-03 SPRIN         11  63.2%   873.7       7.049       0.000       489.5       0.000      0.5000E-01   0.000    
   11875   7.557      0.6364E-03 SPRIN         11   0.4%   36.53       505.2       0.000       489.5       0.000      0.5000E-01   0.000    
   11876   7.558      0.6364E-03 SPRIN         11  59.8%   827.3       34.64       0.000       489.5       0.000      0.5000E-01   0.000    
   11877   7.558      0.6364E-03 SPRIN         11  12.5%   197.1       409.6       0.000       489.5       0.000      0.5000E-01   0.000    
   11878   7.559      0.6364E-03 SPRIN         11  40.9%   575.7       184.3       0.000       489.5       0.000      0.5000E-01   0.000    
   11879   7.560      0.6364E-03 SPRIN         11  35.4%   503.3       227.4       0.000       489.5       0.000      0.5000E-01   0.000    
   CYCLE    TIME      TIME-STEP  ELEMENT          ERROR  I-ENERGY    K-ENERGY T  K-ENERGY R  EXT-WORK     MAS.ERR     TOTAL MASS  MASS ADDED
   11880   7.560      0.6364E-03 SPRIN         11  17.1%   259.0       372.8       0.000       489.5       0.000      0.5000E-01   0.000    
   11881   7.561      0.6364E-03 SPRIN         11  56.6%   784.8       59.96       0.000       489.5       0.000      0.5000E-01   0.000    
   11882   7.562      0.6364E-03 SPRIN         11   1.7%   53.53       495.0       0.000       489.5       0.000      0.5000E-01   0.000    
   11883   7.562      0.6364E-03 SPRIN         11  64.1%   884.7      0.5061       0.000       489.5       0.000      0.5000E-01   0.000    
   11884   7.563      0.6364E-03 SPRIN         11   3.2%   73.63       483.1       0.000       489.5       0.000      0.5000E-01   0.000    
   11885   7.564      0.6364E-03 SPRIN         11  53.8%   747.5       82.15       0.000       489.5       0.000      0.5000E-01   0.000    
   11886   7.564      0.6364E-03 SPRIN         11  20.8%   308.1       343.5       0.000       489.5       0.000      0.5000E-01   0.000    
   11887   7.565      0.6364E-03 SPRIN         11  31.4%   449.5       259.4       0.000       489.5       0.000      0.5000E-01   0.000    
   11888   7.565      0.6364E-03 SPRIN         11  44.7%   626.5       154.1       0.000       489.5       0.000      0.5000E-01   0.000    
   11889   7.566      0.6364E-03 SPRIN         11   9.4%   156.7       433.6       0.000       489.5       0.000      0.5000E-01   0.000    
   11890   7.567      0.6364E-03 SPRIN         11  61.6%   851.5       20.26       0.000       489.5       0.000      0.5000E-01   0.000    
   11891   7.567      0.6364E-03 SPRIN         11   0.1%   32.06       507.8       0.000       489.5       0.000      0.5000E-01   0.000    
   11892   7.568      0.6364E-03 SPRIN         11  62.1%   857.8       16.50       0.000       489.5       0.000      0.5000E-01   0.000    
   11893   7.569      0.6364E-03 SPRIN         11   8.5%   145.0       440.6       0.000       489.5       0.000      0.5000E-01   0.000    
   11894   7.569      0.6364E-03 SPRIN         11  45.8%   641.9       144.9       0.000       489.5       0.000      0.5000E-01   0.000    
   11895   7.570      0.6364E-03 SPRIN         11  30.1%   432.6       269.5       0.000       489.5       0.000      0.5000E-01   0.000    
   11896   7.571      0.6364E-03 SPRIN         11  22.0%   324.1       334.0       0.000       489.5       0.000      0.5000E-01   0.000    
   11897   7.571      0.6364E-03 SPRIN         11  52.8%   734.8       89.70       0.000       489.5       0.000      0.5000E-01   0.000    
   11898   7.572      0.6364E-03 SPRIN         11   3.8%   81.23       478.6       0.000       489.5       0.000      0.5000E-01   0.000    
   11899   7.572      0.6364E-03 SPRIN         11  64.0%   883.3       1.342       0.000       489.5       0.000      0.5000E-01   0.000    
   11900   7.573      0.6364E-03 SPRIN         11   1.3%   48.53       498.0       0.000       489.5       0.000      0.5000E-01   0.000    
   11901   7.574      0.6364E-03 SPRIN         11  57.4%   795.4       53.61       0.000       489.5       0.000      0.5000E-01   0.000    
   11902   7.574      0.6364E-03 SPRIN         11  16.0%   244.2       381.6       0.000       489.5       0.000      0.5000E-01   0.000    
   11903   7.575      0.6364E-03 SPRIN         11  36.7%   520.1       217.4       0.000       489.5       0.000      0.5000E-01   0.000    
   11904   7.576      0.6364E-03 SPRIN         11  39.6%   559.4       194.1       0.000       489.5       0.000      0.5000E-01   0.000    
   11905   7.576      0.6364E-03 SPRIN         11  13.5%   210.7       401.5       0.000       489.5       0.000      0.5000E-01   0.000    
   11906   7.577      0.6364E-03 SPRIN         11  59.1%   818.5       39.90       0.000       489.5       0.000      0.5000E-01   0.000    
   11907   7.578      0.6364E-03 SPRIN         11   0.6%   39.33       503.5       0.000       489.5       0.000      0.5000E-01   0.000    
   11908   7.578      0.6364E-03 SPRIN         11  63.5%   877.3       4.886       0.000       489.5       0.000      0.5000E-01   0.000    
   11909   7.579      0.6364E-03 SPRIN         11   5.3%   101.5       466.5       0.000       489.5       0.000      0.5000E-01   0.000    
   11910   7.579      0.6364E-03 SPRIN         11  50.4%   703.1       108.5       0.000       489.5       0.000      0.5000E-01   0.000    
   11911   7.580      0.6364E-03 SPRIN         11  24.9%   362.6       311.2       0.000       489.5       0.000      0.5000E-01   0.000    
   11912   7.581      0.6364E-03 SPRIN         11  27.2%   392.9       293.1       0.000       489.5       0.000      0.5000E-01   0.000    
   11913   7.581      0.6364E-03 SPRIN         11  48.5%   677.2       124.0       0.000       489.5       0.000      0.5000E-01   0.000    
   11914   7.582      0.6364E-03 SPRIN         11   6.6%   119.3       455.9       0.000       489.5       0.000      0.5000E-01   0.000    
   11915   7.583      0.6364E-03 SPRIN         11  63.0%   870.2       9.122       0.000       489.5       0.000      0.5000E-01   0.000    
   11916   7.583      0.6364E-03 SPRIN         11   0.3%   34.72       506.2       0.000       489.5       0.000      0.5000E-01   0.000    
   11917   7.584      0.6364E-03 SPRIN         11  60.3%   834.1       30.58       0.000       489.5       0.000      0.5000E-01   0.000    
   11918   7.585      0.6364E-03 SPRIN         11  11.6%   186.2       416.1       0.000       489.5       0.000      0.5000E-01   0.000    
   11919   7.585      0.6364E-03 SPRIN         11  41.9%   589.1       176.4       0.000       489.5       0.000      0.5000E-01   0.000    
   11920   7.586      0.6364E-03 SPRIN         11  34.4%   489.4       235.7       0.000       489.5       0.000      0.5000E-01   0.000    
   11921   7.586      0.6364E-03 SPRIN         11  18.0%   271.5       365.4       0.000       489.5       0.000      0.5000E-01   0.000    
   11922   7.587      0.6364E-03 SPRIN         11  55.9%   775.6       65.42       0.000       489.5       0.000      0.5000E-01   0.000    
   11923   7.588      0.6364E-03 SPRIN         11   2.0%   58.12       492.3       0.000       489.5       0.000      0.5000E-01   0.000    
   11924   7.588      0.6364E-03 SPRIN         11  64.1%   885.3      0.1180       0.000       489.5       0.000      0.5000E-01   0.000    
   11925   7.589      0.6364E-03 SPRIN         11   2.8%   67.83       486.5       0.000       489.5       0.000      0.5000E-01   0.000    
   11926   7.590      0.6364E-03 SPRIN         11  54.5%   757.6       76.13       0.000       489.5       0.000      0.5000E-01   0.000    
   11927   7.590      0.6364E-03 SPRIN         11  19.8%   295.2       351.3       0.000       489.5       0.000      0.5000E-01   0.000    
   11928   7.591      0.6364E-03 SPRIN         11  32.4%   463.5       251.1       0.000       489.5       0.000      0.5000E-01   0.000    
   11929   7.592      0.6364E-03 SPRIN         11  43.7%   613.6       161.8       0.000       489.5       0.000      0.5000E-01   0.000    
   11930   7.592      0.6364E-03 SPRIN         11  10.2%   166.7       427.7       0.000       489.5       0.000      0.5000E-01   0.000    
   11931   7.593      0.6364E-03 SPRIN         11  61.2%   845.8       23.63       0.000       489.5       0.000      0.5000E-01   0.000    
   11932   7.593      0.6364E-03 SPRIN         11   0.1%   32.56       507.5       0.000       489.5       0.000      0.5000E-01   0.000    
   11933   7.594      0.6364E-03 SPRIN         11  62.4%   862.5       13.69       0.000       489.5       0.000      0.5000E-01   0.000    
   11934   7.595      0.6364E-03 SPRIN         11   7.8%   135.7       446.1       0.000       489.5       0.000      0.5000E-01   0.000    
   CYCLE    TIME      TIME-STEP  ELEMENT          ERROR  I-ENERGY    K-ENERGY T  K-ENERGY R  EXT-WORK     MAS.ERR     TOTAL MASS  MASS ADDED
   11935   7.595      0.6364E-03 SPRIN         11  46.8%   654.4       137.5       0.000       489.5       0.000      0.5000E-01   0.000    
   11936   7.596      0.6364E-03 SPRIN         11  29.1%   418.7       277.8       0.000       489.5       0.000      0.5000E-01   0.000    
   11937   7.597      0.6364E-03 SPRIN         11  23.0%   337.4       326.1       0.000       489.5       0.000      0.5000E-01   0.000    
   11938   7.597      0.6364E-03 SPRIN         11  52.0%   724.0       96.12       0.000       489.5       0.000      0.5000E-01   0.000    
   11939   7.598      0.6364E-03 SPRIN         11   4.3%   87.93       474.6       0.000       489.5       0.000      0.5000E-01   0.000    
   11940   7.599      0.6364E-03 SPRIN         11  63.8%   881.6       2.328       0.000       489.5       0.000      0.5000E-01   0.000    
   11941   7.599      0.6364E-03 SPRIN         11   1.0%   44.91       500.2       0.000       489.5       0.000      0.5000E-01   0.000    
   11942   7.600      0.6364E-03 SPRIN         11  58.0%   803.8       48.62       0.000       489.5       0.000      0.5000E-01   0.000    
   11943   7.600      0.6364E-03 SPRIN         11  15.1%   232.3       388.7       0.000       489.5       0.000      0.5000E-01   0.000    
     ANIMATION FILE: SPR_PRE_2FLAGA039 WRITTEN
   11944   7.601      0.6364E-03 SPRIN         11  37.7%   533.9       209.2       0.000       489.5       0.000      0.5000E-01   0.000    
   11945   7.602      0.6364E-03 SPRIN         11  38.6%   545.8       202.2       0.000       489.5       0.000      0.5000E-01   0.000    
   11946   7.602      0.6364E-03 SPRIN         11  14.3%   222.1       394.7       0.000       489.5       0.000      0.5000E-01   0.000    
   11947   7.603      0.6364E-03 SPRIN         11  58.5%   810.8       44.47       0.000       489.5       0.000      0.5000E-01   0.000    
   11948   7.604      0.6364E-03 SPRIN         11   0.8%   42.12       501.8       0.000       489.5       0.000      0.5000E-01   0.000    
   11949   7.604      0.6364E-03 SPRIN         11  63.7%   879.8       3.399       0.000       489.5       0.000      0.5000E-01   0.000    
   11950   7.605      0.6364E-03 SPRIN         11   4.7%   94.06       470.9       0.000       489.5       0.000      0.5000E-01   0.000    
   11951   7.606      0.6364E-03 SPRIN         11  51.3%   714.4       101.8       0.000       489.5       0.000      0.5000E-01   0.000    
   11952   7.606      0.6364E-03 SPRIN         11  23.9%   349.0       319.2       0.000       489.5       0.000      0.5000E-01   0.000    
   11953   7.607      0.6364E-03 SPRIN         11  28.2%   406.7       284.9       0.000       489.5       0.000      0.5000E-01   0.000    
   11954   7.607      0.6364E-03 SPRIN         11  47.6%   665.1       131.2       0.000       489.5       0.000      0.5000E-01   0.000    
   11955   7.608      0.6364E-03 SPRIN         11   7.3%   127.9       450.8       0.000       489.5       0.000      0.5000E-01   0.000    
   11956   7.609      0.6364E-03 SPRIN         11  62.7%   866.3       11.45       0.000       489.5       0.000      0.5000E-01   0.000    
   11957   7.609      0.6364E-03 SPRIN         11   0.2%   33.37       507.0       0.000       489.5       0.000      0.5000E-01   0.000    
   11958   7.610      0.6364E-03 SPRIN         11  60.8%   840.6       26.75       0.000       489.5       0.000      0.5000E-01   0.000    
   11959   7.611      0.6364E-03 SPRIN         11  10.8%   175.6       422.4       0.000       489.5       0.000      0.5000E-01   0.000    
   11960   7.611      0.6364E-03 SPRIN         11  42.9%   602.3       168.5       0.000       489.5       0.000      0.5000E-01   0.000    
   11961   7.612      0.6364E-03 SPRIN         11  33.4%   475.5       244.0       0.000       489.5       0.000      0.5000E-01   0.000    
   11962   7.613      0.6364E-03 SPRIN         11  19.0%   284.1       357.9       0.000       489.5       0.000      0.5000E-01   0.000    
   11963   7.613      0.6364E-03 SPRIN         11  55.2%   766.1       71.07       0.000       489.5       0.000      0.5000E-01   0.000    
   11964   7.614      0.6364E-03 SPRIN         11   2.4%   63.14       489.3       0.000       489.5       0.000      0.5000E-01   0.000    
   11965   7.614      0.6364E-03 SPRIN         11  64.1%   885.5      0.6045E-03   0.000       489.5       0.000      0.5000E-01   0.000    
   11966   7.615      0.6364E-03 SPRIN         11   2.3%   62.44       489.7       0.000       489.5       0.000      0.5000E-01   0.000    
   11967   7.616      0.6364E-03 SPRIN         11  55.3%   767.4       70.30       0.000       489.5       0.000      0.5000E-01   0.000    
   11968   7.616      0.6364E-03 SPRIN         11  18.9%   282.4       358.9       0.000       489.5       0.000      0.5000E-01   0.000    
   11969   7.617      0.6364E-03 SPRIN         11  33.5%   477.4       242.8       0.000       489.5       0.000      0.5000E-01   0.000    
   11970   7.618      0.6364E-03 SPRIN         11  42.7%   600.5       169.6       0.000       489.5       0.000      0.5000E-01   0.000    
   11971   7.618      0.6364E-03 SPRIN         11  10.9%   177.0       421.6       0.000       489.5       0.000      0.5000E-01   0.000    
   11972   7.619      0.6364E-03 SPRIN         11  60.7%   839.7       27.25       0.000       489.5       0.000      0.5000E-01   0.000    
   11973   7.620      0.6364E-03 SPRIN         11   0.2%   33.52       506.9       0.000       489.5       0.000      0.5000E-01   0.000    
   11974   7.620      0.6364E-03 SPRIN         11  62.7%   866.8       11.13       0.000       489.5       0.000      0.5000E-01   0.000    
   11975   7.621      0.6364E-03 SPRIN         11   7.2%   126.8       451.5       0.000       489.5       0.000      0.5000E-01   0.000    
   11976   7.621      0.6364E-03 SPRIN         11  47.7%   666.7       130.2       0.000       489.5       0.000      0.5000E-01   0.000    
   11977   7.622      0.6364E-03 SPRIN         11  28.0%   404.8       286.0       0.000       489.5       0.000      0.5000E-01   0.000    
   11978   7.623      0.6364E-03 SPRIN         11  24.0%   350.8       318.1       0.000       489.5       0.000      0.5000E-01   0.000    
   11979   7.623      0.6364E-03 SPRIN         11  51.2%   712.9       102.7       0.000       489.5       0.000      0.5000E-01   0.000    
   11980   7.624      0.6364E-03 SPRIN         11   4.8%   95.03       470.3       0.000       489.5       0.000      0.5000E-01   0.000    
   11981   7.625      0.6364E-03 SPRIN         11  63.7%   879.5       3.583       0.000       489.5       0.000      0.5000E-01   0.000    
   11982   7.625      0.6364E-03 SPRIN         11   0.8%   41.72       502.1       0.000       489.5       0.000      0.5000E-01   0.000    
   11983   7.626      0.6364E-03 SPRIN         11  58.6%   811.8       43.85       0.000       489.5       0.000      0.5000E-01   0.000    
   11984   7.627      0.6364E-03 SPRIN         11  14.2%   220.6       395.6       0.000       489.5       0.000      0.5000E-01   0.000    
   11985   7.627      0.6364E-03 SPRIN         11  38.8%   547.6       201.1       0.000       489.5       0.000      0.5000E-01   0.000    
   11986   7.628      0.6364E-03 SPRIN         11  37.6%   532.1       210.3       0.000       489.5       0.000      0.5000E-01   0.000    
   11987   7.628      0.6364E-03 SPRIN         11  15.2%   233.9       387.7       0.000       489.5       0.000      0.5000E-01   0.000    
   11988   7.629      0.6364E-03 SPRIN         11  57.9%   802.7       49.27       0.000       489.5       0.000      0.5000E-01   0.000    
   11989   7.630      0.6364E-03 SPRIN         11   1.1%   45.37       499.9       0.000       489.5       0.000      0.5000E-01   0.000    
   CYCLE    TIME      TIME-STEP  ELEMENT          ERROR  I-ENERGY    K-ENERGY T  K-ENERGY R  EXT-WORK     MAS.ERR     TOTAL MASS  MASS ADDED
   11990   7.630      0.6364E-03 SPRIN         11  63.9%   881.9       2.181       0.000       489.5       0.000      0.5000E-01   0.000    
   11991   7.631      0.6364E-03 SPRIN         11   4.2%   87.01       475.1       0.000       489.5       0.000      0.5000E-01   0.000    
   11992   7.632      0.6364E-03 SPRIN         11  52.1%   725.4       95.25       0.000       489.5       0.000      0.5000E-01   0.000    
   11993   7.632      0.6364E-03 SPRIN         11  22.9%   335.6       327.2       0.000       489.5       0.000      0.5000E-01   0.000    
   11994   7.633      0.6364E-03 SPRIN         11  29.2%   420.5       276.7       0.000       489.5       0.000      0.5000E-01   0.000    
   11995   7.634      0.6364E-03 SPRIN         11  46.7%   652.8       138.5       0.000       489.5       0.000      0.5000E-01   0.000    
   11996   7.634      0.6364E-03 SPRIN         11   7.9%   136.9       445.4       0.000       489.5       0.000      0.5000E-01   0.000    
   11997   7.635      0.6364E-03 SPRIN         11  62.4%   861.9       14.05       0.000       489.5       0.000      0.5000E-01   0.000    
   11998   7.635      0.6364E-03 SPRIN         11   0.1%   32.47       507.6       0.000       489.5       0.000      0.5000E-01   0.000    
   11999   7.636      0.6364E-03 SPRIN         11  61.2%   846.6       23.17       0.000       489.5       0.000      0.5000E-01   0.000    
   12000   7.637      0.6364E-03 SPRIN         11  10.1%   165.4       428.5       0.000       489.5       0.000      0.5000E-01   0.000    
   12001   7.637      0.6364E-03 SPRIN         11  43.9%   615.3       160.8       0.000       489.5       0.000      0.5000E-01   0.000    
   12002   7.638      0.6364E-03 SPRIN         11  32.3%   461.6       252.2       0.000       489.5       0.000      0.5000E-01   0.000    
   12003   7.639      0.6364E-03 SPRIN         11  19.9%   296.9       350.2       0.000       489.5       0.000      0.5000E-01   0.000    
   12004   7.639      0.6364E-03 SPRIN         11  54.4%   756.2       76.92       0.000       489.5       0.000      0.5000E-01   0.000    
   12005   7.640      0.6364E-03 SPRIN         11   2.8%   68.58       486.1       0.000       489.5       0.000      0.5000E-01   0.000    
   12006   7.641      0.6364E-03 SPRIN         11  64.1%   885.3      0.1541       0.000       489.5       0.000      0.5000E-01   0.000    
   12007   7.641      0.6364E-03 SPRIN         11   2.0%   57.48       492.7       0.000       489.5       0.000      0.5000E-01   0.000    
   12008   7.642      0.6364E-03 SPRIN         11  56.0%   776.8       64.67       0.000       489.5       0.000      0.5000E-01   0.000    
   12009   7.642      0.6364E-03 SPRIN         11  17.9%   269.8       366.4       0.000       489.5       0.000      0.5000E-01   0.000    
   12010   7.643      0.6364E-03 SPRIN         11  34.5%   491.3       234.6       0.000       489.5       0.000      0.5000E-01   0.000    
   12011   7.644      0.6364E-03 SPRIN         11  41.7%   587.3       177.4       0.000       489.5       0.000      0.5000E-01   0.000    
   12012   7.644      0.6364E-03 SPRIN         11  11.7%   187.7       415.2       0.000       489.5       0.000      0.5000E-01   0.000    
   12013   7.645      0.6364E-03 SPRIN         11  60.2%   833.2       31.11       0.000       489.5       0.000      0.5000E-01   0.000    
   12014   7.646      0.6364E-03 SPRIN         11   0.3%   34.94       506.1       0.000       489.5       0.000      0.5000E-01   0.000    
   12015   7.646      0.6364E-03 SPRIN         11  63.0%   870.7       8.830       0.000       489.5       0.000      0.5000E-01   0.000    
   12016   7.647      0.6364E-03 SPRIN         11   6.5%   118.2       456.6       0.000       489.5       0.000      0.5000E-01   0.000    
   12017   7.648      0.6364E-03 SPRIN         11  48.6%   678.8       123.0       0.000       489.5       0.000      0.5000E-01   0.000    
   12018   7.648      0.6364E-03 SPRIN         11  27.0%   391.0       294.2       0.000       489.5       0.000      0.5000E-01   0.000    
   12019   7.649      0.6364E-03 SPRIN         11  25.0%   364.4       310.1       0.000       489.5       0.000      0.5000E-01   0.000    
   12020   7.649      0.6364E-03 SPRIN         11  50.3%   701.6       109.4       0.000       489.5       0.000      0.5000E-01   0.000    
   12021   7.650      0.6364E-03 SPRIN         11   5.4%   102.5       465.9       0.000       489.5       0.000      0.5000E-01   0.000    
   12022   7.651      0.6364E-03 SPRIN         11  63.5%   876.9       5.104       0.000       489.5       0.000      0.5000E-01   0.000    
   12023   7.651      0.6364E-03 SPRIN         11   0.6%   38.98       503.7       0.000       489.5       0.000      0.5000E-01   0.000    
   12024   7.652      0.6364E-03 SPRIN         11  59.2%   819.5       39.30       0.000       489.5       0.000      0.5000E-01   0.000    
   12025   7.653      0.6364E-03 SPRIN         11  13.4%   209.2       402.4       0.000       489.5       0.000      0.5000E-01   0.000    
   12026   7.653      0.6364E-03 SPRIN         11  39.8%   561.2       193.0       0.000       489.5       0.000      0.5000E-01   0.000    
   12027   7.654      0.6364E-03 SPRIN         11  36.6%   518.3       218.5       0.000       489.5       0.000      0.5000E-01   0.000    
   12028   7.655      0.6364E-03 SPRIN         11  16.1%   245.8       380.6       0.000       489.5       0.000      0.5000E-01   0.000    
   12029   7.655      0.6364E-03 SPRIN         11  57.3%   794.3       54.29       0.000       489.5       0.000      0.5000E-01   0.000    
   12030   7.656      0.6364E-03 SPRIN         11   1.3%   49.05       497.7       0.000       489.5       0.000      0.5000E-01   0.000    
   12031   7.656      0.6364E-03 SPRIN         11  64.0%   883.5       1.231       0.000       489.5       0.000      0.5000E-01   0.000    
   12032   7.657      0.6364E-03 SPRIN         11   3.7%   80.36       479.1       0.000       489.5       0.000      0.5000E-01   0.000    
   12033   7.658      0.6364E-03 SPRIN         11  52.9%   736.2       88.86       0.000       489.5       0.000      0.5000E-01   0.000    
   12034   7.658      0.6364E-03 SPRIN         11  21.9%   322.3       335.1       0.000       489.5       0.000      0.5000E-01   0.000    
   12035   7.659      0.6364E-03 SPRIN         11  30.3%   434.4       268.4       0.000       489.5       0.000      0.5000E-01   0.000    
   12036   7.660      0.6364E-03 SPRIN         11  45.7%   640.3       145.9       0.000       489.5       0.000      0.5000E-01   0.000    
   12037   7.660      0.6364E-03 SPRIN         11   8.6%   146.2       439.9       0.000       489.5       0.000      0.5000E-01   0.000    
   12038   7.661      0.6364E-03 SPRIN         11  62.0%   857.1       16.89       0.000       489.5       0.000      0.5000E-01   0.000    
   12039   7.662      0.6364E-03 SPRIN         11   0.1%   32.03       507.8       0.000       489.5       0.000      0.5000E-01   0.000    
   12040   7.662      0.6364E-03 SPRIN         11  61.6%   852.2       19.83       0.000       489.5       0.000      0.5000E-01   0.000    
   12041   7.663      0.6364E-03 SPRIN         11   9.3%   155.4       434.4       0.000       489.5       0.000      0.5000E-01   0.000    
   12042   7.663      0.6364E-03 SPRIN         11  44.8%   628.2       153.1       0.000       489.5       0.000      0.5000E-01   0.000    
   12043   7.664      0.6364E-03 SPRIN         11  31.3%   447.7       260.5       0.000       489.5       0.000      0.5000E-01   0.000    
   12044   7.665      0.6364E-03 SPRIN         11  20.9%   309.9       342.5       0.000       489.5       0.000      0.5000E-01   0.000    
   CYCLE    TIME      TIME-STEP  ELEMENT          ERROR  I-ENERGY    K-ENERGY T  K-ENERGY R  EXT-WORK     MAS.ERR     TOTAL MASS  MASS ADDED
   12045   7.665      0.6364E-03 SPRIN         11  53.7%   746.1       82.96       0.000       489.5       0.000      0.5000E-01   0.000    
   12046   7.666      0.6364E-03 SPRIN         11   3.2%   74.43       482.6       0.000       489.5       0.000      0.5000E-01   0.000    
   12047   7.667      0.6364E-03 SPRIN         11  64.1%   884.6      0.5784       0.000       489.5       0.000      0.5000E-01   0.000    
   12048   7.667      0.6364E-03 SPRIN         11   1.6%   52.95       495.4       0.000       489.5       0.000      0.5000E-01   0.000    
   12049   7.668      0.6364E-03 SPRIN         11  56.7%   786.0       59.25       0.000       489.5       0.000      0.5000E-01   0.000    
   12050   7.669      0.6364E-03 SPRIN         11  17.0%   257.4       373.7       0.000       489.5       0.000      0.5000E-01   0.000    
   12051   7.669      0.6364E-03 SPRIN         11  35.6%   505.2       226.3       0.000       489.5       0.000      0.5000E-01   0.000    
   12052   7.670      0.6364E-03 SPRIN         11  40.7%   573.9       185.4       0.000       489.5       0.000      0.5000E-01   0.000    
   12053   7.670      0.6364E-03 SPRIN         11  12.6%   198.6       408.7       0.000       489.5       0.000      0.5000E-01   0.000    
   12054   7.671      0.6364E-03 SPRIN         11  59.7%   826.4       35.20       0.000       489.5       0.000      0.5000E-01   0.000    
   12055   7.672      0.6364E-03 SPRIN         11   0.4%   36.80       505.0       0.000       489.5       0.000      0.5000E-01   0.000    
   12056   7.672      0.6364E-03 SPRIN         11  63.3%   874.1       6.793       0.000       489.5       0.000      0.5000E-01   0.000    
   12057   7.673      0.6364E-03 SPRIN         11   5.9%   110.0       461.5       0.000       489.5       0.000      0.5000E-01   0.000    
   12058   7.674      0.6364E-03 SPRIN         11  49.5%   690.6       116.0       0.000       489.5       0.000      0.5000E-01   0.000    
   12059   7.674      0.6364E-03 SPRIN         11  26.0%   377.3       302.4       0.000       489.5       0.000      0.5000E-01   0.000    
   12060   7.675      0.6364E-03 SPRIN         11  26.0%   378.0       302.0       0.000       489.5       0.000      0.5000E-01   0.000    
   12061   7.676      0.6364E-03 SPRIN         11  49.5%   690.0       116.3       0.000       489.5       0.000      0.5000E-01   0.000    
   12062   7.676      0.6364E-03 SPRIN         11   5.9%   110.4       461.2       0.000       489.5       0.000      0.5000E-01   0.000    
   12063   7.677      0.6364E-03 SPRIN         11  63.3%   873.9       6.891       0.000       489.5       0.000      0.5000E-01   0.000    
   12064   7.677      0.6364E-03 SPRIN         11   0.4%   36.69       505.1       0.000       489.5       0.000      0.5000E-01   0.000    
   12065   7.678      0.6364E-03 SPRIN         11  59.7%   826.7       34.98       0.000       489.5       0.000      0.5000E-01   0.000    
   12066   7.679      0.6364E-03 SPRIN         11  12.5%   198.0       409.1       0.000       489.5       0.000      0.5000E-01   0.000    
   12067   7.679      0.6364E-03 SPRIN         11  40.8%   574.6       185.0       0.000       489.5       0.000      0.5000E-01   0.000    
   12068   7.680      0.6364E-03 SPRIN         11  35.5%   504.5       226.7       0.000       489.5       0.000      0.5000E-01   0.000    
   12069   7.681      0.6364E-03 SPRIN         11  17.0%   258.0       373.4       0.000       489.5       0.000      0.5000E-01   0.000    
   12070   7.681      0.6364E-03 SPRIN         11  56.6%   785.5       59.52       0.000       489.5       0.000      0.5000E-01   0.000    
   12071   7.682      0.6364E-03 SPRIN         11   1.7%   53.17       495.2       0.000       489.5       0.000      0.5000E-01   0.000    
   12072   7.683      0.6364E-03 SPRIN         11  64.1%   884.6      0.5499       0.000       489.5       0.000      0.5000E-01   0.000    
   12073   7.683      0.6364E-03 SPRIN         11   3.2%   74.12       482.8       0.000       489.5       0.000      0.5000E-01   0.000    
   12074   7.684      0.6364E-03 SPRIN         11  53.7%   746.6       82.65       0.000       489.5       0.000      0.5000E-01   0.000    
   12075   7.684      0.6364E-03 SPRIN         11  20.9%   309.2       342.9       0.000       489.5       0.000      0.5000E-01   0.000    
   12076   7.685      0.6364E-03 SPRIN         11  31.3%   448.4       260.1       0.000       489.5       0.000      0.5000E-01   0.000    
   12077   7.686      0.6364E-03 SPRIN         11  44.8%   627.6       153.5       0.000       489.5       0.000      0.5000E-01   0.000    
   12078   7.686      0.6364E-03 SPRIN         11   9.4%   155.9       434.1       0.000       489.5       0.000      0.5000E-01   0.000    
   12079   7.687      0.6364E-03 SPRIN         11  61.6%   851.9       20.00       0.000       489.5       0.000      0.5000E-01   0.000    
   12080   7.688      0.6364E-03 SPRIN         11   0.1%   32.04       507.8       0.000       489.5       0.000      0.5000E-01   0.000    
   12081   7.688      0.6364E-03 SPRIN         11  62.0%   857.4       16.74       0.000       489.5       0.000      0.5000E-01   0.000    
   12082   7.689      0.6364E-03 SPRIN         11   8.6%   145.8       440.2       0.000       489.5       0.000      0.5000E-01   0.000    
   12083   7.690      0.6364E-03 SPRIN         11  45.8%   640.9       145.5       0.000       489.5       0.000      0.5000E-01   0.000    
   12084   7.690      0.6364E-03 SPRIN         11  30.2%   433.7       268.8       0.000       489.5       0.000      0.5000E-01   0.000    
   12085   7.691      0.6364E-03 SPRIN         11  21.9%   323.0       334.7       0.000       489.5       0.000      0.5000E-01   0.000    
   12086   7.691      0.6364E-03 SPRIN         11  52.9%   735.6       89.19       0.000       489.5       0.000      0.5000E-01   0.000    
   12087   7.692      0.6364E-03 SPRIN         11   3.7%   80.70       478.9       0.000       489.5       0.000      0.5000E-01   0.000    
   12088   7.693      0.6364E-03 SPRIN         11  64.0%   883.4       1.273       0.000       489.5       0.000      0.5000E-01   0.000    
   12089   7.693      0.6364E-03 SPRIN         11   1.3%   48.85       497.8       0.000       489.5       0.000      0.5000E-01   0.000    
   12090   7.694      0.6364E-03 SPRIN         11  57.3%   794.7       54.03       0.000       489.5       0.000      0.5000E-01   0.000    
   12091   7.695      0.6364E-03 SPRIN         11  16.1%   245.2       381.0       0.000       489.5       0.000      0.5000E-01   0.000    
   12092   7.695      0.6364E-03 SPRIN         11  36.6%   519.0       218.1       0.000       489.5       0.000      0.5000E-01   0.000    
   12093   7.696      0.6364E-03 SPRIN         11  39.7%   560.5       193.4       0.000       489.5       0.000      0.5000E-01   0.000    
   12094   7.697      0.6364E-03 SPRIN         11  13.4%   209.7       402.1       0.000       489.5       0.000      0.5000E-01   0.000    
   12095   7.697      0.6364E-03 SPRIN         11  59.1%   819.1       39.53       0.000       489.5       0.000      0.5000E-01   0.000    
   12096   7.698      0.6364E-03 SPRIN         11   0.6%   39.12       503.6       0.000       489.5       0.000      0.5000E-01   0.000    
   12097   7.698      0.6364E-03 SPRIN         11  63.5%   877.1       5.019       0.000       489.5       0.000      0.5000E-01   0.000    
   12098   7.699      0.6364E-03 SPRIN         11   5.3%   102.1       466.1       0.000       489.5       0.000      0.5000E-01   0.000    
   12099   7.700      0.6364E-03 SPRIN         11  50.4%   702.2       109.1       0.000       489.5       0.000      0.5000E-01   0.000    
   CYCLE    TIME      TIME-STEP  ELEMENT          ERROR  I-ENERGY    K-ENERGY T  K-ENERGY R  EXT-WORK     MAS.ERR     TOTAL MASS  MASS ADDED
   12100   7.700      0.6364E-03 SPRIN         11  25.0%   363.7       310.5       0.000       489.5       0.000      0.5000E-01   0.000    
   12101   7.701      0.6364E-03 SPRIN         11  27.1%   391.7       293.8       0.000       489.5       0.000      0.5000E-01   0.000    
   12102   7.702      0.6364E-03 SPRIN         11  48.6%   678.2       123.4       0.000       489.5       0.000      0.5000E-01   0.000    
   12103   7.702      0.6364E-03 SPRIN         11   6.6%   118.6       456.3       0.000       489.5       0.000      0.5000E-01   0.000    
   12104   7.703      0.6364E-03 SPRIN         11  63.0%   870.5       8.942       0.000       489.5       0.000      0.5000E-01   0.000    
   12105   7.704      0.6364E-03 SPRIN         11   0.3%   34.85       506.2       0.000       489.5       0.000      0.5000E-01   0.000    
   12106   7.704      0.6364E-03 SPRIN         11  60.2%   833.6       30.90       0.000       489.5       0.000      0.5000E-01   0.000    
   12107   7.705      0.6364E-03 SPRIN         11  11.7%   187.1       415.6       0.000       489.5       0.000      0.5000E-01   0.000    
   12108   7.705      0.6364E-03 SPRIN         11  41.8%   588.0       177.0       0.000       489.5       0.000      0.5000E-01   0.000    
   12109   7.706      0.6364E-03 SPRIN         11  34.5%   490.6       235.0       0.000       489.5       0.000      0.5000E-01   0.000    
   12110   7.707      0.6364E-03 SPRIN         11  18.0%   270.4       366.0       0.000       489.5       0.000      0.5000E-01   0.000    
   12111   7.707      0.6364E-03 SPRIN         11  55.9%   776.3       64.96       0.000       489.5       0.000      0.5000E-01   0.000    
   12112   7.708      0.6364E-03 SPRIN         11   2.0%   57.73       492.5       0.000       489.5       0.000      0.5000E-01   0.000    
   12113   7.709      0.6364E-03 SPRIN         11  64.1%   885.3      0.1396       0.000       489.5       0.000      0.5000E-01   0.000    
   12114   7.709      0.6364E-03 SPRIN         11   2.8%   68.29       486.3       0.000       489.5       0.000      0.5000E-01   0.000    
   12115   7.710      0.6364E-03 SPRIN         11  54.5%   756.8       76.62       0.000       489.5       0.000      0.5000E-01   0.000    
   12116   7.711      0.6364E-03 SPRIN         11  19.9%   296.2       350.6       0.000       489.5       0.000      0.5000E-01   0.000    
   12117   7.711      0.6364E-03 SPRIN         11  32.4%   462.3       251.8       0.000       489.5       0.000      0.5000E-01   0.000    
   12118   7.712      0.6364E-03 SPRIN         11  43.8%   614.7       161.2       0.000       489.5       0.000      0.5000E-01   0.000    
   12119   7.712      0.6364E-03 SPRIN         11  10.1%   165.9       428.2       0.000       489.5       0.000      0.5000E-01   0.000    
   12120   7.713      0.6364E-03 SPRIN         11  61.2%   846.3       23.35       0.000       489.5       0.000      0.5000E-01   0.000    
   12121   7.714      0.6364E-03 SPRIN         11   0.1%   32.51       507.5       0.000       489.5       0.000      0.5000E-01   0.000    
   12122   7.714      0.6364E-03 SPRIN         11  62.4%   862.2       13.91       0.000       489.5       0.000      0.5000E-01   0.000    
   12123   7.715      0.6364E-03 SPRIN         11   7.9%   136.4       445.7       0.000       489.5       0.000      0.5000E-01   0.000    
   12124   7.716      0.6364E-03 SPRIN         11  46.7%   653.4       138.1       0.000       489.5       0.000      0.5000E-01   0.000    
   12125   7.716      0.6364E-03 SPRIN         11  29.2%   419.8       277.1       0.000       489.5       0.000      0.5000E-01   0.000    
   12126   7.717      0.6364E-03 SPRIN         11  22.9%   336.3       326.8       0.000       489.5       0.000      0.5000E-01   0.000    
   12127   7.718      0.6364E-03 SPRIN         11  52.1%   724.9       95.59       0.000       489.5       0.000      0.5000E-01   0.000    
   12128   7.718      0.6364E-03 SPRIN         11   4.2%   87.37       474.9       0.000       489.5       0.000      0.5000E-01   0.000    
   12129   7.719      0.6364E-03 SPRIN         11  63.9%   881.8       2.237       0.000       489.5       0.000      0.5000E-01   0.000    
   12130   7.719      0.6364E-03 SPRIN         11   1.1%   45.19       500.0       0.000       489.5       0.000      0.5000E-01   0.000    
   12131   7.720      0.6364E-03 SPRIN         11  57.9%   803.1       49.02       0.000       489.5       0.000      0.5000E-01   0.000    
   12132   7.721      0.6364E-03 SPRIN         11  15.2%   233.3       388.1       0.000       489.5       0.000      0.5000E-01   0.000    
   12133   7.721      0.6364E-03 SPRIN         11  37.7%   532.8       209.9       0.000       489.5       0.000      0.5000E-01   0.000    
   12134   7.722      0.6364E-03 SPRIN         11  38.7%   546.9       201.5       0.000       489.5       0.000      0.5000E-01   0.000    
   12135   7.723      0.6364E-03 SPRIN         11  14.3%   221.2       395.3       0.000       489.5       0.000      0.5000E-01   0.000    
   12136   7.723      0.6364E-03 SPRIN         11  58.6%   811.4       44.09       0.000       489.5       0.000      0.5000E-01   0.000    
   12137   7.724      0.6364E-03 SPRIN         11   0.8%   41.88       502.0       0.000       489.5       0.000      0.5000E-01   0.000    
   12138   7.725      0.6364E-03 SPRIN         11  63.7%   879.6       3.511       0.000       489.5       0.000      0.5000E-01   0.000    
   12139   7.725      0.6364E-03 SPRIN         11   4.8%   94.65       470.6       0.000       489.5       0.000      0.5000E-01   0.000    
   12140   7.726      0.6364E-03 SPRIN         11  51.2%   713.5       102.4       0.000       489.5       0.000      0.5000E-01   0.000    
   12141   7.726      0.6364E-03 SPRIN         11  23.9%   350.1       318.6       0.000       489.5       0.000      0.5000E-01   0.000    
   12142   7.727      0.6364E-03 SPRIN         11  28.1%   405.5       285.6       0.000       489.5       0.000      0.5000E-01   0.000    
   12143   7.728      0.6364E-03 SPRIN         11  47.7%   666.1       130.6       0.000       489.5       0.000      0.5000E-01   0.000    
   12144   7.728      0.6364E-03 SPRIN         11   7.2%   127.2       451.2       0.000       489.5       0.000      0.5000E-01   0.000    
   12145   7.729      0.6364E-03 SPRIN         11  62.7%   866.6       11.25       0.000       489.5       0.000      0.5000E-01   0.000    
   12146   7.730      0.6364E-03 SPRIN         11   0.2%   33.46       507.0       0.000       489.5       0.000      0.5000E-01   0.000    
   12147   7.730      0.6364E-03 SPRIN         11  60.7%   840.1       27.06       0.000       489.5       0.000      0.5000E-01   0.000    
   12148   7.731      0.6364E-03 SPRIN         11  10.9%   176.5       421.9       0.000       489.5       0.000      0.5000E-01   0.000    
   12149   7.732      0.6364E-03 SPRIN         11  42.8%   601.2       169.2       0.000       489.5       0.000      0.5000E-01   0.000    
   12150   7.732      0.6364E-03 SPRIN         11  33.4%   476.7       243.3       0.000       489.5       0.000      0.5000E-01   0.000    
   12151   7.733      0.6364E-03 SPRIN         11  18.9%   283.0       358.5       0.000       489.5       0.000      0.5000E-01   0.000    
   12152   7.733      0.6364E-03 SPRIN         11  55.2%   766.9       70.60       0.000       489.5       0.000      0.5000E-01   0.000    
   12153   7.734      0.6364E-03 SPRIN         11   2.4%   62.71       489.6       0.000       489.5       0.000      0.5000E-01   0.000    
   12154   7.735      0.6364E-03 SPRIN         11  64.1%   885.5      0.3109E-04   0.000       489.5       0.000      0.5000E-01   0.000    
   CYCLE    TIME      TIME-STEP  ELEMENT          ERROR  I-ENERGY    K-ENERGY T  K-ENERGY R  EXT-WORK     MAS.ERR     TOTAL MASS  MASS ADDED
   12155   7.735      0.6364E-03 SPRIN         11   2.4%   62.87       489.5       0.000       489.5       0.000      0.5000E-01   0.000    
   12156   7.736      0.6364E-03 SPRIN         11  55.2%   766.6       70.77       0.000       489.5       0.000      0.5000E-01   0.000    
   12157   7.737      0.6364E-03 SPRIN         11  18.9%   283.4       358.2       0.000       489.5       0.000      0.5000E-01   0.000    
   12158   7.737      0.6364E-03 SPRIN         11  33.4%   476.2       243.5       0.000       489.5       0.000      0.5000E-01   0.000    
   12159   7.738      0.6364E-03 SPRIN         11  42.8%   601.6       168.9       0.000       489.5       0.000      0.5000E-01   0.000    
   12160   7.739      0.6364E-03 SPRIN         11  10.9%   176.2       422.1       0.000       489.5       0.000      0.5000E-01   0.000    
   12161   7.739      0.6364E-03 SPRIN         11  60.7%   840.2       26.94       0.000       489.5       0.000      0.5000E-01   0.000    
   12162   7.740      0.6364E-03 SPRIN         11   0.2%   33.43       507.0       0.000       489.5       0.000      0.5000E-01   0.000    
   12163   7.740      0.6364E-03 SPRIN         11  62.7%   866.5       11.33       0.000       489.5       0.000      0.5000E-01   0.000    
   12164   7.741      0.6364E-03 SPRIN         11   7.2%   127.5       451.0       0.000       489.5       0.000      0.5000E-01   0.000    
   12165   7.742      0.6364E-03 SPRIN         11  47.6%   665.7       130.8       0.000       489.5       0.000      0.5000E-01   0.000    
   12166   7.742      0.6364E-03 SPRIN         11  28.1%   406.0       285.3       0.000       489.5       0.000      0.5000E-01   0.000    
   12167   7.743      0.6364E-03 SPRIN         11  23.9%   349.7       318.8       0.000       489.5       0.000      0.5000E-01   0.000    
   12168   7.744      0.6364E-03 SPRIN         11  51.2%   713.8       102.2       0.000       489.5       0.000      0.5000E-01   0.000    
   12169   7.744      0.6364E-03 SPRIN         11   4.7%   94.43       470.7       0.000       489.5       0.000      0.5000E-01   0.000    
   12170   7.745      0.6364E-03 SPRIN         11  63.7%   879.7       3.470       0.000       489.5       0.000      0.5000E-01   0.000    
   12171   7.746      0.6364E-03 SPRIN         11   0.8%   41.97       501.9       0.000       489.5       0.000      0.5000E-01   0.000    
   12172   7.746      0.6364E-03 SPRIN         11  58.6%   811.2       44.23       0.000       489.5       0.000      0.5000E-01   0.000    
   12173   7.747      0.6364E-03 SPRIN         11  14.3%   221.6       395.1       0.000       489.5       0.000      0.5000E-01   0.000    
   12174   7.747      0.6364E-03 SPRIN         11  38.7%   546.5       201.7       0.000       489.5       0.000      0.5000E-01   0.000    
   12175   7.748      0.6364E-03 SPRIN         11  37.7%   533.2       209.6       0.000       489.5       0.000      0.5000E-01   0.000    
   12176   7.749      0.6364E-03 SPRIN         11  15.1%   232.9       388.3       0.000       489.5       0.000      0.5000E-01   0.000    
   12177   7.749      0.6364E-03 SPRIN         11  58.0%   803.4       48.87       0.000       489.5       0.000      0.5000E-01   0.000    
   12178   7.750      0.6364E-03 SPRIN         11   1.0%   45.09       500.1       0.000       489.5       0.000      0.5000E-01   0.000    
   12179   7.751      0.6364E-03 SPRIN         11  63.8%   881.7       2.270       0.000       489.5       0.000      0.5000E-01   0.000    
   12180   7.751      0.6364E-03 SPRIN         11   4.2%   87.57       474.8       0.000       489.5       0.000      0.5000E-01   0.000    
   12181   7.752      0.6364E-03 SPRIN         11  52.0%   724.5       95.78       0.000       489.5       0.000      0.5000E-01   0.000    
   12182   7.753      0.6364E-03 SPRIN         11  22.9%   336.7       326.5       0.000       489.5       0.000      0.5000E-01   0.000    
   12183   7.753      0.6364E-03 SPRIN         11  29.1%   419.4       277.3       0.000       489.5       0.000      0.5000E-01   0.000    
   12184   7.754      0.6364E-03 SPRIN         11  46.7%   653.8       137.9       0.000       489.5       0.000      0.5000E-01   0.000    
   12185   7.754      0.6364E-03 SPRIN         11   7.9%   136.2       445.9       0.000       489.5       0.000      0.5000E-01   0.000    
   12186   7.755      0.6364E-03 SPRIN         11  62.4%   862.3       13.82       0.000       489.5       0.000      0.5000E-01   0.000    
   12187   7.756      0.6364E-03 SPRIN         11   0.1%   32.53       507.5       0.000       489.5       0.000      0.5000E-01   0.000    
   12188   7.756      0.6364E-03 SPRIN         11  61.2%   846.1       23.45       0.000       489.5       0.000      0.5000E-01   0.000    
   12189   7.757      0.6364E-03 SPRIN         11  10.1%   166.2       428.0       0.000       489.5       0.000      0.5000E-01   0.000    
   12190   7.758      0.6364E-03 SPRIN         11  43.8%   614.3       161.4       0.000       489.5       0.000      0.5000E-01   0.000    
   12191   7.758      0.6364E-03 SPRIN         11  32.4%   462.7       251.6       0.000       489.5       0.000      0.5000E-01   0.000    
   12192   7.759      0.6364E-03 SPRIN         11  19.9%   295.8       350.9       0.000       489.5       0.000      0.5000E-01   0.000    
   12193   7.760      0.6364E-03 SPRIN         11  54.5%   757.1       76.44       0.000       489.5       0.000      0.5000E-01   0.000    
   12194   7.760      0.6364E-03 SPRIN         11   2.8%   68.12       486.4       0.000       489.5       0.000      0.5000E-01   0.000    
   12195   7.761      0.6364E-03 SPRIN         11  64.1%   885.3      0.1314       0.000       489.5       0.000      0.5000E-01   0.000    
   12196   7.761      0.6364E-03 SPRIN         11   2.0%   57.87       492.5       0.000       489.5       0.000      0.5000E-01   0.000    
   12197   7.762      0.6364E-03 SPRIN         11  55.9%   776.1       65.13       0.000       489.5       0.000      0.5000E-01   0.000    
   12198   7.763      0.6364E-03 SPRIN         11  18.0%   270.8       365.8       0.000       489.5       0.000      0.5000E-01   0.000    
   12199   7.763      0.6364E-03 SPRIN         11  34.5%   490.2       235.2       0.000       489.5       0.000      0.5000E-01   0.000    
   12200   7.764      0.6364E-03 SPRIN         11  41.8%   588.4       176.8       0.000       489.5       0.000      0.5000E-01   0.000    
   12201   7.765      0.6364E-03 SPRIN         11  11.7%   186.8       415.8       0.000       489.5       0.000      0.5000E-01   0.000    
   12202   7.765      0.6364E-03 SPRIN         11  60.2%   833.8       30.78       0.000       489.5       0.000      0.5000E-01   0.000    
   12203   7.766      0.6364E-03 SPRIN         11   0.3%   34.80       506.2       0.000       489.5       0.000      0.5000E-01   0.000    
   12204   7.767      0.6364E-03 SPRIN         11  63.0%   870.4       9.008       0.000       489.5       0.000      0.5000E-01   0.000    
   12205   7.767      0.6364E-03 SPRIN         11   6.6%   118.9       456.2       0.000       489.5       0.000      0.5000E-01   0.000    
   12206   7.768      0.6364E-03 SPRIN         11  48.5%   677.8       123.6       0.000       489.5       0.000      0.5000E-01   0.000    
   12207   7.768      0.6364E-03 SPRIN         11  27.1%   392.2       293.6       0.000       489.5       0.000      0.5000E-01   0.000    
   12208   7.769      0.6364E-03 SPRIN         11  24.9%   363.3       310.7       0.000       489.5       0.000      0.5000E-01   0.000    
   12209   7.770      0.6364E-03 SPRIN         11  50.4%   702.5       108.9       0.000       489.5       0.000      0.5000E-01   0.000    
   CYCLE    TIME      TIME-STEP  ELEMENT          ERROR  I-ENERGY    K-ENERGY T  K-ENERGY R  EXT-WORK     MAS.ERR     TOTAL MASS  MASS ADDED
   12210   7.770      0.6364E-03 SPRIN         11   5.3%   101.9       466.3       0.000       489.5       0.000      0.5000E-01   0.000    
   12211   7.771      0.6364E-03 SPRIN         11  63.5%   877.2       4.970       0.000       489.5       0.000      0.5000E-01   0.000    
   12212   7.772      0.6364E-03 SPRIN         11   0.6%   39.19       503.6       0.000       489.5       0.000      0.5000E-01   0.000    
   12213   7.772      0.6364E-03 SPRIN         11  59.1%   818.9       39.67       0.000       489.5       0.000      0.5000E-01   0.000    
   12214   7.773      0.6364E-03 SPRIN         11  13.4%   210.1       401.9       0.000       489.5       0.000      0.5000E-01   0.000    
   12215   7.774      0.6364E-03 SPRIN         11  39.7%   560.1       193.7       0.000       489.5       0.000      0.5000E-01   0.000    
   12216   7.774      0.6364E-03 SPRIN         11  36.7%   519.4       217.8       0.000       489.5       0.000      0.5000E-01   0.000    
   12217   7.775      0.6364E-03 SPRIN         11  16.0%   244.9       381.2       0.000       489.5       0.000      0.5000E-01   0.000    
   12218   7.775      0.6364E-03 SPRIN         11  57.3%   795.0       53.87       0.000       489.5       0.000      0.5000E-01   0.000    
   12219   7.776      0.6364E-03 SPRIN         11   1.3%   48.73       497.9       0.000       489.5       0.000      0.5000E-01   0.000    
   12220   7.777      0.6364E-03 SPRIN         11  64.0%   883.3       1.298       0.000       489.5       0.000      0.5000E-01   0.000    
   12221   7.777      0.6364E-03 SPRIN         11   3.7%   80.89       478.8       0.000       489.5       0.000      0.5000E-01   0.000    
   12222   7.778      0.6364E-03 SPRIN         11  52.9%   735.3       89.38       0.000       489.5       0.000      0.5000E-01   0.000    
   12223   7.779      0.6364E-03 SPRIN         11  21.9%   323.4       334.5       0.000       489.5       0.000      0.5000E-01   0.000    
   12224   7.779      0.6364E-03 SPRIN         11  30.2%   433.3       269.1       0.000       489.5       0.000      0.5000E-01   0.000    
   12225   7.780      0.6364E-03 SPRIN         11  45.8%   641.3       145.3       0.000       489.5       0.000      0.5000E-01   0.000    
   12226   7.781      0.6364E-03 SPRIN         11   8.6%   145.5       440.3       0.000       489.5       0.000      0.5000E-01   0.000    
   12227   7.781      0.6364E-03 SPRIN         11  62.0%   857.5       16.65       0.000       489.5       0.000      0.5000E-01   0.000    
   12228   7.782      0.6364E-03 SPRIN         11   0.1%   32.05       507.8       0.000       489.5       0.000      0.5000E-01   0.000    
   12229   7.782      0.6364E-03 SPRIN         11  61.6%   851.8       20.09       0.000       489.5       0.000      0.5000E-01   0.000    
   12230   7.783      0.6364E-03 SPRIN         11   9.4%   156.2       434.0       0.000       489.5       0.000      0.5000E-01   0.000    
   12231   7.784      0.6364E-03 SPRIN         11  44.7%   627.2       153.7       0.000       489.5       0.000      0.5000E-01   0.000    
   12232   7.784      0.6364E-03 SPRIN         11  31.3%   448.8       259.9       0.000       489.5       0.000      0.5000E-01   0.000    
   12233   7.785      0.6364E-03 SPRIN         11  20.8%   308.8       343.1       0.000       489.5       0.000      0.5000E-01   0.000    
   12234   7.786      0.6364E-03 SPRIN         11  53.7%   746.9       82.46       0.000       489.5       0.000      0.5000E-01   0.000    
   12235   7.786      0.6364E-03 SPRIN         11   3.2%   73.94       482.9       0.000       489.5       0.000      0.5000E-01   0.000    
   12236   7.787      0.6364E-03 SPRIN         11  64.1%   884.6      0.5335       0.000       489.5       0.000      0.5000E-01   0.000    
   12237   7.788      0.6364E-03 SPRIN         11   1.7%   53.31       495.2       0.000       489.5       0.000      0.5000E-01   0.000    
   12238   7.788      0.6364E-03 SPRIN         11  56.6%   785.2       59.68       0.000       489.5       0.000      0.5000E-01   0.000    
   12239   7.789      0.6364E-03 SPRIN         11  17.1%   258.4       373.1       0.000       489.5       0.000      0.5000E-01   0.000    
   12240   7.789      0.6364E-03 SPRIN         11  35.5%   504.0       227.0       0.000       489.5       0.000      0.5000E-01   0.000    
   12241   7.790      0.6364E-03 SPRIN         11  40.8%   575.0       184.7       0.000       489.5       0.000      0.5000E-01   0.000    
   12242   7.791      0.6364E-03 SPRIN         11  12.5%   197.7       409.3       0.000       489.5       0.000      0.5000E-01   0.000    
   12243   7.791      0.6364E-03 SPRIN         11  59.7%   826.9       34.86       0.000       489.5       0.000      0.5000E-01   0.000    
   12244   7.792      0.6364E-03 SPRIN         11   0.4%   36.63       505.1       0.000       489.5       0.000      0.5000E-01   0.000    
   12245   7.793      0.6364E-03 SPRIN         11  63.3%   873.8       6.950       0.000       489.5       0.000      0.5000E-01   0.000    
   12246   7.793      0.6364E-03 SPRIN         11   6.0%   110.6       461.1       0.000       489.5       0.000      0.5000E-01   0.000    
   12247   7.794      0.6364E-03 SPRIN         11  49.4%   689.6       116.5       0.000       489.5       0.000      0.5000E-01   0.000    
   12248   7.795      0.6364E-03 SPRIN         11  26.1%   378.4       301.7       0.000       489.5       0.000      0.5000E-01   0.000    
   12249   7.795      0.6364E-03 SPRIN         11  26.0%   376.9       302.6       0.000       489.5       0.000      0.5000E-01   0.000    
   12250   7.796      0.6364E-03 SPRIN         11  49.5%   691.0       115.8       0.000       489.5       0.000      0.5000E-01   0.000    
   12251   7.796      0.6364E-03 SPRIN         11   5.9%   109.7       461.6       0.000       489.5       0.000      0.5000E-01   0.000    
   12252   7.797      0.6364E-03 SPRIN         11  63.3%   874.2       6.735       0.000       489.5       0.000      0.5000E-01   0.000    
   12253   7.798      0.6364E-03 SPRIN         11   0.4%   36.86       505.0       0.000       489.5       0.000      0.5000E-01   0.000    
   12254   7.798      0.6364E-03 SPRIN         11  59.7%   826.1       35.33       0.000       489.5       0.000      0.5000E-01   0.000    
   12255   7.799      0.6364E-03 SPRIN         11  12.6%   198.9       408.5       0.000       489.5       0.000      0.5000E-01   0.000    
   12256   7.800      0.6364E-03 SPRIN         11  40.7%   573.5       185.6       0.000       489.5       0.000      0.5000E-01   0.000    
   12257   7.800      0.6364E-03 SPRIN         11  35.6%   505.6       226.1       0.000       489.5       0.000      0.5000E-01   0.000    
     ANIMATION FILE: SPR_PRE_2FLAGA040 WRITTEN
   12258   7.801      0.6364E-03 SPRIN         11  17.0%   257.0       374.0       0.000       489.5       0.000      0.5000E-01   0.000    
   12259   7.802      0.6364E-03 SPRIN         11  56.7%   786.2       59.09       0.000       489.5       0.000      0.5000E-01   0.000    
   12260   7.802      0.6364E-03 SPRIN         11   1.6%   52.82       495.5       0.000       489.5       0.000      0.5000E-01   0.000    
   12261   7.803      0.6364E-03 SPRIN         11  64.1%   884.5      0.5955       0.000       489.5       0.000      0.5000E-01   0.000    
   12262   7.803      0.6364E-03 SPRIN         11   3.3%   74.62       482.5       0.000       489.5       0.000      0.5000E-01   0.000    
   12263   7.804      0.6364E-03 SPRIN         11  53.6%   745.8       83.15       0.000       489.5       0.000      0.5000E-01   0.000    
   12264   7.805      0.6364E-03 SPRIN         11  21.0%   310.3       342.3       0.000       489.5       0.000      0.5000E-01   0.000    
   CYCLE    TIME      TIME-STEP  ELEMENT          ERROR  I-ENERGY    K-ENERGY T  K-ENERGY R  EXT-WORK     MAS.ERR     TOTAL MASS  MASS ADDED
   12265   7.805      0.6364E-03 SPRIN         11  31.2%   447.2       260.8       0.000       489.5       0.000      0.5000E-01   0.000    
   12266   7.806      0.6364E-03 SPRIN         11  44.8%   628.6       152.9       0.000       489.5       0.000      0.5000E-01   0.000    
   12267   7.807      0.6364E-03 SPRIN         11   9.3%   155.1       434.6       0.000       489.5       0.000      0.5000E-01   0.000    
   12268   7.807      0.6364E-03 SPRIN         11  61.6%   852.4       19.73       0.000       489.5       0.000      0.5000E-01   0.000    
   12269   7.808      0.6364E-03 SPRIN         11   0.1%   32.02       507.8       0.000       489.5       0.000      0.5000E-01   0.000    
   12270   7.809      0.6364E-03 SPRIN         11  62.0%   857.0       16.99       0.000       489.5       0.000      0.5000E-01   0.000    
   12271   7.809      0.6364E-03 SPRIN         11   8.7%   146.5       439.7       0.000       489.5       0.000      0.5000E-01   0.000    
   12272   7.810      0.6364E-03 SPRIN         11  45.7%   639.9       146.2       0.000       489.5       0.000      0.5000E-01   0.000    
   12273   7.810      0.6364E-03 SPRIN         11  30.3%   434.9       268.1       0.000       489.5       0.000      0.5000E-01   0.000    
   12274   7.811      0.6364E-03 SPRIN         11  21.8%   321.9       335.3       0.000       489.5       0.000      0.5000E-01   0.000    
   12275   7.812      0.6364E-03 SPRIN         11  52.9%   736.5       88.67       0.000       489.5       0.000      0.5000E-01   0.000    
   12276   7.812      0.6364E-03 SPRIN         11   3.7%   80.17       479.2       0.000       489.5       0.000      0.5000E-01   0.000    
   12277   7.813      0.6364E-03 SPRIN         11  64.0%   883.5       1.206       0.000       489.5       0.000      0.5000E-01   0.000    
   12278   7.814      0.6364E-03 SPRIN         11   1.4%   49.17       497.6       0.000       489.5       0.000      0.5000E-01   0.000    
   12279   7.814      0.6364E-03 SPRIN         11  57.3%   794.0       54.45       0.000       489.5       0.000      0.5000E-01   0.000    
   12280   7.815      0.6364E-03 SPRIN         11  16.1%   246.2       380.4       0.000       489.5       0.000      0.5000E-01   0.000    
   12281   7.816      0.6364E-03 SPRIN         11  36.5%   517.9       218.7       0.000       489.5       0.000      0.5000E-01   0.000    
   12282   7.816      0.6364E-03 SPRIN         11  39.8%   561.6       192.8       0.000       489.5       0.000      0.5000E-01   0.000    
   12283   7.817      0.6364E-03 SPRIN         11  13.3%   208.8       402.6       0.000       489.5       0.000      0.5000E-01   0.000    
   12284   7.817      0.6364E-03 SPRIN         11  59.2%   819.7       39.17       0.000       489.5       0.000      0.5000E-01   0.000    
   12285   7.818      0.6364E-03 SPRIN         11   0.6%   38.91       503.7       0.000       489.5       0.000      0.5000E-01   0.000    
   12286   7.819      0.6364E-03 SPRIN         11  63.5%   876.9       5.154       0.000       489.5       0.000      0.5000E-01   0.000    
   12287   7.819      0.6364E-03 SPRIN         11   5.4%   102.7       465.8       0.000       489.5       0.000      0.5000E-01   0.000    
   12288   7.820      0.6364E-03 SPRIN         11  50.3%   701.2       109.6       0.000       489.5       0.000      0.5000E-01   0.000    
   12289   7.821      0.6364E-03 SPRIN         11  25.0%   364.8       309.8       0.000       489.5       0.000      0.5000E-01   0.000    
   12290   7.821      0.6364E-03 SPRIN         11  27.0%   390.6       294.5       0.000       489.5       0.000      0.5000E-01   0.000    
   12291   7.822      0.6364E-03 SPRIN         11  48.6%   679.1       122.8       0.000       489.5       0.000      0.5000E-01   0.000    
   12292   7.823      0.6364E-03 SPRIN         11   6.5%   117.9       456.7       0.000       489.5       0.000      0.5000E-01   0.000    
   12293   7.823      0.6364E-03 SPRIN         11  63.0%   870.8       8.764       0.000       489.5       0.000      0.5000E-01   0.000    
   12294   7.824      0.6364E-03 SPRIN         11   0.3%   34.99       506.1       0.000       489.5       0.000      0.5000E-01   0.000    
   12295   7.824      0.6364E-03 SPRIN         11  60.2%   833.0       31.23       0.000       489.5       0.000      0.5000E-01   0.000    
   12296   7.825      0.6364E-03 SPRIN         11  11.8%   188.0       415.0       0.000       489.5       0.000      0.5000E-01   0.000    
   12297   7.826      0.6364E-03 SPRIN         11  41.7%   586.9       177.7       0.000       489.5       0.000      0.5000E-01   0.000    
   12298   7.826      0.6364E-03 SPRIN         11  34.6%   491.7       234.3       0.000       489.5       0.000      0.5000E-01   0.000    
   12299   7.827      0.6364E-03 SPRIN         11  17.9%   269.4       366.6       0.000       489.5       0.000      0.5000E-01   0.000    
   12300   7.828      0.6364E-03 SPRIN         11  56.0%   777.1       64.51       0.000       489.5       0.000      0.5000E-01   0.000    
   12301   7.828      0.6364E-03 SPRIN         11   2.0%   57.34       492.8       0.000       489.5       0.000      0.5000E-01   0.000    
   12302   7.829      0.6364E-03 SPRIN         11  64.1%   885.3      0.1630       0.000       489.5       0.000      0.5000E-01   0.000    
   12303   7.830      0.6364E-03 SPRIN         11   2.8%   68.75       486.0       0.000       489.5       0.000      0.5000E-01   0.000    
   12304   7.830      0.6364E-03 SPRIN         11  54.4%   755.9       77.10       0.000       489.5       0.000      0.5000E-01   0.000    
   12305   7.831      0.6364E-03 SPRIN         11  20.0%   297.3       350.0       0.000       489.5       0.000      0.5000E-01   0.000    
   12306   7.831      0.6364E-03 SPRIN         11  32.3%   461.2       252.5       0.000       489.5       0.000      0.5000E-01   0.000    
   12307   7.832      0.6364E-03 SPRIN         11  43.9%   615.7       160.5       0.000       489.5       0.000      0.5000E-01   0.000    
   12308   7.833      0.6364E-03 SPRIN         11  10.0%   165.1       428.7       0.000       489.5       0.000      0.5000E-01   0.000    
   12309   7.833      0.6364E-03 SPRIN         11  61.2%   846.8       23.06       0.000       489.5       0.000      0.5000E-01   0.000    
   12310   7.834      0.6364E-03 SPRIN         11   0.1%   32.45       507.6       0.000       489.5       0.000      0.5000E-01   0.000    
   12311   7.835      0.6364E-03 SPRIN         11  62.4%   861.8       14.13       0.000       489.5       0.000      0.5000E-01   0.000    
   12312   7.835      0.6364E-03 SPRIN         11   8.0%   137.2       445.3       0.000       489.5       0.000      0.5000E-01   0.000    
   12313   7.836      0.6364E-03 SPRIN         11  46.6%   652.4       138.7       0.000       489.5       0.000      0.5000E-01   0.000    
   12314   7.837      0.6364E-03 SPRIN         11  29.3%   421.0       276.4       0.000       489.5       0.000      0.5000E-01   0.000    
   12315   7.837      0.6364E-03 SPRIN         11  22.8%   335.2       327.4       0.000       489.5       0.000      0.5000E-01   0.000    
   12316   7.838      0.6364E-03 SPRIN         11  52.1%   725.8       95.05       0.000       489.5       0.000      0.5000E-01   0.000    
   12317   7.838      0.6364E-03 SPRIN         11   4.2%   86.80       475.2       0.000       489.5       0.000      0.5000E-01   0.000    
   12318   7.839      0.6364E-03 SPRIN         11  63.9%   881.9       2.148       0.000       489.5       0.000      0.5000E-01   0.000    
   12319   7.840      0.6364E-03 SPRIN         11   1.1%   45.47       499.8       0.000       489.5       0.000      0.5000E-01   0.000    
   CYCLE    TIME      TIME-STEP  ELEMENT          ERROR  I-ENERGY    K-ENERGY T  K-ENERGY R  EXT-WORK     MAS.ERR     TOTAL MASS  MASS ADDED
   12320   7.840      0.6364E-03 SPRIN         11  57.9%   802.5       49.42       0.000       489.5       0.000      0.5000E-01   0.000    
   12321   7.841      0.6364E-03 SPRIN         11  15.2%   234.2       387.5       0.000       489.5       0.000      0.5000E-01   0.000    
   12322   7.842      0.6364E-03 SPRIN         11  37.6%   531.7       210.6       0.000       489.5       0.000      0.5000E-01   0.000    
   12323   7.842      0.6364E-03 SPRIN         11  38.8%   548.0       200.8       0.000       489.5       0.000      0.5000E-01   0.000    
   12324   7.843      0.6364E-03 SPRIN         11  14.2%   220.3       395.8       0.000       489.5       0.000      0.5000E-01   0.000    
   12325   7.844      0.6364E-03 SPRIN         11  58.6%   812.1       43.71       0.000       489.5       0.000      0.5000E-01   0.000    
   12326   7.844      0.6364E-03 SPRIN         11   0.8%   41.63       502.1       0.000       489.5       0.000      0.5000E-01   0.000    
   12327   7.845      0.6364E-03 SPRIN         11  63.7%   879.4       3.625       0.000       489.5       0.000      0.5000E-01   0.000    
   12328   7.845      0.6364E-03 SPRIN         11   4.8%   95.25       470.2       0.000       489.5       0.000      0.5000E-01   0.000    
   12329   7.846      0.6364E-03 SPRIN         11  51.2%   712.6       102.9       0.000       489.5       0.000      0.5000E-01   0.000    
   12330   7.847      0.6364E-03 SPRIN         11  24.0%   351.2       317.9       0.000       489.5       0.000      0.5000E-01   0.000    
   12331   7.847      0.6364E-03 SPRIN         11  28.0%   404.4       286.3       0.000       489.5       0.000      0.5000E-01   0.000    
   12332   7.848      0.6364E-03 SPRIN         11  47.7%   667.1       130.0       0.000       489.5       0.000      0.5000E-01   0.000    
   12333   7.849      0.6364E-03 SPRIN         11   7.2%   126.5       451.6       0.000       489.5       0.000      0.5000E-01   0.000    
   12334   7.849      0.6364E-03 SPRIN         11  62.7%   866.9       11.05       0.000       489.5       0.000      0.5000E-01   0.000    
   12335   7.850      0.6364E-03 SPRIN         11   0.2%   33.56       506.9       0.000       489.5       0.000      0.5000E-01   0.000    
   12336   7.851      0.6364E-03 SPRIN         11  60.7%   839.5       27.36       0.000       489.5       0.000      0.5000E-01   0.000    
   12337   7.851      0.6364E-03 SPRIN         11  11.0%   177.3       421.4       0.000       489.5       0.000      0.5000E-01   0.000    
   12338   7.852      0.6364E-03 SPRIN         11  42.7%   600.1       169.8       0.000       489.5       0.000      0.5000E-01   0.000    
   12339   7.852      0.6364E-03 SPRIN         11  33.5%   477.8       242.6       0.000       489.5       0.000      0.5000E-01   0.000    
   12340   7.853      0.6364E-03 SPRIN         11  18.8%   282.0       359.1       0.000       489.5       0.000      0.5000E-01   0.000    
   12341   7.854      0.6364E-03 SPRIN         11  55.3%   767.7       70.13       0.000       489.5       0.000      0.5000E-01   0.000    
   12342   7.854      0.6364E-03 SPRIN         11   2.3%   62.29       489.8       0.000       489.5       0.000      0.5000E-01   0.000    
   12343   7.855      0.6364E-03 SPRIN         11  64.1%   885.5      0.1277E-02   0.000       489.5       0.000      0.5000E-01   0.000    
   12344   7.856      0.6364E-03 SPRIN         11   2.4%   63.30       489.2       0.000       489.5       0.000      0.5000E-01   0.000    
   12345   7.856      0.6364E-03 SPRIN         11  55.1%   765.8       71.25       0.000       489.5       0.000      0.5000E-01   0.000    
   12346   7.857      0.6364E-03 SPRIN         11  19.0%   284.5       357.6       0.000       489.5       0.000      0.5000E-01   0.000    
   12347   7.858      0.6364E-03 SPRIN         11  33.3%   475.1       244.2       0.000       489.5       0.000      0.5000E-01   0.000    
   12348   7.858      0.6364E-03 SPRIN         11  42.9%   602.7       168.3       0.000       489.5       0.000      0.5000E-01   0.000    
   12349   7.859      0.6364E-03 SPRIN         11  10.8%   175.3       422.6       0.000       489.5       0.000      0.5000E-01   0.000    
   12350   7.859      0.6364E-03 SPRIN         11  60.8%   840.8       26.64       0.000       489.5       0.000      0.5000E-01   0.000    
   12351   7.860      0.6364E-03 SPRIN         11   0.2%   33.34       507.1       0.000       489.5       0.000      0.5000E-01   0.000    
   12352   7.861      0.6364E-03 SPRIN         11  62.7%   866.1       11.53       0.000       489.5       0.000      0.5000E-01   0.000    
   12353   7.861      0.6364E-03 SPRIN         11   7.3%   128.2       450.6       0.000       489.5       0.000      0.5000E-01   0.000    
   12354   7.862      0.6364E-03 SPRIN         11  47.6%   664.7       131.4       0.000       489.5       0.000      0.5000E-01   0.000    
   12355   7.863      0.6364E-03 SPRIN         11  28.2%   407.1       284.7       0.000       489.5       0.000      0.5000E-01   0.000    
   12356   7.863      0.6364E-03 SPRIN         11  23.8%   348.6       319.5       0.000       489.5       0.000      0.5000E-01   0.000    
   12357   7.864      0.6364E-03 SPRIN         11  51.3%   714.8       101.6       0.000       489.5       0.000      0.5000E-01   0.000    
   12358   7.865      0.6364E-03 SPRIN         11   4.7%   93.84       471.1       0.000       489.5       0.000      0.5000E-01   0.000    
   12359   7.865      0.6364E-03 SPRIN         11  63.7%   879.9       3.359       0.000       489.5       0.000      0.5000E-01   0.000    
   12360   7.866      0.6364E-03 SPRIN         11   0.8%   42.22       501.8       0.000       489.5       0.000      0.5000E-01   0.000    
   12361   7.866      0.6364E-03 SPRIN         11  58.5%   810.5       44.61       0.000       489.5       0.000      0.5000E-01   0.000    
   12362   7.867      0.6364E-03 SPRIN         11  14.4%   222.5       394.5       0.000       489.5       0.000      0.5000E-01   0.000    
   12363   7.868      0.6364E-03 SPRIN         11  38.6%   545.3       202.4       0.000       489.5       0.000      0.5000E-01   0.000    
   12364   7.868      0.6364E-03 SPRIN         11  37.8%   534.3       209.0       0.000       489.5       0.000      0.5000E-01   0.000    
   12365   7.869      0.6364E-03 SPRIN         11  15.1%   231.9       388.9       0.000       489.5       0.000      0.5000E-01   0.000    
   12366   7.870      0.6364E-03 SPRIN         11  58.0%   804.1       48.47       0.000       489.5       0.000      0.5000E-01   0.000    
   12367   7.870      0.6364E-03 SPRIN         11   1.0%   44.81       500.2       0.000       489.5       0.000      0.5000E-01   0.000    
   12368   7.871      0.6364E-03 SPRIN         11  63.8%   881.6       2.362       0.000       489.5       0.000      0.5000E-01   0.000    
   12369   7.872      0.6364E-03 SPRIN         11   4.3%   88.14       474.4       0.000       489.5       0.000      0.5000E-01   0.000    
   12370   7.872      0.6364E-03 SPRIN         11  52.0%   723.7       96.31       0.000       489.5       0.000      0.5000E-01   0.000    
   12371   7.873      0.6364E-03 SPRIN         11  23.0%   337.8       325.9       0.000       489.5       0.000      0.5000E-01   0.000    
   12372   7.873      0.6364E-03 SPRIN         11  29.1%   418.3       278.0       0.000       489.5       0.000      0.5000E-01   0.000    
   12373   7.874      0.6364E-03 SPRIN         11  46.8%   654.8       137.3       0.000       489.5       0.000      0.5000E-01   0.000    
   12374   7.875      0.6364E-03 SPRIN         11   7.8%   135.4       446.3       0.000       489.5       0.000      0.5000E-01   0.000    
   CYCLE    TIME      TIME-STEP  ELEMENT          ERROR  I-ENERGY    K-ENERGY T  K-ENERGY R  EXT-WORK     MAS.ERR     TOTAL MASS  MASS ADDED
   12375   7.875      0.6364E-03 SPRIN         11  62.4%   862.7       13.60       0.000       489.5       0.000      0.5000E-01   0.000    
   12376   7.876      0.6364E-03 SPRIN         11   0.1%   32.59       507.5       0.000       489.5       0.000      0.5000E-01   0.000    
   12377   7.877      0.6364E-03 SPRIN         11  61.1%   845.6       23.74       0.000       489.5       0.000      0.5000E-01   0.000    
   12378   7.877      0.6364E-03 SPRIN         11  10.2%   167.0       427.5       0.000       489.5       0.000      0.5000E-01   0.000    
   12379   7.878      0.6364E-03 SPRIN         11  43.7%   613.2       162.0       0.000       489.5       0.000      0.5000E-01   0.000    
   12380   7.879      0.6364E-03 SPRIN         11  32.5%   463.9       250.9       0.000       489.5       0.000      0.5000E-01   0.000    
   12381   7.879      0.6364E-03 SPRIN         11  19.8%   294.8       351.5       0.000       489.5       0.000      0.5000E-01   0.000    
   12382   7.880      0.6364E-03 SPRIN         11  54.6%   757.9       75.95       0.000       489.5       0.000      0.5000E-01   0.000    
   12383   7.880      0.6364E-03 SPRIN         11   2.7%   67.66       486.6       0.000       489.5       0.000      0.5000E-01   0.000    
   12384   7.881      0.6364E-03 SPRIN         11  64.1%   885.3      0.1104       0.000       489.5       0.000      0.5000E-01   0.000    
   12385   7.882      0.6364E-03 SPRIN         11   2.0%   58.27       492.2       0.000       489.5       0.000      0.5000E-01   0.000    
   12386   7.882      0.6364E-03 SPRIN         11  55.9%   775.3       65.58       0.000       489.5       0.000      0.5000E-01   0.000    
   12387   7.883      0.6364E-03 SPRIN         11  18.1%   271.8       365.1       0.000       489.5       0.000      0.5000E-01   0.000    
   12388   7.884      0.6364E-03 SPRIN         11  34.4%   489.0       235.9       0.000       489.5       0.000      0.5000E-01   0.000    
   12389   7.884      0.6364E-03 SPRIN         11  41.9%   589.5       176.1       0.000       489.5       0.000      0.5000E-01   0.000    
   12390   7.885      0.6364E-03 SPRIN         11  11.6%   185.9       416.3       0.000       489.5       0.000      0.5000E-01   0.000    
   12391   7.886      0.6364E-03 SPRIN         11  60.3%   834.3       30.46       0.000       489.5       0.000      0.5000E-01   0.000    
   12392   7.886      0.6364E-03 SPRIN         11   0.3%   34.67       506.3       0.000       489.5       0.000      0.5000E-01   0.000    
   12393   7.887      0.6364E-03 SPRIN         11  63.0%   870.1       9.189       0.000       489.5       0.000      0.5000E-01   0.000    
   12394   7.887      0.6364E-03 SPRIN         11   6.6%   119.6       455.7       0.000       489.5       0.000      0.5000E-01   0.000    
   12395   7.888      0.6364E-03 SPRIN         11  48.5%   676.8       124.2       0.000       489.5       0.000      0.5000E-01   0.000    
   12396   7.889      0.6364E-03 SPRIN         11  27.2%   393.3       292.9       0.000       489.5       0.000      0.5000E-01   0.000    
   12397   7.889      0.6364E-03 SPRIN         11  24.8%   362.1       311.4       0.000       489.5       0.000      0.5000E-01   0.000    
   12398   7.890      0.6364E-03 SPRIN         11  50.5%   703.5       108.3       0.000       489.5       0.000      0.5000E-01   0.000    
   12399   7.891      0.6364E-03 SPRIN         11   5.3%   101.3       466.6       0.000       489.5       0.000      0.5000E-01   0.000    
   12400   7.891      0.6364E-03 SPRIN         11  63.5%   877.4       4.837       0.000       489.5       0.000      0.5000E-01   0.000    
   12401   7.892      0.6364E-03 SPRIN         11   0.6%   39.40       503.4       0.000       489.5       0.000      0.5000E-01   0.000    
   12402   7.893      0.6364E-03 SPRIN         11  59.1%   818.2       40.03       0.000       489.5       0.000      0.5000E-01   0.000    
   12403   7.893      0.6364E-03 SPRIN         11  13.5%   211.0       401.3       0.000       489.5       0.000      0.5000E-01   0.000    
   12404   7.894      0.6364E-03 SPRIN         11  39.6%   558.9       194.3       0.000       489.5       0.000      0.5000E-01   0.000    
   12405   7.894      0.6364E-03 SPRIN         11  36.7%   520.6       217.2       0.000       489.5       0.000      0.5000E-01   0.000    
   12406   7.895      0.6364E-03 SPRIN         11  16.0%   243.9       381.8       0.000       489.5       0.000      0.5000E-01   0.000    
   12407   7.896      0.6364E-03 SPRIN         11  57.4%   795.7       53.45       0.000       489.5       0.000      0.5000E-01   0.000    
   12408   7.896      0.6364E-03 SPRIN         11   1.3%   48.42       498.1       0.000       489.5       0.000      0.5000E-01   0.000    
   12409   7.897      0.6364E-03 SPRIN         11  64.0%   883.2       1.368       0.000       489.5       0.000      0.5000E-01   0.000    
   12410   7.898      0.6364E-03 SPRIN         11   3.8%   81.43       478.4       0.000       489.5       0.000      0.5000E-01   0.000    
   12411   7.898      0.6364E-03 SPRIN         11  52.8%   734.4       89.90       0.000       489.5       0.000      0.5000E-01   0.000    
   12412   7.899      0.6364E-03 SPRIN         11  22.0%   324.5       333.8       0.000       489.5       0.000      0.5000E-01   0.000    
   12413   7.900      0.6364E-03 SPRIN         11  30.1%   432.2       269.8       0.000       489.5       0.000      0.5000E-01   0.000    
   12414   7.900      0.6364E-03 SPRIN         11  45.9%   642.3       144.7       0.000       489.5       0.000      0.5000E-01   0.000    
   12415   7.901      0.6364E-03 SPRIN         11   8.5%   144.7       440.8       0.000       489.5       0.000      0.5000E-01   0.000    
   12416   7.901      0.6364E-03 SPRIN         11  62.1%   857.9       16.41       0.000       489.5       0.000      0.5000E-01   0.000    
   12417   7.902      0.6364E-03 SPRIN         11   0.1%   32.07       507.8       0.000       489.5       0.000      0.5000E-01   0.000    
   12418   7.903      0.6364E-03 SPRIN         11  61.6%   851.3       20.36       0.000       489.5       0.000      0.5000E-01   0.000    
   12419   7.903      0.6364E-03 SPRIN         11   9.4%   157.0       433.5       0.000       489.5       0.000      0.5000E-01   0.000    
   12420   7.904      0.6364E-03 SPRIN         11  44.7%   626.1       154.3       0.000       489.5       0.000      0.5000E-01   0.000    
   12421   7.905      0.6364E-03 SPRIN         11  31.4%   449.9       259.2       0.000       489.5       0.000      0.5000E-01   0.000    
   12422   7.905      0.6364E-03 SPRIN         11  20.8%   307.7       343.8       0.000       489.5       0.000      0.5000E-01   0.000    
   12423   7.906      0.6364E-03 SPRIN         11  53.8%   747.8       81.96       0.000       489.5       0.000      0.5000E-01   0.000    
   12424   7.907      0.6364E-03 SPRIN         11   3.2%   73.44       483.2       0.000       489.5       0.000      0.5000E-01   0.000    
   12425   7.907      0.6364E-03 SPRIN         11  64.1%   884.7      0.4904       0.000       489.5       0.000      0.5000E-01   0.000    
   12426   7.908      0.6364E-03 SPRIN         11   1.7%   53.66       495.0       0.000       489.5       0.000      0.5000E-01   0.000    
   12427   7.908      0.6364E-03 SPRIN         11  56.5%   784.5       60.12       0.000       489.5       0.000      0.5000E-01   0.000    
   12428   7.909      0.6364E-03 SPRIN         11  17.1%   259.4       372.5       0.000       489.5       0.000      0.5000E-01   0.000    
   12429   7.910      0.6364E-03 SPRIN         11  35.4%   502.9       227.7       0.000       489.5       0.000      0.5000E-01   0.000    
   CYCLE    TIME      TIME-STEP  ELEMENT          ERROR  I-ENERGY    K-ENERGY T  K-ENERGY R  EXT-WORK     MAS.ERR     TOTAL MASS  MASS ADDED
   12430   7.910      0.6364E-03 SPRIN         11  40.9%   576.1       184.1       0.000       489.5       0.000      0.5000E-01   0.000    
   12431   7.911      0.6364E-03 SPRIN         11  12.4%   196.8       409.8       0.000       489.5       0.000      0.5000E-01   0.000    
   12432   7.912      0.6364E-03 SPRIN         11  59.8%   827.5       34.51       0.000       489.5       0.000      0.5000E-01   0.000    
   12433   7.912      0.6364E-03 SPRIN         11   0.4%   36.46       505.2       0.000       489.5       0.000      0.5000E-01   0.000    
   12434   7.913      0.6364E-03 SPRIN         11  63.2%   873.6       7.108       0.000       489.5       0.000      0.5000E-01   0.000    
   12435   7.914      0.6364E-03 SPRIN         11   6.0%   111.3       460.7       0.000       489.5       0.000      0.5000E-01   0.000    
   12436   7.914      0.6364E-03 SPRIN         11  49.4%   688.7       117.1       0.000       489.5       0.000      0.5000E-01   0.000    
   12437   7.915      0.6364E-03 SPRIN         11  26.2%   379.6       301.1       0.000       489.5       0.000      0.5000E-01   0.000    
   12438   7.915      0.6364E-03 SPRIN         11  25.9%   375.8       303.3       0.000       489.5       0.000      0.5000E-01   0.000    
   12439   7.916      0.6364E-03 SPRIN         11  49.6%   691.9       115.2       0.000       489.5       0.000      0.5000E-01   0.000    
   12440   7.917      0.6364E-03 SPRIN         11   5.8%   109.1       462.0       0.000       489.5       0.000      0.5000E-01   0.000    
   12441   7.917      0.6364E-03 SPRIN         11  63.3%   874.5       6.580       0.000       489.5       0.000      0.5000E-01   0.000    
   12442   7.918      0.6364E-03 SPRIN         11   0.4%   37.04       504.9       0.000       489.5       0.000      0.5000E-01   0.000    
   12443   7.919      0.6364E-03 SPRIN         11  59.6%   825.6       35.68       0.000       489.5       0.000      0.5000E-01   0.000    
   12444   7.919      0.6364E-03 SPRIN         11  12.7%   199.8       408.0       0.000       489.5       0.000      0.5000E-01   0.000    
   12445   7.920      0.6364E-03 SPRIN         11  40.6%   572.4       186.3       0.000       489.5       0.000      0.5000E-01   0.000    
   12446   7.921      0.6364E-03 SPRIN         11  35.7%   506.7       225.4       0.000       489.5       0.000      0.5000E-01   0.000    
   12447   7.921      0.6364E-03 SPRIN         11  16.9%   256.0       374.6       0.000       489.5       0.000      0.5000E-01   0.000    
   12448   7.922      0.6364E-03 SPRIN         11  56.7%   787.0       58.65       0.000       489.5       0.000      0.5000E-01   0.000    
   12449   7.922      0.6364E-03 SPRIN         11   1.6%   52.47       495.7       0.000       489.5       0.000      0.5000E-01   0.000    
   12450   7.923      0.6364E-03 SPRIN         11  64.1%   884.4      0.6429       0.000       489.5       0.000      0.5000E-01   0.000    
   12451   7.924      0.6364E-03 SPRIN         11   3.3%   75.11       482.2       0.000       489.5       0.000      0.5000E-01   0.000    
   12452   7.924      0.6364E-03 SPRIN         11  53.6%   744.9       83.65       0.000       489.5       0.000      0.5000E-01   0.000    
   12453   7.925      0.6364E-03 SPRIN         11  21.0%   311.4       341.6       0.000       489.5       0.000      0.5000E-01   0.000    
   12454   7.926      0.6364E-03 SPRIN         11  31.1%   446.1       261.5       0.000       489.5       0.000      0.5000E-01   0.000    
   12455   7.926      0.6364E-03 SPRIN         11  44.9%   629.7       152.2       0.000       489.5       0.000      0.5000E-01   0.000    
   12456   7.927      0.6364E-03 SPRIN         11   9.2%   154.3       435.1       0.000       489.5       0.000      0.5000E-01   0.000    
   12457   7.928      0.6364E-03 SPRIN         11  61.7%   852.8       19.47       0.000       489.5       0.000      0.5000E-01   0.000    
   12458   7.928      0.6364E-03 SPRIN         11   0.1%   32.01       507.8       0.000       489.5       0.000      0.5000E-01   0.000    
   12459   7.929      0.6364E-03 SPRIN         11  62.0%   856.6       17.23       0.000       489.5       0.000      0.5000E-01   0.000    
   12460   7.929      0.6364E-03 SPRIN         11   8.7%   147.3       439.2       0.000       489.5       0.000      0.5000E-01   0.000    
   12461   7.930      0.6364E-03 SPRIN         11  45.6%   638.8       146.8       0.000       489.5       0.000      0.5000E-01   0.000    
   12462   7.931      0.6364E-03 SPRIN         11  30.4%   436.0       267.5       0.000       489.5       0.000      0.5000E-01   0.000    
   12463   7.931      0.6364E-03 SPRIN         11  21.7%   320.9       336.0       0.000       489.5       0.000      0.5000E-01   0.000    
   12464   7.932      0.6364E-03 SPRIN         11  53.0%   737.4       88.15       0.000       489.5       0.000      0.5000E-01   0.000    
   12465   7.933      0.6364E-03 SPRIN         11   3.6%   79.64       479.5       0.000       489.5       0.000      0.5000E-01   0.000    
   12466   7.933      0.6364E-03 SPRIN         11  64.0%   883.6       1.141       0.000       489.5       0.000      0.5000E-01   0.000    
   12467   7.934      0.6364E-03 SPRIN         11   1.4%   49.49       497.4       0.000       489.5       0.000      0.5000E-01   0.000    
   12468   7.935      0.6364E-03 SPRIN         11  57.2%   793.3       54.87       0.000       489.5       0.000      0.5000E-01   0.000    
   12469   7.935      0.6364E-03 SPRIN         11  16.2%   247.2       379.8       0.000       489.5       0.000      0.5000E-01   0.000    
   12470   7.936      0.6364E-03 SPRIN         11  36.4%   516.7       219.4       0.000       489.5       0.000      0.5000E-01   0.000    
   12471   7.936      0.6364E-03 SPRIN         11  39.9%   562.7       192.1       0.000       489.5       0.000      0.5000E-01   0.000    
   12472   7.937      0.6364E-03 SPRIN         11  13.3%   207.9       403.2       0.000       489.5       0.000      0.5000E-01   0.000    
   12473   7.938      0.6364E-03 SPRIN         11  59.2%   820.3       38.81       0.000       489.5       0.000      0.5000E-01   0.000    
   12474   7.938      0.6364E-03 SPRIN         11   0.6%   38.71       503.9       0.000       489.5       0.000      0.5000E-01   0.000    
   12475   7.939      0.6364E-03 SPRIN         11  63.5%   876.6       5.292       0.000       489.5       0.000      0.5000E-01   0.000    
   12476   7.940      0.6364E-03 SPRIN         11   5.4%   103.4       465.4       0.000       489.5       0.000      0.5000E-01   0.000    
   12477   7.940      0.6364E-03 SPRIN         11  50.2%   700.3       110.2       0.000       489.5       0.000      0.5000E-01   0.000    
   12478   7.941      0.6364E-03 SPRIN         11  25.1%   365.9       309.2       0.000       489.5       0.000      0.5000E-01   0.000    
   12479   7.942      0.6364E-03 SPRIN         11  26.9%   389.5       295.1       0.000       489.5       0.000      0.5000E-01   0.000    
   12480   7.942      0.6364E-03 SPRIN         11  48.7%   680.1       122.2       0.000       489.5       0.000      0.5000E-01   0.000    
   12481   7.943      0.6364E-03 SPRIN         11   6.5%   117.2       457.1       0.000       489.5       0.000      0.5000E-01   0.000    
   12482   7.943      0.6364E-03 SPRIN         11  63.0%   871.1       8.588       0.000       489.5       0.000      0.5000E-01   0.000    
   12483   7.944      0.6364E-03 SPRIN         11   0.3%   35.12       506.0       0.000       489.5       0.000      0.5000E-01   0.000    
   12484   7.945      0.6364E-03 SPRIN         11  60.2%   832.5       31.55       0.000       489.5       0.000      0.5000E-01   0.000    
   CYCLE    TIME      TIME-STEP  ELEMENT          ERROR  I-ENERGY    K-ENERGY T  K-ENERGY R  EXT-WORK     MAS.ERR     TOTAL MASS  MASS ADDED
   12485   7.945      0.6364E-03 SPRIN         11  11.8%   188.9       414.5       0.000       489.5       0.000      0.5000E-01   0.000    
   12486   7.946      0.6364E-03 SPRIN         11  41.6%   585.8       178.3       0.000       489.5       0.000      0.5000E-01   0.000    
   12487   7.947      0.6364E-03 SPRIN         11  34.7%   492.9       233.6       0.000       489.5       0.000      0.5000E-01   0.000    
   12488   7.947      0.6364E-03 SPRIN         11  17.8%   268.4       367.2       0.000       489.5       0.000      0.5000E-01   0.000    
   12489   7.948      0.6364E-03 SPRIN         11  56.1%   777.9       64.06       0.000       489.5       0.000      0.5000E-01   0.000    
   12490   7.949      0.6364E-03 SPRIN         11   1.9%   56.95       493.0       0.000       489.5       0.000      0.5000E-01   0.000    
   12491   7.949      0.6364E-03 SPRIN         11  64.1%   885.2      0.1883       0.000       489.5       0.000      0.5000E-01   0.000    
   12492   7.950      0.6364E-03 SPRIN         11   2.9%   69.21       485.7       0.000       489.5       0.000      0.5000E-01   0.000    
   12493   7.950      0.6364E-03 SPRIN         11  54.3%   755.1       77.59       0.000       489.5       0.000      0.5000E-01   0.000    
   12494   7.951      0.6364E-03 SPRIN         11  20.1%   298.3       349.4       0.000       489.5       0.000      0.5000E-01   0.000    
   12495   7.952      0.6364E-03 SPRIN         11  32.2%   460.0       253.2       0.000       489.5       0.000      0.5000E-01   0.000    
   12496   7.952      0.6364E-03 SPRIN         11  44.0%   616.8       159.9       0.000       489.5       0.000      0.5000E-01   0.000    
   12497   7.953      0.6364E-03 SPRIN         11  10.0%   164.2       429.2       0.000       489.5       0.000      0.5000E-01   0.000    
   12498   7.954      0.6364E-03 SPRIN         11  61.3%   847.2       22.78       0.000       489.5       0.000      0.5000E-01   0.000    
   12499   7.954      0.6364E-03 SPRIN         11   0.1%   32.40       507.6       0.000       489.5       0.000      0.5000E-01   0.000    
   12500   7.955      0.6364E-03 SPRIN         11  62.3%   861.4       14.35       0.000       489.5       0.000      0.5000E-01   0.000    
   12501   7.956      0.6364E-03 SPRIN         11   8.0%   137.9       444.8       0.000       489.5       0.000      0.5000E-01   0.000    
   12502   7.956      0.6364E-03 SPRIN         11  46.6%   651.4       139.3       0.000       489.5       0.000      0.5000E-01   0.000    
   12503   7.957      0.6364E-03 SPRIN         11  29.3%   422.1       275.7       0.000       489.5       0.000      0.5000E-01   0.000    
   12504   7.957      0.6364E-03 SPRIN         11  22.7%   334.1       328.1       0.000       489.5       0.000      0.5000E-01   0.000    
   12505   7.958      0.6364E-03 SPRIN         11  52.2%   726.7       94.52       0.000       489.5       0.000      0.5000E-01   0.000    
   12506   7.959      0.6364E-03 SPRIN         11   4.1%   86.25       475.6       0.000       489.5       0.000      0.5000E-01   0.000    
   12507   7.959      0.6364E-03 SPRIN         11  63.9%   882.1       2.061       0.000       489.5       0.000      0.5000E-01   0.000    
   12508   7.960      0.6364E-03 SPRIN         11   1.1%   45.76       499.7       0.000       489.5       0.000      0.5000E-01   0.000    
   12509   7.961      0.6364E-03 SPRIN         11  57.8%   801.8       49.83       0.000       489.5       0.000      0.5000E-01   0.000    
   12510   7.961      0.6364E-03 SPRIN         11  15.3%   235.2       386.9       0.000       489.5       0.000      0.5000E-01   0.000    
   12511   7.962      0.6364E-03 SPRIN         11  37.5%   530.5       211.2       0.000       489.5       0.000      0.5000E-01   0.000    
   12512   7.963      0.6364E-03 SPRIN         11  38.9%   549.1       200.2       0.000       489.5       0.000      0.5000E-01   0.000    
   12513   7.963      0.6364E-03 SPRIN         11  14.1%   219.3       396.4       0.000       489.5       0.000      0.5000E-01   0.000    
   12514   7.964      0.6364E-03 SPRIN         11  58.7%   812.7       43.33       0.000       489.5       0.000      0.5000E-01   0.000    
   12515   7.964      0.6364E-03 SPRIN         11   0.8%   41.39       502.3       0.000       489.5       0.000      0.5000E-01   0.000    
   12516   7.965      0.6364E-03 SPRIN         11  63.7%   879.2       3.740       0.000       489.5       0.000      0.5000E-01   0.000    
   12517   7.966      0.6364E-03 SPRIN         11   4.9%   95.85       469.9       0.000       489.5       0.000      0.5000E-01   0.000    
   12518   7.966      0.6364E-03 SPRIN         11  51.1%   711.7       103.4       0.000       489.5       0.000      0.5000E-01   0.000    
   12519   7.967      0.6364E-03 SPRIN         11  24.1%   352.3       317.2       0.000       489.5       0.000      0.5000E-01   0.000    
   12520   7.968      0.6364E-03 SPRIN         11  27.9%   403.3       286.9       0.000       489.5       0.000      0.5000E-01   0.000    
   12521   7.968      0.6364E-03 SPRIN         11  47.8%   668.1       129.4       0.000       489.5       0.000      0.5000E-01   0.000    
   12522   7.969      0.6364E-03 SPRIN         11   7.1%   125.8       452.0       0.000       489.5       0.000      0.5000E-01   0.000    
   12523   7.970      0.6364E-03 SPRIN         11  62.8%   867.3       10.86       0.000       489.5       0.000      0.5000E-01   0.000    
   12524   7.970      0.6364E-03 SPRIN         11   0.2%   33.66       506.9       0.000       489.5       0.000      0.5000E-01   0.000    
   12525   7.971      0.6364E-03 SPRIN         11  60.6%   839.0       27.67       0.000       489.5       0.000      0.5000E-01   0.000    
   12526   7.971      0.6364E-03 SPRIN         11  11.0%   178.2       420.9       0.000       489.5       0.000      0.5000E-01   0.000    
   12527   7.972      0.6364E-03 SPRIN         11  42.6%   599.1       170.5       0.000       489.5       0.000      0.5000E-01   0.000    
   12528   7.973      0.6364E-03 SPRIN         11  33.6%   479.0       241.9       0.000       489.5       0.000      0.5000E-01   0.000    
   12529   7.973      0.6364E-03 SPRIN         11  18.8%   281.0       359.7       0.000       489.5       0.000      0.5000E-01   0.000    
   12530   7.974      0.6364E-03 SPRIN         11  55.3%   768.4       69.66       0.000       489.5       0.000      0.5000E-01   0.000    
   12531   7.975      0.6364E-03 SPRIN         11   2.3%   61.86       490.1       0.000       489.5       0.000      0.5000E-01   0.000    
   12532   7.975      0.6364E-03 SPRIN         11  64.1%   885.5      0.4343E-02   0.000       489.5       0.000      0.5000E-01   0.000    
   12533   7.976      0.6364E-03 SPRIN         11   2.4%   63.73       489.0       0.000       489.5       0.000      0.5000E-01   0.000    
   12534   7.977      0.6364E-03 SPRIN         11  55.1%   765.0       71.72       0.000       489.5       0.000      0.5000E-01   0.000    
   12535   7.977      0.6364E-03 SPRIN         11  19.1%   285.5       357.0       0.000       489.5       0.000      0.5000E-01   0.000    
   12536   7.978      0.6364E-03 SPRIN         11  33.2%   474.0       244.9       0.000       489.5       0.000      0.5000E-01   0.000    
   12537   7.978      0.6364E-03 SPRIN         11  43.0%   603.8       167.7       0.000       489.5       0.000      0.5000E-01   0.000    
   12538   7.979      0.6364E-03 SPRIN         11  10.8%   174.5       423.1       0.000       489.5       0.000      0.5000E-01   0.000    
   12539   7.980      0.6364E-03 SPRIN         11  60.8%   841.3       26.34       0.000       489.5       0.000      0.5000E-01   0.000    
   CYCLE    TIME      TIME-STEP  ELEMENT          ERROR  I-ENERGY    K-ENERGY T  K-ENERGY R  EXT-WORK     MAS.ERR     TOTAL MASS  MASS ADDED
   12540   7.980      0.6364E-03 SPRIN         11   0.2%   33.25       507.1       0.000       489.5       0.000      0.5000E-01   0.000    
   12541   7.981      0.6364E-03 SPRIN         11  62.7%   865.8       11.73       0.000       489.5       0.000      0.5000E-01   0.000    
   12542   7.982      0.6364E-03 SPRIN         11   7.3%   128.9       450.2       0.000       489.5       0.000      0.5000E-01   0.000    
   12543   7.982      0.6364E-03 SPRIN         11  47.5%   663.7       132.0       0.000       489.5       0.000      0.5000E-01   0.000    
   12544   7.983      0.6364E-03 SPRIN         11  28.3%   408.2       284.0       0.000       489.5       0.000      0.5000E-01   0.000    
   12545   7.984      0.6364E-03 SPRIN         11  23.7%   347.5       320.1       0.000       489.5       0.000      0.5000E-01   0.000    
   12546   7.984      0.6364E-03 SPRIN         11  51.4%   715.7       101.1       0.000       489.5       0.000      0.5000E-01   0.000    
   12547   7.985      0.6364E-03 SPRIN         11   4.7%   93.25       471.4       0.000       489.5       0.000      0.5000E-01   0.000    
   12548   7.985      0.6364E-03 SPRIN         11  63.7%   880.1       3.249       0.000       489.5       0.000      0.5000E-01   0.000    
   12549   7.986      0.6364E-03 SPRIN         11   0.8%   42.47       501.6       0.000       489.5       0.000      0.5000E-01   0.000    
   12550   7.987      0.6364E-03 SPRIN         11  58.5%   809.9       45.00       0.000       489.5       0.000      0.5000E-01   0.000    
   12551   7.987      0.6364E-03 SPRIN         11  14.4%   223.5       393.9       0.000       489.5       0.000      0.5000E-01   0.000    
   12552   7.988      0.6364E-03 SPRIN         11  38.5%   544.2       203.1       0.000       489.5       0.000      0.5000E-01   0.000    
   12553   7.989      0.6364E-03 SPRIN         11  37.9%   535.4       208.3       0.000       489.5       0.000      0.5000E-01   0.000    
   12554   7.989      0.6364E-03 SPRIN         11  15.0%   231.0       389.5       0.000       489.5       0.000      0.5000E-01   0.000    
   12555   7.990      0.6364E-03 SPRIN         11  58.1%   804.7       48.07       0.000       489.5       0.000      0.5000E-01   0.000    
   12556   7.991      0.6364E-03 SPRIN         11   1.0%   44.53       500.4       0.000       489.5       0.000      0.5000E-01   0.000    
   12557   7.991      0.6364E-03 SPRIN         11  63.8%   881.4       2.455       0.000       489.5       0.000      0.5000E-01   0.000    
   12558   7.992      0.6364E-03 SPRIN         11   4.3%   88.71       474.1       0.000       489.5       0.000      0.5000E-01   0.000    
   12559   7.992      0.6364E-03 SPRIN         11  51.9%   722.8       96.85       0.000       489.5       0.000      0.5000E-01   0.000    
   12560   7.993      0.6364E-03 SPRIN         11  23.1%   338.9       325.2       0.000       489.5       0.000      0.5000E-01   0.000    
   12561   7.994      0.6364E-03 SPRIN         11  29.0%   417.1       278.7       0.000       489.5       0.000      0.5000E-01   0.000    
   12562   7.994      0.6364E-03 SPRIN         11  46.9%   655.8       136.7       0.000       489.5       0.000      0.5000E-01   0.000    
   12563   7.995      0.6364E-03 SPRIN         11   7.8%   134.7       446.8       0.000       489.5       0.000      0.5000E-01   0.000    
   12564   7.996      0.6364E-03 SPRIN         11  62.4%   863.0       13.39       0.000       489.5       0.000      0.5000E-01   0.000    
   12565   7.996      0.6364E-03 SPRIN         11   0.1%   32.65       507.5       0.000       489.5       0.000      0.5000E-01   0.000    
   12566   7.997      0.6364E-03 SPRIN         11  61.1%   845.1       24.03       0.000       489.5       0.000      0.5000E-01   0.000    
   12567   7.998      0.6364E-03 SPRIN         11  10.3%   167.9       427.0       0.000       489.5       0.000      0.5000E-01   0.000    
   12568   7.998      0.6364E-03 SPRIN         11  43.6%   612.1       162.7       0.000       489.5       0.000      0.5000E-01   0.000    
   12569   7.999      0.6364E-03 SPRIN         11  32.6%   465.0       250.2       0.000       489.5       0.000      0.5000E-01   0.000    
   12570   7.999      0.6364E-03 SPRIN         11  19.7%   293.7       352.1       0.000       489.5       0.000      0.5000E-01   0.000    
   12571   8.000      0.6364E-03 SPRIN         11  54.6%   758.7       75.47       0.000       489.5       0.000      0.5000E-01   0.000    
     ANIMATION FILE: SPR_PRE_2FLAGA041 WRITTEN
   12572   8.001      0.6364E-03 SPRIN         11   2.7%   67.20       486.9       0.000       489.5       0.000      0.5000E-01   0.000    
   12573   8.001      0.6364E-03 SPRIN         11  64.1%   885.4      0.9129E-01   0.000       489.5       0.000      0.5000E-01   0.000    
   12574   8.002      0.6364E-03 SPRIN         11   2.1%   58.66       492.0       0.000       489.5       0.000      0.5000E-01   0.000    
   12575   8.003      0.6364E-03 SPRIN         11  55.8%   774.5       66.04       0.000       489.5       0.000      0.5000E-01   0.000    
   12576   8.003      0.6364E-03 SPRIN         11  18.1%   272.9       364.5       0.000       489.5       0.000      0.5000E-01   0.000    
   12577   8.004      0.6364E-03 SPRIN         11  34.3%   487.9       236.6       0.000       489.5       0.000      0.5000E-01   0.000    
   12578   8.005      0.6364E-03 SPRIN         11  42.0%   590.6       175.5       0.000       489.5       0.000      0.5000E-01   0.000    
   12579   8.005      0.6364E-03 SPRIN         11  11.5%   185.0       416.8       0.000       489.5       0.000      0.5000E-01   0.000    
   12580   8.006      0.6364E-03 SPRIN         11  60.3%   834.9       30.14       0.000       489.5       0.000      0.5000E-01   0.000    
   12581   8.006      0.6364E-03 SPRIN         11   0.3%   34.55       506.3       0.000       489.5       0.000      0.5000E-01   0.000    
   12582   8.007      0.6364E-03 SPRIN         11  63.0%   869.8       9.371       0.000       489.5       0.000      0.5000E-01   0.000    
   12583   8.008      0.6364E-03 SPRIN         11   6.7%   120.3       455.3       0.000       489.5       0.000      0.5000E-01   0.000    
   12584   8.008      0.6364E-03 SPRIN         11  48.4%   675.8       124.8       0.000       489.5       0.000      0.5000E-01   0.000    
   12585   8.009      0.6364E-03 SPRIN         11  27.3%   394.4       292.2       0.000       489.5       0.000      0.5000E-01   0.000    
   12586   8.010      0.6364E-03 SPRIN         11  24.8%   361.0       312.1       0.000       489.5       0.000      0.5000E-01   0.000    
   12587   8.010      0.6364E-03 SPRIN         11  50.5%   704.4       107.8       0.000       489.5       0.000      0.5000E-01   0.000    
   12588   8.011      0.6364E-03 SPRIN         11   5.2%   100.6       467.0       0.000       489.5       0.000      0.5000E-01   0.000    
   12589   8.012      0.6364E-03 SPRIN         11  63.5%   877.6       4.705       0.000       489.5       0.000      0.5000E-01   0.000    
   12590   8.012      0.6364E-03 SPRIN         11   0.6%   39.62       503.3       0.000       489.5       0.000      0.5000E-01   0.000    
   12591   8.013      0.6364E-03 SPRIN         11  59.0%   817.6       40.40       0.000       489.5       0.000      0.5000E-01   0.000    
   12592   8.013      0.6364E-03 SPRIN         11  13.6%   212.0       400.8       0.000       489.5       0.000      0.5000E-01   0.000    
   12593   8.014      0.6364E-03 SPRIN         11  39.5%   557.8       195.0       0.000       489.5       0.000      0.5000E-01   0.000    
   12594   8.015      0.6364E-03 SPRIN         11  36.8%   521.7       216.5       0.000       489.5       0.000      0.5000E-01   0.000    
   CYCLE    TIME      TIME-STEP  ELEMENT          ERROR  I-ENERGY    K-ENERGY T  K-ENERGY R  EXT-WORK     MAS.ERR     TOTAL MASS  MASS ADDED
   12595   8.015      0.6364E-03 SPRIN         11  15.9%   242.9       382.4       0.000       489.5       0.000      0.5000E-01   0.000    
   12596   8.016      0.6364E-03 SPRIN         11  57.4%   796.4       53.04       0.000       489.5       0.000      0.5000E-01   0.000    
   12597   8.017      0.6364E-03 SPRIN         11   1.3%   48.11       498.3       0.000       489.5       0.000      0.5000E-01   0.000    
   12598   8.017      0.6364E-03 SPRIN         11  64.0%   883.1       1.439       0.000       489.5       0.000      0.5000E-01   0.000    
   12599   8.018      0.6364E-03 SPRIN         11   3.8%   81.96       478.1       0.000       489.5       0.000      0.5000E-01   0.000    
   12600   8.019      0.6364E-03 SPRIN         11  52.7%   733.6       90.42       0.000       489.5       0.000      0.5000E-01   0.000    
   12601   8.019      0.6364E-03 SPRIN         11  22.1%   325.6       333.2       0.000       489.5       0.000      0.5000E-01   0.000    
   12602   8.020      0.6364E-03 SPRIN         11  30.0%   431.0       270.4       0.000       489.5       0.000      0.5000E-01   0.000    
   12603   8.020      0.6364E-03 SPRIN         11  46.0%   643.4       144.1       0.000       489.5       0.000      0.5000E-01   0.000    
   12604   8.021      0.6364E-03 SPRIN         11   8.5%   143.9       441.3       0.000       489.5       0.000      0.5000E-01   0.000    
   12605   8.022      0.6364E-03 SPRIN         11  62.1%   858.3       16.17       0.000       489.5       0.000      0.5000E-01   0.000    
   12606   8.022      0.6364E-03 SPRIN         11   0.1%   32.09       507.8       0.000       489.5       0.000      0.5000E-01   0.000    
   12607   8.023      0.6364E-03 SPRIN         11  61.5%   850.9       20.63       0.000       489.5       0.000      0.5000E-01   0.000    
   12608   8.024      0.6364E-03 SPRIN         11   9.5%   157.8       433.0       0.000       489.5       0.000      0.5000E-01   0.000    
   12609   8.024      0.6364E-03 SPRIN         11  44.6%   625.1       155.0       0.000       489.5       0.000      0.5000E-01   0.000    
   12610   8.025      0.6364E-03 SPRIN         11  31.5%   451.1       258.5       0.000       489.5       0.000      0.5000E-01   0.000    
   12611   8.026      0.6364E-03 SPRIN         11  20.7%   306.7       344.4       0.000       489.5       0.000      0.5000E-01   0.000    
   12612   8.026      0.6364E-03 SPRIN         11  53.9%   748.6       81.46       0.000       489.5       0.000      0.5000E-01   0.000    
   12613   8.027      0.6364E-03 SPRIN         11   3.1%   72.95       483.5       0.000       489.5       0.000      0.5000E-01   0.000    
   12614   8.028      0.6364E-03 SPRIN         11  64.1%   884.8      0.4490       0.000       489.5       0.000      0.5000E-01   0.000    
   12615   8.028      0.6364E-03 SPRIN         11   1.7%   54.02       494.7       0.000       489.5       0.000      0.5000E-01   0.000    
   12616   8.029      0.6364E-03 SPRIN         11  56.5%   783.7       60.56       0.000       489.5       0.000      0.5000E-01   0.000    
   12617   8.029      0.6364E-03 SPRIN         11  17.2%   260.4       371.9       0.000       489.5       0.000      0.5000E-01   0.000    
   12618   8.030      0.6364E-03 SPRIN         11  35.3%   501.8       228.3       0.000       489.5       0.000      0.5000E-01   0.000    
   12619   8.031      0.6364E-03 SPRIN         11  41.0%   577.2       183.4       0.000       489.5       0.000      0.5000E-01   0.000    
   12620   8.031      0.6364E-03 SPRIN         11  12.4%   195.9       410.4       0.000       489.5       0.000      0.5000E-01   0.000    
   12621   8.032      0.6364E-03 SPRIN         11  59.8%   828.1       34.17       0.000       489.5       0.000      0.5000E-01   0.000    
   12622   8.033      0.6364E-03 SPRIN         11   0.4%   36.30       505.3       0.000       489.5       0.000      0.5000E-01   0.000    
   12623   8.033      0.6364E-03 SPRIN         11  63.2%   873.3       7.269       0.000       489.5       0.000      0.5000E-01   0.000    
   12624   8.034      0.6364E-03 SPRIN         11   6.1%   111.9       460.3       0.000       489.5       0.000      0.5000E-01   0.000    
   12625   8.035      0.6364E-03 SPRIN         11  49.3%   687.7       117.7       0.000       489.5       0.000      0.5000E-01   0.000    
   12626   8.035      0.6364E-03 SPRIN         11  26.2%   380.7       300.4       0.000       489.5       0.000      0.5000E-01   0.000    
   12627   8.036      0.6364E-03 SPRIN         11  25.8%   374.7       304.0       0.000       489.5       0.000      0.5000E-01   0.000    
   12628   8.036      0.6364E-03 SPRIN         11  49.7%   692.9       114.6       0.000       489.5       0.000      0.5000E-01   0.000    
   12629   8.037      0.6364E-03 SPRIN         11   5.8%   108.4       462.4       0.000       489.5       0.000      0.5000E-01   0.000    
   12630   8.038      0.6364E-03 SPRIN         11  63.3%   874.7       6.427       0.000       489.5       0.000      0.5000E-01   0.000    
   12631   8.038      0.6364E-03 SPRIN         11   0.5%   37.22       504.7       0.000       489.5       0.000      0.5000E-01   0.000    
   12632   8.039      0.6364E-03 SPRIN         11  59.6%   825.0       36.02       0.000       489.5       0.000      0.5000E-01   0.000    
   12633   8.040      0.6364E-03 SPRIN         11  12.7%   200.7       407.5       0.000       489.5       0.000      0.5000E-01   0.000    
   12634   8.040      0.6364E-03 SPRIN         11  40.5%   571.3       186.9       0.000       489.5       0.000      0.5000E-01   0.000    
   12635   8.041      0.6364E-03 SPRIN         11  35.8%   507.9       224.7       0.000       489.5       0.000      0.5000E-01   0.000    
   12636   8.042      0.6364E-03 SPRIN         11  16.8%   255.0       375.2       0.000       489.5       0.000      0.5000E-01   0.000    
   12637   8.042      0.6364E-03 SPRIN         11  56.8%   787.7       58.22       0.000       489.5       0.000      0.5000E-01   0.000    
   12638   8.043      0.6364E-03 SPRIN         11   1.6%   52.12       495.9       0.000       489.5       0.000      0.5000E-01   0.000    
   12639   8.043      0.6364E-03 SPRIN         11  64.0%   884.4      0.6922       0.000       489.5       0.000      0.5000E-01   0.000    
   12640   8.044      0.6364E-03 SPRIN         11   3.3%   75.62       481.9       0.000       489.5       0.000      0.5000E-01   0.000    
   12641   8.045      0.6364E-03 SPRIN         11  53.5%   744.1       84.16       0.000       489.5       0.000      0.5000E-01   0.000    
   12642   8.045      0.6364E-03 SPRIN         11  21.1%   312.4       341.0       0.000       489.5       0.000      0.5000E-01   0.000    
   12643   8.046      0.6364E-03 SPRIN         11  31.1%   444.9       262.1       0.000       489.5       0.000      0.5000E-01   0.000    
   12644   8.047      0.6364E-03 SPRIN         11  45.0%   630.7       151.6       0.000       489.5       0.000      0.5000E-01   0.000    
   12645   8.047      0.6364E-03 SPRIN         11   9.2%   153.5       435.6       0.000       489.5       0.000      0.5000E-01   0.000    
   12646   8.048      0.6364E-03 SPRIN         11  61.7%   853.2       19.21       0.000       489.5       0.000      0.5000E-01   0.000    
   12647   8.049      0.6364E-03 SPRIN         11   0.1%   31.99       507.9       0.000       489.5       0.000      0.5000E-01   0.000    
   12648   8.049      0.6364E-03 SPRIN         11  61.9%   856.2       17.48       0.000       489.5       0.000      0.5000E-01   0.000    
   12649   8.050      0.6364E-03 SPRIN         11   8.8%   148.1       438.8       0.000       489.5       0.000      0.5000E-01   0.000    
   CYCLE    TIME      TIME-STEP  ELEMENT          ERROR  I-ENERGY    K-ENERGY T  K-ENERGY R  EXT-WORK     MAS.ERR     TOTAL MASS  MASS ADDED
   12650   8.050      0.6364E-03 SPRIN         11  45.5%   637.8       147.4       0.000       489.5       0.000      0.5000E-01   0.000    
   12651   8.051      0.6364E-03 SPRIN         11  30.5%   437.1       266.8       0.000       489.5       0.000      0.5000E-01   0.000    
   12652   8.052      0.6364E-03 SPRIN         11  21.7%   319.8       336.6       0.000       489.5       0.000      0.5000E-01   0.000    
   12653   8.052      0.6364E-03 SPRIN         11  53.1%   738.2       87.64       0.000       489.5       0.000      0.5000E-01   0.000    
   12654   8.053      0.6364E-03 SPRIN         11   3.6%   79.12       479.8       0.000       489.5       0.000      0.5000E-01   0.000    
   12655   8.054      0.6364E-03 SPRIN         11  64.0%   883.7       1.077       0.000       489.5       0.000      0.5000E-01   0.000    
   12656   8.054      0.6364E-03 SPRIN         11   1.4%   49.82       497.2       0.000       489.5       0.000      0.5000E-01   0.000    
   12657   8.055      0.6364E-03 SPRIN         11  57.2%   792.6       55.29       0.000       489.5       0.000      0.5000E-01   0.000    
   12658   8.056      0.6364E-03 SPRIN         11  16.3%   248.2       379.2       0.000       489.5       0.000      0.5000E-01   0.000    
   12659   8.056      0.6364E-03 SPRIN         11  36.4%   515.6       220.1       0.000       489.5       0.000      0.5000E-01   0.000    
   12660   8.057      0.6364E-03 SPRIN         11  40.0%   563.8       191.4       0.000       489.5       0.000      0.5000E-01   0.000    
   12661   8.057      0.6364E-03 SPRIN         11  13.2%   207.0       403.7       0.000       489.5       0.000      0.5000E-01   0.000    
   12662   8.058      0.6364E-03 SPRIN         11  59.3%   820.9       38.45       0.000       489.5       0.000      0.5000E-01   0.000    
   12663   8.059      0.6364E-03 SPRIN         11   0.5%   38.50       504.0       0.000       489.5       0.000      0.5000E-01   0.000    
   12664   8.059      0.6364E-03 SPRIN         11  63.4%   876.4       5.431       0.000       489.5       0.000      0.5000E-01   0.000    
   12665   8.060      0.6364E-03 SPRIN         11   5.5%   104.0       465.0       0.000       489.5       0.000      0.5000E-01   0.000    
   12666   8.061      0.6364E-03 SPRIN         11  50.2%   699.4       110.8       0.000       489.5       0.000      0.5000E-01   0.000    
   12667   8.061      0.6364E-03 SPRIN         11  25.2%   367.0       308.5       0.000       489.5       0.000      0.5000E-01   0.000    
   12668   8.062      0.6364E-03 SPRIN         11  26.8%   388.4       295.8       0.000       489.5       0.000      0.5000E-01   0.000    
   12669   8.063      0.6364E-03 SPRIN         11  48.8%   681.1       121.6       0.000       489.5       0.000      0.5000E-01   0.000    
   12670   8.063      0.6364E-03 SPRIN         11   6.4%   116.6       457.5       0.000       489.5       0.000      0.5000E-01   0.000    
   12671   8.064      0.6364E-03 SPRIN         11  63.1%   871.4       8.413       0.000       489.5       0.000      0.5000E-01   0.000    
   12672   8.064      0.6364E-03 SPRIN         11   0.3%   35.26       505.9       0.000       489.5       0.000      0.5000E-01   0.000    
   12673   8.065      0.6364E-03 SPRIN         11  60.1%   831.9       31.88       0.000       489.5       0.000      0.5000E-01   0.000    
   12674   8.066      0.6364E-03 SPRIN         11  11.9%   189.7       414.0       0.000       489.5       0.000      0.5000E-01   0.000    
   12675   8.066      0.6364E-03 SPRIN         11  41.6%   584.7       179.0       0.000       489.5       0.000      0.5000E-01   0.000    
   12676   8.067      0.6364E-03 SPRIN         11  34.7%   494.0       233.0       0.000       489.5       0.000      0.5000E-01   0.000    
   12677   8.068      0.6364E-03 SPRIN         11  17.7%   267.4       367.8       0.000       489.5       0.000      0.5000E-01   0.000    
   12678   8.068      0.6364E-03 SPRIN         11  56.1%   778.6       63.60       0.000       489.5       0.000      0.5000E-01   0.000    
   12679   8.069      0.6364E-03 SPRIN         11   1.9%   56.57       493.2       0.000       489.5       0.000      0.5000E-01   0.000    
   12680   8.070      0.6364E-03 SPRIN         11  64.1%   885.2      0.2154       0.000       489.5       0.000      0.5000E-01   0.000    
   12681   8.070      0.6364E-03 SPRIN         11   2.9%   69.68       485.4       0.000       489.5       0.000      0.5000E-01   0.000    
   12682   8.071      0.6364E-03 SPRIN         11  54.3%   754.3       78.08       0.000       489.5       0.000      0.5000E-01   0.000    
   12683   8.071      0.6364E-03 SPRIN         11  20.1%   299.4       348.7       0.000       489.5       0.000      0.5000E-01   0.000    
   12684   8.072      0.6364E-03 SPRIN         11  32.1%   458.9       253.9       0.000       489.5       0.000      0.5000E-01   0.000    
   12685   8.073      0.6364E-03 SPRIN         11  44.0%   617.8       159.3       0.000       489.5       0.000      0.5000E-01   0.000    
   12686   8.073      0.6364E-03 SPRIN         11   9.9%   163.4       429.7       0.000       489.5       0.000      0.5000E-01   0.000    
   12687   8.074      0.6364E-03 SPRIN         11  61.3%   847.7       22.50       0.000       489.5       0.000      0.5000E-01   0.000    
   12688   8.075      0.6364E-03 SPRIN         11   0.1%   32.35       507.6       0.000       489.5       0.000      0.5000E-01   0.000    
   12689   8.075      0.6364E-03 SPRIN         11  62.3%   861.0       14.58       0.000       489.5       0.000      0.5000E-01   0.000    
   12690   8.076      0.6364E-03 SPRIN         11   8.1%   138.7       444.4       0.000       489.5       0.000      0.5000E-01   0.000    
   12691   8.077      0.6364E-03 SPRIN         11  46.5%   650.4       139.9       0.000       489.5       0.000      0.5000E-01   0.000    
   12692   8.077      0.6364E-03 SPRIN         11  29.4%   423.2       275.1       0.000       489.5       0.000      0.5000E-01   0.000    
   12693   8.078      0.6364E-03 SPRIN         11  22.7%   333.0       328.7       0.000       489.5       0.000      0.5000E-01   0.000    
   12694   8.078      0.6364E-03 SPRIN         11  52.3%   727.5       94.00       0.000       489.5       0.000      0.5000E-01   0.000    
   12695   8.079      0.6364E-03 SPRIN         11   4.1%   85.69       475.9       0.000       489.5       0.000      0.5000E-01   0.000    
   12696   8.080      0.6364E-03 SPRIN         11  63.9%   882.2       1.975       0.000       489.5       0.000      0.5000E-01   0.000    
   12697   8.080      0.6364E-03 SPRIN         11   1.1%   46.05       499.5       0.000       489.5       0.000      0.5000E-01   0.000    
   12698   8.081      0.6364E-03 SPRIN         11  57.8%   801.1       50.23       0.000       489.5       0.000      0.5000E-01   0.000    
   12699   8.082      0.6364E-03 SPRIN         11  15.4%   236.2       386.4       0.000       489.5       0.000      0.5000E-01   0.000    
   12700   8.082      0.6364E-03 SPRIN         11  37.4%   529.4       211.9       0.000       489.5       0.000      0.5000E-01   0.000    
   12701   8.083      0.6364E-03 SPRIN         11  39.0%   550.2       199.5       0.000       489.5       0.000      0.5000E-01   0.000    
   12702   8.084      0.6364E-03 SPRIN         11  14.1%   218.4       397.0       0.000       489.5       0.000      0.5000E-01   0.000    
   12703   8.084      0.6364E-03 SPRIN         11  58.7%   813.3       42.95       0.000       489.5       0.000      0.5000E-01   0.000    
   12704   8.085      0.6364E-03 SPRIN         11   0.7%   41.16       502.4       0.000       489.5       0.000      0.5000E-01   0.000    
   CYCLE    TIME      TIME-STEP  ELEMENT          ERROR  I-ENERGY    K-ENERGY T  K-ENERGY R  EXT-WORK     MAS.ERR     TOTAL MASS  MASS ADDED
   12705   8.085      0.6364E-03 SPRIN         11  63.6%   879.0       3.857       0.000       489.5       0.000      0.5000E-01   0.000    
   12706   8.086      0.6364E-03 SPRIN         11   4.9%   96.45       469.5       0.000       489.5       0.000      0.5000E-01   0.000    
   12707   8.087      0.6364E-03 SPRIN         11  51.0%   710.7       104.0       0.000       489.5       0.000      0.5000E-01   0.000    
   12708   8.087      0.6364E-03 SPRIN         11  24.2%   353.5       316.6       0.000       489.5       0.000      0.5000E-01   0.000    
   12709   8.088      0.6364E-03 SPRIN         11  27.8%   402.1       287.6       0.000       489.5       0.000      0.5000E-01   0.000    
   12710   8.089      0.6364E-03 SPRIN         11  47.9%   669.1       128.8       0.000       489.5       0.000      0.5000E-01   0.000    
   12711   8.089      0.6364E-03 SPRIN         11   7.0%   125.1       452.5       0.000       489.5       0.000      0.5000E-01   0.000    
   12712   8.090      0.6364E-03 SPRIN         11  62.8%   867.6       10.66       0.000       489.5       0.000      0.5000E-01   0.000    
   12713   8.091      0.6364E-03 SPRIN         11   0.2%   33.76       506.8       0.000       489.5       0.000      0.5000E-01   0.000    
   12714   8.091      0.6364E-03 SPRIN         11  60.6%   838.5       27.98       0.000       489.5       0.000      0.5000E-01   0.000    
   12715   8.092      0.6364E-03 SPRIN         11  11.1%   179.1       420.3       0.000       489.5       0.000      0.5000E-01   0.000    
   12716   8.092      0.6364E-03 SPRIN         11  42.5%   598.0       171.1       0.000       489.5       0.000      0.5000E-01   0.000    
   12717   8.093      0.6364E-03 SPRIN         11  33.7%   480.1       241.2       0.000       489.5       0.000      0.5000E-01   0.000    
   12718   8.094      0.6364E-03 SPRIN         11  18.7%   279.9       360.3       0.000       489.5       0.000      0.5000E-01   0.000    
   12719   8.094      0.6364E-03 SPRIN         11  55.4%   769.2       69.20       0.000       489.5       0.000      0.5000E-01   0.000    
   12720   8.095      0.6364E-03 SPRIN         11   2.3%   61.45       490.3       0.000       489.5       0.000      0.5000E-01   0.000    
   12721   8.096      0.6364E-03 SPRIN         11  64.1%   885.5      0.9228E-02   0.000       489.5       0.000      0.5000E-01   0.000    
   12722   8.096      0.6364E-03 SPRIN         11   2.5%   64.16       488.7       0.000       489.5       0.000      0.5000E-01   0.000    
   12723   8.097      0.6364E-03 SPRIN         11  55.0%   764.2       72.19       0.000       489.5       0.000      0.5000E-01   0.000    
   12724   8.098      0.6364E-03 SPRIN         11  19.2%   286.6       356.4       0.000       489.5       0.000      0.5000E-01   0.000    
   12725   8.098      0.6364E-03 SPRIN         11  33.2%   472.8       245.6       0.000       489.5       0.000      0.5000E-01   0.000    
   12726   8.099      0.6364E-03 SPRIN         11  43.1%   604.8       167.0       0.000       489.5       0.000      0.5000E-01   0.000    
   12727   8.099      0.6364E-03 SPRIN         11  10.7%   173.6       423.6       0.000       489.5       0.000      0.5000E-01   0.000    
   12728   8.100      0.6364E-03 SPRIN         11  60.8%   841.8       26.04       0.000       489.5       0.000      0.5000E-01   0.000    
   12729   8.101      0.6364E-03 SPRIN         11   0.1%   33.16       507.2       0.000       489.5       0.000      0.5000E-01   0.000    
   12730   8.101      0.6364E-03 SPRIN         11  62.6%   865.5       11.94       0.000       489.5       0.000      0.5000E-01   0.000    
   12731   8.102      0.6364E-03 SPRIN         11   7.4%   129.7       449.7       0.000       489.5       0.000      0.5000E-01   0.000    
   12732   8.103      0.6364E-03 SPRIN         11  47.4%   662.7       132.6       0.000       489.5       0.000      0.5000E-01   0.000    
   12733   8.103      0.6364E-03 SPRIN         11  28.4%   409.4       283.3       0.000       489.5       0.000      0.5000E-01   0.000    
   12734   8.104      0.6364E-03 SPRIN         11  23.7%   346.4       320.8       0.000       489.5       0.000      0.5000E-01   0.000    
   12735   8.105      0.6364E-03 SPRIN         11  51.5%   716.6       100.5       0.000       489.5       0.000      0.5000E-01   0.000    
   12736   8.105      0.6364E-03 SPRIN         11   4.6%   92.66       471.8       0.000       489.5       0.000      0.5000E-01   0.000    
   12737   8.106      0.6364E-03 SPRIN         11  63.7%   880.2       3.142       0.000       489.5       0.000      0.5000E-01   0.000    
   12738   8.106      0.6364E-03 SPRIN         11   0.9%   42.72       501.5       0.000       489.5       0.000      0.5000E-01   0.000    
   12739   8.107      0.6364E-03 SPRIN         11  58.4%   809.2       45.39       0.000       489.5       0.000      0.5000E-01   0.000    
   12740   8.108      0.6364E-03 SPRIN         11  14.5%   224.4       393.4       0.000       489.5       0.000      0.5000E-01   0.000    
   12741   8.108      0.6364E-03 SPRIN         11  38.4%   543.1       203.7       0.000       489.5       0.000      0.5000E-01   0.000    
   12742   8.109      0.6364E-03 SPRIN         11  37.9%   536.6       207.6       0.000       489.5       0.000      0.5000E-01   0.000    
   12743   8.110      0.6364E-03 SPRIN         11  14.9%   230.0       390.0       0.000       489.5       0.000      0.5000E-01   0.000    
   12744   8.110      0.6364E-03 SPRIN         11  58.1%   805.4       47.67       0.000       489.5       0.000      0.5000E-01   0.000    
   12745   8.111      0.6364E-03 SPRIN         11   1.0%   44.26       500.6       0.000       489.5       0.000      0.5000E-01   0.000    
   12746   8.112      0.6364E-03 SPRIN         11  63.8%   881.2       2.551       0.000       489.5       0.000      0.5000E-01   0.000    
   12747   8.112      0.6364E-03 SPRIN         11   4.4%   89.28       473.8       0.000       489.5       0.000      0.5000E-01   0.000    
   12748   8.113      0.6364E-03 SPRIN         11  51.8%   721.9       97.38       0.000       489.5       0.000      0.5000E-01   0.000    
   12749   8.113      0.6364E-03 SPRIN         11  23.2%   340.0       324.6       0.000       489.5       0.000      0.5000E-01   0.000    
   12750   8.114      0.6364E-03 SPRIN         11  28.9%   416.0       279.4       0.000       489.5       0.000      0.5000E-01   0.000    
   12751   8.115      0.6364E-03 SPRIN         11  47.0%   656.8       136.1       0.000       489.5       0.000      0.5000E-01   0.000    
   12752   8.115      0.6364E-03 SPRIN         11   7.7%   133.9       447.2       0.000       489.5       0.000      0.5000E-01   0.000    
   12753   8.116      0.6364E-03 SPRIN         11  62.5%   863.4       13.17       0.000       489.5       0.000      0.5000E-01   0.000    
   12754   8.117      0.6364E-03 SPRIN         11   0.1%   32.72       507.4       0.000       489.5       0.000      0.5000E-01   0.000    
   12755   8.117      0.6364E-03 SPRIN         11  61.1%   844.7       24.31       0.000       489.5       0.000      0.5000E-01   0.000    
   12756   8.118      0.6364E-03 SPRIN         11  10.3%   168.7       426.5       0.000       489.5       0.000      0.5000E-01   0.000    
   12757   8.119      0.6364E-03 SPRIN         11  43.5%   611.1       163.3       0.000       489.5       0.000      0.5000E-01   0.000    
   12758   8.119      0.6364E-03 SPRIN         11  32.7%   466.2       249.5       0.000       489.5       0.000      0.5000E-01   0.000    
   12759   8.120      0.6364E-03 SPRIN         11  19.6%   292.7       352.7       0.000       489.5       0.000      0.5000E-01   0.000    
   CYCLE    TIME      TIME-STEP  ELEMENT          ERROR  I-ENERGY    K-ENERGY T  K-ENERGY R  EXT-WORK     MAS.ERR     TOTAL MASS  MASS ADDED
   12760   8.120      0.6364E-03 SPRIN         11  54.7%   759.5       74.98       0.000       489.5       0.000      0.5000E-01   0.000    
   12761   8.121      0.6364E-03 SPRIN         11   2.7%   66.75       487.2       0.000       489.5       0.000      0.5000E-01   0.000    
   12762   8.122      0.6364E-03 SPRIN         11  64.1%   885.4      0.7397E-01   0.000       489.5       0.000      0.5000E-01   0.000    
   12763   8.122      0.6364E-03 SPRIN         11   2.1%   59.06       491.7       0.000       489.5       0.000      0.5000E-01   0.000    
   12764   8.123      0.6364E-03 SPRIN         11  55.7%   773.8       66.50       0.000       489.5       0.000      0.5000E-01   0.000    
   12765   8.124      0.6364E-03 SPRIN         11  18.2%   273.9       363.9       0.000       489.5       0.000      0.5000E-01   0.000    
   12766   8.124      0.6364E-03 SPRIN         11  34.2%   486.7       237.3       0.000       489.5       0.000      0.5000E-01   0.000    
   12767   8.125      0.6364E-03 SPRIN         11  42.1%   591.7       174.9       0.000       489.5       0.000      0.5000E-01   0.000    
   12768   8.126      0.6364E-03 SPRIN         11  11.5%   184.1       417.3       0.000       489.5       0.000      0.5000E-01   0.000    
   12769   8.126      0.6364E-03 SPRIN         11  60.4%   835.4       29.81       0.000       489.5       0.000      0.5000E-01   0.000    
   12770   8.127      0.6364E-03 SPRIN         11   0.2%   34.42       506.4       0.000       489.5       0.000      0.5000E-01   0.000    
   12771   8.127      0.6364E-03 SPRIN         11  62.9%   869.5       9.554       0.000       489.5       0.000      0.5000E-01   0.000    
   12772   8.128      0.6364E-03 SPRIN         11   6.7%   121.0       454.9       0.000       489.5       0.000      0.5000E-01   0.000    
   12773   8.129      0.6364E-03 SPRIN         11  48.3%   674.9       125.4       0.000       489.5       0.000      0.5000E-01   0.000    
   12774   8.129      0.6364E-03 SPRIN         11  27.4%   395.6       291.5       0.000       489.5       0.000      0.5000E-01   0.000    
   12775   8.130      0.6364E-03 SPRIN         11  24.7%   359.9       312.7       0.000       489.5       0.000      0.5000E-01   0.000    
   12776   8.131      0.6364E-03 SPRIN         11  50.6%   705.3       107.2       0.000       489.5       0.000      0.5000E-01   0.000    
   12777   8.131      0.6364E-03 SPRIN         11   5.2%   100.0       467.4       0.000       489.5       0.000      0.5000E-01   0.000    
   12778   8.132      0.6364E-03 SPRIN         11  63.6%   877.8       4.576       0.000       489.5       0.000      0.5000E-01   0.000    
   12779   8.133      0.6364E-03 SPRIN         11   0.6%   39.83       503.2       0.000       489.5       0.000      0.5000E-01   0.000    
   12780   8.133      0.6364E-03 SPRIN         11  59.0%   817.0       40.77       0.000       489.5       0.000      0.5000E-01   0.000    
   12781   8.134      0.6364E-03 SPRIN         11  13.6%   212.9       400.2       0.000       489.5       0.000      0.5000E-01   0.000    
   12782   8.134      0.6364E-03 SPRIN         11  39.5%   556.7       195.6       0.000       489.5       0.000      0.5000E-01   0.000    
   12783   8.135      0.6364E-03 SPRIN         11  36.9%   522.8       215.8       0.000       489.5       0.000      0.5000E-01   0.000    
   12784   8.136      0.6364E-03 SPRIN         11  15.8%   241.9       383.0       0.000       489.5       0.000      0.5000E-01   0.000    
   12785   8.136      0.6364E-03 SPRIN         11  57.5%   797.1       52.62       0.000       489.5       0.000      0.5000E-01   0.000    
   12786   8.137      0.6364E-03 SPRIN         11   1.2%   47.80       498.4       0.000       489.5       0.000      0.5000E-01   0.000    
   12787   8.138      0.6364E-03 SPRIN         11  63.9%   883.0       1.512       0.000       489.5       0.000      0.5000E-01   0.000    
   12788   8.138      0.6364E-03 SPRIN         11   3.9%   82.50       477.8       0.000       489.5       0.000      0.5000E-01   0.000    
   12789   8.139      0.6364E-03 SPRIN         11  52.7%   732.7       90.94       0.000       489.5       0.000      0.5000E-01   0.000    
   12790   8.140      0.6364E-03 SPRIN         11  22.2%   326.7       332.5       0.000       489.5       0.000      0.5000E-01   0.000    
   12791   8.140      0.6364E-03 SPRIN         11  29.9%   429.9       271.1       0.000       489.5       0.000      0.5000E-01   0.000    
   12792   8.141      0.6364E-03 SPRIN         11  46.0%   644.4       143.5       0.000       489.5       0.000      0.5000E-01   0.000    
   12793   8.141      0.6364E-03 SPRIN         11   8.4%   143.1       441.7       0.000       489.5       0.000      0.5000E-01   0.000    
   12794   8.142      0.6364E-03 SPRIN         11  62.1%   858.7       15.93       0.000       489.5       0.000      0.5000E-01   0.000    
   12795   8.143      0.6364E-03 SPRIN         11   0.1%   32.12       507.8       0.000       489.5       0.000      0.5000E-01   0.000    
   12796   8.143      0.6364E-03 SPRIN         11  61.5%   850.4       20.90       0.000       489.5       0.000      0.5000E-01   0.000    
   12797   8.144      0.6364E-03 SPRIN         11   9.6%   158.6       432.5       0.000       489.5       0.000      0.5000E-01   0.000    
   12798   8.145      0.6364E-03 SPRIN         11  44.5%   624.0       155.6       0.000       489.5       0.000      0.5000E-01   0.000    
   12799   8.145      0.6364E-03 SPRIN         11  31.6%   452.2       257.8       0.000       489.5       0.000      0.5000E-01   0.000    
   12800   8.146      0.6364E-03 SPRIN         11  20.6%   305.6       345.1       0.000       489.5       0.000      0.5000E-01   0.000    
   12801   8.147      0.6364E-03 SPRIN         11  53.9%   749.5       80.96       0.000       489.5       0.000      0.5000E-01   0.000    
   12802   8.147      0.6364E-03 SPRIN         11   3.1%   72.47       483.8       0.000       489.5       0.000      0.5000E-01   0.000    
   12803   8.148      0.6364E-03 SPRIN         11  64.1%   884.8      0.4095       0.000       489.5       0.000      0.5000E-01   0.000    
   12804   8.148      0.6364E-03 SPRIN         11   1.7%   54.39       494.5       0.000       489.5       0.000      0.5000E-01   0.000    
   12805   8.149      0.6364E-03 SPRIN         11  56.4%   783.0       61.00       0.000       489.5       0.000      0.5000E-01   0.000    
   12806   8.150      0.6364E-03 SPRIN         11  17.3%   261.4       371.3       0.000       489.5       0.000      0.5000E-01   0.000    
   12807   8.150      0.6364E-03 SPRIN         11  35.2%   500.6       229.0       0.000       489.5       0.000      0.5000E-01   0.000    
   12808   8.151      0.6364E-03 SPRIN         11  41.1%   578.3       182.8       0.000       489.5       0.000      0.5000E-01   0.000    
   12809   8.152      0.6364E-03 SPRIN         11  12.3%   195.0       410.9       0.000       489.5       0.000      0.5000E-01   0.000    
   12810   8.152      0.6364E-03 SPRIN         11  59.9%   828.7       33.83       0.000       489.5       0.000      0.5000E-01   0.000    
   12811   8.153      0.6364E-03 SPRIN         11   0.4%   36.14       505.4       0.000       489.5       0.000      0.5000E-01   0.000    
   12812   8.154      0.6364E-03 SPRIN         11  63.2%   873.0       7.431       0.000       489.5       0.000      0.5000E-01   0.000    
   12813   8.154      0.6364E-03 SPRIN         11   6.1%   112.6       459.9       0.000       489.5       0.000      0.5000E-01   0.000    
   12814   8.155      0.6364E-03 SPRIN         11  49.2%   686.8       118.3       0.000       489.5       0.000      0.5000E-01   0.000    
   CYCLE    TIME      TIME-STEP  ELEMENT          ERROR  I-ENERGY    K-ENERGY T  K-ENERGY R  EXT-WORK     MAS.ERR     TOTAL MASS  MASS ADDED
   12815   8.155      0.6364E-03 SPRIN         11  26.3%   381.8       299.7       0.000       489.5       0.000      0.5000E-01   0.000    
   12816   8.156      0.6364E-03 SPRIN         11  25.7%   373.5       304.6       0.000       489.5       0.000      0.5000E-01   0.000    
   12817   8.157      0.6364E-03 SPRIN         11  49.7%   693.8       114.1       0.000       489.5       0.000      0.5000E-01   0.000    
   12818   8.157      0.6364E-03 SPRIN         11   5.7%   107.8       462.8       0.000       489.5       0.000      0.5000E-01   0.000    
   12819   8.158      0.6364E-03 SPRIN         11  63.3%   875.0       6.276       0.000       489.5       0.000      0.5000E-01   0.000    
   12820   8.159      0.6364E-03 SPRIN         11   0.5%   37.40       504.6       0.000       489.5       0.000      0.5000E-01   0.000    
   12821   8.159      0.6364E-03 SPRIN         11  59.5%   824.4       36.37       0.000       489.5       0.000      0.5000E-01   0.000    
   12822   8.160      0.6364E-03 SPRIN         11  12.8%   201.6       406.9       0.000       489.5       0.000      0.5000E-01   0.000    
   12823   8.161      0.6364E-03 SPRIN         11  40.5%   570.2       187.6       0.000       489.5       0.000      0.5000E-01   0.000    
   12824   8.161      0.6364E-03 SPRIN         11  35.9%   509.0       224.0       0.000       489.5       0.000      0.5000E-01   0.000    
   12825   8.162      0.6364E-03 SPRIN         11  16.7%   254.0       375.8       0.000       489.5       0.000      0.5000E-01   0.000    
   12826   8.162      0.6364E-03 SPRIN         11  56.8%   788.4       57.78       0.000       489.5       0.000      0.5000E-01   0.000    
   12827   8.163      0.6364E-03 SPRIN         11   1.5%   51.77       496.1       0.000       489.5       0.000      0.5000E-01   0.000    
   12828   8.164      0.6364E-03 SPRIN         11  64.0%   884.3      0.7432       0.000       489.5       0.000      0.5000E-01   0.000    
   12829   8.164      0.6364E-03 SPRIN         11   3.4%   76.12       481.6       0.000       489.5       0.000      0.5000E-01   0.000    
   12830   8.165      0.6364E-03 SPRIN         11  53.5%   743.2       84.66       0.000       489.5       0.000      0.5000E-01   0.000    
   12831   8.166      0.6364E-03 SPRIN         11  21.2%   313.5       340.4       0.000       489.5       0.000      0.5000E-01   0.000    
   12832   8.166      0.6364E-03 SPRIN         11  31.0%   443.8       262.8       0.000       489.5       0.000      0.5000E-01   0.000    
   12833   8.167      0.6364E-03 SPRIN         11  45.1%   631.7       151.0       0.000       489.5       0.000      0.5000E-01   0.000    
   12834   8.168      0.6364E-03 SPRIN         11   9.1%   152.7       436.0       0.000       489.5       0.000      0.5000E-01   0.000    
   12835   8.168      0.6364E-03 SPRIN         11  61.7%   853.7       18.95       0.000       489.5       0.000      0.5000E-01   0.000    
   12836   8.169      0.6364E-03 SPRIN         11   0.1%   31.98       507.9       0.000       489.5       0.000      0.5000E-01   0.000    
   12837   8.169      0.6364E-03 SPRIN         11  61.9%   855.7       17.73       0.000       489.5       0.000      0.5000E-01   0.000    
   12838   8.170      0.6364E-03 SPRIN         11   8.8%   148.9       438.3       0.000       489.5       0.000      0.5000E-01   0.000    
   12839   8.171      0.6364E-03 SPRIN         11  45.5%   636.8       148.0       0.000       489.5       0.000      0.5000E-01   0.000    
   12840   8.171      0.6364E-03 SPRIN         11  30.6%   438.3       266.1       0.000       489.5       0.000      0.5000E-01   0.000    
   12841   8.172      0.6364E-03 SPRIN         11  21.6%   318.7       337.3       0.000       489.5       0.000      0.5000E-01   0.000    
   12842   8.173      0.6364E-03 SPRIN         11  53.1%   739.1       87.13       0.000       489.5       0.000      0.5000E-01   0.000    
   12843   8.173      0.6364E-03 SPRIN         11   3.6%   78.60       480.1       0.000       489.5       0.000      0.5000E-01   0.000    
   12844   8.174      0.6364E-03 SPRIN         11  64.0%   883.8       1.016       0.000       489.5       0.000      0.5000E-01   0.000    
   12845   8.175      0.6364E-03 SPRIN         11   1.4%   50.15       497.1       0.000       489.5       0.000      0.5000E-01   0.000    
   12846   8.175      0.6364E-03 SPRIN         11  57.1%   791.9       55.71       0.000       489.5       0.000      0.5000E-01   0.000    
   12847   8.176      0.6364E-03 SPRIN         11  16.4%   249.2       378.6       0.000       489.5       0.000      0.5000E-01   0.000    
   12848   8.176      0.6364E-03 SPRIN         11  36.3%   514.5       220.8       0.000       489.5       0.000      0.5000E-01   0.000    
   12849   8.177      0.6364E-03 SPRIN         11  40.1%   564.9       190.8       0.000       489.5       0.000      0.5000E-01   0.000    
   12850   8.178      0.6364E-03 SPRIN         11  13.1%   206.0       404.3       0.000       489.5       0.000      0.5000E-01   0.000    
   12851   8.178      0.6364E-03 SPRIN         11  59.3%   821.5       38.09       0.000       489.5       0.000      0.5000E-01   0.000    
   12852   8.179      0.6364E-03 SPRIN         11   0.5%   38.31       504.1       0.000       489.5       0.000      0.5000E-01   0.000    
   12853   8.180      0.6364E-03 SPRIN         11  63.4%   876.2       5.571       0.000       489.5       0.000      0.5000E-01   0.000    
   12854   8.180      0.6364E-03 SPRIN         11   5.5%   104.6       464.6       0.000       489.5       0.000      0.5000E-01   0.000    
   12855   8.181      0.6364E-03 SPRIN         11  50.1%   698.4       111.3       0.000       489.5       0.000      0.5000E-01   0.000    
   12856   8.182      0.6364E-03 SPRIN         11  25.3%   368.1       307.8       0.000       489.5       0.000      0.5000E-01   0.000    
   12857   8.182      0.6364E-03 SPRIN         11  26.7%   387.2       296.5       0.000       489.5       0.000      0.5000E-01   0.000    
   12858   8.183      0.6364E-03 SPRIN         11  48.9%   682.1       121.1       0.000       489.5       0.000      0.5000E-01   0.000    
   12859   8.183      0.6364E-03 SPRIN         11   6.4%   115.9       457.9       0.000       489.5       0.000      0.5000E-01   0.000    
   12860   8.184      0.6364E-03 SPRIN         11  63.1%   871.7       8.241       0.000       489.5       0.000      0.5000E-01   0.000    
   12861   8.185      0.6364E-03 SPRIN         11   0.3%   35.41       505.8       0.000       489.5       0.000      0.5000E-01   0.000    
   12862   8.185      0.6364E-03 SPRIN         11  60.1%   831.4       32.21       0.000       489.5       0.000      0.5000E-01   0.000    
   12863   8.186      0.6364E-03 SPRIN         11  12.0%   190.6       413.5       0.000       489.5       0.000      0.5000E-01   0.000    
   12864   8.187      0.6364E-03 SPRIN         11  41.5%   583.6       179.6       0.000       489.5       0.000      0.5000E-01   0.000    
   12865   8.187      0.6364E-03 SPRIN         11  34.8%   495.1       232.3       0.000       489.5       0.000      0.5000E-01   0.000    
   12866   8.188      0.6364E-03 SPRIN         11  17.7%   266.4       368.4       0.000       489.5       0.000      0.5000E-01   0.000    
   12867   8.189      0.6364E-03 SPRIN         11  56.2%   779.4       63.16       0.000       489.5       0.000      0.5000E-01   0.000    
   12868   8.189      0.6364E-03 SPRIN         11   1.9%   56.19       493.5       0.000       489.5       0.000      0.5000E-01   0.000    
   12869   8.190      0.6364E-03 SPRIN         11  64.1%   885.1      0.2443       0.000       489.5       0.000      0.5000E-01   0.000    
   CYCLE    TIME      TIME-STEP  ELEMENT          ERROR  I-ENERGY    K-ENERGY T  K-ENERGY R  EXT-WORK     MAS.ERR     TOTAL MASS  MASS ADDED
   12870   8.190      0.6364E-03 SPRIN         11   2.9%   70.15       485.1       0.000       489.5       0.000      0.5000E-01   0.000    
   12871   8.191      0.6364E-03 SPRIN         11  54.2%   753.5       78.57       0.000       489.5       0.000      0.5000E-01   0.000    
   12872   8.192      0.6364E-03 SPRIN         11  20.2%   300.5       348.1       0.000       489.5       0.000      0.5000E-01   0.000    
   12873   8.192      0.6364E-03 SPRIN         11  32.0%   457.7       254.5       0.000       489.5       0.000      0.5000E-01   0.000    
   12874   8.193      0.6364E-03 SPRIN         11  44.1%   618.9       158.6       0.000       489.5       0.000      0.5000E-01   0.000    
   12875   8.194      0.6364E-03 SPRIN         11   9.9%   162.6       430.2       0.000       489.5       0.000      0.5000E-01   0.000    
   12876   8.194      0.6364E-03 SPRIN         11  61.3%   848.2       22.22       0.000       489.5       0.000      0.5000E-01   0.000    
   12877   8.195      0.6364E-03 SPRIN         11   0.1%   32.30       507.7       0.000       489.5       0.000      0.5000E-01   0.000    
   12878   8.196      0.6364E-03 SPRIN         11  62.3%   860.6       14.81       0.000       489.5       0.000      0.5000E-01   0.000    
   12879   8.196      0.6364E-03 SPRIN         11   8.1%   139.5       443.9       0.000       489.5       0.000      0.5000E-01   0.000    
   12880   8.197      0.6364E-03 SPRIN         11  46.4%   649.3       140.5       0.000       489.5       0.000      0.5000E-01   0.000    
   12881   8.197      0.6364E-03 SPRIN         11  29.5%   424.4       274.4       0.000       489.5       0.000      0.5000E-01   0.000    
   12882   8.198      0.6364E-03 SPRIN         11  22.6%   331.9       329.4       0.000       489.5       0.000      0.5000E-01   0.000    
   12883   8.199      0.6364E-03 SPRIN         11  52.3%   728.4       93.47       0.000       489.5       0.000      0.5000E-01   0.000    
   12884   8.199      0.6364E-03 SPRIN         11   4.0%   85.14       476.2       0.000       489.5       0.000      0.5000E-01   0.000    
   12885   8.200      0.6364E-03 SPRIN         11  63.9%   882.3       1.891       0.000       489.5       0.000      0.5000E-01   0.000    
   12886   8.201      0.6364E-03 SPRIN         11   1.1%   46.34       499.3       0.000       489.5       0.000      0.5000E-01   0.000    
     ANIMATION FILE: SPR_PRE_2FLAGA042 WRITTEN
   12887   8.201      0.6364E-03 SPRIN         11  57.7%   800.4       50.64       0.000       489.5       0.000      0.5000E-01   0.000    
   12888   8.202      0.6364E-03 SPRIN         11  15.5%   237.2       385.8       0.000       489.5       0.000      0.5000E-01   0.000    
   12889   8.203      0.6364E-03 SPRIN         11  37.3%   528.3       212.6       0.000       489.5       0.000      0.5000E-01   0.000    
   12890   8.203      0.6364E-03 SPRIN         11  39.0%   551.3       198.8       0.000       489.5       0.000      0.5000E-01   0.000    
   12891   8.204      0.6364E-03 SPRIN         11  14.0%   217.4       397.5       0.000       489.5       0.000      0.5000E-01   0.000    
   12892   8.204      0.6364E-03 SPRIN         11  58.8%   814.0       42.57       0.000       489.5       0.000      0.5000E-01   0.000    
   12893   8.205      0.6364E-03 SPRIN         11   0.7%   40.92       502.5       0.000       489.5       0.000      0.5000E-01   0.000    
   12894   8.206      0.6364E-03 SPRIN         11  63.6%   878.8       3.976       0.000       489.5       0.000      0.5000E-01   0.000    
   12895   8.206      0.6364E-03 SPRIN         11   4.9%   97.06       469.1       0.000       489.5       0.000      0.5000E-01   0.000    
   12896   8.207      0.6364E-03 SPRIN         11  50.9%   709.8       104.5       0.000       489.5       0.000      0.5000E-01   0.000    
   12897   8.208      0.6364E-03 SPRIN         11  24.3%   354.6       315.9       0.000       489.5       0.000      0.5000E-01   0.000    
   12898   8.208      0.6364E-03 SPRIN         11  27.8%   401.0       288.3       0.000       489.5       0.000      0.5000E-01   0.000    
   12899   8.209      0.6364E-03 SPRIN         11  48.0%   670.1       128.2       0.000       489.5       0.000      0.5000E-01   0.000    
   12900   8.210      0.6364E-03 SPRIN         11   7.0%   124.4       452.9       0.000       489.5       0.000      0.5000E-01   0.000    
   12901   8.210      0.6364E-03 SPRIN         11  62.8%   867.9       10.47       0.000       489.5       0.000      0.5000E-01   0.000    
   12902   8.211      0.6364E-03 SPRIN         11   0.2%   33.87       506.7       0.000       489.5       0.000      0.5000E-01   0.000    
   12903   8.211      0.6364E-03 SPRIN         11  60.6%   838.0       28.29       0.000       489.5       0.000      0.5000E-01   0.000    
   12904   8.212      0.6364E-03 SPRIN         11  11.2%   179.9       419.8       0.000       489.5       0.000      0.5000E-01   0.000    
   12905   8.213      0.6364E-03 SPRIN         11  42.5%   596.9       171.7       0.000       489.5       0.000      0.5000E-01   0.000    
   12906   8.213      0.6364E-03 SPRIN         11  33.8%   481.2       240.6       0.000       489.5       0.000      0.5000E-01   0.000    
   12907   8.214      0.6364E-03 SPRIN         11  18.6%   278.9       360.9       0.000       489.5       0.000      0.5000E-01   0.000    
   12908   8.215      0.6364E-03 SPRIN         11  55.5%   770.0       68.73       0.000       489.5       0.000      0.5000E-01   0.000    
   12909   8.215      0.6364E-03 SPRIN         11   2.2%   61.03       490.6       0.000       489.5       0.000      0.5000E-01   0.000    
   12910   8.216      0.6364E-03 SPRIN         11  64.1%   885.5      0.1593E-01   0.000       489.5       0.000      0.5000E-01   0.000    
   12911   8.217      0.6364E-03 SPRIN         11   2.5%   64.60       488.5       0.000       489.5       0.000      0.5000E-01   0.000    
   12912   8.217      0.6364E-03 SPRIN         11  55.0%   763.4       72.67       0.000       489.5       0.000      0.5000E-01   0.000    
   12913   8.218      0.6364E-03 SPRIN         11  19.2%   287.6       355.8       0.000       489.5       0.000      0.5000E-01   0.000    
   12914   8.218      0.6364E-03 SPRIN         11  33.1%   471.7       246.2       0.000       489.5       0.000      0.5000E-01   0.000    
   12915   8.219      0.6364E-03 SPRIN         11  43.1%   605.9       166.4       0.000       489.5       0.000      0.5000E-01   0.000    
   12916   8.220      0.6364E-03 SPRIN         11  10.6%   172.8       424.1       0.000       489.5       0.000      0.5000E-01   0.000    
   12917   8.220      0.6364E-03 SPRIN         11  60.9%   842.3       25.74       0.000       489.5       0.000      0.5000E-01   0.000    
   12918   8.221      0.6364E-03 SPRIN         11   0.1%   33.08       507.2       0.000       489.5       0.000      0.5000E-01   0.000    
   12919   8.222      0.6364E-03 SPRIN         11  62.6%   865.1       12.15       0.000       489.5       0.000      0.5000E-01   0.000    
   12920   8.222      0.6364E-03 SPRIN         11   7.4%   130.4       449.3       0.000       489.5       0.000      0.5000E-01   0.000    
   12921   8.223      0.6364E-03 SPRIN         11  47.3%   661.7       133.2       0.000       489.5       0.000      0.5000E-01   0.000    
   12922   8.224      0.6364E-03 SPRIN         11  28.5%   410.5       282.6       0.000       489.5       0.000      0.5000E-01   0.000    
   12923   8.224      0.6364E-03 SPRIN         11  23.6%   345.3       321.4       0.000       489.5       0.000      0.5000E-01   0.000    
   12924   8.225      0.6364E-03 SPRIN         11  51.5%   717.5       99.98       0.000       489.5       0.000      0.5000E-01   0.000    
   CYCLE    TIME      TIME-STEP  ELEMENT          ERROR  I-ENERGY    K-ENERGY T  K-ENERGY R  EXT-WORK     MAS.ERR     TOTAL MASS  MASS ADDED
   12925   8.225      0.6364E-03 SPRIN         11   4.6%   92.07       472.1       0.000       489.5       0.000      0.5000E-01   0.000    
   12926   8.226      0.6364E-03 SPRIN         11  63.7%   880.4       3.036       0.000       489.5       0.000      0.5000E-01   0.000    
   12927   8.227      0.6364E-03 SPRIN         11   0.9%   42.98       501.3       0.000       489.5       0.000      0.5000E-01   0.000    
   12928   8.227      0.6364E-03 SPRIN         11  58.4%   808.6       45.78       0.000       489.5       0.000      0.5000E-01   0.000    
   12929   8.228      0.6364E-03 SPRIN         11  14.6%   225.4       392.8       0.000       489.5       0.000      0.5000E-01   0.000    
   12930   8.229      0.6364E-03 SPRIN         11  38.3%   542.0       204.4       0.000       489.5       0.000      0.5000E-01   0.000    
   12931   8.229      0.6364E-03 SPRIN         11  38.0%   537.7       207.0       0.000       489.5       0.000      0.5000E-01   0.000    
   12932   8.230      0.6364E-03 SPRIN         11  14.9%   229.0       390.6       0.000       489.5       0.000      0.5000E-01   0.000    
   12933   8.231      0.6364E-03 SPRIN         11  58.2%   806.1       47.28       0.000       489.5       0.000      0.5000E-01   0.000    
   12934   8.231      0.6364E-03 SPRIN         11   1.0%   43.99       500.7       0.000       489.5       0.000      0.5000E-01   0.000    
   12935   8.232      0.6364E-03 SPRIN         11  63.8%   881.1       2.648       0.000       489.5       0.000      0.5000E-01   0.000    
   12936   8.232      0.6364E-03 SPRIN         11   4.4%   89.85       473.4       0.000       489.5       0.000      0.5000E-01   0.000    
   12937   8.233      0.6364E-03 SPRIN         11  51.8%   721.0       97.92       0.000       489.5       0.000      0.5000E-01   0.000    
   12938   8.234      0.6364E-03 SPRIN         11  23.3%   341.1       323.9       0.000       489.5       0.000      0.5000E-01   0.000    
   12939   8.234      0.6364E-03 SPRIN         11  28.8%   414.9       280.0       0.000       489.5       0.000      0.5000E-01   0.000    
   12940   8.235      0.6364E-03 SPRIN         11  47.0%   657.9       135.5       0.000       489.5       0.000      0.5000E-01   0.000    
   12941   8.236      0.6364E-03 SPRIN         11   7.7%   133.2       447.6       0.000       489.5       0.000      0.5000E-01   0.000    
   12942   8.236      0.6364E-03 SPRIN         11  62.5%   863.8       12.95       0.000       489.5       0.000      0.5000E-01   0.000    
   12943   8.237      0.6364E-03 SPRIN         11   0.1%   32.78       507.4       0.000       489.5       0.000      0.5000E-01   0.000    
   12944   8.238      0.6364E-03 SPRIN         11  61.0%   844.2       24.61       0.000       489.5       0.000      0.5000E-01   0.000    
   12945   8.238      0.6364E-03 SPRIN         11  10.4%   169.5       426.0       0.000       489.5       0.000      0.5000E-01   0.000    
   12946   8.239      0.6364E-03 SPRIN         11  43.5%   610.0       163.9       0.000       489.5       0.000      0.5000E-01   0.000    
   12947   8.239      0.6364E-03 SPRIN         11  32.7%   467.3       248.8       0.000       489.5       0.000      0.5000E-01   0.000    
   12948   8.240      0.6364E-03 SPRIN         11  19.6%   291.6       353.4       0.000       489.5       0.000      0.5000E-01   0.000    
   12949   8.241      0.6364E-03 SPRIN         11  54.7%   760.3       74.50       0.000       489.5       0.000      0.5000E-01   0.000    
   12950   8.241      0.6364E-03 SPRIN         11   2.6%   66.30       487.4       0.000       489.5       0.000      0.5000E-01   0.000    
   12951   8.242      0.6364E-03 SPRIN         11  64.1%   885.4      0.5848E-01   0.000       489.5       0.000      0.5000E-01   0.000    
   12952   8.243      0.6364E-03 SPRIN         11   2.1%   59.46       491.5       0.000       489.5       0.000      0.5000E-01   0.000    
   12953   8.243      0.6364E-03 SPRIN         11  55.7%   773.0       66.96       0.000       489.5       0.000      0.5000E-01   0.000    
   12954   8.244      0.6364E-03 SPRIN         11  18.3%   274.9       363.3       0.000       489.5       0.000      0.5000E-01   0.000    
   12955   8.245      0.6364E-03 SPRIN         11  34.1%   485.6       238.0       0.000       489.5       0.000      0.5000E-01   0.000    
   12956   8.245      0.6364E-03 SPRIN         11  42.2%   592.7       174.2       0.000       489.5       0.000      0.5000E-01   0.000    
   12957   8.246      0.6364E-03 SPRIN         11  11.4%   183.3       417.8       0.000       489.5       0.000      0.5000E-01   0.000    
   12958   8.246      0.6364E-03 SPRIN         11  60.4%   836.0       29.50       0.000       489.5       0.000      0.5000E-01   0.000    
   12959   8.247      0.6364E-03 SPRIN         11   0.2%   34.30       506.5       0.000       489.5       0.000      0.5000E-01   0.000    
   12960   8.248      0.6364E-03 SPRIN         11  62.9%   869.2       9.740       0.000       489.5       0.000      0.5000E-01   0.000    
   12961   8.248      0.6364E-03 SPRIN         11   6.8%   121.7       454.5       0.000       489.5       0.000      0.5000E-01   0.000    
   12962   8.249      0.6364E-03 SPRIN         11  48.2%   673.9       125.9       0.000       489.5       0.000      0.5000E-01   0.000    
   12963   8.250      0.6364E-03 SPRIN         11  27.4%   396.7       290.9       0.000       489.5       0.000      0.5000E-01   0.000    
   12964   8.250      0.6364E-03 SPRIN         11  24.6%   358.8       313.4       0.000       489.5       0.000      0.5000E-01   0.000    
   12965   8.251      0.6364E-03 SPRIN         11  50.7%   706.3       106.7       0.000       489.5       0.000      0.5000E-01   0.000    
   12966   8.252      0.6364E-03 SPRIN         11   5.1%   99.40       467.7       0.000       489.5       0.000      0.5000E-01   0.000    
   12967   8.252      0.6364E-03 SPRIN         11  63.6%   878.0       4.449       0.000       489.5       0.000      0.5000E-01   0.000    
   12968   8.253      0.6364E-03 SPRIN         11   0.7%   40.05       503.1       0.000       489.5       0.000      0.5000E-01   0.000    
   12969   8.253      0.6364E-03 SPRIN         11  58.9%   816.4       41.14       0.000       489.5       0.000      0.5000E-01   0.000    
   12970   8.254      0.6364E-03 SPRIN         11  13.7%   213.8       399.7       0.000       489.5       0.000      0.5000E-01   0.000    
   12971   8.255      0.6364E-03 SPRIN         11  39.4%   555.6       196.3       0.000       489.5       0.000      0.5000E-01   0.000    
   12972   8.255      0.6364E-03 SPRIN         11  37.0%   523.9       215.1       0.000       489.5       0.000      0.5000E-01   0.000    
   12973   8.256      0.6364E-03 SPRIN         11  15.7%   240.9       383.5       0.000       489.5       0.000      0.5000E-01   0.000    
   12974   8.257      0.6364E-03 SPRIN         11  57.5%   797.8       52.21       0.000       489.5       0.000      0.5000E-01   0.000    
   12975   8.257      0.6364E-03 SPRIN         11   1.2%   47.49       498.6       0.000       489.5       0.000      0.5000E-01   0.000    
   12976   8.258      0.6364E-03 SPRIN         11  63.9%   882.9       1.587       0.000       489.5       0.000      0.5000E-01   0.000    
   12977   8.259      0.6364E-03 SPRIN         11   3.9%   83.04       477.5       0.000       489.5       0.000      0.5000E-01   0.000    
   12978   8.259      0.6364E-03 SPRIN         11  52.6%   731.8       91.46       0.000       489.5       0.000      0.5000E-01   0.000    
   12979   8.260      0.6364E-03 SPRIN         11  22.3%   327.8       331.9       0.000       489.5       0.000      0.5000E-01   0.000    
   CYCLE    TIME      TIME-STEP  ELEMENT          ERROR  I-ENERGY    K-ENERGY T  K-ENERGY R  EXT-WORK     MAS.ERR     TOTAL MASS  MASS ADDED
   12980   8.260      0.6364E-03 SPRIN         11  29.8%   428.7       271.8       0.000       489.5       0.000      0.5000E-01   0.000    
   12981   8.261      0.6364E-03 SPRIN         11  46.1%   645.4       142.9       0.000       489.5       0.000      0.5000E-01   0.000    
   12982   8.262      0.6364E-03 SPRIN         11   8.3%   142.4       442.2       0.000       489.5       0.000      0.5000E-01   0.000    
   12983   8.262      0.6364E-03 SPRIN         11  62.2%   859.1       15.70       0.000       489.5       0.000      0.5000E-01   0.000    
   12984   8.263      0.6364E-03 SPRIN         11   0.1%   32.15       507.8       0.000       489.5       0.000      0.5000E-01   0.000    
   12985   8.264      0.6364E-03 SPRIN         11  61.5%   850.0       21.17       0.000       489.5       0.000      0.5000E-01   0.000    
   12986   8.264      0.6364E-03 SPRIN         11   9.6%   159.4       432.0       0.000       489.5       0.000      0.5000E-01   0.000    
   12987   8.265      0.6364E-03 SPRIN         11  44.4%   623.0       156.2       0.000       489.5       0.000      0.5000E-01   0.000    
   12988   8.266      0.6364E-03 SPRIN         11  31.7%   453.4       257.1       0.000       489.5       0.000      0.5000E-01   0.000    
   12989   8.266      0.6364E-03 SPRIN         11  20.5%   304.5       345.7       0.000       489.5       0.000      0.5000E-01   0.000    
   12990   8.267      0.6364E-03 SPRIN         11  54.0%   750.3       80.47       0.000       489.5       0.000      0.5000E-01   0.000    
   12991   8.267      0.6364E-03 SPRIN         11   3.1%   71.98       484.1       0.000       489.5       0.000      0.5000E-01   0.000    
   12992   8.268      0.6364E-03 SPRIN         11  64.1%   884.9      0.3719       0.000       489.5       0.000      0.5000E-01   0.000    
   12993   8.269      0.6364E-03 SPRIN         11   1.8%   54.76       494.3       0.000       489.5       0.000      0.5000E-01   0.000    
   12994   8.269      0.6364E-03 SPRIN         11  56.4%   782.3       61.45       0.000       489.5       0.000      0.5000E-01   0.000    
   12995   8.270      0.6364E-03 SPRIN         11  17.4%   262.5       370.7       0.000       489.5       0.000      0.5000E-01   0.000    
   12996   8.271      0.6364E-03 SPRIN         11  35.2%   499.5       229.7       0.000       489.5       0.000      0.5000E-01   0.000    
   12997   8.271      0.6364E-03 SPRIN         11  41.2%   579.4       182.1       0.000       489.5       0.000      0.5000E-01   0.000    
   12998   8.272      0.6364E-03 SPRIN         11  12.2%   194.1       411.4       0.000       489.5       0.000      0.5000E-01   0.000    
   12999   8.273      0.6364E-03 SPRIN         11  59.9%   829.2       33.50       0.000       489.5       0.000      0.5000E-01   0.000    
   13000   8.273      0.6364E-03 SPRIN         11   0.4%   35.98       505.5       0.000       489.5       0.000      0.5000E-01   0.000    
   13001   8.274      0.6364E-03 SPRIN         11  63.2%   872.8       7.595       0.000       489.5       0.000      0.5000E-01   0.000    
   13002   8.274      0.6364E-03 SPRIN         11   6.2%   113.3       459.5       0.000       489.5       0.000      0.5000E-01   0.000    
   13003   8.275      0.6364E-03 SPRIN         11  49.1%   685.8       118.8       0.000       489.5       0.000      0.5000E-01   0.000    
   13004   8.276      0.6364E-03 SPRIN         11  26.4%   382.9       299.0       0.000       489.5       0.000      0.5000E-01   0.000    
   13005   8.276      0.6364E-03 SPRIN         11  25.6%   372.4       305.3       0.000       489.5       0.000      0.5000E-01   0.000    
   13006   8.277      0.6364E-03 SPRIN         11  49.8%   694.8       113.5       0.000       489.5       0.000      0.5000E-01   0.000    
   13007   8.278      0.6364E-03 SPRIN         11   5.7%   107.1       463.2       0.000       489.5       0.000      0.5000E-01   0.000    
   13008   8.278      0.6364E-03 SPRIN         11  63.4%   875.2       6.127       0.000       489.5       0.000      0.5000E-01   0.000    
   13009   8.279      0.6364E-03 SPRIN         11   0.5%   37.58       504.5       0.000       489.5       0.000      0.5000E-01   0.000    
   13010   8.280      0.6364E-03 SPRIN         11  59.5%   823.8       36.73       0.000       489.5       0.000      0.5000E-01   0.000    
   13011   8.280      0.6364E-03 SPRIN         11  12.9%   202.5       406.4       0.000       489.5       0.000      0.5000E-01   0.000    
   13012   8.281      0.6364E-03 SPRIN         11  40.4%   569.1       188.3       0.000       489.5       0.000      0.5000E-01   0.000    
   13013   8.281      0.6364E-03 SPRIN         11  36.0%   510.1       223.4       0.000       489.5       0.000      0.5000E-01   0.000    
   13014   8.282      0.6364E-03 SPRIN         11  16.7%   253.0       376.3       0.000       489.5       0.000      0.5000E-01   0.000    
   13015   8.283      0.6364E-03 SPRIN         11  56.9%   789.1       57.35       0.000       489.5       0.000      0.5000E-01   0.000    
   13016   8.283      0.6364E-03 SPRIN         11   1.5%   51.43       496.3       0.000       489.5       0.000      0.5000E-01   0.000    
   13017   8.284      0.6364E-03 SPRIN         11  64.0%   884.2      0.7961       0.000       489.5       0.000      0.5000E-01   0.000    
   13018   8.285      0.6364E-03 SPRIN         11   3.4%   76.63       481.3       0.000       489.5       0.000      0.5000E-01   0.000    
   13019   8.285      0.6364E-03 SPRIN         11  53.4%   742.4       85.17       0.000       489.5       0.000      0.5000E-01   0.000    
   13020   8.286      0.6364E-03 SPRIN         11  21.3%   314.6       339.7       0.000       489.5       0.000      0.5000E-01   0.000    
   13021   8.287      0.6364E-03 SPRIN         11  30.9%   442.7       263.5       0.000       489.5       0.000      0.5000E-01   0.000    
   13022   8.287      0.6364E-03 SPRIN         11  45.2%   632.8       150.4       0.000       489.5       0.000      0.5000E-01   0.000    
   13023   8.288      0.6364E-03 SPRIN         11   9.1%   151.9       436.5       0.000       489.5       0.000      0.5000E-01   0.000    
   13024   8.288      0.6364E-03 SPRIN         11  61.8%   854.1       18.69       0.000       489.5       0.000      0.5000E-01   0.000    
   13025   8.289      0.6364E-03 SPRIN         11   0.1%   31.98       507.9       0.000       489.5       0.000      0.5000E-01   0.000    
   13026   8.290      0.6364E-03 SPRIN         11  61.9%   855.3       17.98       0.000       489.5       0.000      0.5000E-01   0.000    
   13027   8.290      0.6364E-03 SPRIN         11   8.9%   149.7       437.8       0.000       489.5       0.000      0.5000E-01   0.000    
   13028   8.291      0.6364E-03 SPRIN         11  45.4%   635.7       148.6       0.000       489.5       0.000      0.5000E-01   0.000    
   13029   8.292      0.6364E-03 SPRIN         11  30.6%   439.4       265.4       0.000       489.5       0.000      0.5000E-01   0.000    
   13030   8.292      0.6364E-03 SPRIN         11  21.5%   317.6       337.9       0.000       489.5       0.000      0.5000E-01   0.000    
   13031   8.293      0.6364E-03 SPRIN         11  53.2%   740.0       86.62       0.000       489.5       0.000      0.5000E-01   0.000    
   13032   8.294      0.6364E-03 SPRIN         11   3.5%   78.08       480.4       0.000       489.5       0.000      0.5000E-01   0.000    
   13033   8.294      0.6364E-03 SPRIN         11  64.0%   883.9      0.9557       0.000       489.5       0.000      0.5000E-01   0.000    
   13034   8.295      0.6364E-03 SPRIN         11   1.4%   50.48       496.9       0.000       489.5       0.000      0.5000E-01   0.000    
   CYCLE    TIME      TIME-STEP  ELEMENT          ERROR  I-ENERGY    K-ENERGY T  K-ENERGY R  EXT-WORK     MAS.ERR     TOTAL MASS  MASS ADDED
   13035   8.295      0.6364E-03 SPRIN         11  57.1%   791.2       56.14       0.000       489.5       0.000      0.5000E-01   0.000    
   13036   8.296      0.6364E-03 SPRIN         11  16.4%   250.2       378.0       0.000       489.5       0.000      0.5000E-01   0.000    
   13037   8.297      0.6364E-03 SPRIN         11  36.2%   513.4       221.4       0.000       489.5       0.000      0.5000E-01   0.000    
   13038   8.297      0.6364E-03 SPRIN         11  40.1%   566.0       190.1       0.000       489.5       0.000      0.5000E-01   0.000    
   13039   8.298      0.6364E-03 SPRIN         11  13.1%   205.1       404.8       0.000       489.5       0.000      0.5000E-01   0.000    
   13040   8.299      0.6364E-03 SPRIN         11  59.4%   822.1       37.73       0.000       489.5       0.000      0.5000E-01   0.000    
   13041   8.299      0.6364E-03 SPRIN         11   0.5%   38.11       504.2       0.000       489.5       0.000      0.5000E-01   0.000    
   13042   8.300      0.6364E-03 SPRIN         11  63.4%   875.9       5.714       0.000       489.5       0.000      0.5000E-01   0.000    
   13043   8.301      0.6364E-03 SPRIN         11   5.6%   105.3       464.2       0.000       489.5       0.000      0.5000E-01   0.000    
   13044   8.301      0.6364E-03 SPRIN         11  50.0%   697.5       111.9       0.000       489.5       0.000      0.5000E-01   0.000    
   13045   8.302      0.6364E-03 SPRIN         11  25.4%   369.2       307.2       0.000       489.5       0.000      0.5000E-01   0.000    
   13046   8.302      0.6364E-03 SPRIN         11  26.6%   386.1       297.2       0.000       489.5       0.000      0.5000E-01   0.000    
   13047   8.303      0.6364E-03 SPRIN         11  48.9%   683.0       120.5       0.000       489.5       0.000      0.5000E-01   0.000    
   13048   8.304      0.6364E-03 SPRIN         11   6.3%   115.2       458.3       0.000       489.5       0.000      0.5000E-01   0.000    
   13049   8.304      0.6364E-03 SPRIN         11  63.1%   872.0       8.070       0.000       489.5       0.000      0.5000E-01   0.000    
   13050   8.305      0.6364E-03 SPRIN         11   0.3%   35.55       505.7       0.000       489.5       0.000      0.5000E-01   0.000    
   13051   8.306      0.6364E-03 SPRIN         11  60.0%   830.8       32.55       0.000       489.5       0.000      0.5000E-01   0.000    
   13052   8.306      0.6364E-03 SPRIN         11  12.0%   191.5       412.9       0.000       489.5       0.000      0.5000E-01   0.000    
   13053   8.307      0.6364E-03 SPRIN         11  41.4%   582.5       180.3       0.000       489.5       0.000      0.5000E-01   0.000    
   13054   8.308      0.6364E-03 SPRIN         11  34.9%   496.3       231.6       0.000       489.5       0.000      0.5000E-01   0.000    
   13055   8.308      0.6364E-03 SPRIN         11  17.6%   265.3       369.0       0.000       489.5       0.000      0.5000E-01   0.000    
   13056   8.309      0.6364E-03 SPRIN         11  56.2%   780.1       62.71       0.000       489.5       0.000      0.5000E-01   0.000    
   13057   8.309      0.6364E-03 SPRIN         11   1.8%   55.81       493.7       0.000       489.5       0.000      0.5000E-01   0.000    
   13058   8.310      0.6364E-03 SPRIN         11  64.1%   885.1      0.2750       0.000       489.5       0.000      0.5000E-01   0.000    
   13059   8.311      0.6364E-03 SPRIN         11   3.0%   70.63       484.9       0.000       489.5       0.000      0.5000E-01   0.000    
   13060   8.311      0.6364E-03 SPRIN         11  54.2%   752.6       79.07       0.000       489.5       0.000      0.5000E-01   0.000    
   13061   8.312      0.6364E-03 SPRIN         11  20.3%   301.5       347.5       0.000       489.5       0.000      0.5000E-01   0.000    
   13062   8.313      0.6364E-03 SPRIN         11  31.9%   456.6       255.2       0.000       489.5       0.000      0.5000E-01   0.000    
   13063   8.313      0.6364E-03 SPRIN         11  44.2%   620.0       158.0       0.000       489.5       0.000      0.5000E-01   0.000    
   13064   8.314      0.6364E-03 SPRIN         11   9.8%   161.8       430.6       0.000       489.5       0.000      0.5000E-01   0.000    
   13065   8.315      0.6364E-03 SPRIN         11  61.4%   848.6       21.94       0.000       489.5       0.000      0.5000E-01   0.000    
   13066   8.315      0.6364E-03 SPRIN         11   0.1%   32.26       507.7       0.000       489.5       0.000      0.5000E-01   0.000    
   13067   8.316      0.6364E-03 SPRIN         11  62.2%   860.3       15.04       0.000       489.5       0.000      0.5000E-01   0.000    
   13068   8.316      0.6364E-03 SPRIN         11   8.2%   140.2       443.5       0.000       489.5       0.000      0.5000E-01   0.000    
   13069   8.317      0.6364E-03 SPRIN         11  46.3%   648.3       141.1       0.000       489.5       0.000      0.5000E-01   0.000    
   13070   8.318      0.6364E-03 SPRIN         11  29.6%   425.5       273.7       0.000       489.5       0.000      0.5000E-01   0.000    
   13071   8.318      0.6364E-03 SPRIN         11  22.5%   330.8       330.0       0.000       489.5       0.000      0.5000E-01   0.000    
   13072   8.319      0.6364E-03 SPRIN         11  52.4%   729.3       92.94       0.000       489.5       0.000      0.5000E-01   0.000    
   13073   8.320      0.6364E-03 SPRIN         11   4.0%   84.58       476.6       0.000       489.5       0.000      0.5000E-01   0.000    
   13074   8.320      0.6364E-03 SPRIN         11  63.9%   882.5       1.810       0.000       489.5       0.000      0.5000E-01   0.000    
   13075   8.321      0.6364E-03 SPRIN         11   1.2%   46.64       499.1       0.000       489.5       0.000      0.5000E-01   0.000    
   13076   8.322      0.6364E-03 SPRIN         11  57.7%   799.7       51.04       0.000       489.5       0.000      0.5000E-01   0.000    
   13077   8.322      0.6364E-03 SPRIN         11  15.5%   238.1       385.2       0.000       489.5       0.000      0.5000E-01   0.000    
   13078   8.323      0.6364E-03 SPRIN         11  37.2%   527.1       213.2       0.000       489.5       0.000      0.5000E-01   0.000    
   13079   8.323      0.6364E-03 SPRIN         11  39.1%   552.5       198.2       0.000       489.5       0.000      0.5000E-01   0.000    
   13080   8.324      0.6364E-03 SPRIN         11  13.9%   216.5       398.1       0.000       489.5       0.000      0.5000E-01   0.000    
   13081   8.325      0.6364E-03 SPRIN         11  58.8%   814.6       42.19       0.000       489.5       0.000      0.5000E-01   0.000    
   13082   8.325      0.6364E-03 SPRIN         11   0.7%   40.69       502.7       0.000       489.5       0.000      0.5000E-01   0.000    
   13083   8.326      0.6364E-03 SPRIN         11  63.6%   878.6       4.097       0.000       489.5       0.000      0.5000E-01   0.000    
   13084   8.327      0.6364E-03 SPRIN         11   5.0%   97.66       468.8       0.000       489.5       0.000      0.5000E-01   0.000    
   13085   8.327      0.6364E-03 SPRIN         11  50.9%   708.9       105.1       0.000       489.5       0.000      0.5000E-01   0.000    
   13086   8.328      0.6364E-03 SPRIN         11  24.4%   355.7       315.3       0.000       489.5       0.000      0.5000E-01   0.000    
   13087   8.329      0.6364E-03 SPRIN         11  27.7%   399.9       289.0       0.000       489.5       0.000      0.5000E-01   0.000    
   13088   8.329      0.6364E-03 SPRIN         11  48.0%   671.1       127.6       0.000       489.5       0.000      0.5000E-01   0.000    
   13089   8.330      0.6364E-03 SPRIN         11   6.9%   123.6       453.3       0.000       489.5       0.000      0.5000E-01   0.000    
   CYCLE    TIME      TIME-STEP  ELEMENT          ERROR  I-ENERGY    K-ENERGY T  K-ENERGY R  EXT-WORK     MAS.ERR     TOTAL MASS  MASS ADDED
   13090   8.330      0.6364E-03 SPRIN         11  62.8%   868.3       10.28       0.000       489.5       0.000      0.5000E-01   0.000    
   13091   8.331      0.6364E-03 SPRIN         11   0.2%   33.98       506.7       0.000       489.5       0.000      0.5000E-01   0.000    
   13092   8.332      0.6364E-03 SPRIN         11  60.5%   837.5       28.60       0.000       489.5       0.000      0.5000E-01   0.000    
   13093   8.332      0.6364E-03 SPRIN         11  11.2%   180.8       419.3       0.000       489.5       0.000      0.5000E-01   0.000    
   13094   8.333      0.6364E-03 SPRIN         11  42.4%   595.8       172.4       0.000       489.5       0.000      0.5000E-01   0.000    
   13095   8.334      0.6364E-03 SPRIN         11  33.9%   482.4       239.9       0.000       489.5       0.000      0.5000E-01   0.000    
   13096   8.334      0.6364E-03 SPRIN         11  18.5%   277.9       361.6       0.000       489.5       0.000      0.5000E-01   0.000    
   13097   8.335      0.6364E-03 SPRIN         11  55.5%   770.8       68.27       0.000       489.5       0.000      0.5000E-01   0.000    
   13098   8.336      0.6364E-03 SPRIN         11   2.2%   60.62       490.8       0.000       489.5       0.000      0.5000E-01   0.000    
   13099   8.336      0.6364E-03 SPRIN         11  64.1%   885.5      0.2446E-01   0.000       489.5       0.000      0.5000E-01   0.000    
   13100   8.337      0.6364E-03 SPRIN         11   2.5%   65.04       488.2       0.000       489.5       0.000      0.5000E-01   0.000    
   13101   8.337      0.6364E-03 SPRIN         11  54.9%   762.6       73.15       0.000       489.5       0.000      0.5000E-01   0.000    
   13102   8.338      0.6364E-03 SPRIN         11  19.3%   288.7       355.1       0.000       489.5       0.000      0.5000E-01   0.000    
   13103   8.339      0.6364E-03 SPRIN         11  33.0%   470.5       246.9       0.000       489.5       0.000      0.5000E-01   0.000    
   13104   8.339      0.6364E-03 SPRIN         11  43.2%   607.0       165.7       0.000       489.5       0.000      0.5000E-01   0.000    
   13105   8.340      0.6364E-03 SPRIN         11  10.6%   171.9       424.6       0.000       489.5       0.000      0.5000E-01   0.000    
   13106   8.341      0.6364E-03 SPRIN         11  60.9%   842.8       25.44       0.000       489.5       0.000      0.5000E-01   0.000    
   13107   8.341      0.6364E-03 SPRIN         11   0.1%   33.00       507.3       0.000       489.5       0.000      0.5000E-01   0.000    
   13108   8.342      0.6364E-03 SPRIN         11  62.6%   864.8       12.35       0.000       489.5       0.000      0.5000E-01   0.000    
   13109   8.343      0.6364E-03 SPRIN         11   7.5%   131.1       448.9       0.000       489.5       0.000      0.5000E-01   0.000    
   13110   8.343      0.6364E-03 SPRIN         11  47.3%   660.7       133.8       0.000       489.5       0.000      0.5000E-01   0.000    
   13111   8.344      0.6364E-03 SPRIN         11  28.6%   411.6       282.0       0.000       489.5       0.000      0.5000E-01   0.000    
   13112   8.344      0.6364E-03 SPRIN         11  23.5%   344.2       322.1       0.000       489.5       0.000      0.5000E-01   0.000    
   13113   8.345      0.6364E-03 SPRIN         11  51.6%   718.4       99.44       0.000       489.5       0.000      0.5000E-01   0.000    
   13114   8.346      0.6364E-03 SPRIN         11   4.5%   91.49       472.5       0.000       489.5       0.000      0.5000E-01   0.000    
   13115   8.346      0.6364E-03 SPRIN         11  63.8%   880.6       2.932       0.000       489.5       0.000      0.5000E-01   0.000    
   13116   8.347      0.6364E-03 SPRIN         11   0.9%   43.23       501.2       0.000       489.5       0.000      0.5000E-01   0.000    
   13117   8.348      0.6364E-03 SPRIN         11  58.3%   807.9       46.17       0.000       489.5       0.000      0.5000E-01   0.000    
   13118   8.348      0.6364E-03 SPRIN         11  14.6%   226.3       392.2       0.000       489.5       0.000      0.5000E-01   0.000    
   13119   8.349      0.6364E-03 SPRIN         11  38.3%   540.9       205.1       0.000       489.5       0.000      0.5000E-01   0.000    
   13120   8.350      0.6364E-03 SPRIN         11  38.1%   538.8       206.3       0.000       489.5       0.000      0.5000E-01   0.000    
   13121   8.350      0.6364E-03 SPRIN         11  14.8%   228.1       391.2       0.000       489.5       0.000      0.5000E-01   0.000    
   13122   8.351      0.6364E-03 SPRIN         11  58.2%   806.7       46.88       0.000       489.5       0.000      0.5000E-01   0.000    
   13123   8.351      0.6364E-03 SPRIN         11   0.9%   43.72       500.9       0.000       489.5       0.000      0.5000E-01   0.000    
   13124   8.352      0.6364E-03 SPRIN         11  63.8%   880.9       2.747       0.000       489.5       0.000      0.5000E-01   0.000    
   13125   8.353      0.6364E-03 SPRIN         11   4.4%   90.43       473.1       0.000       489.5       0.000      0.5000E-01   0.000    
   13126   8.353      0.6364E-03 SPRIN         11  51.7%   720.1       98.46       0.000       489.5       0.000      0.5000E-01   0.000    
   13127   8.354      0.6364E-03 SPRIN         11  23.3%   342.2       323.3       0.000       489.5       0.000      0.5000E-01   0.000    
   13128   8.355      0.6364E-03 SPRIN         11  28.7%   413.7       280.7       0.000       489.5       0.000      0.5000E-01   0.000    
   13129   8.355      0.6364E-03 SPRIN         11  47.1%   658.9       134.9       0.000       489.5       0.000      0.5000E-01   0.000    
   13130   8.356      0.6364E-03 SPRIN         11   7.6%   132.5       448.1       0.000       489.5       0.000      0.5000E-01   0.000    
   13131   8.357      0.6364E-03 SPRIN         11  62.5%   864.1       12.74       0.000       489.5       0.000      0.5000E-01   0.000    
   13132   8.357      0.6364E-03 SPRIN         11   0.1%   32.86       507.3       0.000       489.5       0.000      0.5000E-01   0.000    
   13133   8.358      0.6364E-03 SPRIN         11  61.0%   843.7       24.90       0.000       489.5       0.000      0.5000E-01   0.000    
   13134   8.358      0.6364E-03 SPRIN         11  10.4%   170.4       425.5       0.000       489.5       0.000      0.5000E-01   0.000    
   13135   8.359      0.6364E-03 SPRIN         11  43.4%   608.9       164.6       0.000       489.5       0.000      0.5000E-01   0.000    
   13136   8.360      0.6364E-03 SPRIN         11  32.8%   468.4       248.2       0.000       489.5       0.000      0.5000E-01   0.000    
   13137   8.360      0.6364E-03 SPRIN         11  19.5%   290.6       354.0       0.000       489.5       0.000      0.5000E-01   0.000    
   13138   8.361      0.6364E-03 SPRIN         11  54.8%   761.1       74.02       0.000       489.5       0.000      0.5000E-01   0.000    
   13139   8.362      0.6364E-03 SPRIN         11   2.6%   65.85       487.7       0.000       489.5       0.000      0.5000E-01   0.000    
   13140   8.362      0.6364E-03 SPRIN         11  64.1%   885.5      0.4480E-01   0.000       489.5       0.000      0.5000E-01   0.000    
   13141   8.363      0.6364E-03 SPRIN         11   2.2%   59.87       491.3       0.000       489.5       0.000      0.5000E-01   0.000    
   13142   8.364      0.6364E-03 SPRIN         11  55.6%   772.2       67.42       0.000       489.5       0.000      0.5000E-01   0.000    
   13143   8.364      0.6364E-03 SPRIN         11  18.4%   276.0       362.7       0.000       489.5       0.000      0.5000E-01   0.000    
   13144   8.365      0.6364E-03 SPRIN         11  34.0%   484.5       238.6       0.000       489.5       0.000      0.5000E-01   0.000    
   CYCLE    TIME      TIME-STEP  ELEMENT          ERROR  I-ENERGY    K-ENERGY T  K-ENERGY R  EXT-WORK     MAS.ERR     TOTAL MASS  MASS ADDED
   13145   8.365      0.6364E-03 SPRIN         11  42.2%   593.8       173.6       0.000       489.5       0.000      0.5000E-01   0.000    
   13146   8.366      0.6364E-03 SPRIN         11  11.4%   182.4       418.4       0.000       489.5       0.000      0.5000E-01   0.000    
   13147   8.367      0.6364E-03 SPRIN         11  60.5%   836.5       29.18       0.000       489.5       0.000      0.5000E-01   0.000    
   13148   8.367      0.6364E-03 SPRIN         11   0.2%   34.18       506.5       0.000       489.5       0.000      0.5000E-01   0.000    
   13149   8.368      0.6364E-03 SPRIN         11  62.9%   868.8       9.927       0.000       489.5       0.000      0.5000E-01   0.000    
   13150   8.369      0.6364E-03 SPRIN         11   6.8%   122.4       454.1       0.000       489.5       0.000      0.5000E-01   0.000    
   13151   8.369      0.6364E-03 SPRIN         11  48.2%   672.9       126.5       0.000       489.5       0.000      0.5000E-01   0.000    
   13152   8.370      0.6364E-03 SPRIN         11  27.5%   397.8       290.2       0.000       489.5       0.000      0.5000E-01   0.000    
   13153   8.371      0.6364E-03 SPRIN         11  24.5%   357.7       314.1       0.000       489.5       0.000      0.5000E-01   0.000    
   13154   8.371      0.6364E-03 SPRIN         11  50.7%   707.2       106.1       0.000       489.5       0.000      0.5000E-01   0.000    
   13155   8.372      0.6364E-03 SPRIN         11   5.1%   98.78       468.1       0.000       489.5       0.000      0.5000E-01   0.000    
   13156   8.372      0.6364E-03 SPRIN         11  63.6%   878.3       4.323       0.000       489.5       0.000      0.5000E-01   0.000    
   13157   8.373      0.6364E-03 SPRIN         11   0.7%   40.28       502.9       0.000       489.5       0.000      0.5000E-01   0.000    
   13158   8.374      0.6364E-03 SPRIN         11  58.9%   815.8       41.51       0.000       489.5       0.000      0.5000E-01   0.000    
   13159   8.374      0.6364E-03 SPRIN         11  13.8%   214.8       399.1       0.000       489.5       0.000      0.5000E-01   0.000    
   13160   8.375      0.6364E-03 SPRIN         11  39.3%   554.5       197.0       0.000       489.5       0.000      0.5000E-01   0.000    
   13161   8.376      0.6364E-03 SPRIN         11  37.1%   525.1       214.5       0.000       489.5       0.000      0.5000E-01   0.000    
   13162   8.376      0.6364E-03 SPRIN         11  15.7%   239.9       384.1       0.000       489.5       0.000      0.5000E-01   0.000    
   13163   8.377      0.6364E-03 SPRIN         11  57.6%   798.5       51.80       0.000       489.5       0.000      0.5000E-01   0.000    
   13164   8.378      0.6364E-03 SPRIN         11   1.2%   47.19       498.8       0.000       489.5       0.000      0.5000E-01   0.000    
   13165   8.378      0.6364E-03 SPRIN         11  63.9%   882.7       1.664       0.000       489.5       0.000      0.5000E-01   0.000    
   13166   8.379      0.6364E-03 SPRIN         11   3.9%   83.58       477.2       0.000       489.5       0.000      0.5000E-01   0.000    
   13167   8.379      0.6364E-03 SPRIN         11  52.5%   730.9       91.98       0.000       489.5       0.000      0.5000E-01   0.000    
   13168   8.380      0.6364E-03 SPRIN         11  22.3%   328.9       331.2       0.000       489.5       0.000      0.5000E-01   0.000    
   13169   8.381      0.6364E-03 SPRIN         11  29.8%   427.6       272.5       0.000       489.5       0.000      0.5000E-01   0.000    
   13170   8.381      0.6364E-03 SPRIN         11  46.2%   646.4       142.3       0.000       489.5       0.000      0.5000E-01   0.000    
   13171   8.382      0.6364E-03 SPRIN         11   8.3%   141.6       442.6       0.000       489.5       0.000      0.5000E-01   0.000    
   13172   8.383      0.6364E-03 SPRIN         11  62.2%   859.5       15.46       0.000       489.5       0.000      0.5000E-01   0.000    
   13173   8.383      0.6364E-03 SPRIN         11   0.1%   32.19       507.7       0.000       489.5       0.000      0.5000E-01   0.000    
   13174   8.384      0.6364E-03 SPRIN         11  61.4%   849.5       21.44       0.000       489.5       0.000      0.5000E-01   0.000    
   13175   8.385      0.6364E-03 SPRIN         11   9.7%   160.3       431.5       0.000       489.5       0.000      0.5000E-01   0.000    
   13176   8.385      0.6364E-03 SPRIN         11  44.3%   621.9       156.9       0.000       489.5       0.000      0.5000E-01   0.000    
   13177   8.386      0.6364E-03 SPRIN         11  31.8%   454.5       256.5       0.000       489.5       0.000      0.5000E-01   0.000    
   13178   8.386      0.6364E-03 SPRIN         11  20.4%   303.5       346.3       0.000       489.5       0.000      0.5000E-01   0.000    
   13179   8.387      0.6364E-03 SPRIN         11  54.0%   751.1       79.97       0.000       489.5       0.000      0.5000E-01   0.000    
   13180   8.388      0.6364E-03 SPRIN         11   3.0%   71.50       484.3       0.000       489.5       0.000      0.5000E-01   0.000    
   13181   8.388      0.6364E-03 SPRIN         11  64.1%   885.0      0.3360       0.000       489.5       0.000      0.5000E-01   0.000    
   13182   8.389      0.6364E-03 SPRIN         11   1.8%   55.13       494.1       0.000       489.5       0.000      0.5000E-01   0.000    
   13183   8.390      0.6364E-03 SPRIN         11  56.3%   781.5       61.89       0.000       489.5       0.000      0.5000E-01   0.000    
   13184   8.390      0.6364E-03 SPRIN         11  17.4%   263.5       370.1       0.000       489.5       0.000      0.5000E-01   0.000    
   13185   8.391      0.6364E-03 SPRIN         11  35.1%   498.4       230.4       0.000       489.5       0.000      0.5000E-01   0.000    
   13186   8.392      0.6364E-03 SPRIN         11  41.2%   580.5       181.5       0.000       489.5       0.000      0.5000E-01   0.000    
   13187   8.392      0.6364E-03 SPRIN         11  12.2%   193.2       412.0       0.000       489.5       0.000      0.5000E-01   0.000    
   13188   8.393      0.6364E-03 SPRIN         11  59.9%   829.8       33.16       0.000       489.5       0.000      0.5000E-01   0.000    
   13189   8.393      0.6364E-03 SPRIN         11   0.3%   35.83       505.6       0.000       489.5       0.000      0.5000E-01   0.000    
   13190   8.394      0.6364E-03 SPRIN         11  63.2%   872.5       7.761       0.000       489.5       0.000      0.5000E-01   0.000    
   13191   8.395      0.6364E-03 SPRIN         11   6.2%   114.0       459.1       0.000       489.5       0.000      0.5000E-01   0.000    
   13192   8.395      0.6364E-03 SPRIN         11  49.1%   684.8       119.4       0.000       489.5       0.000      0.5000E-01   0.000    
   13193   8.396      0.6364E-03 SPRIN         11  26.5%   384.0       298.4       0.000       489.5       0.000      0.5000E-01   0.000    
   13194   8.397      0.6364E-03 SPRIN         11  25.5%   371.3       306.0       0.000       489.5       0.000      0.5000E-01   0.000    
   13195   8.397      0.6364E-03 SPRIN         11  49.9%   695.7       112.9       0.000       489.5       0.000      0.5000E-01   0.000    
   13196   8.398      0.6364E-03 SPRIN         11   5.7%   106.5       463.5       0.000       489.5       0.000      0.5000E-01   0.000    
   13197   8.399      0.6364E-03 SPRIN         11  63.4%   875.5       5.980       0.000       489.5       0.000      0.5000E-01   0.000    
   13198   8.399      0.6364E-03 SPRIN         11   0.5%   37.76       504.4       0.000       489.5       0.000      0.5000E-01   0.000    
   13199   8.400      0.6364E-03 SPRIN         11  59.5%   823.2       37.08       0.000       489.5       0.000      0.5000E-01   0.000    
   CYCLE    TIME      TIME-STEP  ELEMENT          ERROR  I-ENERGY    K-ENERGY T  K-ENERGY R  EXT-WORK     MAS.ERR     TOTAL MASS  MASS ADDED
   13200   8.400      0.6364E-03 SPRIN         11  12.9%   203.4       405.8       0.000       489.5       0.000      0.5000E-01   0.000    
     ANIMATION FILE: SPR_PRE_2FLAGA043 WRITTEN
   13201   8.401      0.6364E-03 SPRIN         11  40.3%   568.0       188.9       0.000       489.5       0.000      0.5000E-01   0.000    
   13202   8.402      0.6364E-03 SPRIN         11  36.0%   511.3       222.7       0.000       489.5       0.000      0.5000E-01   0.000    
   13203   8.402      0.6364E-03 SPRIN         11  16.6%   252.0       376.9       0.000       489.5       0.000      0.5000E-01   0.000    
   13204   8.403      0.6364E-03 SPRIN         11  57.0%   789.9       56.92       0.000       489.5       0.000      0.5000E-01   0.000    
   13205   8.404      0.6364E-03 SPRIN         11   1.5%   51.09       496.5       0.000       489.5       0.000      0.5000E-01   0.000    
   13206   8.404      0.6364E-03 SPRIN         11  64.0%   884.1      0.8508       0.000       489.5       0.000      0.5000E-01   0.000    
   13207   8.405      0.6364E-03 SPRIN         11   3.4%   77.14       481.0       0.000       489.5       0.000      0.5000E-01   0.000    
   13208   8.406      0.6364E-03 SPRIN         11  53.3%   741.5       85.68       0.000       489.5       0.000      0.5000E-01   0.000    
   13209   8.406      0.6364E-03 SPRIN         11  21.4%   315.6       339.1       0.000       489.5       0.000      0.5000E-01   0.000    
   13210   8.407      0.6364E-03 SPRIN         11  30.8%   441.5       264.2       0.000       489.5       0.000      0.5000E-01   0.000    
   13211   8.407      0.6364E-03 SPRIN         11  45.2%   633.8       149.8       0.000       489.5       0.000      0.5000E-01   0.000    
   13212   8.408      0.6364E-03 SPRIN         11   9.0%   151.1       437.0       0.000       489.5       0.000      0.5000E-01   0.000    
   13213   8.409      0.6364E-03 SPRIN         11  61.8%   854.5       18.44       0.000       489.5       0.000      0.5000E-01   0.000    
   13214   8.409      0.6364E-03 SPRIN         11   0.1%   31.98       507.9       0.000       489.5       0.000      0.5000E-01   0.000    
   13215   8.410      0.6364E-03 SPRIN         11  61.8%   854.9       18.23       0.000       489.5       0.000      0.5000E-01   0.000    
   13216   8.411      0.6364E-03 SPRIN         11   9.0%   150.5       437.4       0.000       489.5       0.000      0.5000E-01   0.000    
   13217   8.411      0.6364E-03 SPRIN         11  45.3%   634.7       149.2       0.000       489.5       0.000      0.5000E-01   0.000    
   13218   8.412      0.6364E-03 SPRIN         11  30.7%   440.6       264.7       0.000       489.5       0.000      0.5000E-01   0.000    
   13219   8.413      0.6364E-03 SPRIN         11  21.4%   316.5       338.5       0.000       489.5       0.000      0.5000E-01   0.000    
   13220   8.413      0.6364E-03 SPRIN         11  53.3%   740.8       86.10       0.000       489.5       0.000      0.5000E-01   0.000    
   13221   8.414      0.6364E-03 SPRIN         11   3.5%   77.57       480.7       0.000       489.5       0.000      0.5000E-01   0.000    
   13222   8.414      0.6364E-03 SPRIN         11  64.0%   884.0      0.8977       0.000       489.5       0.000      0.5000E-01   0.000    
   13223   8.415      0.6364E-03 SPRIN         11   1.5%   50.81       496.7       0.000       489.5       0.000      0.5000E-01   0.000    
   13224   8.416      0.6364E-03 SPRIN         11  57.0%   790.5       56.57       0.000       489.5       0.000      0.5000E-01   0.000    
   13225   8.416      0.6364E-03 SPRIN         11  16.5%   251.2       377.4       0.000       489.5       0.000      0.5000E-01   0.000    
   13226   8.417      0.6364E-03 SPRIN         11  36.1%   512.2       222.1       0.000       489.5       0.000      0.5000E-01   0.000    
   13227   8.418      0.6364E-03 SPRIN         11  40.2%   567.1       189.5       0.000       489.5       0.000      0.5000E-01   0.000    
   13228   8.418      0.6364E-03 SPRIN         11  13.0%   204.2       405.4       0.000       489.5       0.000      0.5000E-01   0.000    
   13229   8.419      0.6364E-03 SPRIN         11  59.4%   822.7       37.37       0.000       489.5       0.000      0.5000E-01   0.000    
   13230   8.420      0.6364E-03 SPRIN         11   0.5%   37.92       504.3       0.000       489.5       0.000      0.5000E-01   0.000    
   13231   8.420      0.6364E-03 SPRIN         11  63.4%   875.7       5.858       0.000       489.5       0.000      0.5000E-01   0.000    
   13232   8.421      0.6364E-03 SPRIN         11   5.6%   105.9       463.9       0.000       489.5       0.000      0.5000E-01   0.000    
   13233   8.421      0.6364E-03 SPRIN         11  49.9%   696.5       112.5       0.000       489.5       0.000      0.5000E-01   0.000    
   13234   8.422      0.6364E-03 SPRIN         11  25.5%   370.4       306.5       0.000       489.5       0.000      0.5000E-01   0.000    
   13235   8.423      0.6364E-03 SPRIN         11  26.6%   385.0       297.8       0.000       489.5       0.000      0.5000E-01   0.000    
   13236   8.423      0.6364E-03 SPRIN         11  49.0%   684.0       119.9       0.000       489.5       0.000      0.5000E-01   0.000    
   13237   8.424      0.6364E-03 SPRIN         11   6.3%   114.5       458.8       0.000       489.5       0.000      0.5000E-01   0.000    
   13238   8.425      0.6364E-03 SPRIN         11  63.1%   872.2       7.901       0.000       489.5       0.000      0.5000E-01   0.000    
   13239   8.425      0.6364E-03 SPRIN         11   0.3%   35.70       505.6       0.000       489.5       0.000      0.5000E-01   0.000    
   13240   8.426      0.6364E-03 SPRIN         11  60.0%   830.3       32.88       0.000       489.5       0.000      0.5000E-01   0.000    
   13241   8.427      0.6364E-03 SPRIN         11  12.1%   192.4       412.4       0.000       489.5       0.000      0.5000E-01   0.000    
   13242   8.427      0.6364E-03 SPRIN         11  41.3%   581.4       180.9       0.000       489.5       0.000      0.5000E-01   0.000    
   13243   8.428      0.6364E-03 SPRIN         11  35.0%   497.4       230.9       0.000       489.5       0.000      0.5000E-01   0.000    
   13244   8.428      0.6364E-03 SPRIN         11  17.5%   264.3       369.6       0.000       489.5       0.000      0.5000E-01   0.000    
   13245   8.429      0.6364E-03 SPRIN         11  56.3%   780.9       62.26       0.000       489.5       0.000      0.5000E-01   0.000    
   13246   8.430      0.6364E-03 SPRIN         11   1.8%   55.44       493.9       0.000       489.5       0.000      0.5000E-01   0.000    
   13247   8.430      0.6364E-03 SPRIN         11  64.1%   885.0      0.3075       0.000       489.5       0.000      0.5000E-01   0.000    
   13248   8.431      0.6364E-03 SPRIN         11   3.0%   71.10       484.6       0.000       489.5       0.000      0.5000E-01   0.000    
   13249   8.432      0.6364E-03 SPRIN         11  54.1%   751.8       79.56       0.000       489.5       0.000      0.5000E-01   0.000    
   13250   8.432      0.6364E-03 SPRIN         11  20.4%   302.6       346.8       0.000       489.5       0.000      0.5000E-01   0.000    
   13251   8.433      0.6364E-03 SPRIN         11  31.8%   455.5       255.9       0.000       489.5       0.000      0.5000E-01   0.000    
   13252   8.434      0.6364E-03 SPRIN         11  44.3%   621.0       157.4       0.000       489.5       0.000      0.5000E-01   0.000    
   13253   8.434      0.6364E-03 SPRIN         11   9.7%   160.9       431.1       0.000       489.5       0.000      0.5000E-01   0.000    
   13254   8.435      0.6364E-03 SPRIN         11  61.4%   849.1       21.67       0.000       489.5       0.000      0.5000E-01   0.000    
   CYCLE    TIME      TIME-STEP  ELEMENT          ERROR  I-ENERGY    K-ENERGY T  K-ENERGY R  EXT-WORK     MAS.ERR     TOTAL MASS  MASS ADDED
   13255   8.435      0.6364E-03 SPRIN         11   0.1%   32.22       507.7       0.000       489.5       0.000      0.5000E-01   0.000    
   13256   8.436      0.6364E-03 SPRIN         11  62.2%   859.9       15.27       0.000       489.5       0.000      0.5000E-01   0.000    
   13257   8.437      0.6364E-03 SPRIN         11   8.2%   141.0       443.0       0.000       489.5       0.000      0.5000E-01   0.000    
   13258   8.437      0.6364E-03 SPRIN         11  46.2%   647.3       141.7       0.000       489.5       0.000      0.5000E-01   0.000    
   13259   8.438      0.6364E-03 SPRIN         11  29.7%   426.7       273.0       0.000       489.5       0.000      0.5000E-01   0.000    
   13260   8.439      0.6364E-03 SPRIN         11  22.4%   329.8       330.7       0.000       489.5       0.000      0.5000E-01   0.000    
   13261   8.439      0.6364E-03 SPRIN         11  52.5%   730.2       92.42       0.000       489.5       0.000      0.5000E-01   0.000    
   13262   8.440      0.6364E-03 SPRIN         11   4.0%   84.04       476.9       0.000       489.5       0.000      0.5000E-01   0.000    
   13263   8.441      0.6364E-03 SPRIN         11  63.9%   882.6       1.729       0.000       489.5       0.000      0.5000E-01   0.000    
   13264   8.441      0.6364E-03 SPRIN         11   1.2%   46.94       499.0       0.000       489.5       0.000      0.5000E-01   0.000    
   13265   8.442      0.6364E-03 SPRIN         11  57.6%   799.0       51.45       0.000       489.5       0.000      0.5000E-01   0.000    
   13266   8.442      0.6364E-03 SPRIN         11  15.6%   239.1       384.6       0.000       489.5       0.000      0.5000E-01   0.000    
   13267   8.443      0.6364E-03 SPRIN         11  37.1%   526.0       213.9       0.000       489.5       0.000      0.5000E-01   0.000    
   13268   8.444      0.6364E-03 SPRIN         11  39.2%   553.6       197.5       0.000       489.5       0.000      0.5000E-01   0.000    
   13269   8.444      0.6364E-03 SPRIN         11  13.8%   215.5       398.6       0.000       489.5       0.000      0.5000E-01   0.000    
   13270   8.445      0.6364E-03 SPRIN         11  58.9%   815.2       41.82       0.000       489.5       0.000      0.5000E-01   0.000    
   13271   8.446      0.6364E-03 SPRIN         11   0.7%   40.46       502.8       0.000       489.5       0.000      0.5000E-01   0.000    
   13272   8.446      0.6364E-03 SPRIN         11  63.6%   878.4       4.219       0.000       489.5       0.000      0.5000E-01   0.000    
   13273   8.447      0.6364E-03 SPRIN         11   5.0%   98.27       468.4       0.000       489.5       0.000      0.5000E-01   0.000    
   13274   8.448      0.6364E-03 SPRIN         11  50.8%   708.0       105.6       0.000       489.5       0.000      0.5000E-01   0.000    
   13275   8.448      0.6364E-03 SPRIN         11  24.4%   356.8       314.6       0.000       489.5       0.000      0.5000E-01   0.000    
   13276   8.449      0.6364E-03 SPRIN         11  27.6%   398.8       289.6       0.000       489.5       0.000      0.5000E-01   0.000    
   13277   8.449      0.6364E-03 SPRIN         11  48.1%   672.1       127.0       0.000       489.5       0.000      0.5000E-01   0.000    
   13278   8.450      0.6364E-03 SPRIN         11   6.9%   122.9       453.7       0.000       489.5       0.000      0.5000E-01   0.000    
   13279   8.451      0.6364E-03 SPRIN         11  62.9%   868.6       10.08       0.000       489.5       0.000      0.5000E-01   0.000    
   13280   8.451      0.6364E-03 SPRIN         11   0.2%   34.09       506.6       0.000       489.5       0.000      0.5000E-01   0.000    
   13281   8.452      0.6364E-03 SPRIN         11  60.5%   836.9       28.92       0.000       489.5       0.000      0.5000E-01   0.000    
   13282   8.453      0.6364E-03 SPRIN         11  11.3%   181.7       418.8       0.000       489.5       0.000      0.5000E-01   0.000    
   13283   8.453      0.6364E-03 SPRIN         11  42.3%   594.7       173.0       0.000       489.5       0.000      0.5000E-01   0.000    
   13284   8.454      0.6364E-03 SPRIN         11  34.0%   483.5       239.2       0.000       489.5       0.000      0.5000E-01   0.000    
   13285   8.455      0.6364E-03 SPRIN         11  18.4%   276.8       362.2       0.000       489.5       0.000      0.5000E-01   0.000    
   13286   8.455      0.6364E-03 SPRIN         11  55.6%   771.6       67.80       0.000       489.5       0.000      0.5000E-01   0.000    
   13287   8.456      0.6364E-03 SPRIN         11   2.2%   60.21       491.1       0.000       489.5       0.000      0.5000E-01   0.000    
   13288   8.456      0.6364E-03 SPRIN         11  64.1%   885.5      0.3480E-01   0.000       489.5       0.000      0.5000E-01   0.000    
   13289   8.457      0.6364E-03 SPRIN         11   2.6%   65.48       487.9       0.000       489.5       0.000      0.5000E-01   0.000    
   13290   8.458      0.6364E-03 SPRIN         11  54.8%   761.8       73.62       0.000       489.5       0.000      0.5000E-01   0.000    
   13291   8.458      0.6364E-03 SPRIN         11  19.4%   289.7       354.5       0.000       489.5       0.000      0.5000E-01   0.000    
   13292   8.459      0.6364E-03 SPRIN         11  32.9%   469.4       247.6       0.000       489.5       0.000      0.5000E-01   0.000    
   13293   8.460      0.6364E-03 SPRIN         11  43.3%   608.0       165.1       0.000       489.5       0.000      0.5000E-01   0.000    
   13294   8.460      0.6364E-03 SPRIN         11  10.5%   171.1       425.1       0.000       489.5       0.000      0.5000E-01   0.000    
   13295   8.461      0.6364E-03 SPRIN         11  61.0%   843.3       25.14       0.000       489.5       0.000      0.5000E-01   0.000    
   13296   8.462      0.6364E-03 SPRIN         11   0.1%   32.92       507.3       0.000       489.5       0.000      0.5000E-01   0.000    
   13297   8.462      0.6364E-03 SPRIN         11  62.5%   864.4       12.56       0.000       489.5       0.000      0.5000E-01   0.000    
   13298   8.463      0.6364E-03 SPRIN         11   7.6%   131.8       448.4       0.000       489.5       0.000      0.5000E-01   0.000    
   13299   8.463      0.6364E-03 SPRIN         11  47.2%   659.7       134.4       0.000       489.5       0.000      0.5000E-01   0.000    
   13300   8.464      0.6364E-03 SPRIN         11  28.6%   412.8       281.3       0.000       489.5       0.000      0.5000E-01   0.000    
   13301   8.465      0.6364E-03 SPRIN         11  23.4%   343.1       322.7       0.000       489.5       0.000      0.5000E-01   0.000    
   13302   8.465      0.6364E-03 SPRIN         11  51.7%   719.3       98.90       0.000       489.5       0.000      0.5000E-01   0.000    
   13303   8.466      0.6364E-03 SPRIN         11   4.5%   90.91       472.8       0.000       489.5       0.000      0.5000E-01   0.000    
   13304   8.467      0.6364E-03 SPRIN         11  63.8%   880.8       2.830       0.000       489.5       0.000      0.5000E-01   0.000    
   13305   8.467      0.6364E-03 SPRIN         11   0.9%   43.50       501.0       0.000       489.5       0.000      0.5000E-01   0.000    
   13306   8.468      0.6364E-03 SPRIN         11  58.3%   807.3       46.56       0.000       489.5       0.000      0.5000E-01   0.000    
   13307   8.469      0.6364E-03 SPRIN         11  14.7%   227.3       391.7       0.000       489.5       0.000      0.5000E-01   0.000    
   13308   8.469      0.6364E-03 SPRIN         11  38.2%   539.7       205.7       0.000       489.5       0.000      0.5000E-01   0.000    
   13309   8.470      0.6364E-03 SPRIN         11  38.2%   539.9       205.6       0.000       489.5       0.000      0.5000E-01   0.000    
   CYCLE    TIME      TIME-STEP  ELEMENT          ERROR  I-ENERGY    K-ENERGY T  K-ENERGY R  EXT-WORK     MAS.ERR     TOTAL MASS  MASS ADDED
   13310   8.470      0.6364E-03 SPRIN         11  14.7%   227.1       391.8       0.000       489.5       0.000      0.5000E-01   0.000    
   13311   8.471      0.6364E-03 SPRIN         11  58.3%   807.4       46.49       0.000       489.5       0.000      0.5000E-01   0.000    
   13312   8.472      0.6364E-03 SPRIN         11   0.9%   43.45       501.0       0.000       489.5       0.000      0.5000E-01   0.000    
   13313   8.472      0.6364E-03 SPRIN         11  63.8%   880.7       2.847       0.000       489.5       0.000      0.5000E-01   0.000    
   13314   8.473      0.6364E-03 SPRIN         11   4.5%   91.00       472.7       0.000       489.5       0.000      0.5000E-01   0.000    
   13315   8.474      0.6364E-03 SPRIN         11  51.6%   719.2       98.99       0.000       489.5       0.000      0.5000E-01   0.000    
   13316   8.474      0.6364E-03 SPRIN         11  23.4%   343.3       322.6       0.000       489.5       0.000      0.5000E-01   0.000    
   13317   8.475      0.6364E-03 SPRIN         11  28.6%   412.6       281.4       0.000       489.5       0.000      0.5000E-01   0.000    
   13318   8.476      0.6364E-03 SPRIN         11  47.2%   659.9       134.3       0.000       489.5       0.000      0.5000E-01   0.000    
   13319   8.476      0.6364E-03 SPRIN         11   7.5%   131.7       448.5       0.000       489.5       0.000      0.5000E-01   0.000    
   13320   8.477      0.6364E-03 SPRIN         11  62.6%   864.5       12.53       0.000       489.5       0.000      0.5000E-01   0.000    
   13321   8.477      0.6364E-03 SPRIN         11   0.1%   32.93       507.3       0.000       489.5       0.000      0.5000E-01   0.000    
   13322   8.478      0.6364E-03 SPRIN         11  61.0%   843.2       25.19       0.000       489.5       0.000      0.5000E-01   0.000    
   13323   8.479      0.6364E-03 SPRIN         11  10.5%   171.2       425.0       0.000       489.5       0.000      0.5000E-01   0.000    
   13324   8.479      0.6364E-03 SPRIN         11  43.3%   607.9       165.2       0.000       489.5       0.000      0.5000E-01   0.000    
   13325   8.480      0.6364E-03 SPRIN         11  32.9%   469.6       247.5       0.000       489.5       0.000      0.5000E-01   0.000    
   13326   8.481      0.6364E-03 SPRIN         11  19.4%   289.5       354.6       0.000       489.5       0.000      0.5000E-01   0.000    
   13327   8.481      0.6364E-03 SPRIN         11  54.9%   761.9       73.54       0.000       489.5       0.000      0.5000E-01   0.000    
   13328   8.482      0.6364E-03 SPRIN         11   2.6%   65.41       488.0       0.000       489.5       0.000      0.5000E-01   0.000    
   13329   8.483      0.6364E-03 SPRIN         11  64.1%   885.5      0.3294E-01   0.000       489.5       0.000      0.5000E-01   0.000    
   13330   8.483      0.6364E-03 SPRIN         11   2.2%   60.28       491.0       0.000       489.5       0.000      0.5000E-01   0.000    
   13331   8.484      0.6364E-03 SPRIN         11  55.6%   771.4       67.88       0.000       489.5       0.000      0.5000E-01   0.000    
   13332   8.484      0.6364E-03 SPRIN         11  18.5%   277.0       362.1       0.000       489.5       0.000      0.5000E-01   0.000    
   13333   8.485      0.6364E-03 SPRIN         11  33.9%   483.3       239.3       0.000       489.5       0.000      0.5000E-01   0.000    
   13334   8.486      0.6364E-03 SPRIN         11  42.3%   594.9       172.9       0.000       489.5       0.000      0.5000E-01   0.000    
   13335   8.486      0.6364E-03 SPRIN         11  11.3%   181.5       418.9       0.000       489.5       0.000      0.5000E-01   0.000    
   13336   8.487      0.6364E-03 SPRIN         11  60.5%   837.0       28.86       0.000       489.5       0.000      0.5000E-01   0.000    
   13337   8.488      0.6364E-03 SPRIN         11   0.2%   34.07       506.6       0.000       489.5       0.000      0.5000E-01   0.000    
   13338   8.488      0.6364E-03 SPRIN         11  62.9%   868.5       10.12       0.000       489.5       0.000      0.5000E-01   0.000    
   13339   8.489      0.6364E-03 SPRIN         11   6.9%   123.1       453.7       0.000       489.5       0.000      0.5000E-01   0.000    
   13340   8.490      0.6364E-03 SPRIN         11  48.1%   671.9       127.1       0.000       489.5       0.000      0.5000E-01   0.000    
   13341   8.490      0.6364E-03 SPRIN         11  27.6%   398.9       289.5       0.000       489.5       0.000      0.5000E-01   0.000    
   13342   8.491      0.6364E-03 SPRIN         11  24.4%   356.6       314.7       0.000       489.5       0.000      0.5000E-01   0.000    
   13343   8.491      0.6364E-03 SPRIN         11  50.8%   708.1       105.6       0.000       489.5       0.000      0.5000E-01   0.000    
   13344   8.492      0.6364E-03 SPRIN         11   5.0%   98.17       468.5       0.000       489.5       0.000      0.5000E-01   0.000    
   13345   8.493      0.6364E-03 SPRIN         11  63.6%   878.5       4.199       0.000       489.5       0.000      0.5000E-01   0.000    
   13346   8.493      0.6364E-03 SPRIN         11   0.7%   40.50       502.8       0.000       489.5       0.000      0.5000E-01   0.000    
   13347   8.494      0.6364E-03 SPRIN         11  58.8%   815.1       41.88       0.000       489.5       0.000      0.5000E-01   0.000    
   13348   8.495      0.6364E-03 SPRIN         11  13.9%   215.7       398.6       0.000       489.5       0.000      0.5000E-01   0.000    
   13349   8.495      0.6364E-03 SPRIN         11  39.2%   553.4       197.6       0.000       489.5       0.000      0.5000E-01   0.000    
   13350   8.496      0.6364E-03 SPRIN         11  37.2%   526.2       213.8       0.000       489.5       0.000      0.5000E-01   0.000    
   13351   8.497      0.6364E-03 SPRIN         11  15.6%   238.9       384.7       0.000       489.5       0.000      0.5000E-01   0.000    
   13352   8.497      0.6364E-03 SPRIN         11  57.6%   799.2       51.39       0.000       489.5       0.000      0.5000E-01   0.000    
   13353   8.498      0.6364E-03 SPRIN         11   1.2%   46.88       499.0       0.000       489.5       0.000      0.5000E-01   0.000    
   13354   8.498      0.6364E-03 SPRIN         11  63.9%   882.6       1.743       0.000       489.5       0.000      0.5000E-01   0.000    
   13355   8.499      0.6364E-03 SPRIN         11   4.0%   84.13       476.8       0.000       489.5       0.000      0.5000E-01   0.000    
   13356   8.500      0.6364E-03 SPRIN         11  52.5%   730.1       92.51       0.000       489.5       0.000      0.5000E-01   0.000    
   13357   8.500      0.6364E-03 SPRIN         11  22.4%   329.9       330.6       0.000       489.5       0.000      0.5000E-01   0.000    
   13358   8.501      0.6364E-03 SPRIN         11  29.7%   426.5       273.1       0.000       489.5       0.000      0.5000E-01   0.000    
   13359   8.502      0.6364E-03 SPRIN         11  46.3%   647.5       141.6       0.000       489.5       0.000      0.5000E-01   0.000    
   13360   8.502      0.6364E-03 SPRIN         11   8.2%   140.8       443.1       0.000       489.5       0.000      0.5000E-01   0.000    
   13361   8.503      0.6364E-03 SPRIN         11  62.2%   859.9       15.23       0.000       489.5       0.000      0.5000E-01   0.000    
   13362   8.504      0.6364E-03 SPRIN         11   0.1%   32.23       507.7       0.000       489.5       0.000      0.5000E-01   0.000    
   13363   8.504      0.6364E-03 SPRIN         11  61.4%   849.0       21.71       0.000       489.5       0.000      0.5000E-01   0.000    
   13364   8.505      0.6364E-03 SPRIN         11   9.8%   161.1       431.1       0.000       489.5       0.000      0.5000E-01   0.000    
   CYCLE    TIME      TIME-STEP  ELEMENT          ERROR  I-ENERGY    K-ENERGY T  K-ENERGY R  EXT-WORK     MAS.ERR     TOTAL MASS  MASS ADDED
   13365   8.505      0.6364E-03 SPRIN         11  44.3%   620.8       157.5       0.000       489.5       0.000      0.5000E-01   0.000    
   13366   8.506      0.6364E-03 SPRIN         11  31.9%   455.6       255.8       0.000       489.5       0.000      0.5000E-01   0.000    
   13367   8.507      0.6364E-03 SPRIN         11  20.4%   302.4       347.0       0.000       489.5       0.000      0.5000E-01   0.000    
   13368   8.507      0.6364E-03 SPRIN         11  54.1%   752.0       79.48       0.000       489.5       0.000      0.5000E-01   0.000    
   13369   8.508      0.6364E-03 SPRIN         11   3.0%   71.02       484.6       0.000       489.5       0.000      0.5000E-01   0.000    
   13370   8.509      0.6364E-03 SPRIN         11  64.1%   885.0      0.3019       0.000       489.5       0.000      0.5000E-01   0.000    
   13371   8.509      0.6364E-03 SPRIN         11   1.8%   55.50       493.9       0.000       489.5       0.000      0.5000E-01   0.000    
   13372   8.510      0.6364E-03 SPRIN         11  56.3%   780.8       62.34       0.000       489.5       0.000      0.5000E-01   0.000    
   13373   8.511      0.6364E-03 SPRIN         11  17.5%   264.5       369.5       0.000       489.5       0.000      0.5000E-01   0.000    
   13374   8.511      0.6364E-03 SPRIN         11  35.0%   497.2       231.0       0.000       489.5       0.000      0.5000E-01   0.000    
   13375   8.512      0.6364E-03 SPRIN         11  41.3%   581.6       180.8       0.000       489.5       0.000      0.5000E-01   0.000    
   13376   8.512      0.6364E-03 SPRIN         11  12.1%   192.3       412.5       0.000       489.5       0.000      0.5000E-01   0.000    
   13377   8.513      0.6364E-03 SPRIN         11  60.0%   830.4       32.82       0.000       489.5       0.000      0.5000E-01   0.000    
   13378   8.514      0.6364E-03 SPRIN         11   0.3%   35.68       505.7       0.000       489.5       0.000      0.5000E-01   0.000    
   13379   8.514      0.6364E-03 SPRIN         11  63.1%   872.2       7.929       0.000       489.5       0.000      0.5000E-01   0.000    
   13380   8.515      0.6364E-03 SPRIN         11   6.3%   114.6       458.7       0.000       489.5       0.000      0.5000E-01   0.000    
   13381   8.516      0.6364E-03 SPRIN         11  49.0%   683.9       120.0       0.000       489.5       0.000      0.5000E-01   0.000    
   13382   8.516      0.6364E-03 SPRIN         11  26.6%   385.2       297.7       0.000       489.5       0.000      0.5000E-01   0.000    
   13383   8.517      0.6364E-03 SPRIN         11  25.4%   370.2       306.6       0.000       489.5       0.000      0.5000E-01   0.000    
   13384   8.518      0.6364E-03 SPRIN         11  50.0%   696.7       112.4       0.000       489.5       0.000      0.5000E-01   0.000    
   13385   8.518      0.6364E-03 SPRIN         11   5.6%   105.8       463.9       0.000       489.5       0.000      0.5000E-01   0.000    
   13386   8.519      0.6364E-03 SPRIN         11  63.4%   875.7       5.834       0.000       489.5       0.000      0.5000E-01   0.000    
   13387   8.519      0.6364E-03 SPRIN         11   0.5%   37.95       504.3       0.000       489.5       0.000      0.5000E-01   0.000    
   13388   8.520      0.6364E-03 SPRIN         11  59.4%   822.6       37.43       0.000       489.5       0.000      0.5000E-01   0.000    
   13389   8.521      0.6364E-03 SPRIN         11  13.0%   204.4       405.3       0.000       489.5       0.000      0.5000E-01   0.000    
   13390   8.521      0.6364E-03 SPRIN         11  40.2%   566.9       189.6       0.000       489.5       0.000      0.5000E-01   0.000    
   13391   8.522      0.6364E-03 SPRIN         11  36.1%   512.4       222.0       0.000       489.5       0.000      0.5000E-01   0.000    
   13392   8.523      0.6364E-03 SPRIN         11  16.5%   251.0       377.5       0.000       489.5       0.000      0.5000E-01   0.000    
   13393   8.523      0.6364E-03 SPRIN         11  57.0%   790.6       56.50       0.000       489.5       0.000      0.5000E-01   0.000    
   13394   8.524      0.6364E-03 SPRIN         11   1.5%   50.76       496.7       0.000       489.5       0.000      0.5000E-01   0.000    
   13395   8.525      0.6364E-03 SPRIN         11  64.0%   884.0      0.9073       0.000       489.5       0.000      0.5000E-01   0.000    
   13396   8.525      0.6364E-03 SPRIN         11   3.5%   77.65       480.7       0.000       489.5       0.000      0.5000E-01   0.000    
   13397   8.526      0.6364E-03 SPRIN         11  53.3%   740.7       86.19       0.000       489.5       0.000      0.5000E-01   0.000    
   13398   8.526      0.6364E-03 SPRIN         11  21.4%   316.7       338.4       0.000       489.5       0.000      0.5000E-01   0.000    
   13399   8.527      0.6364E-03 SPRIN         11  30.7%   440.4       264.9       0.000       489.5       0.000      0.5000E-01   0.000    
   13400   8.528      0.6364E-03 SPRIN         11  45.3%   634.9       149.1       0.000       489.5       0.000      0.5000E-01   0.000    
   13401   8.528      0.6364E-03 SPRIN         11   8.9%   150.3       437.4       0.000       489.5       0.000      0.5000E-01   0.000    
   13402   8.529      0.6364E-03 SPRIN         11  61.8%   855.0       18.19       0.000       489.5       0.000      0.5000E-01   0.000    
   13403   8.530      0.6364E-03 SPRIN         11   0.1%   31.98       507.9       0.000       489.5       0.000      0.5000E-01   0.000    
   13404   8.530      0.6364E-03 SPRIN         11  61.8%   854.5       18.48       0.000       489.5       0.000      0.5000E-01   0.000    
   13405   8.531      0.6364E-03 SPRIN         11   9.0%   151.2       436.9       0.000       489.5       0.000      0.5000E-01   0.000    
   13406   8.532      0.6364E-03 SPRIN         11  45.2%   633.7       149.9       0.000       489.5       0.000      0.5000E-01   0.000    
   13407   8.532      0.6364E-03 SPRIN         11  30.8%   441.7       264.1       0.000       489.5       0.000      0.5000E-01   0.000    
   13408   8.533      0.6364E-03 SPRIN         11  21.3%   315.5       339.2       0.000       489.5       0.000      0.5000E-01   0.000    
   13409   8.533      0.6364E-03 SPRIN         11  53.3%   741.7       85.60       0.000       489.5       0.000      0.5000E-01   0.000    
   13410   8.534      0.6364E-03 SPRIN         11   3.4%   77.05       481.0       0.000       489.5       0.000      0.5000E-01   0.000    
   13411   8.535      0.6364E-03 SPRIN         11  64.0%   884.1      0.8415       0.000       489.5       0.000      0.5000E-01   0.000    
   13412   8.535      0.6364E-03 SPRIN         11   1.5%   51.15       496.5       0.000       489.5       0.000      0.5000E-01   0.000    
   13413   8.536      0.6364E-03 SPRIN         11  56.9%   789.7       57.00       0.000       489.5       0.000      0.5000E-01   0.000    
   13414   8.537      0.6364E-03 SPRIN         11  16.6%   252.2       376.8       0.000       489.5       0.000      0.5000E-01   0.000    
   13415   8.537      0.6364E-03 SPRIN         11  36.0%   511.1       222.8       0.000       489.5       0.000      0.5000E-01   0.000    
   13416   8.538      0.6364E-03 SPRIN         11  40.3%   568.2       188.8       0.000       489.5       0.000      0.5000E-01   0.000    
   13417   8.539      0.6364E-03 SPRIN         11  12.9%   203.3       405.9       0.000       489.5       0.000      0.5000E-01   0.000    
   13418   8.539      0.6364E-03 SPRIN         11  59.5%   823.3       37.02       0.000       489.5       0.000      0.5000E-01   0.000    
   13419   8.540      0.6364E-03 SPRIN         11   0.5%   37.73       504.4       0.000       489.5       0.000      0.5000E-01   0.000    
   CYCLE    TIME      TIME-STEP  ELEMENT          ERROR  I-ENERGY    K-ENERGY T  K-ENERGY R  EXT-WORK     MAS.ERR     TOTAL MASS  MASS ADDED
   13420   8.540      0.6364E-03 SPRIN         11  63.4%   875.4       6.004       0.000       489.5       0.000      0.5000E-01   0.000    
   13421   8.541      0.6364E-03 SPRIN         11   5.7%   106.6       463.5       0.000       489.5       0.000      0.5000E-01   0.000    
   13422   8.542      0.6364E-03 SPRIN         11  49.9%   695.6       113.0       0.000       489.5       0.000      0.5000E-01   0.000    
   13423   8.542      0.6364E-03 SPRIN         11  25.5%   371.5       305.9       0.000       489.5       0.000      0.5000E-01   0.000    
   13424   8.543      0.6364E-03 SPRIN         11  26.5%   383.9       298.5       0.000       489.5       0.000      0.5000E-01   0.000    
   13425   8.544      0.6364E-03 SPRIN         11  49.1%   685.0       119.3       0.000       489.5       0.000      0.5000E-01   0.000    
   13426   8.544      0.6364E-03 SPRIN         11   6.2%   113.8       459.2       0.000       489.5       0.000      0.5000E-01   0.000    
   13427   8.545      0.6364E-03 SPRIN         11  63.2%   872.5       7.733       0.000       489.5       0.000      0.5000E-01   0.000    
   13428   8.546      0.6364E-03 SPRIN         11   0.4%   35.85       505.6       0.000       489.5       0.000      0.5000E-01   0.000    
   13429   8.546      0.6364E-03 SPRIN         11  59.9%   829.7       33.21       0.000       489.5       0.000      0.5000E-01   0.000    
   13430   8.547      0.6364E-03 SPRIN         11  12.2%   193.3       411.9       0.000       489.5       0.000      0.5000E-01   0.000    
   13431   8.547      0.6364E-03 SPRIN         11  41.2%   580.4       181.6       0.000       489.5       0.000      0.5000E-01   0.000    
   13432   8.548      0.6364E-03 SPRIN         11  35.1%   498.6       230.2       0.000       489.5       0.000      0.5000E-01   0.000    
   13433   8.549      0.6364E-03 SPRIN         11  17.4%   263.3       370.2       0.000       489.5       0.000      0.5000E-01   0.000    
   13434   8.549      0.6364E-03 SPRIN         11  56.3%   781.6       61.82       0.000       489.5       0.000      0.5000E-01   0.000    
   13435   8.550      0.6364E-03 SPRIN         11   1.8%   55.06       494.1       0.000       489.5       0.000      0.5000E-01   0.000    
   13436   8.551      0.6364E-03 SPRIN         11  64.1%   885.0      0.3419       0.000       489.5       0.000      0.5000E-01   0.000    
   13437   8.551      0.6364E-03 SPRIN         11   3.0%   71.58       484.3       0.000       489.5       0.000      0.5000E-01   0.000    
   13438   8.552      0.6364E-03 SPRIN         11  54.0%   751.0       80.05       0.000       489.5       0.000      0.5000E-01   0.000    
   13439   8.553      0.6364E-03 SPRIN         11  20.5%   303.7       346.2       0.000       489.5       0.000      0.5000E-01   0.000    
   13440   8.553      0.6364E-03 SPRIN         11  31.8%   454.3       256.6       0.000       489.5       0.000      0.5000E-01   0.000    
   13441   8.554      0.6364E-03 SPRIN         11  44.4%   622.1       156.8       0.000       489.5       0.000      0.5000E-01   0.000    
   13442   8.554      0.6364E-03 SPRIN         11   9.7%   160.1       431.6       0.000       489.5       0.000      0.5000E-01   0.000    
   13443   8.555      0.6364E-03 SPRIN         11  61.4%   849.6       21.39       0.000       489.5       0.000      0.5000E-01   0.000    
   13444   8.556      0.6364E-03 SPRIN         11   0.1%   32.18       507.7       0.000       489.5       0.000      0.5000E-01   0.000    
   13445   8.556      0.6364E-03 SPRIN         11  62.2%   859.5       15.50       0.000       489.5       0.000      0.5000E-01   0.000    
   13446   8.557      0.6364E-03 SPRIN         11   8.3%   141.7       442.6       0.000       489.5       0.000      0.5000E-01   0.000    
   13447   8.558      0.6364E-03 SPRIN         11  46.2%   646.3       142.4       0.000       489.5       0.000      0.5000E-01   0.000    
   13448   8.558      0.6364E-03 SPRIN         11  29.8%   427.8       272.4       0.000       489.5       0.000      0.5000E-01   0.000    
   13449   8.559      0.6364E-03 SPRIN         11  22.3%   328.7       331.3       0.000       489.5       0.000      0.5000E-01   0.000    
   13450   8.560      0.6364E-03 SPRIN         11  52.5%   731.1       91.89       0.000       489.5       0.000      0.5000E-01   0.000    
   13451   8.560      0.6364E-03 SPRIN         11   3.9%   83.49       477.2       0.000       489.5       0.000      0.5000E-01   0.000    
   13452   8.561      0.6364E-03 SPRIN         11  63.9%   882.8       1.651       0.000       489.5       0.000      0.5000E-01   0.000    
   13453   8.561      0.6364E-03 SPRIN         11   1.2%   47.24       498.8       0.000       489.5       0.000      0.5000E-01   0.000    
   13454   8.562      0.6364E-03 SPRIN         11  57.6%   798.4       51.87       0.000       489.5       0.000      0.5000E-01   0.000    
   13455   8.563      0.6364E-03 SPRIN         11  15.7%   240.1       384.0       0.000       489.5       0.000      0.5000E-01   0.000    
   13456   8.563      0.6364E-03 SPRIN         11  37.1%   524.9       214.6       0.000       489.5       0.000      0.5000E-01   0.000    
   13457   8.564      0.6364E-03 SPRIN         11  39.3%   554.7       196.9       0.000       489.5       0.000      0.5000E-01   0.000    
   13458   8.565      0.6364E-03 SPRIN         11  13.8%   214.6       399.2       0.000       489.5       0.000      0.5000E-01   0.000    
   13459   8.565      0.6364E-03 SPRIN         11  58.9%   815.9       41.45       0.000       489.5       0.000      0.5000E-01   0.000    
   13460   8.566      0.6364E-03 SPRIN         11   0.7%   40.24       502.9       0.000       489.5       0.000      0.5000E-01   0.000    
   13461   8.567      0.6364E-03 SPRIN         11  63.6%   878.2       4.344       0.000       489.5       0.000      0.5000E-01   0.000    
   13462   8.567      0.6364E-03 SPRIN         11   5.1%   98.89       468.1       0.000       489.5       0.000      0.5000E-01   0.000    
   13463   8.568      0.6364E-03 SPRIN         11  50.7%   707.0       106.2       0.000       489.5       0.000      0.5000E-01   0.000    
   13464   8.568      0.6364E-03 SPRIN         11  24.5%   357.9       313.9       0.000       489.5       0.000      0.5000E-01   0.000    
   13465   8.569      0.6364E-03 SPRIN         11  27.5%   397.6       290.3       0.000       489.5       0.000      0.5000E-01   0.000    
   13466   8.570      0.6364E-03 SPRIN         11  48.2%   673.0       126.4       0.000       489.5       0.000      0.5000E-01   0.000    
   13467   8.570      0.6364E-03 SPRIN         11   6.8%   122.2       454.2       0.000       489.5       0.000      0.5000E-01   0.000    
   13468   8.571      0.6364E-03 SPRIN         11  62.9%   868.9       9.896       0.000       489.5       0.000      0.5000E-01   0.000    
   13469   8.572      0.6364E-03 SPRIN         11   0.2%   34.20       506.5       0.000       489.5       0.000      0.5000E-01   0.000    
   13470   8.572      0.6364E-03 SPRIN         11  60.4%   836.4       29.23       0.000       489.5       0.000      0.5000E-01   0.000    
   13471   8.573      0.6364E-03 SPRIN         11  11.4%   182.5       418.3       0.000       489.5       0.000      0.5000E-01   0.000    
   13472   8.574      0.6364E-03 SPRIN         11  42.2%   593.6       173.7       0.000       489.5       0.000      0.5000E-01   0.000    
   13473   8.574      0.6364E-03 SPRIN         11  34.0%   484.7       238.5       0.000       489.5       0.000      0.5000E-01   0.000    
   13474   8.575      0.6364E-03 SPRIN         11  18.4%   275.8       362.8       0.000       489.5       0.000      0.5000E-01   0.000    
   CYCLE    TIME      TIME-STEP  ELEMENT          ERROR  I-ENERGY    K-ENERGY T  K-ENERGY R  EXT-WORK     MAS.ERR     TOTAL MASS  MASS ADDED
   13475   8.575      0.6364E-03 SPRIN         11  55.6%   772.3       67.34       0.000       489.5       0.000      0.5000E-01   0.000    
   13476   8.576      0.6364E-03 SPRIN         11   2.1%   59.80       491.3       0.000       489.5       0.000      0.5000E-01   0.000    
   13477   8.577      0.6364E-03 SPRIN         11  64.1%   885.4      0.4696E-01   0.000       489.5       0.000      0.5000E-01   0.000    
   13478   8.577      0.6364E-03 SPRIN         11   2.6%   65.92       487.7       0.000       489.5       0.000      0.5000E-01   0.000    
   13479   8.578      0.6364E-03 SPRIN         11  54.8%   761.0       74.10       0.000       489.5       0.000      0.5000E-01   0.000    
   13480   8.579      0.6364E-03 SPRIN         11  19.5%   290.8       353.9       0.000       489.5       0.000      0.5000E-01   0.000    
   13481   8.579      0.6364E-03 SPRIN         11  32.8%   468.3       248.3       0.000       489.5       0.000      0.5000E-01   0.000    
   13482   8.580      0.6364E-03 SPRIN         11  43.4%   609.1       164.5       0.000       489.5       0.000      0.5000E-01   0.000    
   13483   8.581      0.6364E-03 SPRIN         11  10.4%   170.2       425.6       0.000       489.5       0.000      0.5000E-01   0.000    
   13484   8.581      0.6364E-03 SPRIN         11  61.0%   843.8       24.85       0.000       489.5       0.000      0.5000E-01   0.000    
   13485   8.582      0.6364E-03 SPRIN         11   0.1%   32.84       507.3       0.000       489.5       0.000      0.5000E-01   0.000    
   13486   8.582      0.6364E-03 SPRIN         11  62.5%   864.1       12.78       0.000       489.5       0.000      0.5000E-01   0.000    
   13487   8.583      0.6364E-03 SPRIN         11   7.6%   132.6       448.0       0.000       489.5       0.000      0.5000E-01   0.000    
   13488   8.584      0.6364E-03 SPRIN         11  47.1%   658.7       135.0       0.000       489.5       0.000      0.5000E-01   0.000    
   13489   8.584      0.6364E-03 SPRIN         11  28.7%   413.9       280.6       0.000       489.5       0.000      0.5000E-01   0.000    
   13490   8.585      0.6364E-03 SPRIN         11  23.3%   342.0       323.4       0.000       489.5       0.000      0.5000E-01   0.000    
   13491   8.586      0.6364E-03 SPRIN         11  51.7%   720.2       98.37       0.000       489.5       0.000      0.5000E-01   0.000    
   13492   8.586      0.6364E-03 SPRIN         11   4.4%   90.33       473.1       0.000       489.5       0.000      0.5000E-01   0.000    
   13493   8.587      0.6364E-03 SPRIN         11  63.8%   880.9       2.730       0.000       489.5       0.000      0.5000E-01   0.000    
   13494   8.588      0.6364E-03 SPRIN         11   0.9%   43.76       500.8       0.000       489.5       0.000      0.5000E-01   0.000    
   13495   8.588      0.6364E-03 SPRIN         11  58.2%   806.6       46.95       0.000       489.5       0.000      0.5000E-01   0.000    
   13496   8.589      0.6364E-03 SPRIN         11  14.8%   228.2       391.1       0.000       489.5       0.000      0.5000E-01   0.000    
   13497   8.589      0.6364E-03 SPRIN         11  38.1%   538.6       206.4       0.000       489.5       0.000      0.5000E-01   0.000    
   13498   8.590      0.6364E-03 SPRIN         11  38.3%   541.1       205.0       0.000       489.5       0.000      0.5000E-01   0.000    
   13499   8.591      0.6364E-03 SPRIN         11  14.6%   226.2       392.3       0.000       489.5       0.000      0.5000E-01   0.000    
   13500   8.591      0.6364E-03 SPRIN         11  58.3%   808.0       46.10       0.000       489.5       0.000      0.5000E-01   0.000    
   13501   8.592      0.6364E-03 SPRIN         11   0.9%   43.19       501.2       0.000       489.5       0.000      0.5000E-01   0.000    
   13502   8.593      0.6364E-03 SPRIN         11  63.8%   880.6       2.950       0.000       489.5       0.000      0.5000E-01   0.000    
   13503   8.593      0.6364E-03 SPRIN         11   4.5%   91.59       472.4       0.000       489.5       0.000      0.5000E-01   0.000    
   13504   8.594      0.6364E-03 SPRIN         11  51.6%   718.2       99.53       0.000       489.5       0.000      0.5000E-01   0.000    
   13505   8.595      0.6364E-03 SPRIN         11  23.5%   344.4       322.0       0.000       489.5       0.000      0.5000E-01   0.000    
   13506   8.595      0.6364E-03 SPRIN         11  28.5%   411.4       282.1       0.000       489.5       0.000      0.5000E-01   0.000    
   13507   8.596      0.6364E-03 SPRIN         11  47.3%   660.9       133.7       0.000       489.5       0.000      0.5000E-01   0.000    
   13508   8.596      0.6364E-03 SPRIN         11   7.5%   131.0       449.0       0.000       489.5       0.000      0.5000E-01   0.000    
   13509   8.597      0.6364E-03 SPRIN         11  62.6%   864.8       12.32       0.000       489.5       0.000      0.5000E-01   0.000    
   13510   8.598      0.6364E-03 SPRIN         11   0.1%   33.01       507.2       0.000       489.5       0.000      0.5000E-01   0.000    
   13511   8.598      0.6364E-03 SPRIN         11  60.9%   842.7       25.49       0.000       489.5       0.000      0.5000E-01   0.000    
   13512   8.599      0.6364E-03 SPRIN         11  10.6%   172.1       424.5       0.000       489.5       0.000      0.5000E-01   0.000    
   13513   8.600      0.6364E-03 SPRIN         11  43.2%   606.8       165.8       0.000       489.5       0.000      0.5000E-01   0.000    
   13514   8.600      0.6364E-03 SPRIN         11  33.0%   470.7       246.8       0.000       489.5       0.000      0.5000E-01   0.000    
     ANIMATION FILE: SPR_PRE_2FLAGA044 WRITTEN
   13515   8.601      0.6364E-03 SPRIN         11  19.3%   288.5       355.2       0.000       489.5       0.000      0.5000E-01   0.000    
   13516   8.602      0.6364E-03 SPRIN         11  54.9%   762.7       73.07       0.000       489.5       0.000      0.5000E-01   0.000    
   13517   8.602      0.6364E-03 SPRIN         11   2.5%   64.96       488.2       0.000       489.5       0.000      0.5000E-01   0.000    
   13518   8.603      0.6364E-03 SPRIN         11  64.1%   885.5      0.2290E-01   0.000       489.5       0.000      0.5000E-01   0.000    
   13519   8.603      0.6364E-03 SPRIN         11   2.2%   60.69       490.8       0.000       489.5       0.000      0.5000E-01   0.000    
   13520   8.604      0.6364E-03 SPRIN         11  55.5%   770.7       68.34       0.000       489.5       0.000      0.5000E-01   0.000    
   13521   8.605      0.6364E-03 SPRIN         11  18.5%   278.0       361.5       0.000       489.5       0.000      0.5000E-01   0.000    
   13522   8.605      0.6364E-03 SPRIN         11  33.9%   482.2       240.0       0.000       489.5       0.000      0.5000E-01   0.000    
   13523   8.606      0.6364E-03 SPRIN         11  42.4%   596.0       172.3       0.000       489.5       0.000      0.5000E-01   0.000    
   13524   8.607      0.6364E-03 SPRIN         11  11.2%   180.7       419.4       0.000       489.5       0.000      0.5000E-01   0.000    
   13525   8.607      0.6364E-03 SPRIN         11  60.5%   837.5       28.55       0.000       489.5       0.000      0.5000E-01   0.000    
   13526   8.608      0.6364E-03 SPRIN         11   0.2%   33.96       506.7       0.000       489.5       0.000      0.5000E-01   0.000    
   13527   8.609      0.6364E-03 SPRIN         11  62.8%   868.2       10.31       0.000       489.5       0.000      0.5000E-01   0.000    
   13528   8.609      0.6364E-03 SPRIN         11   6.9%   123.8       453.2       0.000       489.5       0.000      0.5000E-01   0.000    
   13529   8.610      0.6364E-03 SPRIN         11  48.0%   670.9       127.7       0.000       489.5       0.000      0.5000E-01   0.000    
   CYCLE    TIME      TIME-STEP  ELEMENT          ERROR  I-ENERGY    K-ENERGY T  K-ENERGY R  EXT-WORK     MAS.ERR     TOTAL MASS  MASS ADDED
   13530   8.610      0.6364E-03 SPRIN         11  27.7%   400.1       288.8       0.000       489.5       0.000      0.5000E-01   0.000    
   13531   8.611      0.6364E-03 SPRIN         11  24.3%   355.5       315.4       0.000       489.5       0.000      0.5000E-01   0.000    
   13532   8.612      0.6364E-03 SPRIN         11  50.9%   709.1       105.0       0.000       489.5       0.000      0.5000E-01   0.000    
   13533   8.612      0.6364E-03 SPRIN         11   5.0%   97.56       468.8       0.000       489.5       0.000      0.5000E-01   0.000    
   13534   8.613      0.6364E-03 SPRIN         11  63.6%   878.7       4.077       0.000       489.5       0.000      0.5000E-01   0.000    
   13535   8.614      0.6364E-03 SPRIN         11   0.7%   40.73       502.7       0.000       489.5       0.000      0.5000E-01   0.000    
   13536   8.614      0.6364E-03 SPRIN         11  58.8%   814.5       42.26       0.000       489.5       0.000      0.5000E-01   0.000    
   13537   8.615      0.6364E-03 SPRIN         11  13.9%   216.6       398.0       0.000       489.5       0.000      0.5000E-01   0.000    
   13538   8.616      0.6364E-03 SPRIN         11  39.1%   552.3       198.3       0.000       489.5       0.000      0.5000E-01   0.000    
   13539   8.616      0.6364E-03 SPRIN         11  37.2%   527.3       213.1       0.000       489.5       0.000      0.5000E-01   0.000    
   13540   8.617      0.6364E-03 SPRIN         11  15.5%   238.0       385.3       0.000       489.5       0.000      0.5000E-01   0.000    
   13541   8.617      0.6364E-03 SPRIN         11  57.7%   799.9       50.98       0.000       489.5       0.000      0.5000E-01   0.000    
   13542   8.618      0.6364E-03 SPRIN         11   1.2%   46.59       499.2       0.000       489.5       0.000      0.5000E-01   0.000    
   13543   8.619      0.6364E-03 SPRIN         11  63.9%   882.5       1.823       0.000       489.5       0.000      0.5000E-01   0.000    
   13544   8.619      0.6364E-03 SPRIN         11   4.0%   84.68       476.5       0.000       489.5       0.000      0.5000E-01   0.000    
   13545   8.620      0.6364E-03 SPRIN         11  52.4%   729.2       93.03       0.000       489.5       0.000      0.5000E-01   0.000    
   13546   8.621      0.6364E-03 SPRIN         11  22.5%   331.0       329.9       0.000       489.5       0.000      0.5000E-01   0.000    
   13547   8.621      0.6364E-03 SPRIN         11  29.6%   425.3       273.8       0.000       489.5       0.000      0.5000E-01   0.000    
   13548   8.622      0.6364E-03 SPRIN         11  46.3%   648.5       141.0       0.000       489.5       0.000      0.5000E-01   0.000    
   13549   8.623      0.6364E-03 SPRIN         11   8.2%   140.1       443.5       0.000       489.5       0.000      0.5000E-01   0.000    
   13550   8.623      0.6364E-03 SPRIN         11  62.2%   860.3       15.00       0.000       489.5       0.000      0.5000E-01   0.000    
   13551   8.624      0.6364E-03 SPRIN         11   0.1%   32.27       507.7       0.000       489.5       0.000      0.5000E-01   0.000    
   13552   8.624      0.6364E-03 SPRIN         11  61.4%   848.6       21.99       0.000       489.5       0.000      0.5000E-01   0.000    
   13553   8.625      0.6364E-03 SPRIN         11   9.8%   161.9       430.6       0.000       489.5       0.000      0.5000E-01   0.000    
   13554   8.626      0.6364E-03 SPRIN         11  44.2%   619.8       158.1       0.000       489.5       0.000      0.5000E-01   0.000    
   13555   8.626      0.6364E-03 SPRIN         11  31.9%   456.8       255.1       0.000       489.5       0.000      0.5000E-01   0.000    
   13556   8.627      0.6364E-03 SPRIN         11  20.3%   301.4       347.6       0.000       489.5       0.000      0.5000E-01   0.000    
   13557   8.628      0.6364E-03 SPRIN         11  54.2%   752.8       78.98       0.000       489.5       0.000      0.5000E-01   0.000    
   13558   8.628      0.6364E-03 SPRIN         11   3.0%   70.55       484.9       0.000       489.5       0.000      0.5000E-01   0.000    
   13559   8.629      0.6364E-03 SPRIN         11  64.1%   885.1      0.2697       0.000       489.5       0.000      0.5000E-01   0.000    
   13560   8.630      0.6364E-03 SPRIN         11   1.9%   55.87       493.6       0.000       489.5       0.000      0.5000E-01   0.000    
   13561   8.630      0.6364E-03 SPRIN         11  56.2%   780.0       62.78       0.000       489.5       0.000      0.5000E-01   0.000    
   13562   8.631      0.6364E-03 SPRIN         11  17.6%   265.5       368.9       0.000       489.5       0.000      0.5000E-01   0.000    
   13563   8.631      0.6364E-03 SPRIN         11  34.9%   496.1       231.7       0.000       489.5       0.000      0.5000E-01   0.000    
   13564   8.632      0.6364E-03 SPRIN         11  41.4%   582.7       180.2       0.000       489.5       0.000      0.5000E-01   0.000    
   13565   8.633      0.6364E-03 SPRIN         11  12.0%   191.4       413.0       0.000       489.5       0.000      0.5000E-01   0.000    
   13566   8.633      0.6364E-03 SPRIN         11  60.0%   830.9       32.49       0.000       489.5       0.000      0.5000E-01   0.000    
   13567   8.634      0.6364E-03 SPRIN         11   0.3%   35.53       505.7       0.000       489.5       0.000      0.5000E-01   0.000    
   13568   8.635      0.6364E-03 SPRIN         11  63.1%   871.9       8.098       0.000       489.5       0.000      0.5000E-01   0.000    
   13569   8.635      0.6364E-03 SPRIN         11   6.3%   115.3       458.3       0.000       489.5       0.000      0.5000E-01   0.000    
   13570   8.636      0.6364E-03 SPRIN         11  48.9%   682.9       120.6       0.000       489.5       0.000      0.5000E-01   0.000    
   13571   8.637      0.6364E-03 SPRIN         11  26.7%   386.3       297.0       0.000       489.5       0.000      0.5000E-01   0.000    
   13572   8.637      0.6364E-03 SPRIN         11  25.4%   369.1       307.3       0.000       489.5       0.000      0.5000E-01   0.000    
   13573   8.638      0.6364E-03 SPRIN         11  50.0%   697.6       111.8       0.000       489.5       0.000      0.5000E-01   0.000    
   13574   8.638      0.6364E-03 SPRIN         11   5.6%   105.2       464.3       0.000       489.5       0.000      0.5000E-01   0.000    
   13575   8.639      0.6364E-03 SPRIN         11  63.4%   876.0       5.690       0.000       489.5       0.000      0.5000E-01   0.000    
   13576   8.640      0.6364E-03 SPRIN         11   0.5%   38.15       504.2       0.000       489.5       0.000      0.5000E-01   0.000    
   13577   8.640      0.6364E-03 SPRIN         11  59.4%   822.0       37.79       0.000       489.5       0.000      0.5000E-01   0.000    
   13578   8.641      0.6364E-03 SPRIN         11  13.1%   205.3       404.7       0.000       489.5       0.000      0.5000E-01   0.000    
   13579   8.642      0.6364E-03 SPRIN         11  40.1%   565.8       190.2       0.000       489.5       0.000      0.5000E-01   0.000    
   13580   8.642      0.6364E-03 SPRIN         11  36.2%   513.5       221.3       0.000       489.5       0.000      0.5000E-01   0.000    
   13581   8.643      0.6364E-03 SPRIN         11  16.4%   250.0       378.1       0.000       489.5       0.000      0.5000E-01   0.000    
   13582   8.644      0.6364E-03 SPRIN         11  57.1%   791.3       56.07       0.000       489.5       0.000      0.5000E-01   0.000    
   13583   8.644      0.6364E-03 SPRIN         11   1.4%   50.42       496.9       0.000       489.5       0.000      0.5000E-01   0.000    
   13584   8.645      0.6364E-03 SPRIN         11  64.0%   883.9      0.9656       0.000       489.5       0.000      0.5000E-01   0.000    
   CYCLE    TIME      TIME-STEP  ELEMENT          ERROR  I-ENERGY    K-ENERGY T  K-ENERGY R  EXT-WORK     MAS.ERR     TOTAL MASS  MASS ADDED
   13585   8.645      0.6364E-03 SPRIN         11   3.5%   78.17       480.4       0.000       489.5       0.000      0.5000E-01   0.000    
   13586   8.646      0.6364E-03 SPRIN         11  53.2%   739.8       86.70       0.000       489.5       0.000      0.5000E-01   0.000    
   13587   8.647      0.6364E-03 SPRIN         11  21.5%   317.8       337.8       0.000       489.5       0.000      0.5000E-01   0.000    
   13588   8.647      0.6364E-03 SPRIN         11  30.6%   439.2       265.5       0.000       489.5       0.000      0.5000E-01   0.000    
   13589   8.648      0.6364E-03 SPRIN         11  45.4%   635.9       148.5       0.000       489.5       0.000      0.5000E-01   0.000    
   13590   8.649      0.6364E-03 SPRIN         11   8.9%   149.5       437.9       0.000       489.5       0.000      0.5000E-01   0.000    
   13591   8.649      0.6364E-03 SPRIN         11  61.9%   855.4       17.93       0.000       489.5       0.000      0.5000E-01   0.000    
   13592   8.650      0.6364E-03 SPRIN         11   0.1%   31.98       507.9       0.000       489.5       0.000      0.5000E-01   0.000    
   13593   8.651      0.6364E-03 SPRIN         11  61.8%   854.0       18.74       0.000       489.5       0.000      0.5000E-01   0.000    
   13594   8.651      0.6364E-03 SPRIN         11   9.1%   152.0       436.4       0.000       489.5       0.000      0.5000E-01   0.000    
   13595   8.652      0.6364E-03 SPRIN         11  45.1%   632.6       150.5       0.000       489.5       0.000      0.5000E-01   0.000    
   13596   8.652      0.6364E-03 SPRIN         11  30.9%   442.9       263.4       0.000       489.5       0.000      0.5000E-01   0.000    
   13597   8.653      0.6364E-03 SPRIN         11  21.3%   314.4       339.8       0.000       489.5       0.000      0.5000E-01   0.000    
   13598   8.654      0.6364E-03 SPRIN         11  53.4%   742.5       85.09       0.000       489.5       0.000      0.5000E-01   0.000    
   13599   8.654      0.6364E-03 SPRIN         11   3.4%   76.54       481.3       0.000       489.5       0.000      0.5000E-01   0.000    
   13600   8.655      0.6364E-03 SPRIN         11  64.0%   884.2      0.7871       0.000       489.5       0.000      0.5000E-01   0.000    
   13601   8.656      0.6364E-03 SPRIN         11   1.5%   51.49       496.3       0.000       489.5       0.000      0.5000E-01   0.000    
   13602   8.656      0.6364E-03 SPRIN         11  56.9%   789.0       57.43       0.000       489.5       0.000      0.5000E-01   0.000    
   13603   8.657      0.6364E-03 SPRIN         11  16.7%   253.2       376.2       0.000       489.5       0.000      0.5000E-01   0.000    
   13604   8.658      0.6364E-03 SPRIN         11  35.9%   510.0       223.5       0.000       489.5       0.000      0.5000E-01   0.000    
   13605   8.658      0.6364E-03 SPRIN         11  40.4%   569.3       188.1       0.000       489.5       0.000      0.5000E-01   0.000    
   13606   8.659      0.6364E-03 SPRIN         11  12.9%   202.4       406.5       0.000       489.5       0.000      0.5000E-01   0.000    
   13607   8.659      0.6364E-03 SPRIN         11  59.5%   823.9       36.67       0.000       489.5       0.000      0.5000E-01   0.000    
   13608   8.660      0.6364E-03 SPRIN         11   0.5%   37.55       504.5       0.000       489.5       0.000      0.5000E-01   0.000    
   13609   8.661      0.6364E-03 SPRIN         11  63.4%   875.2       6.152       0.000       489.5       0.000      0.5000E-01   0.000    
   13610   8.661      0.6364E-03 SPRIN         11   5.7%   107.2       463.1       0.000       489.5       0.000      0.5000E-01   0.000    
   13611   8.662      0.6364E-03 SPRIN         11  49.8%   694.6       113.6       0.000       489.5       0.000      0.5000E-01   0.000    
   13612   8.663      0.6364E-03 SPRIN         11  25.6%   372.6       305.2       0.000       489.5       0.000      0.5000E-01   0.000    
   13613   8.663      0.6364E-03 SPRIN         11  26.4%   382.7       299.2       0.000       489.5       0.000      0.5000E-01   0.000    
   13614   8.664      0.6364E-03 SPRIN         11  49.2%   686.0       118.7       0.000       489.5       0.000      0.5000E-01   0.000    
   13615   8.665      0.6364E-03 SPRIN         11   6.2%   113.2       459.6       0.000       489.5       0.000      0.5000E-01   0.000    
   13616   8.665      0.6364E-03 SPRIN         11  63.2%   872.8       7.568       0.000       489.5       0.000      0.5000E-01   0.000    
   13617   8.666      0.6364E-03 SPRIN         11   0.4%   36.01       505.5       0.000       489.5       0.000      0.5000E-01   0.000    
   13618   8.666      0.6364E-03 SPRIN         11  59.9%   829.1       33.55       0.000       489.5       0.000      0.5000E-01   0.000    
   13619   8.667      0.6364E-03 SPRIN         11  12.2%   194.2       411.3       0.000       489.5       0.000      0.5000E-01   0.000    
   13620   8.668      0.6364E-03 SPRIN         11  41.1%   579.3       182.2       0.000       489.5       0.000      0.5000E-01   0.000    
   13621   8.668      0.6364E-03 SPRIN         11  35.2%   499.7       229.6       0.000       489.5       0.000      0.5000E-01   0.000    
   13622   8.669      0.6364E-03 SPRIN         11  17.3%   262.3       370.8       0.000       489.5       0.000      0.5000E-01   0.000    
   13623   8.670      0.6364E-03 SPRIN         11  56.4%   782.4       61.37       0.000       489.5       0.000      0.5000E-01   0.000    
   13624   8.670      0.6364E-03 SPRIN         11   1.8%   54.69       494.3       0.000       489.5       0.000      0.5000E-01   0.000    
   13625   8.671      0.6364E-03 SPRIN         11  64.1%   884.9      0.3780       0.000       489.5       0.000      0.5000E-01   0.000    
   13626   8.672      0.6364E-03 SPRIN         11   3.1%   72.06       484.0       0.000       489.5       0.000      0.5000E-01   0.000    
   13627   8.672      0.6364E-03 SPRIN         11  54.0%   750.1       80.55       0.000       489.5       0.000      0.5000E-01   0.000    
   13628   8.673      0.6364E-03 SPRIN         11  20.5%   304.7       345.6       0.000       489.5       0.000      0.5000E-01   0.000    
   13629   8.673      0.6364E-03 SPRIN         11  31.7%   453.2       257.3       0.000       489.5       0.000      0.5000E-01   0.000    
   13630   8.674      0.6364E-03 SPRIN         11  44.4%   623.1       156.1       0.000       489.5       0.000      0.5000E-01   0.000    
   13631   8.675      0.6364E-03 SPRIN         11   9.6%   159.3       432.1       0.000       489.5       0.000      0.5000E-01   0.000    
   13632   8.675      0.6364E-03 SPRIN         11  61.5%   850.0       21.12       0.000       489.5       0.000      0.5000E-01   0.000    
   13633   8.676      0.6364E-03 SPRIN         11   0.1%   32.15       507.8       0.000       489.5       0.000      0.5000E-01   0.000    
   13634   8.677      0.6364E-03 SPRIN         11  62.1%   859.1       15.74       0.000       489.5       0.000      0.5000E-01   0.000    
   13635   8.677      0.6364E-03 SPRIN         11   8.4%   142.5       442.1       0.000       489.5       0.000      0.5000E-01   0.000    
   13636   8.678      0.6364E-03 SPRIN         11  46.1%   645.2       143.0       0.000       489.5       0.000      0.5000E-01   0.000    
   13637   8.679      0.6364E-03 SPRIN         11  29.9%   428.9       271.7       0.000       489.5       0.000      0.5000E-01   0.000    
   13638   8.679      0.6364E-03 SPRIN         11  22.2%   327.6       332.0       0.000       489.5       0.000      0.5000E-01   0.000    
   13639   8.680      0.6364E-03 SPRIN         11  52.6%   732.0       91.37       0.000       489.5       0.000      0.5000E-01   0.000    
   CYCLE    TIME      TIME-STEP  ELEMENT          ERROR  I-ENERGY    K-ENERGY T  K-ENERGY R  EXT-WORK     MAS.ERR     TOTAL MASS  MASS ADDED
   13640   8.680      0.6364E-03 SPRIN         11   3.9%   82.95       477.5       0.000       489.5       0.000      0.5000E-01   0.000    
   13641   8.681      0.6364E-03 SPRIN         11  63.9%   882.9       1.575       0.000       489.5       0.000      0.5000E-01   0.000    
   13642   8.682      0.6364E-03 SPRIN         11   1.2%   47.54       498.6       0.000       489.5       0.000      0.5000E-01   0.000    
   13643   8.682      0.6364E-03 SPRIN         11  57.5%   797.7       52.28       0.000       489.5       0.000      0.5000E-01   0.000    
   13644   8.683      0.6364E-03 SPRIN         11  15.8%   241.1       383.4       0.000       489.5       0.000      0.5000E-01   0.000    
   13645   8.684      0.6364E-03 SPRIN         11  37.0%   523.8       215.3       0.000       489.5       0.000      0.5000E-01   0.000    
   13646   8.684      0.6364E-03 SPRIN         11  39.4%   555.8       196.2       0.000       489.5       0.000      0.5000E-01   0.000    
   13647   8.685      0.6364E-03 SPRIN         11  13.7%   213.7       399.8       0.000       489.5       0.000      0.5000E-01   0.000    
   13648   8.686      0.6364E-03 SPRIN         11  59.0%   816.5       41.08       0.000       489.5       0.000      0.5000E-01   0.000    
   13649   8.686      0.6364E-03 SPRIN         11   0.7%   40.02       503.1       0.000       489.5       0.000      0.5000E-01   0.000    
   13650   8.687      0.6364E-03 SPRIN         11  63.6%   878.0       4.470       0.000       489.5       0.000      0.5000E-01   0.000    
   13651   8.687      0.6364E-03 SPRIN         11   5.1%   99.50       467.7       0.000       489.5       0.000      0.5000E-01   0.000    
   13652   8.688      0.6364E-03 SPRIN         11  50.7%   706.1       106.8       0.000       489.5       0.000      0.5000E-01   0.000    
   13653   8.689      0.6364E-03 SPRIN         11  24.6%   359.0       313.3       0.000       489.5       0.000      0.5000E-01   0.000    
   13654   8.689      0.6364E-03 SPRIN         11  27.4%   396.5       291.0       0.000       489.5       0.000      0.5000E-01   0.000    
   13655   8.690      0.6364E-03 SPRIN         11  48.3%   674.0       125.8       0.000       489.5       0.000      0.5000E-01   0.000    
   13656   8.691      0.6364E-03 SPRIN         11   6.8%   121.5       454.6       0.000       489.5       0.000      0.5000E-01   0.000    
   13657   8.691      0.6364E-03 SPRIN         11  62.9%   869.2       9.709       0.000       489.5       0.000      0.5000E-01   0.000    
   13658   8.692      0.6364E-03 SPRIN         11   0.2%   34.32       506.5       0.000       489.5       0.000      0.5000E-01   0.000    
   13659   8.693      0.6364E-03 SPRIN         11  60.4%   835.9       29.55       0.000       489.5       0.000      0.5000E-01   0.000    
   13660   8.693      0.6364E-03 SPRIN         11  11.4%   183.4       417.8       0.000       489.5       0.000      0.5000E-01   0.000    
   13661   8.694      0.6364E-03 SPRIN         11  42.1%   592.6       174.3       0.000       489.5       0.000      0.5000E-01   0.000    
   13662   8.694      0.6364E-03 SPRIN         11  34.1%   485.8       237.8       0.000       489.5       0.000      0.5000E-01   0.000    
   13663   8.695      0.6364E-03 SPRIN         11  18.3%   274.8       363.4       0.000       489.5       0.000      0.5000E-01   0.000    
   13664   8.696      0.6364E-03 SPRIN         11  55.7%   773.1       66.88       0.000       489.5       0.000      0.5000E-01   0.000    
   13665   8.696      0.6364E-03 SPRIN         11   2.1%   59.40       491.5       0.000       489.5       0.000      0.5000E-01   0.000    
   13666   8.697      0.6364E-03 SPRIN         11  64.1%   885.4      0.6095E-01   0.000       489.5       0.000      0.5000E-01   0.000    
   13667   8.698      0.6364E-03 SPRIN         11   2.6%   66.37       487.4       0.000       489.5       0.000      0.5000E-01   0.000    
   13668   8.698      0.6364E-03 SPRIN         11  54.7%   760.2       74.58       0.000       489.5       0.000      0.5000E-01   0.000    
   13669   8.699      0.6364E-03 SPRIN         11  19.6%   291.8       353.3       0.000       489.5       0.000      0.5000E-01   0.000    
   13670   8.700      0.6364E-03 SPRIN         11  32.7%   467.1       249.0       0.000       489.5       0.000      0.5000E-01   0.000    
   13671   8.700      0.6364E-03 SPRIN         11  43.5%   610.2       163.8       0.000       489.5       0.000      0.5000E-01   0.000    
   13672   8.701      0.6364E-03 SPRIN         11  10.4%   169.4       426.1       0.000       489.5       0.000      0.5000E-01   0.000    
   13673   8.701      0.6364E-03 SPRIN         11  61.0%   844.3       24.56       0.000       489.5       0.000      0.5000E-01   0.000    
   13674   8.702      0.6364E-03 SPRIN         11   0.1%   32.77       507.4       0.000       489.5       0.000      0.5000E-01   0.000    
   13675   8.703      0.6364E-03 SPRIN         11  62.5%   863.7       12.99       0.000       489.5       0.000      0.5000E-01   0.000    
   13676   8.703      0.6364E-03 SPRIN         11   7.7%   133.3       447.6       0.000       489.5       0.000      0.5000E-01   0.000    
   13677   8.704      0.6364E-03 SPRIN         11  47.0%   657.7       135.6       0.000       489.5       0.000      0.5000E-01   0.000    
   13678   8.705      0.6364E-03 SPRIN         11  28.8%   415.0       279.9       0.000       489.5       0.000      0.5000E-01   0.000    
   13679   8.705      0.6364E-03 SPRIN         11  23.3%   340.9       324.0       0.000       489.5       0.000      0.5000E-01   0.000    
   13680   8.706      0.6364E-03 SPRIN         11  51.8%   721.1       97.83       0.000       489.5       0.000      0.5000E-01   0.000    
   13681   8.707      0.6364E-03 SPRIN         11   4.4%   89.75       473.5       0.000       489.5       0.000      0.5000E-01   0.000    
   13682   8.707      0.6364E-03 SPRIN         11  63.8%   881.1       2.631       0.000       489.5       0.000      0.5000E-01   0.000    
   13683   8.708      0.6364E-03 SPRIN         11   1.0%   44.03       500.7       0.000       489.5       0.000      0.5000E-01   0.000    
   13684   8.708      0.6364E-03 SPRIN         11  58.2%   806.0       47.35       0.000       489.5       0.000      0.5000E-01   0.000    
   13685   8.709      0.6364E-03 SPRIN         11  14.9%   229.2       390.5       0.000       489.5       0.000      0.5000E-01   0.000    
   13686   8.710      0.6364E-03 SPRIN         11  38.0%   537.5       207.1       0.000       489.5       0.000      0.5000E-01   0.000    
   13687   8.710      0.6364E-03 SPRIN         11  38.4%   542.2       204.3       0.000       489.5       0.000      0.5000E-01   0.000    
   13688   8.711      0.6364E-03 SPRIN         11  14.6%   225.2       392.9       0.000       489.5       0.000      0.5000E-01   0.000    
   13689   8.712      0.6364E-03 SPRIN         11  58.4%   808.7       45.71       0.000       489.5       0.000      0.5000E-01   0.000    
   13690   8.712      0.6364E-03 SPRIN         11   0.9%   42.93       501.3       0.000       489.5       0.000      0.5000E-01   0.000    
   13691   8.713      0.6364E-03 SPRIN         11  63.7%   880.4       3.054       0.000       489.5       0.000      0.5000E-01   0.000    
   13692   8.714      0.6364E-03 SPRIN         11   4.6%   92.17       472.0       0.000       489.5       0.000      0.5000E-01   0.000    
   13693   8.714      0.6364E-03 SPRIN         11  51.5%   717.3       100.1       0.000       489.5       0.000      0.5000E-01   0.000    
   13694   8.715      0.6364E-03 SPRIN         11  23.6%   345.5       321.3       0.000       489.5       0.000      0.5000E-01   0.000    
   CYCLE    TIME      TIME-STEP  ELEMENT          ERROR  I-ENERGY    K-ENERGY T  K-ENERGY R  EXT-WORK     MAS.ERR     TOTAL MASS  MASS ADDED
   13695   8.715      0.6364E-03 SPRIN         11  28.5%   410.3       282.8       0.000       489.5       0.000      0.5000E-01   0.000    
   13696   8.716      0.6364E-03 SPRIN         11  47.3%   661.9       133.1       0.000       489.5       0.000      0.5000E-01   0.000    
   13697   8.717      0.6364E-03 SPRIN         11   7.4%   130.3       449.4       0.000       489.5       0.000      0.5000E-01   0.000    
   13698   8.717      0.6364E-03 SPRIN         11  62.6%   865.2       12.11       0.000       489.5       0.000      0.5000E-01   0.000    
   13699   8.718      0.6364E-03 SPRIN         11   0.1%   33.09       507.2       0.000       489.5       0.000      0.5000E-01   0.000    
   13700   8.719      0.6364E-03 SPRIN         11  60.9%   842.2       25.79       0.000       489.5       0.000      0.5000E-01   0.000    
   13701   8.719      0.6364E-03 SPRIN         11  10.6%   172.9       424.0       0.000       489.5       0.000      0.5000E-01   0.000    
   13702   8.720      0.6364E-03 SPRIN         11  43.1%   605.7       166.5       0.000       489.5       0.000      0.5000E-01   0.000    
   13703   8.721      0.6364E-03 SPRIN         11  33.1%   471.9       246.1       0.000       489.5       0.000      0.5000E-01   0.000    
   13704   8.721      0.6364E-03 SPRIN         11  19.2%   287.4       355.9       0.000       489.5       0.000      0.5000E-01   0.000    
   13705   8.722      0.6364E-03 SPRIN         11  55.0%   763.5       72.59       0.000       489.5       0.000      0.5000E-01   0.000    
   13706   8.722      0.6364E-03 SPRIN         11   2.5%   64.52       488.5       0.000       489.5       0.000      0.5000E-01   0.000    
   13707   8.723      0.6364E-03 SPRIN         11  64.1%   885.5      0.1468E-01   0.000       489.5       0.000      0.5000E-01   0.000    
   13708   8.724      0.6364E-03 SPRIN         11   2.2%   61.10       490.5       0.000       489.5       0.000      0.5000E-01   0.000    
   13709   8.724      0.6364E-03 SPRIN         11  55.5%   769.9       68.81       0.000       489.5       0.000      0.5000E-01   0.000    
   13710   8.725      0.6364E-03 SPRIN         11  18.6%   279.1       360.8       0.000       489.5       0.000      0.5000E-01   0.000    
   13711   8.726      0.6364E-03 SPRIN         11  33.8%   481.0       240.7       0.000       489.5       0.000      0.5000E-01   0.000    
   13712   8.726      0.6364E-03 SPRIN         11  42.5%   597.1       171.6       0.000       489.5       0.000      0.5000E-01   0.000    
   13713   8.727      0.6364E-03 SPRIN         11  11.2%   179.8       419.9       0.000       489.5       0.000      0.5000E-01   0.000    
   13714   8.728      0.6364E-03 SPRIN         11  60.6%   838.1       28.24       0.000       489.5       0.000      0.5000E-01   0.000    
   13715   8.728      0.6364E-03 SPRIN         11   0.2%   33.85       506.7       0.000       489.5       0.000      0.5000E-01   0.000    
   13716   8.729      0.6364E-03 SPRIN         11  62.8%   867.9       10.50       0.000       489.5       0.000      0.5000E-01   0.000    
   13717   8.729      0.6364E-03 SPRIN         11   7.0%   124.5       452.8       0.000       489.5       0.000      0.5000E-01   0.000    
   13718   8.730      0.6364E-03 SPRIN         11  47.9%   669.9       128.3       0.000       489.5       0.000      0.5000E-01   0.000    
   13719   8.731      0.6364E-03 SPRIN         11  27.8%   401.2       288.2       0.000       489.5       0.000      0.5000E-01   0.000    
   13720   8.731      0.6364E-03 SPRIN         11  24.3%   354.4       316.0       0.000       489.5       0.000      0.5000E-01   0.000    
   13721   8.732      0.6364E-03 SPRIN         11  51.0%   710.0       104.5       0.000       489.5       0.000      0.5000E-01   0.000    
   13722   8.733      0.6364E-03 SPRIN         11   4.9%   96.95       469.2       0.000       489.5       0.000      0.5000E-01   0.000    
   13723   8.733      0.6364E-03 SPRIN         11  63.6%   878.9       3.956       0.000       489.5       0.000      0.5000E-01   0.000    
   13724   8.734      0.6364E-03 SPRIN         11   0.7%   40.96       502.5       0.000       489.5       0.000      0.5000E-01   0.000    
   13725   8.735      0.6364E-03 SPRIN         11  58.8%   813.9       42.63       0.000       489.5       0.000      0.5000E-01   0.000    
   13726   8.735      0.6364E-03 SPRIN         11  14.0%   217.6       397.4       0.000       489.5       0.000      0.5000E-01   0.000    
   13727   8.736      0.6364E-03 SPRIN         11  39.0%   551.2       199.0       0.000       489.5       0.000      0.5000E-01   0.000    
   13728   8.736      0.6364E-03 SPRIN         11  37.3%   528.5       212.5       0.000       489.5       0.000      0.5000E-01   0.000    
   13729   8.737      0.6364E-03 SPRIN         11  15.4%   237.0       385.9       0.000       489.5       0.000      0.5000E-01   0.000    
   13730   8.738      0.6364E-03 SPRIN         11  57.8%   800.5       50.57       0.000       489.5       0.000      0.5000E-01   0.000    
   13731   8.738      0.6364E-03 SPRIN         11   1.1%   46.29       499.3       0.000       489.5       0.000      0.5000E-01   0.000    
   13732   8.739      0.6364E-03 SPRIN         11  63.9%   882.3       1.905       0.000       489.5       0.000      0.5000E-01   0.000    
   13733   8.740      0.6364E-03 SPRIN         11   4.1%   85.23       476.2       0.000       489.5       0.000      0.5000E-01   0.000    
   13734   8.740      0.6364E-03 SPRIN         11  52.3%   728.3       93.56       0.000       489.5       0.000      0.5000E-01   0.000    
   13735   8.741      0.6364E-03 SPRIN         11  22.6%   332.1       329.3       0.000       489.5       0.000      0.5000E-01   0.000    
   13736   8.742      0.6364E-03 SPRIN         11  29.5%   424.2       274.5       0.000       489.5       0.000      0.5000E-01   0.000    
   13737   8.742      0.6364E-03 SPRIN         11  46.4%   649.5       140.4       0.000       489.5       0.000      0.5000E-01   0.000    
   13738   8.743      0.6364E-03 SPRIN         11   8.1%   139.3       444.0       0.000       489.5       0.000      0.5000E-01   0.000    
   13739   8.743      0.6364E-03 SPRIN         11  62.3%   860.7       14.77       0.000       489.5       0.000      0.5000E-01   0.000    
   13740   8.744      0.6364E-03 SPRIN         11   0.1%   32.31       507.7       0.000       489.5       0.000      0.5000E-01   0.000    
   13741   8.745      0.6364E-03 SPRIN         11  61.3%   848.1       22.27       0.000       489.5       0.000      0.5000E-01   0.000    
   13742   8.745      0.6364E-03 SPRIN         11   9.9%   162.7       430.1       0.000       489.5       0.000      0.5000E-01   0.000    
   13743   8.746      0.6364E-03 SPRIN         11  44.1%   618.7       158.7       0.000       489.5       0.000      0.5000E-01   0.000    
   13744   8.747      0.6364E-03 SPRIN         11  32.0%   457.9       254.4       0.000       489.5       0.000      0.5000E-01   0.000    
   13745   8.747      0.6364E-03 SPRIN         11  20.2%   300.3       348.2       0.000       489.5       0.000      0.5000E-01   0.000    
   13746   8.748      0.6364E-03 SPRIN         11  54.2%   753.6       78.49       0.000       489.5       0.000      0.5000E-01   0.000    
   13747   8.749      0.6364E-03 SPRIN         11   2.9%   70.07       485.2       0.000       489.5       0.000      0.5000E-01   0.000    
   13748   8.749      0.6364E-03 SPRIN         11  64.1%   885.1      0.2393       0.000       489.5       0.000      0.5000E-01   0.000    
   13749   8.750      0.6364E-03 SPRIN         11   1.9%   56.25       493.4       0.000       489.5       0.000      0.5000E-01   0.000    
   CYCLE    TIME      TIME-STEP  ELEMENT          ERROR  I-ENERGY    K-ENERGY T  K-ENERGY R  EXT-WORK     MAS.ERR     TOTAL MASS  MASS ADDED
   13750   8.750      0.6364E-03 SPRIN         11  56.2%   779.3       63.23       0.000       489.5       0.000      0.5000E-01   0.000    
   13751   8.751      0.6364E-03 SPRIN         11  17.7%   266.5       368.3       0.000       489.5       0.000      0.5000E-01   0.000    
   13752   8.752      0.6364E-03 SPRIN         11  34.8%   494.9       232.4       0.000       489.5       0.000      0.5000E-01   0.000    
   13753   8.752      0.6364E-03 SPRIN         11  41.5%   583.8       179.5       0.000       489.5       0.000      0.5000E-01   0.000    
   13754   8.753      0.6364E-03 SPRIN         11  12.0%   190.5       413.5       0.000       489.5       0.000      0.5000E-01   0.000    
   13755   8.754      0.6364E-03 SPRIN         11  60.1%   831.5       32.16       0.000       489.5       0.000      0.5000E-01   0.000    
   13756   8.754      0.6364E-03 SPRIN         11   0.3%   35.38       505.8       0.000       489.5       0.000      0.5000E-01   0.000    
   13757   8.755      0.6364E-03 SPRIN         11  63.1%   871.6       8.270       0.000       489.5       0.000      0.5000E-01   0.000    
   13758   8.756      0.6364E-03 SPRIN         11   6.4%   116.0       457.9       0.000       489.5       0.000      0.5000E-01   0.000    
   13759   8.756      0.6364E-03 SPRIN         11  48.8%   681.9       121.2       0.000       489.5       0.000      0.5000E-01   0.000    
   13760   8.757      0.6364E-03 SPRIN         11  26.7%   387.4       296.4       0.000       489.5       0.000      0.5000E-01   0.000    
   13761   8.757      0.6364E-03 SPRIN         11  25.3%   367.9       308.0       0.000       489.5       0.000      0.5000E-01   0.000    
   13762   8.758      0.6364E-03 SPRIN         11  50.1%   698.6       111.2       0.000       489.5       0.000      0.5000E-01   0.000    
   13763   8.759      0.6364E-03 SPRIN         11   5.5%   104.5       464.7       0.000       489.5       0.000      0.5000E-01   0.000    
   13764   8.759      0.6364E-03 SPRIN         11  63.4%   876.2       5.548       0.000       489.5       0.000      0.5000E-01   0.000    
   13765   8.760      0.6364E-03 SPRIN         11   0.5%   38.34       504.1       0.000       489.5       0.000      0.5000E-01   0.000    
   13766   8.761      0.6364E-03 SPRIN         11  59.3%   821.4       38.15       0.000       489.5       0.000      0.5000E-01   0.000    
   13767   8.761      0.6364E-03 SPRIN         11  13.1%   206.2       404.2       0.000       489.5       0.000      0.5000E-01   0.000    
   13768   8.762      0.6364E-03 SPRIN         11  40.1%   564.7       190.9       0.000       489.5       0.000      0.5000E-01   0.000    
   13769   8.763      0.6364E-03 SPRIN         11  36.3%   514.7       220.7       0.000       489.5       0.000      0.5000E-01   0.000    
   13770   8.763      0.6364E-03 SPRIN         11  16.4%   249.0       378.7       0.000       489.5       0.000      0.5000E-01   0.000    
   13771   8.764      0.6364E-03 SPRIN         11  57.1%   792.0       55.64       0.000       489.5       0.000      0.5000E-01   0.000    
   13772   8.764      0.6364E-03 SPRIN         11   1.4%   50.09       497.1       0.000       489.5       0.000      0.5000E-01   0.000    
   13773   8.765      0.6364E-03 SPRIN         11  64.0%   883.8       1.026       0.000       489.5       0.000      0.5000E-01   0.000    
   13774   8.766      0.6364E-03 SPRIN         11   3.6%   78.69       480.1       0.000       489.5       0.000      0.5000E-01   0.000    
   13775   8.766      0.6364E-03 SPRIN         11  53.1%   738.9       87.21       0.000       489.5       0.000      0.5000E-01   0.000    
   13776   8.767      0.6364E-03 SPRIN         11  21.6%   318.9       337.2       0.000       489.5       0.000      0.5000E-01   0.000    
   13777   8.768      0.6364E-03 SPRIN         11  30.5%   438.1       266.2       0.000       489.5       0.000      0.5000E-01   0.000    
   13778   8.768      0.6364E-03 SPRIN         11  45.5%   636.9       147.9       0.000       489.5       0.000      0.5000E-01   0.000    
   13779   8.769      0.6364E-03 SPRIN         11   8.8%   148.7       438.4       0.000       489.5       0.000      0.5000E-01   0.000    
   13780   8.770      0.6364E-03 SPRIN         11  61.9%   855.8       17.68       0.000       489.5       0.000      0.5000E-01   0.000    
   13781   8.770      0.6364E-03 SPRIN         11   0.1%   31.99       507.9       0.000       489.5       0.000      0.5000E-01   0.000    
   13782   8.771      0.6364E-03 SPRIN         11  61.7%   853.6       18.99       0.000       489.5       0.000      0.5000E-01   0.000    
   13783   8.771      0.6364E-03 SPRIN         11   9.1%   152.8       436.0       0.000       489.5       0.000      0.5000E-01   0.000    
   13784   8.772      0.6364E-03 SPRIN         11  45.1%   631.6       151.1       0.000       489.5       0.000      0.5000E-01   0.000    
   13785   8.773      0.6364E-03 SPRIN         11  31.0%   444.0       262.7       0.000       489.5       0.000      0.5000E-01   0.000    
   13786   8.773      0.6364E-03 SPRIN         11  21.2%   313.3       340.5       0.000       489.5       0.000      0.5000E-01   0.000    
   13787   8.774      0.6364E-03 SPRIN         11  53.5%   743.4       84.58       0.000       489.5       0.000      0.5000E-01   0.000    
   13788   8.775      0.6364E-03 SPRIN         11   3.4%   76.04       481.6       0.000       489.5       0.000      0.5000E-01   0.000    
   13789   8.775      0.6364E-03 SPRIN         11  64.0%   884.3      0.7346       0.000       489.5       0.000      0.5000E-01   0.000    
   13790   8.776      0.6364E-03 SPRIN         11   1.5%   51.83       496.0       0.000       489.5       0.000      0.5000E-01   0.000    
   13791   8.777      0.6364E-03 SPRIN         11  56.8%   788.3       57.86       0.000       489.5       0.000      0.5000E-01   0.000    
   13792   8.777      0.6364E-03 SPRIN         11  16.7%   254.2       375.7       0.000       489.5       0.000      0.5000E-01   0.000    
   13793   8.778      0.6364E-03 SPRIN         11  35.9%   508.8       224.1       0.000       489.5       0.000      0.5000E-01   0.000    
   13794   8.778      0.6364E-03 SPRIN         11  40.5%   570.4       187.5       0.000       489.5       0.000      0.5000E-01   0.000    
   13795   8.779      0.6364E-03 SPRIN         11  12.8%   201.5       407.0       0.000       489.5       0.000      0.5000E-01   0.000    
   13796   8.780      0.6364E-03 SPRIN         11  59.6%   824.5       36.32       0.000       489.5       0.000      0.5000E-01   0.000    
   13797   8.780      0.6364E-03 SPRIN         11   0.5%   37.36       504.7       0.000       489.5       0.000      0.5000E-01   0.000    
   13798   8.781      0.6364E-03 SPRIN         11  63.3%   874.9       6.302       0.000       489.5       0.000      0.5000E-01   0.000    
   13799   8.782      0.6364E-03 SPRIN         11   5.8%   107.9       462.7       0.000       489.5       0.000      0.5000E-01   0.000    
   13800   8.782      0.6364E-03 SPRIN         11  49.7%   693.7       114.2       0.000       489.5       0.000      0.5000E-01   0.000    
   13801   8.783      0.6364E-03 SPRIN         11  25.7%   373.7       304.5       0.000       489.5       0.000      0.5000E-01   0.000    
   13802   8.784      0.6364E-03 SPRIN         11  26.3%   381.6       299.8       0.000       489.5       0.000      0.5000E-01   0.000    
   13803   8.784      0.6364E-03 SPRIN         11  49.2%   686.9       118.2       0.000       489.5       0.000      0.5000E-01   0.000    
   13804   8.785      0.6364E-03 SPRIN         11   6.1%   112.5       459.9       0.000       489.5       0.000      0.5000E-01   0.000    
   CYCLE    TIME      TIME-STEP  ELEMENT          ERROR  I-ENERGY    K-ENERGY T  K-ENERGY R  EXT-WORK     MAS.ERR     TOTAL MASS  MASS ADDED
   13805   8.785      0.6364E-03 SPRIN         11  63.2%   873.1       7.404       0.000       489.5       0.000      0.5000E-01   0.000    
   13806   8.786      0.6364E-03 SPRIN         11   0.4%   36.17       505.4       0.000       489.5       0.000      0.5000E-01   0.000    
   13807   8.787      0.6364E-03 SPRIN         11  59.9%   828.6       33.89       0.000       489.5       0.000      0.5000E-01   0.000    
   13808   8.787      0.6364E-03 SPRIN         11  12.3%   195.1       410.8       0.000       489.5       0.000      0.5000E-01   0.000    
   13809   8.788      0.6364E-03 SPRIN         11  41.1%   578.2       182.9       0.000       489.5       0.000      0.5000E-01   0.000    
   13810   8.789      0.6364E-03 SPRIN         11  35.3%   500.8       228.9       0.000       489.5       0.000      0.5000E-01   0.000    
   13811   8.789      0.6364E-03 SPRIN         11  17.3%   261.3       371.4       0.000       489.5       0.000      0.5000E-01   0.000    
   13812   8.790      0.6364E-03 SPRIN         11  56.4%   783.1       60.93       0.000       489.5       0.000      0.5000E-01   0.000    
   13813   8.791      0.6364E-03 SPRIN         11   1.7%   54.33       494.6       0.000       489.5       0.000      0.5000E-01   0.000    
   13814   8.791      0.6364E-03 SPRIN         11  64.1%   884.8      0.4160       0.000       489.5       0.000      0.5000E-01   0.000    
   13815   8.792      0.6364E-03 SPRIN         11   3.1%   72.55       483.7       0.000       489.5       0.000      0.5000E-01   0.000    
   13816   8.792      0.6364E-03 SPRIN         11  53.9%   749.3       81.05       0.000       489.5       0.000      0.5000E-01   0.000    
   13817   8.793      0.6364E-03 SPRIN         11  20.6%   305.8       344.9       0.000       489.5       0.000      0.5000E-01   0.000    
   13818   8.794      0.6364E-03 SPRIN         11  31.6%   452.0       257.9       0.000       489.5       0.000      0.5000E-01   0.000    
   13819   8.794      0.6364E-03 SPRIN         11  44.5%   624.2       155.5       0.000       489.5       0.000      0.5000E-01   0.000    
   13820   8.795      0.6364E-03 SPRIN         11   9.6%   158.5       432.6       0.000       489.5       0.000      0.5000E-01   0.000    
   13821   8.796      0.6364E-03 SPRIN         11  61.5%   850.5       20.85       0.000       489.5       0.000      0.5000E-01   0.000    
   13822   8.796      0.6364E-03 SPRIN         11   0.1%   32.12       507.8       0.000       489.5       0.000      0.5000E-01   0.000    
   13823   8.797      0.6364E-03 SPRIN         11  62.1%   858.7       15.97       0.000       489.5       0.000      0.5000E-01   0.000    
   13824   8.798      0.6364E-03 SPRIN         11   8.4%   143.3       441.6       0.000       489.5       0.000      0.5000E-01   0.000    
   13825   8.798      0.6364E-03 SPRIN         11  46.0%   644.2       143.6       0.000       489.5       0.000      0.5000E-01   0.000    
   13826   8.799      0.6364E-03 SPRIN         11  29.9%   430.1       271.0       0.000       489.5       0.000      0.5000E-01   0.000    
   13827   8.799      0.6364E-03 SPRIN         11  22.2%   326.5       332.6       0.000       489.5       0.000      0.5000E-01   0.000    
   13828   8.800      0.6364E-03 SPRIN         11  52.7%   732.8       90.85       0.000       489.5       0.000      0.5000E-01   0.000    
     ANIMATION FILE: SPR_PRE_2FLAGA045 WRITTEN
   13829   8.801      0.6364E-03 SPRIN         11   3.8%   82.41       477.9       0.000       489.5       0.000      0.5000E-01   0.000    
   13830   8.801      0.6364E-03 SPRIN         11  63.9%   883.0       1.500       0.000       489.5       0.000      0.5000E-01   0.000    
   13831   8.802      0.6364E-03 SPRIN         11   1.3%   47.85       498.4       0.000       489.5       0.000      0.5000E-01   0.000    
   13832   8.803      0.6364E-03 SPRIN         11  57.5%   797.0       52.69       0.000       489.5       0.000      0.5000E-01   0.000    
   13833   8.803      0.6364E-03 SPRIN         11  15.8%   242.1       382.9       0.000       489.5       0.000      0.5000E-01   0.000    
   13834   8.804      0.6364E-03 SPRIN         11  36.9%   522.6       215.9       0.000       489.5       0.000      0.5000E-01   0.000    
   13835   8.805      0.6364E-03 SPRIN         11  39.5%   556.9       195.5       0.000       489.5       0.000      0.5000E-01   0.000    
   13836   8.805      0.6364E-03 SPRIN         11  13.6%   212.7       400.3       0.000       489.5       0.000      0.5000E-01   0.000    
   13837   8.806      0.6364E-03 SPRIN         11  59.0%   817.1       40.71       0.000       489.5       0.000      0.5000E-01   0.000    
   13838   8.806      0.6364E-03 SPRIN         11   0.6%   39.80       503.2       0.000       489.5       0.000      0.5000E-01   0.000    
   13839   8.807      0.6364E-03 SPRIN         11  63.6%   877.8       4.598       0.000       489.5       0.000      0.5000E-01   0.000    
   13840   8.808      0.6364E-03 SPRIN         11   5.2%   100.1       467.3       0.000       489.5       0.000      0.5000E-01   0.000    
   13841   8.808      0.6364E-03 SPRIN         11  50.6%   705.2       107.3       0.000       489.5       0.000      0.5000E-01   0.000    
   13842   8.809      0.6364E-03 SPRIN         11  24.7%   360.1       312.6       0.000       489.5       0.000      0.5000E-01   0.000    
   13843   8.810      0.6364E-03 SPRIN         11  27.3%   395.4       291.6       0.000       489.5       0.000      0.5000E-01   0.000    
   13844   8.810      0.6364E-03 SPRIN         11  48.3%   675.0       125.3       0.000       489.5       0.000      0.5000E-01   0.000    
   13845   8.811      0.6364E-03 SPRIN         11   6.7%   120.8       455.0       0.000       489.5       0.000      0.5000E-01   0.000    
   13846   8.812      0.6364E-03 SPRIN         11  62.9%   869.5       9.523       0.000       489.5       0.000      0.5000E-01   0.000    
   13847   8.812      0.6364E-03 SPRIN         11   0.2%   34.44       506.4       0.000       489.5       0.000      0.5000E-01   0.000    
   13848   8.813      0.6364E-03 SPRIN         11  60.4%   835.3       29.87       0.000       489.5       0.000      0.5000E-01   0.000    
   13849   8.813      0.6364E-03 SPRIN         11  11.5%   184.3       417.2       0.000       489.5       0.000      0.5000E-01   0.000    
   13850   8.814      0.6364E-03 SPRIN         11  42.1%   591.5       175.0       0.000       489.5       0.000      0.5000E-01   0.000    
   13851   8.815      0.6364E-03 SPRIN         11  34.2%   486.9       237.2       0.000       489.5       0.000      0.5000E-01   0.000    
   13852   8.815      0.6364E-03 SPRIN         11  18.2%   273.7       364.0       0.000       489.5       0.000      0.5000E-01   0.000    
   13853   8.816      0.6364E-03 SPRIN         11  55.8%   773.9       66.42       0.000       489.5       0.000      0.5000E-01   0.000    
   13854   8.817      0.6364E-03 SPRIN         11   2.1%   58.99       491.8       0.000       489.5       0.000      0.5000E-01   0.000    
   13855   8.817      0.6364E-03 SPRIN         11  64.1%   885.4      0.7675E-01   0.000       489.5       0.000      0.5000E-01   0.000    
   13856   8.818      0.6364E-03 SPRIN         11   2.7%   66.82       487.1       0.000       489.5       0.000      0.5000E-01   0.000    
   13857   8.819      0.6364E-03 SPRIN         11  54.7%   759.4       75.07       0.000       489.5       0.000      0.5000E-01   0.000    
   13858   8.819      0.6364E-03 SPRIN         11  19.6%   292.9       352.6       0.000       489.5       0.000      0.5000E-01   0.000    
   13859   8.820      0.6364E-03 SPRIN         11  32.6%   466.0       249.6       0.000       489.5       0.000      0.5000E-01   0.000    
   CYCLE    TIME      TIME-STEP  ELEMENT          ERROR  I-ENERGY    K-ENERGY T  K-ENERGY R  EXT-WORK     MAS.ERR     TOTAL MASS  MASS ADDED
   13860   8.820      0.6364E-03 SPRIN         11  43.5%   611.3       163.2       0.000       489.5       0.000      0.5000E-01   0.000    
   13861   8.821      0.6364E-03 SPRIN         11  10.3%   168.6       426.6       0.000       489.5       0.000      0.5000E-01   0.000    
   13862   8.822      0.6364E-03 SPRIN         11  61.1%   844.7       24.27       0.000       489.5       0.000      0.5000E-01   0.000    
   13863   8.822      0.6364E-03 SPRIN         11   0.1%   32.70       507.4       0.000       489.5       0.000      0.5000E-01   0.000    
   13864   8.823      0.6364E-03 SPRIN         11  62.5%   863.3       13.21       0.000       489.5       0.000      0.5000E-01   0.000    
   13865   8.824      0.6364E-03 SPRIN         11   7.7%   134.1       447.1       0.000       489.5       0.000      0.5000E-01   0.000    
   13866   8.824      0.6364E-03 SPRIN         11  47.0%   656.7       136.2       0.000       489.5       0.000      0.5000E-01   0.000    
   13867   8.825      0.6364E-03 SPRIN         11  28.9%   416.2       279.3       0.000       489.5       0.000      0.5000E-01   0.000    
   13868   8.826      0.6364E-03 SPRIN         11  23.2%   339.8       324.7       0.000       489.5       0.000      0.5000E-01   0.000    
   13869   8.826      0.6364E-03 SPRIN         11  51.9%   722.0       97.29       0.000       489.5       0.000      0.5000E-01   0.000    
   13870   8.827      0.6364E-03 SPRIN         11   4.4%   89.18       473.8       0.000       489.5       0.000      0.5000E-01   0.000    
   13871   8.827      0.6364E-03 SPRIN         11  63.8%   881.3       2.535       0.000       489.5       0.000      0.5000E-01   0.000    
   13872   8.828      0.6364E-03 SPRIN         11   1.0%   44.30       500.5       0.000       489.5       0.000      0.5000E-01   0.000    
   13873   8.829      0.6364E-03 SPRIN         11  58.1%   805.3       47.74       0.000       489.5       0.000      0.5000E-01   0.000    
   13874   8.829      0.6364E-03 SPRIN         11  14.9%   230.2       389.9       0.000       489.5       0.000      0.5000E-01   0.000    
   13875   8.830      0.6364E-03 SPRIN         11  37.9%   536.4       207.7       0.000       489.5       0.000      0.5000E-01   0.000    
   13876   8.831      0.6364E-03 SPRIN         11  38.4%   543.3       203.6       0.000       489.5       0.000      0.5000E-01   0.000    
   13877   8.831      0.6364E-03 SPRIN         11  14.5%   224.2       393.5       0.000       489.5       0.000      0.5000E-01   0.000    
   13878   8.832      0.6364E-03 SPRIN         11  58.4%   809.4       45.32       0.000       489.5       0.000      0.5000E-01   0.000    
   13879   8.833      0.6364E-03 SPRIN         11   0.9%   42.68       501.5       0.000       489.5       0.000      0.5000E-01   0.000    
   13880   8.833      0.6364E-03 SPRIN         11  63.7%   880.2       3.160       0.000       489.5       0.000      0.5000E-01   0.000    
   13881   8.834      0.6364E-03 SPRIN         11   4.6%   92.76       471.7       0.000       489.5       0.000      0.5000E-01   0.000    
   13882   8.834      0.6364E-03 SPRIN         11  51.4%   716.4       100.6       0.000       489.5       0.000      0.5000E-01   0.000    
   13883   8.835      0.6364E-03 SPRIN         11  23.7%   346.6       320.7       0.000       489.5       0.000      0.5000E-01   0.000    
   13884   8.836      0.6364E-03 SPRIN         11  28.4%   409.2       283.4       0.000       489.5       0.000      0.5000E-01   0.000    
   13885   8.836      0.6364E-03 SPRIN         11  47.4%   662.9       132.5       0.000       489.5       0.000      0.5000E-01   0.000    
   13886   8.837      0.6364E-03 SPRIN         11   7.4%   129.5       449.8       0.000       489.5       0.000      0.5000E-01   0.000    
   13887   8.838      0.6364E-03 SPRIN         11  62.6%   865.5       11.90       0.000       489.5       0.000      0.5000E-01   0.000    
   13888   8.838      0.6364E-03 SPRIN         11   0.1%   33.17       507.2       0.000       489.5       0.000      0.5000E-01   0.000    
   13889   8.839      0.6364E-03 SPRIN         11  60.8%   841.7       26.09       0.000       489.5       0.000      0.5000E-01   0.000    
   13890   8.840      0.6364E-03 SPRIN         11  10.7%   173.8       423.5       0.000       489.5       0.000      0.5000E-01   0.000    
   13891   8.840      0.6364E-03 SPRIN         11  43.0%   604.7       167.1       0.000       489.5       0.000      0.5000E-01   0.000    
   13892   8.841      0.6364E-03 SPRIN         11  33.2%   473.0       245.4       0.000       489.5       0.000      0.5000E-01   0.000    
   13893   8.841      0.6364E-03 SPRIN         11  19.2%   286.4       356.5       0.000       489.5       0.000      0.5000E-01   0.000    
   13894   8.842      0.6364E-03 SPRIN         11  55.0%   764.3       72.11       0.000       489.5       0.000      0.5000E-01   0.000    
   13895   8.843      0.6364E-03 SPRIN         11   2.5%   64.09       488.8       0.000       489.5       0.000      0.5000E-01   0.000    
   13896   8.843      0.6364E-03 SPRIN         11  64.1%   885.5      0.8283E-02   0.000       489.5       0.000      0.5000E-01   0.000    
   13897   8.844      0.6364E-03 SPRIN         11   2.3%   61.52       490.3       0.000       489.5       0.000      0.5000E-01   0.000    
   13898   8.845      0.6364E-03 SPRIN         11  55.4%   769.1       69.27       0.000       489.5       0.000      0.5000E-01   0.000    
   13899   8.845      0.6364E-03 SPRIN         11  18.7%   280.1       360.2       0.000       489.5       0.000      0.5000E-01   0.000    
   13900   8.846      0.6364E-03 SPRIN         11  33.7%   479.9       241.3       0.000       489.5       0.000      0.5000E-01   0.000    
   13901   8.847      0.6364E-03 SPRIN         11  42.6%   598.2       171.0       0.000       489.5       0.000      0.5000E-01   0.000    
   13902   8.847      0.6364E-03 SPRIN         11  11.1%   178.9       420.4       0.000       489.5       0.000      0.5000E-01   0.000    
   13903   8.848      0.6364E-03 SPRIN         11  60.6%   838.6       27.93       0.000       489.5       0.000      0.5000E-01   0.000    
   13904   8.848      0.6364E-03 SPRIN         11   0.2%   33.74       506.8       0.000       489.5       0.000      0.5000E-01   0.000    
   13905   8.849      0.6364E-03 SPRIN         11  62.8%   867.6       10.69       0.000       489.5       0.000      0.5000E-01   0.000    
   13906   8.850      0.6364E-03 SPRIN         11   7.1%   125.2       452.4       0.000       489.5       0.000      0.5000E-01   0.000    
   13907   8.850      0.6364E-03 SPRIN         11  47.9%   668.9       128.9       0.000       489.5       0.000      0.5000E-01   0.000    
   13908   8.851      0.6364E-03 SPRIN         11  27.9%   402.3       287.5       0.000       489.5       0.000      0.5000E-01   0.000    
   13909   8.852      0.6364E-03 SPRIN         11  24.2%   353.3       316.7       0.000       489.5       0.000      0.5000E-01   0.000    
   13910   8.852      0.6364E-03 SPRIN         11  51.0%   710.9       103.9       0.000       489.5       0.000      0.5000E-01   0.000    
   13911   8.853      0.6364E-03 SPRIN         11   4.9%   96.35       469.6       0.000       489.5       0.000      0.5000E-01   0.000    
   13912   8.854      0.6364E-03 SPRIN         11  63.6%   879.1       3.837       0.000       489.5       0.000      0.5000E-01   0.000    
   13913   8.854      0.6364E-03 SPRIN         11   0.8%   41.20       502.4       0.000       489.5       0.000      0.5000E-01   0.000    
   13914   8.855      0.6364E-03 SPRIN         11  58.7%   813.2       43.01       0.000       489.5       0.000      0.5000E-01   0.000    
   CYCLE    TIME      TIME-STEP  ELEMENT          ERROR  I-ENERGY    K-ENERGY T  K-ENERGY R  EXT-WORK     MAS.ERR     TOTAL MASS  MASS ADDED
   13915   8.855      0.6364E-03 SPRIN         11  14.1%   218.5       396.9       0.000       489.5       0.000      0.5000E-01   0.000    
   13916   8.856      0.6364E-03 SPRIN         11  38.9%   550.0       199.6       0.000       489.5       0.000      0.5000E-01   0.000    
   13917   8.857      0.6364E-03 SPRIN         11  37.4%   529.6       211.8       0.000       489.5       0.000      0.5000E-01   0.000    
   13918   8.857      0.6364E-03 SPRIN         11  15.4%   236.0       386.5       0.000       489.5       0.000      0.5000E-01   0.000    
   13919   8.858      0.6364E-03 SPRIN         11  57.8%   801.2       50.16       0.000       489.5       0.000      0.5000E-01   0.000    
   13920   8.859      0.6364E-03 SPRIN         11   1.1%   46.00       499.5       0.000       489.5       0.000      0.5000E-01   0.000    
   13921   8.859      0.6364E-03 SPRIN         11  63.9%   882.2       1.989       0.000       489.5       0.000      0.5000E-01   0.000    
   13922   8.860      0.6364E-03 SPRIN         11   4.1%   85.78       475.8       0.000       489.5       0.000      0.5000E-01   0.000    
   13923   8.861      0.6364E-03 SPRIN         11  52.3%   727.4       94.08       0.000       489.5       0.000      0.5000E-01   0.000    
   13924   8.861      0.6364E-03 SPRIN         11  22.7%   333.2       328.6       0.000       489.5       0.000      0.5000E-01   0.000    
   13925   8.862      0.6364E-03 SPRIN         11  29.4%   423.0       275.2       0.000       489.5       0.000      0.5000E-01   0.000    
   13926   8.862      0.6364E-03 SPRIN         11  46.5%   650.5       139.8       0.000       489.5       0.000      0.5000E-01   0.000    
   13927   8.863      0.6364E-03 SPRIN         11   8.1%   138.6       444.4       0.000       489.5       0.000      0.5000E-01   0.000    
   13928   8.864      0.6364E-03 SPRIN         11  62.3%   861.1       14.54       0.000       489.5       0.000      0.5000E-01   0.000    
   13929   8.864      0.6364E-03 SPRIN         11   0.1%   32.36       507.6       0.000       489.5       0.000      0.5000E-01   0.000    
   13930   8.865      0.6364E-03 SPRIN         11  61.3%   847.6       22.55       0.000       489.5       0.000      0.5000E-01   0.000    
   13931   8.866      0.6364E-03 SPRIN         11   9.9%   163.5       429.6       0.000       489.5       0.000      0.5000E-01   0.000    
   13932   8.866      0.6364E-03 SPRIN         11  44.0%   617.7       159.4       0.000       489.5       0.000      0.5000E-01   0.000    
   13933   8.867      0.6364E-03 SPRIN         11  32.1%   459.1       253.7       0.000       489.5       0.000      0.5000E-01   0.000    
   13934   8.868      0.6364E-03 SPRIN         11  20.1%   299.2       348.8       0.000       489.5       0.000      0.5000E-01   0.000    
   13935   8.868      0.6364E-03 SPRIN         11  54.3%   754.4       78.00       0.000       489.5       0.000      0.5000E-01   0.000    
   13936   8.869      0.6364E-03 SPRIN         11   2.9%   69.60       485.5       0.000       489.5       0.000      0.5000E-01   0.000    
   13937   8.869      0.6364E-03 SPRIN         11  64.1%   885.2      0.2107       0.000       489.5       0.000      0.5000E-01   0.000    
   13938   8.870      0.6364E-03 SPRIN         11   1.9%   56.63       493.2       0.000       489.5       0.000      0.5000E-01   0.000    
   13939   8.871      0.6364E-03 SPRIN         11  56.1%   778.5       63.68       0.000       489.5       0.000      0.5000E-01   0.000    
   13940   8.871      0.6364E-03 SPRIN         11  17.7%   267.5       367.7       0.000       489.5       0.000      0.5000E-01   0.000    
   13941   8.872      0.6364E-03 SPRIN         11  34.7%   493.8       233.1       0.000       489.5       0.000      0.5000E-01   0.000    
   13942   8.873      0.6364E-03 SPRIN         11  41.6%   584.9       178.9       0.000       489.5       0.000      0.5000E-01   0.000    
   13943   8.873      0.6364E-03 SPRIN         11  11.9%   189.6       414.1       0.000       489.5       0.000      0.5000E-01   0.000    
   13944   8.874      0.6364E-03 SPRIN         11  60.1%   832.0       31.83       0.000       489.5       0.000      0.5000E-01   0.000    
   13945   8.875      0.6364E-03 SPRIN         11   0.3%   35.24       505.9       0.000       489.5       0.000      0.5000E-01   0.000    
   13946   8.875      0.6364E-03 SPRIN         11  63.1%   871.3       8.443       0.000       489.5       0.000      0.5000E-01   0.000    
   13947   8.876      0.6364E-03 SPRIN         11   6.4%   116.7       457.5       0.000       489.5       0.000      0.5000E-01   0.000    
   13948   8.876      0.6364E-03 SPRIN         11  48.8%   680.9       121.7       0.000       489.5       0.000      0.5000E-01   0.000    
   13949   8.877      0.6364E-03 SPRIN         11  26.8%   388.6       295.7       0.000       489.5       0.000      0.5000E-01   0.000    
   13950   8.878      0.6364E-03 SPRIN         11  25.2%   366.8       308.6       0.000       489.5       0.000      0.5000E-01   0.000    
   13951   8.878      0.6364E-03 SPRIN         11  50.2%   699.5       110.7       0.000       489.5       0.000      0.5000E-01   0.000    
   13952   8.879      0.6364E-03 SPRIN         11   5.5%   103.9       465.1       0.000       489.5       0.000      0.5000E-01   0.000    
   13953   8.880      0.6364E-03 SPRIN         11  63.5%   876.4       5.407       0.000       489.5       0.000      0.5000E-01   0.000    
   13954   8.880      0.6364E-03 SPRIN         11   0.6%   38.54       504.0       0.000       489.5       0.000      0.5000E-01   0.000    
   13955   8.881      0.6364E-03 SPRIN         11  59.3%   820.8       38.51       0.000       489.5       0.000      0.5000E-01   0.000    
   13956   8.882      0.6364E-03 SPRIN         11  13.2%   207.1       403.6       0.000       489.5       0.000      0.5000E-01   0.000    
   13957   8.882      0.6364E-03 SPRIN         11  40.0%   563.6       191.5       0.000       489.5       0.000      0.5000E-01   0.000    
   13958   8.883      0.6364E-03 SPRIN         11  36.4%   515.8       220.0       0.000       489.5       0.000      0.5000E-01   0.000    
   13959   8.883      0.6364E-03 SPRIN         11  16.3%   248.0       379.3       0.000       489.5       0.000      0.5000E-01   0.000    
   13960   8.884      0.6364E-03 SPRIN         11  57.2%   792.7       55.22       0.000       489.5       0.000      0.5000E-01   0.000    
   13961   8.885      0.6364E-03 SPRIN         11   1.4%   49.76       497.3       0.000       489.5       0.000      0.5000E-01   0.000    
   13962   8.885      0.6364E-03 SPRIN         11  64.0%   883.7       1.088       0.000       489.5       0.000      0.5000E-01   0.000    
   13963   8.886      0.6364E-03 SPRIN         11   3.6%   79.21       479.8       0.000       489.5       0.000      0.5000E-01   0.000    
   13964   8.887      0.6364E-03 SPRIN         11  53.1%   738.1       87.73       0.000       489.5       0.000      0.5000E-01   0.000    
   13965   8.887      0.6364E-03 SPRIN         11  21.7%   320.0       336.5       0.000       489.5       0.000      0.5000E-01   0.000    
   13966   8.888      0.6364E-03 SPRIN         11  30.5%   437.0       266.9       0.000       489.5       0.000      0.5000E-01   0.000    
   13967   8.889      0.6364E-03 SPRIN         11  45.6%   638.0       147.3       0.000       489.5       0.000      0.5000E-01   0.000    
   13968   8.889      0.6364E-03 SPRIN         11   8.8%   148.0       438.9       0.000       489.5       0.000      0.5000E-01   0.000    
   13969   8.890      0.6364E-03 SPRIN         11  61.9%   856.2       17.44       0.000       489.5       0.000      0.5000E-01   0.000    
   CYCLE    TIME      TIME-STEP  ELEMENT          ERROR  I-ENERGY    K-ENERGY T  K-ENERGY R  EXT-WORK     MAS.ERR     TOTAL MASS  MASS ADDED
   13970   8.890      0.6364E-03 SPRIN         11   0.1%   32.00       507.9       0.000       489.5       0.000      0.5000E-01   0.000    
   13971   8.891      0.6364E-03 SPRIN         11  61.7%   853.2       19.25       0.000       489.5       0.000      0.5000E-01   0.000    
   13972   8.892      0.6364E-03 SPRIN         11   9.2%   153.6       435.5       0.000       489.5       0.000      0.5000E-01   0.000    
   13973   8.892      0.6364E-03 SPRIN         11  45.0%   630.5       151.7       0.000       489.5       0.000      0.5000E-01   0.000    
   13974   8.893      0.6364E-03 SPRIN         11  31.1%   445.1       262.0       0.000       489.5       0.000      0.5000E-01   0.000    
   13975   8.894      0.6364E-03 SPRIN         11  21.1%   312.2       341.1       0.000       489.5       0.000      0.5000E-01   0.000    
   13976   8.894      0.6364E-03 SPRIN         11  53.5%   744.2       84.07       0.000       489.5       0.000      0.5000E-01   0.000    
   13977   8.895      0.6364E-03 SPRIN         11   3.3%   75.53       481.9       0.000       489.5       0.000      0.5000E-01   0.000    
   13978   8.896      0.6364E-03 SPRIN         11  64.0%   884.4      0.6838       0.000       489.5       0.000      0.5000E-01   0.000    
   13979   8.896      0.6364E-03 SPRIN         11   1.6%   52.18       495.8       0.000       489.5       0.000      0.5000E-01   0.000    
   13980   8.897      0.6364E-03 SPRIN         11  56.8%   787.6       58.29       0.000       489.5       0.000      0.5000E-01   0.000    
   13981   8.897      0.6364E-03 SPRIN         11  16.8%   255.2       375.1       0.000       489.5       0.000      0.5000E-01   0.000    
   13982   8.898      0.6364E-03 SPRIN         11  35.8%   507.7       224.8       0.000       489.5       0.000      0.5000E-01   0.000    
   13983   8.899      0.6364E-03 SPRIN         11  40.6%   571.5       186.8       0.000       489.5       0.000      0.5000E-01   0.000    
   13984   8.899      0.6364E-03 SPRIN         11  12.7%   200.6       407.6       0.000       489.5       0.000      0.5000E-01   0.000    
   13985   8.900      0.6364E-03 SPRIN         11  59.6%   825.1       35.97       0.000       489.5       0.000      0.5000E-01   0.000    
   13986   8.901      0.6364E-03 SPRIN         11   0.5%   37.19       504.8       0.000       489.5       0.000      0.5000E-01   0.000    
   13987   8.901      0.6364E-03 SPRIN         11  63.3%   874.7       6.453       0.000       489.5       0.000      0.5000E-01   0.000    
   13988   8.902      0.6364E-03 SPRIN         11   5.8%   108.5       462.3       0.000       489.5       0.000      0.5000E-01   0.000    
   13989   8.903      0.6364E-03 SPRIN         11  49.7%   692.7       114.7       0.000       489.5       0.000      0.5000E-01   0.000    
   13990   8.903      0.6364E-03 SPRIN         11  25.8%   374.8       303.9       0.000       489.5       0.000      0.5000E-01   0.000    
   13991   8.904      0.6364E-03 SPRIN         11  26.2%   380.5       300.5       0.000       489.5       0.000      0.5000E-01   0.000    
   13992   8.904      0.6364E-03 SPRIN         11  49.3%   687.9       117.6       0.000       489.5       0.000      0.5000E-01   0.000    
   13993   8.905      0.6364E-03 SPRIN         11   6.1%   111.8       460.3       0.000       489.5       0.000      0.5000E-01   0.000    
   13994   8.906      0.6364E-03 SPRIN         11  63.2%   873.4       7.242       0.000       489.5       0.000      0.5000E-01   0.000    
   13995   8.906      0.6364E-03 SPRIN         11   0.4%   36.33       505.3       0.000       489.5       0.000      0.5000E-01   0.000    
   13996   8.907      0.6364E-03 SPRIN         11  59.8%   828.0       34.23       0.000       489.5       0.000      0.5000E-01   0.000    
   13997   8.908      0.6364E-03 SPRIN         11  12.4%   196.0       410.3       0.000       489.5       0.000      0.5000E-01   0.000    
   13998   8.908      0.6364E-03 SPRIN         11  41.0%   577.1       183.5       0.000       489.5       0.000      0.5000E-01   0.000    
   13999   8.909      0.6364E-03 SPRIN         11  35.3%   502.0       228.2       0.000       489.5       0.000      0.5000E-01   0.000    
   14000   8.910      0.6364E-03 SPRIN         11  17.2%   260.3       372.0       0.000       489.5       0.000      0.5000E-01   0.000    
   14001   8.910      0.6364E-03 SPRIN         11  56.5%   783.9       60.49       0.000       489.5       0.000      0.5000E-01   0.000    
   14002   8.911      0.6364E-03 SPRIN         11   1.7%   53.96       494.8       0.000       489.5       0.000      0.5000E-01   0.000    
   14003   8.911      0.6364E-03 SPRIN         11  64.1%   884.8      0.4558       0.000       489.5       0.000      0.5000E-01   0.000    
   14004   8.912      0.6364E-03 SPRIN         11   3.1%   73.04       483.4       0.000       489.5       0.000      0.5000E-01   0.000    
   14005   8.913      0.6364E-03 SPRIN         11  53.8%   748.5       81.55       0.000       489.5       0.000      0.5000E-01   0.000    
   14006   8.913      0.6364E-03 SPRIN         11  20.7%   306.9       344.3       0.000       489.5       0.000      0.5000E-01   0.000    
   14007   8.914      0.6364E-03 SPRIN         11  31.5%   450.9       258.6       0.000       489.5       0.000      0.5000E-01   0.000    
   14008   8.915      0.6364E-03 SPRIN         11  44.6%   625.2       154.9       0.000       489.5       0.000      0.5000E-01   0.000    
   14009   8.915      0.6364E-03 SPRIN         11   9.5%   157.7       433.1       0.000       489.5       0.000      0.5000E-01   0.000    
   14010   8.916      0.6364E-03 SPRIN         11  61.5%   850.9       20.58       0.000       489.5       0.000      0.5000E-01   0.000    
   14011   8.917      0.6364E-03 SPRIN         11   0.1%   32.09       507.8       0.000       489.5       0.000      0.5000E-01   0.000    
   14012   8.917      0.6364E-03 SPRIN         11  62.1%   858.3       16.21       0.000       489.5       0.000      0.5000E-01   0.000    
   14013   8.918      0.6364E-03 SPRIN         11   8.5%   144.0       441.2       0.000       489.5       0.000      0.5000E-01   0.000    
   14014   8.918      0.6364E-03 SPRIN         11  45.9%   643.2       144.2       0.000       489.5       0.000      0.5000E-01   0.000    
   14015   8.919      0.6364E-03 SPRIN         11  30.0%   431.2       270.3       0.000       489.5       0.000      0.5000E-01   0.000    
   14016   8.920      0.6364E-03 SPRIN         11  22.1%   325.4       333.3       0.000       489.5       0.000      0.5000E-01   0.000    
   14017   8.920      0.6364E-03 SPRIN         11  52.7%   733.7       90.33       0.000       489.5       0.000      0.5000E-01   0.000    
   14018   8.921      0.6364E-03 SPRIN         11   3.8%   81.87       478.2       0.000       489.5       0.000      0.5000E-01   0.000    
   14019   8.922      0.6364E-03 SPRIN         11  64.0%   883.1       1.427       0.000       489.5       0.000      0.5000E-01   0.000    
   14020   8.922      0.6364E-03 SPRIN         11   1.3%   48.16       498.2       0.000       489.5       0.000      0.5000E-01   0.000    
   14021   8.923      0.6364E-03 SPRIN         11  57.4%   796.3       53.11       0.000       489.5       0.000      0.5000E-01   0.000    
   14022   8.924      0.6364E-03 SPRIN         11  15.9%   243.0       382.3       0.000       489.5       0.000      0.5000E-01   0.000    
   14023   8.924      0.6364E-03 SPRIN         11  36.8%   521.5       216.6       0.000       489.5       0.000      0.5000E-01   0.000    
   14024   8.925      0.6364E-03 SPRIN         11  39.5%   558.0       194.9       0.000       489.5       0.000      0.5000E-01   0.000    
   CYCLE    TIME      TIME-STEP  ELEMENT          ERROR  I-ENERGY    K-ENERGY T  K-ENERGY R  EXT-WORK     MAS.ERR     TOTAL MASS  MASS ADDED
   14025   8.925      0.6364E-03 SPRIN         11  13.6%   211.8       400.9       0.000       489.5       0.000      0.5000E-01   0.000    
   14026   8.926      0.6364E-03 SPRIN         11  59.0%   817.7       40.34       0.000       489.5       0.000      0.5000E-01   0.000    
   14027   8.927      0.6364E-03 SPRIN         11   0.6%   39.58       503.3       0.000       489.5       0.000      0.5000E-01   0.000    
   14028   8.927      0.6364E-03 SPRIN         11  63.5%   877.6       4.727       0.000       489.5       0.000      0.5000E-01   0.000    
   14029   8.928      0.6364E-03 SPRIN         11   5.2%   100.7       466.9       0.000       489.5       0.000      0.5000E-01   0.000    
   14030   8.929      0.6364E-03 SPRIN         11  50.5%   704.2       107.9       0.000       489.5       0.000      0.5000E-01   0.000    
   14031   8.929      0.6364E-03 SPRIN         11  24.8%   361.2       312.0       0.000       489.5       0.000      0.5000E-01   0.000    
   14032   8.930      0.6364E-03 SPRIN         11  27.3%   394.2       292.3       0.000       489.5       0.000      0.5000E-01   0.000    
   14033   8.931      0.6364E-03 SPRIN         11  48.4%   676.0       124.7       0.000       489.5       0.000      0.5000E-01   0.000    
   14034   8.931      0.6364E-03 SPRIN         11   6.7%   120.1       455.4       0.000       489.5       0.000      0.5000E-01   0.000    
   14035   8.932      0.6364E-03 SPRIN         11  63.0%   869.8       9.340       0.000       489.5       0.000      0.5000E-01   0.000    
   14036   8.932      0.6364E-03 SPRIN         11   0.3%   34.57       506.3       0.000       489.5       0.000      0.5000E-01   0.000    
   14037   8.933      0.6364E-03 SPRIN         11  60.3%   834.8       30.19       0.000       489.5       0.000      0.5000E-01   0.000    
   14038   8.934      0.6364E-03 SPRIN         11  11.6%   185.2       416.7       0.000       489.5       0.000      0.5000E-01   0.000    
   14039   8.934      0.6364E-03 SPRIN         11  42.0%   590.4       175.6       0.000       489.5       0.000      0.5000E-01   0.000    
   14040   8.935      0.6364E-03 SPRIN         11  34.3%   488.1       236.5       0.000       489.5       0.000      0.5000E-01   0.000    
   14041   8.936      0.6364E-03 SPRIN         11  18.1%   272.7       364.6       0.000       489.5       0.000      0.5000E-01   0.000    
   14042   8.936      0.6364E-03 SPRIN         11  55.8%   774.7       65.96       0.000       489.5       0.000      0.5000E-01   0.000    
   14043   8.937      0.6364E-03 SPRIN         11   2.1%   58.60       492.0       0.000       489.5       0.000      0.5000E-01   0.000    
   14044   8.938      0.6364E-03 SPRIN         11  64.1%   885.4      0.9437E-01   0.000       489.5       0.000      0.5000E-01   0.000    
   14045   8.938      0.6364E-03 SPRIN         11   2.7%   67.28       486.9       0.000       489.5       0.000      0.5000E-01   0.000    
   14046   8.939      0.6364E-03 SPRIN         11  54.6%   758.6       75.55       0.000       489.5       0.000      0.5000E-01   0.000    
   14047   8.939      0.6364E-03 SPRIN         11  19.7%   293.9       352.0       0.000       489.5       0.000      0.5000E-01   0.000    
   14048   8.940      0.6364E-03 SPRIN         11  32.6%   464.8       250.3       0.000       489.5       0.000      0.5000E-01   0.000    
   14049   8.941      0.6364E-03 SPRIN         11  43.6%   612.3       162.6       0.000       489.5       0.000      0.5000E-01   0.000    
   14050   8.941      0.6364E-03 SPRIN         11  10.2%   167.7       427.1       0.000       489.5       0.000      0.5000E-01   0.000    
   14051   8.942      0.6364E-03 SPRIN         11  61.1%   845.2       23.98       0.000       489.5       0.000      0.5000E-01   0.000    
   14052   8.943      0.6364E-03 SPRIN         11   0.1%   32.64       507.5       0.000       489.5       0.000      0.5000E-01   0.000    
   14053   8.943      0.6364E-03 SPRIN         11  62.4%   863.0       13.42       0.000       489.5       0.000      0.5000E-01   0.000    
   14054   8.944      0.6364E-03 SPRIN         11   7.8%   134.8       446.7       0.000       489.5       0.000      0.5000E-01   0.000    
   14055   8.945      0.6364E-03 SPRIN         11  46.9%   655.7       136.8       0.000       489.5       0.000      0.5000E-01   0.000    
   14056   8.945      0.6364E-03 SPRIN         11  29.0%   417.3       278.6       0.000       489.5       0.000      0.5000E-01   0.000    
   14057   8.946      0.6364E-03 SPRIN         11  23.1%   338.7       325.3       0.000       489.5       0.000      0.5000E-01   0.000    
   14058   8.946      0.6364E-03 SPRIN         11  51.9%   722.9       96.76       0.000       489.5       0.000      0.5000E-01   0.000    
   14059   8.947      0.6364E-03 SPRIN         11   4.3%   88.61       474.2       0.000       489.5       0.000      0.5000E-01   0.000    
   14060   8.948      0.6364E-03 SPRIN         11  63.8%   881.4       2.440       0.000       489.5       0.000      0.5000E-01   0.000    
   14061   8.948      0.6364E-03 SPRIN         11   1.0%   44.58       500.4       0.000       489.5       0.000      0.5000E-01   0.000    
   14062   8.949      0.6364E-03 SPRIN         11  58.1%   804.6       48.14       0.000       489.5       0.000      0.5000E-01   0.000    
   14063   8.950      0.6364E-03 SPRIN         11  15.0%   231.1       389.4       0.000       489.5       0.000      0.5000E-01   0.000    
   14064   8.950      0.6364E-03 SPRIN         11  37.8%   535.3       208.4       0.000       489.5       0.000      0.5000E-01   0.000    
   14065   8.951      0.6364E-03 SPRIN         11  38.5%   544.4       203.0       0.000       489.5       0.000      0.5000E-01   0.000    
   14066   8.952      0.6364E-03 SPRIN         11  14.4%   223.3       394.0       0.000       489.5       0.000      0.5000E-01   0.000    
   14067   8.952      0.6364E-03 SPRIN         11  58.5%   810.0       44.94       0.000       489.5       0.000      0.5000E-01   0.000    
   14068   8.953      0.6364E-03 SPRIN         11   0.8%   42.42       501.6       0.000       489.5       0.000      0.5000E-01   0.000    
   14069   8.953      0.6364E-03 SPRIN         11  63.7%   880.0       3.268       0.000       489.5       0.000      0.5000E-01   0.000    
   14070   8.954      0.6364E-03 SPRIN         11   4.7%   93.34       471.3       0.000       489.5       0.000      0.5000E-01   0.000    
   14071   8.955      0.6364E-03 SPRIN         11  51.4%   715.5       101.2       0.000       489.5       0.000      0.5000E-01   0.000    
   14072   8.955      0.6364E-03 SPRIN         11  23.8%   347.7       320.0       0.000       489.5       0.000      0.5000E-01   0.000    
   14073   8.956      0.6364E-03 SPRIN         11  28.3%   408.0       284.1       0.000       489.5       0.000      0.5000E-01   0.000    
   14074   8.957      0.6364E-03 SPRIN         11  47.5%   663.9       131.9       0.000       489.5       0.000      0.5000E-01   0.000    
   14075   8.957      0.6364E-03 SPRIN         11   7.3%   128.8       450.3       0.000       489.5       0.000      0.5000E-01   0.000    
   14076   8.958      0.6364E-03 SPRIN         11  62.7%   865.9       11.70       0.000       489.5       0.000      0.5000E-01   0.000    
   14077   8.959      0.6364E-03 SPRIN         11   0.2%   33.26       507.1       0.000       489.5       0.000      0.5000E-01   0.000    
   14078   8.959      0.6364E-03 SPRIN         11  60.8%   841.2       26.39       0.000       489.5       0.000      0.5000E-01   0.000    
   14079   8.960      0.6364E-03 SPRIN         11  10.8%   174.6       423.0       0.000       489.5       0.000      0.5000E-01   0.000    
   CYCLE    TIME      TIME-STEP  ELEMENT          ERROR  I-ENERGY    K-ENERGY T  K-ENERGY R  EXT-WORK     MAS.ERR     TOTAL MASS  MASS ADDED
   14080   8.960      0.6364E-03 SPRIN         11  43.0%   603.6       167.8       0.000       489.5       0.000      0.5000E-01   0.000    
   14081   8.961      0.6364E-03 SPRIN         11  33.3%   474.2       244.8       0.000       489.5       0.000      0.5000E-01   0.000    
   14082   8.962      0.6364E-03 SPRIN         11  19.1%   285.3       357.1       0.000       489.5       0.000      0.5000E-01   0.000    
   14083   8.962      0.6364E-03 SPRIN         11  55.1%   765.1       71.64       0.000       489.5       0.000      0.5000E-01   0.000    
   14084   8.963      0.6364E-03 SPRIN         11   2.4%   63.65       489.0       0.000       489.5       0.000      0.5000E-01   0.000    
   14085   8.964      0.6364E-03 SPRIN         11  64.1%   885.5      0.3702E-02   0.000       489.5       0.000      0.5000E-01   0.000    
   14086   8.964      0.6364E-03 SPRIN         11   2.3%   61.94       490.0       0.000       489.5       0.000      0.5000E-01   0.000    
   14087   8.965      0.6364E-03 SPRIN         11  55.3%   768.3       69.74       0.000       489.5       0.000      0.5000E-01   0.000    
   14088   8.966      0.6364E-03 SPRIN         11  18.8%   281.1       359.6       0.000       489.5       0.000      0.5000E-01   0.000    
   14089   8.966      0.6364E-03 SPRIN         11  33.6%   478.8       242.0       0.000       489.5       0.000      0.5000E-01   0.000    
   14090   8.967      0.6364E-03 SPRIN         11  42.6%   599.2       170.3       0.000       489.5       0.000      0.5000E-01   0.000    
   14091   8.967      0.6364E-03 SPRIN         11  11.0%   178.1       420.9       0.000       489.5       0.000      0.5000E-01   0.000    
   14092   8.968      0.6364E-03 SPRIN         11  60.6%   839.1       27.62       0.000       489.5       0.000      0.5000E-01   0.000    
   14093   8.969      0.6364E-03 SPRIN         11   0.2%   33.64       506.9       0.000       489.5       0.000      0.5000E-01   0.000    
   14094   8.969      0.6364E-03 SPRIN         11  62.8%   867.2       10.89       0.000       489.5       0.000      0.5000E-01   0.000    
   14095   8.970      0.6364E-03 SPRIN         11   7.1%   125.9       452.0       0.000       489.5       0.000      0.5000E-01   0.000    
   14096   8.971      0.6364E-03 SPRIN         11  47.8%   667.9       129.5       0.000       489.5       0.000      0.5000E-01   0.000    
   14097   8.971      0.6364E-03 SPRIN         11  27.9%   403.5       286.8       0.000       489.5       0.000      0.5000E-01   0.000    
   14098   8.972      0.6364E-03 SPRIN         11  24.1%   352.2       317.4       0.000       489.5       0.000      0.5000E-01   0.000    
   14099   8.973      0.6364E-03 SPRIN         11  51.1%   711.8       103.4       0.000       489.5       0.000      0.5000E-01   0.000    
   14100   8.973      0.6364E-03 SPRIN         11   4.8%   95.75       469.9       0.000       489.5       0.000      0.5000E-01   0.000    
   14101   8.974      0.6364E-03 SPRIN         11  63.7%   879.3       3.721       0.000       489.5       0.000      0.5000E-01   0.000    
   14102   8.974      0.6364E-03 SPRIN         11   0.8%   41.43       502.2       0.000       489.5       0.000      0.5000E-01   0.000    
   14103   8.975      0.6364E-03 SPRIN         11  58.7%   812.6       43.39       0.000       489.5       0.000      0.5000E-01   0.000    
   14104   8.976      0.6364E-03 SPRIN         11  14.1%   219.5       396.3       0.000       489.5       0.000      0.5000E-01   0.000    
   14105   8.976      0.6364E-03 SPRIN         11  38.9%   548.9       200.3       0.000       489.5       0.000      0.5000E-01   0.000    
   14106   8.977      0.6364E-03 SPRIN         11  37.5%   530.7       211.1       0.000       489.5       0.000      0.5000E-01   0.000    
   14107   8.978      0.6364E-03 SPRIN         11  15.3%   235.0       387.0       0.000       489.5       0.000      0.5000E-01   0.000    
   14108   8.978      0.6364E-03 SPRIN         11  57.9%   801.9       49.76       0.000       489.5       0.000      0.5000E-01   0.000    
   14109   8.979      0.6364E-03 SPRIN         11   1.1%   45.71       499.7       0.000       489.5       0.000      0.5000E-01   0.000    
   14110   8.980      0.6364E-03 SPRIN         11  63.9%   882.0       2.075       0.000       489.5       0.000      0.5000E-01   0.000    
   14111   8.980      0.6364E-03 SPRIN         11   4.1%   86.34       475.5       0.000       489.5       0.000      0.5000E-01   0.000    
   14112   8.981      0.6364E-03 SPRIN         11  52.2%   726.5       94.61       0.000       489.5       0.000      0.5000E-01   0.000    
   14113   8.981      0.6364E-03 SPRIN         11  22.8%   334.3       328.0       0.000       489.5       0.000      0.5000E-01   0.000    
   14114   8.982      0.6364E-03 SPRIN         11  29.3%   421.9       275.9       0.000       489.5       0.000      0.5000E-01   0.000    
   14115   8.983      0.6364E-03 SPRIN         11  46.6%   651.6       139.2       0.000       489.5       0.000      0.5000E-01   0.000    
   14116   8.983      0.6364E-03 SPRIN         11   8.0%   137.8       444.9       0.000       489.5       0.000      0.5000E-01   0.000    
   14117   8.984      0.6364E-03 SPRIN         11  62.3%   861.5       14.32       0.000       489.5       0.000      0.5000E-01   0.000    
   14118   8.985      0.6364E-03 SPRIN         11   0.1%   32.41       507.6       0.000       489.5       0.000      0.5000E-01   0.000    
   14119   8.985      0.6364E-03 SPRIN         11  61.3%   847.2       22.83       0.000       489.5       0.000      0.5000E-01   0.000    
   14120   8.986      0.6364E-03 SPRIN         11  10.0%   164.4       429.1       0.000       489.5       0.000      0.5000E-01   0.000    
   14121   8.987      0.6364E-03 SPRIN         11  43.9%   616.6       160.0       0.000       489.5       0.000      0.5000E-01   0.000    
   14122   8.987      0.6364E-03 SPRIN         11  32.2%   460.2       253.1       0.000       489.5       0.000      0.5000E-01   0.000    
   14123   8.988      0.6364E-03 SPRIN         11  20.0%   298.2       349.5       0.000       489.5       0.000      0.5000E-01   0.000    
   14124   8.988      0.6364E-03 SPRIN         11  54.4%   755.3       77.51       0.000       489.5       0.000      0.5000E-01   0.000    
   14125   8.989      0.6364E-03 SPRIN         11   2.8%   69.14       485.8       0.000       489.5       0.000      0.5000E-01   0.000    
   14126   8.990      0.6364E-03 SPRIN         11  64.1%   885.2      0.1839       0.000       489.5       0.000      0.5000E-01   0.000    
   14127   8.990      0.6364E-03 SPRIN         11   1.9%   57.02       493.0       0.000       489.5       0.000      0.5000E-01   0.000    
   14128   8.991      0.6364E-03 SPRIN         11  56.0%   777.7       64.13       0.000       489.5       0.000      0.5000E-01   0.000    
   14129   8.992      0.6364E-03 SPRIN         11  17.8%   268.6       367.1       0.000       489.5       0.000      0.5000E-01   0.000    
   14130   8.992      0.6364E-03 SPRIN         11  34.6%   492.7       233.7       0.000       489.5       0.000      0.5000E-01   0.000    
   14131   8.993      0.6364E-03 SPRIN         11  41.6%   586.0       178.2       0.000       489.5       0.000      0.5000E-01   0.000    
   14132   8.994      0.6364E-03 SPRIN         11  11.8%   188.7       414.6       0.000       489.5       0.000      0.5000E-01   0.000    
   14133   8.994      0.6364E-03 SPRIN         11  60.2%   832.6       31.50       0.000       489.5       0.000      0.5000E-01   0.000    
   14134   8.995      0.6364E-03 SPRIN         11   0.3%   35.10       506.0       0.000       489.5       0.000      0.5000E-01   0.000    
   CYCLE    TIME      TIME-STEP  ELEMENT          ERROR  I-ENERGY    K-ENERGY T  K-ENERGY R  EXT-WORK     MAS.ERR     TOTAL MASS  MASS ADDED
   14135   8.995      0.6364E-03 SPRIN         11  63.0%   871.0       8.617       0.000       489.5       0.000      0.5000E-01   0.000    
   14136   8.996      0.6364E-03 SPRIN         11   6.5%   117.4       457.1       0.000       489.5       0.000      0.5000E-01   0.000    
   14137   8.997      0.6364E-03 SPRIN         11  48.7%   680.0       122.3       0.000       489.5       0.000      0.5000E-01   0.000    
   14138   8.997      0.6364E-03 SPRIN         11  26.9%   389.7       295.0       0.000       489.5       0.000      0.5000E-01   0.000    
   14139   8.998      0.6364E-03 SPRIN         11  25.1%   365.7       309.3       0.000       489.5       0.000      0.5000E-01   0.000    
   14140   8.999      0.6364E-03 SPRIN         11  50.2%   700.5       110.1       0.000       489.5       0.000      0.5000E-01   0.000    
   14141   8.999      0.6364E-03 SPRIN         11   5.4%   103.3       465.4       0.000       489.5       0.000      0.5000E-01   0.000    
   14142   9.000      0.6364E-03 SPRIN         11  63.5%   876.7       5.269       0.000       489.5       0.000      0.5000E-01   0.000    
   14143   9.001      0.6364E-03 SPRIN         11   0.6%   38.74       503.8       0.000       489.5       0.000      0.5000E-01   0.000    
     ANIMATION FILE: SPR_PRE_2FLAGA046 WRITTEN
   14144   9.001      0.6364E-03 SPRIN         11  59.2%   820.2       38.87       0.000       489.5       0.000      0.5000E-01   0.000    
   14145   9.002      0.6364E-03 SPRIN         11  13.3%   208.0       403.1       0.000       489.5       0.000      0.5000E-01   0.000    
   14146   9.002      0.6364E-03 SPRIN         11  39.9%   562.5       192.2       0.000       489.5       0.000      0.5000E-01   0.000    
   14147   9.003      0.6364E-03 SPRIN         11  36.5%   516.9       219.3       0.000       489.5       0.000      0.5000E-01   0.000    
   14148   9.004      0.6364E-03 SPRIN         11  16.2%   247.0       379.9       0.000       489.5       0.000      0.5000E-01   0.000    
   14149   9.004      0.6364E-03 SPRIN         11  57.2%   793.4       54.80       0.000       489.5       0.000      0.5000E-01   0.000    
   14150   9.005      0.6364E-03 SPRIN         11   1.4%   49.44       497.5       0.000       489.5       0.000      0.5000E-01   0.000    
   14151   9.006      0.6364E-03 SPRIN         11  64.0%   883.6       1.151       0.000       489.5       0.000      0.5000E-01   0.000    
   14152   9.006      0.6364E-03 SPRIN         11   3.6%   79.73       479.4       0.000       489.5       0.000      0.5000E-01   0.000    
   14153   9.007      0.6364E-03 SPRIN         11  53.0%   737.2       88.24       0.000       489.5       0.000      0.5000E-01   0.000    
   14154   9.008      0.6364E-03 SPRIN         11  21.8%   321.0       335.9       0.000       489.5       0.000      0.5000E-01   0.000    
   14155   9.008      0.6364E-03 SPRIN         11  30.4%   435.8       267.6       0.000       489.5       0.000      0.5000E-01   0.000    
   14156   9.009      0.6364E-03 SPRIN         11  45.6%   639.0       146.7       0.000       489.5       0.000      0.5000E-01   0.000    
   14157   9.009      0.6364E-03 SPRIN         11   8.7%   147.2       439.3       0.000       489.5       0.000      0.5000E-01   0.000    
   14158   9.010      0.6364E-03 SPRIN         11  62.0%   856.6       17.19       0.000       489.5       0.000      0.5000E-01   0.000    
   14159   9.011      0.6364E-03 SPRIN         11   0.1%   32.01       507.8       0.000       489.5       0.000      0.5000E-01   0.000    
   14160   9.011      0.6364E-03 SPRIN         11  61.7%   852.7       19.51       0.000       489.5       0.000      0.5000E-01   0.000    
   14161   9.012      0.6364E-03 SPRIN         11   9.3%   154.4       435.0       0.000       489.5       0.000      0.5000E-01   0.000    
   14162   9.013      0.6364E-03 SPRIN         11  44.9%   629.5       152.4       0.000       489.5       0.000      0.5000E-01   0.000    
   14163   9.013      0.6364E-03 SPRIN         11  31.2%   446.3       261.4       0.000       489.5       0.000      0.5000E-01   0.000    
   14164   9.014      0.6364E-03 SPRIN         11  21.0%   311.2       341.7       0.000       489.5       0.000      0.5000E-01   0.000    
   14165   9.015      0.6364E-03 SPRIN         11  53.6%   745.1       83.57       0.000       489.5       0.000      0.5000E-01   0.000    
   14166   9.015      0.6364E-03 SPRIN         11   3.3%   75.03       482.2       0.000       489.5       0.000      0.5000E-01   0.000    
   14167   9.016      0.6364E-03 SPRIN         11  64.1%   884.5      0.6349       0.000       489.5       0.000      0.5000E-01   0.000    
   14168   9.016      0.6364E-03 SPRIN         11   1.6%   52.53       495.6       0.000       489.5       0.000      0.5000E-01   0.000    
   14169   9.017      0.6364E-03 SPRIN         11  56.7%   786.8       58.72       0.000       489.5       0.000      0.5000E-01   0.000    
   14170   9.018      0.6364E-03 SPRIN         11  16.9%   256.2       374.5       0.000       489.5       0.000      0.5000E-01   0.000    
   14171   9.018      0.6364E-03 SPRIN         11  35.7%   506.5       225.5       0.000       489.5       0.000      0.5000E-01   0.000    
   14172   9.019      0.6364E-03 SPRIN         11  40.6%   572.6       186.2       0.000       489.5       0.000      0.5000E-01   0.000    
   14173   9.020      0.6364E-03 SPRIN         11  12.6%   199.7       408.1       0.000       489.5       0.000      0.5000E-01   0.000    
   14174   9.020      0.6364E-03 SPRIN         11  59.6%   825.7       35.62       0.000       489.5       0.000      0.5000E-01   0.000    
   14175   9.021      0.6364E-03 SPRIN         11   0.4%   37.01       504.9       0.000       489.5       0.000      0.5000E-01   0.000    
   14176   9.022      0.6364E-03 SPRIN         11  63.3%   874.4       6.606       0.000       489.5       0.000      0.5000E-01   0.000    
   14177   9.022      0.6364E-03 SPRIN         11   5.9%   109.2       461.9       0.000       489.5       0.000      0.5000E-01   0.000    
   14178   9.023      0.6364E-03 SPRIN         11  49.6%   691.8       115.3       0.000       489.5       0.000      0.5000E-01   0.000    
   14179   9.023      0.6364E-03 SPRIN         11  25.9%   376.0       303.2       0.000       489.5       0.000      0.5000E-01   0.000    
   14180   9.024      0.6364E-03 SPRIN         11  26.1%   379.4       301.2       0.000       489.5       0.000      0.5000E-01   0.000    
   14181   9.025      0.6364E-03 SPRIN         11  49.4%   688.8       117.0       0.000       489.5       0.000      0.5000E-01   0.000    
   14182   9.025      0.6364E-03 SPRIN         11   6.0%   111.2       460.7       0.000       489.5       0.000      0.5000E-01   0.000    
   14183   9.026      0.6364E-03 SPRIN         11  63.2%   873.6       7.082       0.000       489.5       0.000      0.5000E-01   0.000    
   14184   9.027      0.6364E-03 SPRIN         11   0.4%   36.49       505.2       0.000       489.5       0.000      0.5000E-01   0.000    
   14185   9.027      0.6364E-03 SPRIN         11  59.8%   827.4       34.57       0.000       489.5       0.000      0.5000E-01   0.000    
   14186   9.028      0.6364E-03 SPRIN         11  12.4%   196.9       409.7       0.000       489.5       0.000      0.5000E-01   0.000    
   14187   9.029      0.6364E-03 SPRIN         11  40.9%   576.0       184.2       0.000       489.5       0.000      0.5000E-01   0.000    
   14188   9.029      0.6364E-03 SPRIN         11  35.4%   503.1       227.5       0.000       489.5       0.000      0.5000E-01   0.000    
   14189   9.030      0.6364E-03 SPRIN         11  17.1%   259.2       372.6       0.000       489.5       0.000      0.5000E-01   0.000    
   CYCLE    TIME      TIME-STEP  ELEMENT          ERROR  I-ENERGY    K-ENERGY T  K-ENERGY R  EXT-WORK     MAS.ERR     TOTAL MASS  MASS ADDED
   14190   9.030      0.6364E-03 SPRIN         11  56.6%   784.6       60.05       0.000       489.5       0.000      0.5000E-01   0.000    
   14191   9.031      0.6364E-03 SPRIN         11   1.7%   53.60       495.0       0.000       489.5       0.000      0.5000E-01   0.000    
   14192   9.032      0.6364E-03 SPRIN         11  64.1%   884.7      0.4975       0.000       489.5       0.000      0.5000E-01   0.000    
   14193   9.032      0.6364E-03 SPRIN         11   3.2%   73.53       483.1       0.000       489.5       0.000      0.5000E-01   0.000    
   14194   9.033      0.6364E-03 SPRIN         11  53.8%   747.6       82.05       0.000       489.5       0.000      0.5000E-01   0.000    
   14195   9.034      0.6364E-03 SPRIN         11  20.8%   307.9       343.7       0.000       489.5       0.000      0.5000E-01   0.000    
   14196   9.034      0.6364E-03 SPRIN         11  31.4%   449.7       259.3       0.000       489.5       0.000      0.5000E-01   0.000    
   14197   9.035      0.6364E-03 SPRIN         11  44.7%   626.3       154.2       0.000       489.5       0.000      0.5000E-01   0.000    
   14198   9.036      0.6364E-03 SPRIN         11   9.4%   156.9       433.6       0.000       489.5       0.000      0.5000E-01   0.000    
   14199   9.036      0.6364E-03 SPRIN         11  61.6%   851.4       20.31       0.000       489.5       0.000      0.5000E-01   0.000    
   14200   9.037      0.6364E-03 SPRIN         11   0.1%   32.06       507.8       0.000       489.5       0.000      0.5000E-01   0.000    
   14201   9.037      0.6364E-03 SPRIN         11  62.1%   857.9       16.45       0.000       489.5       0.000      0.5000E-01   0.000    
   14202   9.038      0.6364E-03 SPRIN         11   8.5%   144.8       440.7       0.000       489.5       0.000      0.5000E-01   0.000    
   14203   9.039      0.6364E-03 SPRIN         11  45.9%   642.2       144.8       0.000       489.5       0.000      0.5000E-01   0.000    
   14204   9.039      0.6364E-03 SPRIN         11  30.1%   432.4       269.6       0.000       489.5       0.000      0.5000E-01   0.000    
   14205   9.040      0.6364E-03 SPRIN         11  22.0%   324.3       333.9       0.000       489.5       0.000      0.5000E-01   0.000    
   14206   9.041      0.6364E-03 SPRIN         11  52.8%   734.6       89.81       0.000       489.5       0.000      0.5000E-01   0.000    
   14207   9.041      0.6364E-03 SPRIN         11   3.8%   81.34       478.5       0.000       489.5       0.000      0.5000E-01   0.000    
   14208   9.042      0.6364E-03 SPRIN         11  64.0%   883.2       1.356       0.000       489.5       0.000      0.5000E-01   0.000    
   14209   9.043      0.6364E-03 SPRIN         11   1.3%   48.47       498.0       0.000       489.5       0.000      0.5000E-01   0.000    
   14210   9.043      0.6364E-03 SPRIN         11  57.4%   795.6       53.52       0.000       489.5       0.000      0.5000E-01   0.000    
   14211   9.044      0.6364E-03 SPRIN         11  16.0%   244.0       381.7       0.000       489.5       0.000      0.5000E-01   0.000    
   14212   9.044      0.6364E-03 SPRIN         11  36.7%   520.4       217.3       0.000       489.5       0.000      0.5000E-01   0.000    
   14213   9.045      0.6364E-03 SPRIN         11  39.6%   559.1       194.2       0.000       489.5       0.000      0.5000E-01   0.000    
   14214   9.046      0.6364E-03 SPRIN         11  13.5%   210.9       401.4       0.000       489.5       0.000      0.5000E-01   0.000    
   14215   9.046      0.6364E-03 SPRIN         11  59.1%   818.3       39.97       0.000       489.5       0.000      0.5000E-01   0.000    
   14216   9.047      0.6364E-03 SPRIN         11   0.6%   39.37       503.5       0.000       489.5       0.000      0.5000E-01   0.000    
   14217   9.048      0.6364E-03 SPRIN         11  63.5%   877.4       4.859       0.000       489.5       0.000      0.5000E-01   0.000    
   14218   9.048      0.6364E-03 SPRIN         11   5.3%   101.4       466.6       0.000       489.5       0.000      0.5000E-01   0.000    
   14219   9.049      0.6364E-03 SPRIN         11  50.5%   703.3       108.4       0.000       489.5       0.000      0.5000E-01   0.000    
   14220   9.050      0.6364E-03 SPRIN         11  24.9%   362.3       311.3       0.000       489.5       0.000      0.5000E-01   0.000    
   14221   9.050      0.6364E-03 SPRIN         11  27.2%   393.1       293.0       0.000       489.5       0.000      0.5000E-01   0.000    
   14222   9.051      0.6364E-03 SPRIN         11  48.5%   677.0       124.1       0.000       489.5       0.000      0.5000E-01   0.000    
   14223   9.051      0.6364E-03 SPRIN         11   6.6%   119.4       455.8       0.000       489.5       0.000      0.5000E-01   0.000    
   14224   9.052      0.6364E-03 SPRIN         11  63.0%   870.1       9.158       0.000       489.5       0.000      0.5000E-01   0.000    
   14225   9.053      0.6364E-03 SPRIN         11   0.3%   34.69       506.2       0.000       489.5       0.000      0.5000E-01   0.000    
   14226   9.053      0.6364E-03 SPRIN         11  60.3%   834.2       30.51       0.000       489.5       0.000      0.5000E-01   0.000    
   14227   9.054      0.6364E-03 SPRIN         11  11.6%   186.0       416.2       0.000       489.5       0.000      0.5000E-01   0.000    
   14228   9.055      0.6364E-03 SPRIN         11  41.9%   589.3       176.3       0.000       489.5       0.000      0.5000E-01   0.000    
   14229   9.055      0.6364E-03 SPRIN         11  34.4%   489.2       235.8       0.000       489.5       0.000      0.5000E-01   0.000    
   14230   9.056      0.6364E-03 SPRIN         11  18.1%   271.7       365.2       0.000       489.5       0.000      0.5000E-01   0.000    
   14231   9.057      0.6364E-03 SPRIN         11  55.9%   775.4       65.51       0.000       489.5       0.000      0.5000E-01   0.000    
   14232   9.057      0.6364E-03 SPRIN         11   2.0%   58.20       492.3       0.000       489.5       0.000      0.5000E-01   0.000    
   14233   9.058      0.6364E-03 SPRIN         11  64.1%   885.3      0.1138       0.000       489.5       0.000      0.5000E-01   0.000    
   14234   9.058      0.6364E-03 SPRIN         11   2.7%   67.73       486.6       0.000       489.5       0.000      0.5000E-01   0.000    
   14235   9.059      0.6364E-03 SPRIN         11  54.5%   757.7       76.03       0.000       489.5       0.000      0.5000E-01   0.000    
   14236   9.060      0.6364E-03 SPRIN         11  19.8%   295.0       351.4       0.000       489.5       0.000      0.5000E-01   0.000    
   14237   9.060      0.6364E-03 SPRIN         11  32.5%   463.7       251.0       0.000       489.5       0.000      0.5000E-01   0.000    
   14238   9.061      0.6364E-03 SPRIN         11  43.7%   613.4       161.9       0.000       489.5       0.000      0.5000E-01   0.000    
   14239   9.062      0.6364E-03 SPRIN         11  10.2%   166.9       427.6       0.000       489.5       0.000      0.5000E-01   0.000    
   14240   9.062      0.6364E-03 SPRIN         11  61.1%   845.7       23.69       0.000       489.5       0.000      0.5000E-01   0.000    
   14241   9.063      0.6364E-03 SPRIN         11   0.1%   32.58       507.5       0.000       489.5       0.000      0.5000E-01   0.000    
   14242   9.064      0.6364E-03 SPRIN         11  62.4%   862.6       13.64       0.000       489.5       0.000      0.5000E-01   0.000    
   14243   9.064      0.6364E-03 SPRIN         11   7.8%   135.5       446.2       0.000       489.5       0.000      0.5000E-01   0.000    
   14244   9.065      0.6364E-03 SPRIN         11  46.8%   654.6       137.4       0.000       489.5       0.000      0.5000E-01   0.000    
   CYCLE    TIME      TIME-STEP  ELEMENT          ERROR  I-ENERGY    K-ENERGY T  K-ENERGY R  EXT-WORK     MAS.ERR     TOTAL MASS  MASS ADDED
   14245   9.065      0.6364E-03 SPRIN         11  29.1%   418.5       277.9       0.000       489.5       0.000      0.5000E-01   0.000    
   14246   9.066      0.6364E-03 SPRIN         11  23.0%   337.6       326.0       0.000       489.5       0.000      0.5000E-01   0.000    
   14247   9.067      0.6364E-03 SPRIN         11  52.0%   723.8       96.23       0.000       489.5       0.000      0.5000E-01   0.000    
   14248   9.067      0.6364E-03 SPRIN         11   4.3%   88.04       474.5       0.000       489.5       0.000      0.5000E-01   0.000    
   14249   9.068      0.6364E-03 SPRIN         11  63.8%   881.6       2.347       0.000       489.5       0.000      0.5000E-01   0.000    
   14250   9.069      0.6364E-03 SPRIN         11   1.0%   44.85       500.2       0.000       489.5       0.000      0.5000E-01   0.000    
   14251   9.069      0.6364E-03 SPRIN         11  58.0%   804.0       48.54       0.000       489.5       0.000      0.5000E-01   0.000    
   14252   9.070      0.6364E-03 SPRIN         11  15.1%   232.1       388.8       0.000       489.5       0.000      0.5000E-01   0.000    
   14253   9.071      0.6364E-03 SPRIN         11  37.8%   534.1       209.1       0.000       489.5       0.000      0.5000E-01   0.000    
   14254   9.071      0.6364E-03 SPRIN         11  38.6%   545.5       202.3       0.000       489.5       0.000      0.5000E-01   0.000    
   14255   9.072      0.6364E-03 SPRIN         11  14.3%   222.3       394.6       0.000       489.5       0.000      0.5000E-01   0.000    
   14256   9.072      0.6364E-03 SPRIN         11  58.5%   810.7       44.55       0.000       489.5       0.000      0.5000E-01   0.000    
   14257   9.073      0.6364E-03 SPRIN         11   0.8%   42.17       501.8       0.000       489.5       0.000      0.5000E-01   0.000    
   14258   9.074      0.6364E-03 SPRIN         11  63.7%   879.9       3.377       0.000       489.5       0.000      0.5000E-01   0.000    
   14259   9.074      0.6364E-03 SPRIN         11   4.7%   93.94       471.0       0.000       489.5       0.000      0.5000E-01   0.000    
   14260   9.075      0.6364E-03 SPRIN         11  51.3%   714.6       101.7       0.000       489.5       0.000      0.5000E-01   0.000    
   14261   9.076      0.6364E-03 SPRIN         11  23.8%   348.8       319.3       0.000       489.5       0.000      0.5000E-01   0.000    
   14262   9.076      0.6364E-03 SPRIN         11  28.2%   406.9       284.8       0.000       489.5       0.000      0.5000E-01   0.000    
   14263   9.077      0.6364E-03 SPRIN         11  47.6%   664.9       131.3       0.000       489.5       0.000      0.5000E-01   0.000    
   14264   9.078      0.6364E-03 SPRIN         11   7.3%   128.1       450.7       0.000       489.5       0.000      0.5000E-01   0.000    
   14265   9.078      0.6364E-03 SPRIN         11  62.7%   866.2       11.50       0.000       489.5       0.000      0.5000E-01   0.000    
   14266   9.079      0.6364E-03 SPRIN         11   0.2%   33.35       507.0       0.000       489.5       0.000      0.5000E-01   0.000    
   14267   9.079      0.6364E-03 SPRIN         11  60.8%   840.7       26.69       0.000       489.5       0.000      0.5000E-01   0.000    
   14268   9.080      0.6364E-03 SPRIN         11  10.8%   175.5       422.5       0.000       489.5       0.000      0.5000E-01   0.000    
   14269   9.081      0.6364E-03 SPRIN         11  42.9%   602.5       168.4       0.000       489.5       0.000      0.5000E-01   0.000    
   14270   9.081      0.6364E-03 SPRIN         11  33.3%   475.3       244.1       0.000       489.5       0.000      0.5000E-01   0.000    
   14271   9.082      0.6364E-03 SPRIN         11  19.0%   284.3       357.7       0.000       489.5       0.000      0.5000E-01   0.000    
   14272   9.083      0.6364E-03 SPRIN         11  55.2%   765.9       71.17       0.000       489.5       0.000      0.5000E-01   0.000    
   14273   9.083      0.6364E-03 SPRIN         11   2.4%   63.22       489.3       0.000       489.5       0.000      0.5000E-01   0.000    
   14274   9.084      0.6364E-03 SPRIN         11  64.1%   885.5      0.9415E-03   0.000       489.5       0.000      0.5000E-01   0.000    
   14275   9.085      0.6364E-03 SPRIN         11   2.3%   62.36       489.8       0.000       489.5       0.000      0.5000E-01   0.000    
   14276   9.085      0.6364E-03 SPRIN         11  55.3%   767.5       70.21       0.000       489.5       0.000      0.5000E-01   0.000    
   14277   9.086      0.6364E-03 SPRIN         11  18.8%   282.2       359.0       0.000       489.5       0.000      0.5000E-01   0.000    
   14278   9.086      0.6364E-03 SPRIN         11  33.5%   477.6       242.7       0.000       489.5       0.000      0.5000E-01   0.000    
   14279   9.087      0.6364E-03 SPRIN         11  42.7%   600.3       169.7       0.000       489.5       0.000      0.5000E-01   0.000    
   14280   9.088      0.6364E-03 SPRIN         11  11.0%   177.2       421.5       0.000       489.5       0.000      0.5000E-01   0.000    
   14281   9.088      0.6364E-03 SPRIN         11  60.7%   839.6       27.31       0.000       489.5       0.000      0.5000E-01   0.000    
   14282   9.089      0.6364E-03 SPRIN         11   0.2%   33.54       506.9       0.000       489.5       0.000      0.5000E-01   0.000    
   14283   9.090      0.6364E-03 SPRIN         11  62.7%   866.9       11.09       0.000       489.5       0.000      0.5000E-01   0.000    
   14284   9.090      0.6364E-03 SPRIN         11   7.2%   126.6       451.6       0.000       489.5       0.000      0.5000E-01   0.000    
   14285   9.091      0.6364E-03 SPRIN         11  47.7%   666.9       130.1       0.000       489.5       0.000      0.5000E-01   0.000    
   14286   9.092      0.6364E-03 SPRIN         11  28.0%   404.6       286.1       0.000       489.5       0.000      0.5000E-01   0.000    
   14287   9.092      0.6364E-03 SPRIN         11  24.0%   351.1       318.0       0.000       489.5       0.000      0.5000E-01   0.000    
   14288   9.093      0.6364E-03 SPRIN         11  51.2%   712.7       102.8       0.000       489.5       0.000      0.5000E-01   0.000    
   14289   9.093      0.6364E-03 SPRIN         11   4.8%   95.15       470.3       0.000       489.5       0.000      0.5000E-01   0.000    
   14290   9.094      0.6364E-03 SPRIN         11  63.7%   879.5       3.606       0.000       489.5       0.000      0.5000E-01   0.000    
   14291   9.095      0.6364E-03 SPRIN         11   0.8%   41.68       502.1       0.000       489.5       0.000      0.5000E-01   0.000    
   14292   9.095      0.6364E-03 SPRIN         11  58.6%   812.0       43.77       0.000       489.5       0.000      0.5000E-01   0.000    
   14293   9.096      0.6364E-03 SPRIN         11  14.2%   220.4       395.7       0.000       489.5       0.000      0.5000E-01   0.000    
   14294   9.097      0.6364E-03 SPRIN         11  38.8%   547.8       200.9       0.000       489.5       0.000      0.5000E-01   0.000    
   14295   9.097      0.6364E-03 SPRIN         11  37.6%   531.8       210.4       0.000       489.5       0.000      0.5000E-01   0.000    
   14296   9.098      0.6364E-03 SPRIN         11  15.2%   234.1       387.6       0.000       489.5       0.000      0.5000E-01   0.000    
   14297   9.099      0.6364E-03 SPRIN         11  57.9%   802.6       49.35       0.000       489.5       0.000      0.5000E-01   0.000    
   14298   9.099      0.6364E-03 SPRIN         11   1.1%   45.43       499.9       0.000       489.5       0.000      0.5000E-01   0.000    
   14299   9.100      0.6364E-03 SPRIN         11  63.9%   881.9       2.163       0.000       489.5       0.000      0.5000E-01   0.000    
   CYCLE    TIME      TIME-STEP  ELEMENT          ERROR  I-ENERGY    K-ENERGY T  K-ENERGY R  EXT-WORK     MAS.ERR     TOTAL MASS  MASS ADDED
   14300   9.100      0.6364E-03 SPRIN         11   4.2%   86.90       475.2       0.000       489.5       0.000      0.5000E-01   0.000    
   14301   9.101      0.6364E-03 SPRIN         11  52.1%   725.6       95.14       0.000       489.5       0.000      0.5000E-01   0.000    
   14302   9.102      0.6364E-03 SPRIN         11  22.8%   335.4       327.3       0.000       489.5       0.000      0.5000E-01   0.000    
   14303   9.102      0.6364E-03 SPRIN         11  29.2%   420.8       276.5       0.000       489.5       0.000      0.5000E-01   0.000    
   14304   9.103      0.6364E-03 SPRIN         11  46.6%   652.6       138.6       0.000       489.5       0.000      0.5000E-01   0.000    
   14305   9.104      0.6364E-03 SPRIN         11   7.9%   137.1       445.3       0.000       489.5       0.000      0.5000E-01   0.000    
   14306   9.104      0.6364E-03 SPRIN         11  62.4%   861.8       14.09       0.000       489.5       0.000      0.5000E-01   0.000    
   14307   9.105      0.6364E-03 SPRIN         11   0.1%   32.46       507.6       0.000       489.5       0.000      0.5000E-01   0.000    
   14308   9.106      0.6364E-03 SPRIN         11  61.2%   846.7       23.11       0.000       489.5       0.000      0.5000E-01   0.000    
   14309   9.106      0.6364E-03 SPRIN         11  10.1%   165.2       428.6       0.000       489.5       0.000      0.5000E-01   0.000    
   14310   9.107      0.6364E-03 SPRIN         11  43.9%   615.5       160.6       0.000       489.5       0.000      0.5000E-01   0.000    
   14311   9.107      0.6364E-03 SPRIN         11  32.3%   461.4       252.4       0.000       489.5       0.000      0.5000E-01   0.000    
   14312   9.108      0.6364E-03 SPRIN         11  20.0%   297.1       350.1       0.000       489.5       0.000      0.5000E-01   0.000    
   14313   9.109      0.6364E-03 SPRIN         11  54.4%   756.1       77.02       0.000       489.5       0.000      0.5000E-01   0.000    
   14314   9.109      0.6364E-03 SPRIN         11   2.8%   68.67       486.0       0.000       489.5       0.000      0.5000E-01   0.000    
   14315   9.110      0.6364E-03 SPRIN         11  64.1%   885.3      0.1590       0.000       489.5       0.000      0.5000E-01   0.000    
   14316   9.111      0.6364E-03 SPRIN         11   2.0%   57.40       492.7       0.000       489.5       0.000      0.5000E-01   0.000    
   14317   9.111      0.6364E-03 SPRIN         11  56.0%   777.0       64.58       0.000       489.5       0.000      0.5000E-01   0.000    
   14318   9.112      0.6364E-03 SPRIN         11  17.9%   269.6       366.5       0.000       489.5       0.000      0.5000E-01   0.000    
   14319   9.113      0.6364E-03 SPRIN         11  34.6%   491.5       234.4       0.000       489.5       0.000      0.5000E-01   0.000    
   14320   9.113      0.6364E-03 SPRIN         11  41.7%   587.1       177.6       0.000       489.5       0.000      0.5000E-01   0.000    
   14321   9.114      0.6364E-03 SPRIN         11  11.8%   187.8       415.1       0.000       489.5       0.000      0.5000E-01   0.000    
   14322   9.114      0.6364E-03 SPRIN         11  60.2%   833.1       31.17       0.000       489.5       0.000      0.5000E-01   0.000    
   14323   9.115      0.6364E-03 SPRIN         11   0.3%   34.96       506.1       0.000       489.5       0.000      0.5000E-01   0.000    
   14324   9.116      0.6364E-03 SPRIN         11  63.0%   870.7       8.794       0.000       489.5       0.000      0.5000E-01   0.000    
   14325   9.116      0.6364E-03 SPRIN         11   6.5%   118.0       456.7       0.000       489.5       0.000      0.5000E-01   0.000    
   14326   9.117      0.6364E-03 SPRIN         11  48.6%   679.0       122.9       0.000       489.5       0.000      0.5000E-01   0.000    
   14327   9.118      0.6364E-03 SPRIN         11  27.0%   390.8       294.4       0.000       489.5       0.000      0.5000E-01   0.000    
   14328   9.118      0.6364E-03 SPRIN         11  25.0%   364.6       310.0       0.000       489.5       0.000      0.5000E-01   0.000    
   14329   9.119      0.6364E-03 SPRIN         11  50.3%   701.4       109.6       0.000       489.5       0.000      0.5000E-01   0.000    
   14330   9.120      0.6364E-03 SPRIN         11   5.4%   102.6       465.8       0.000       489.5       0.000      0.5000E-01   0.000    
   14331   9.120      0.6364E-03 SPRIN         11  63.5%   876.9       5.132       0.000       489.5       0.000      0.5000E-01   0.000    
   14332   9.121      0.6364E-03 SPRIN         11   0.6%   38.94       503.7       0.000       489.5       0.000      0.5000E-01   0.000    
   14333   9.121      0.6364E-03 SPRIN         11  59.2%   819.6       39.23       0.000       489.5       0.000      0.5000E-01   0.000    
   14334   9.122      0.6364E-03 SPRIN         11  13.3%   209.0       402.5       0.000       489.5       0.000      0.5000E-01   0.000    
   14335   9.123      0.6364E-03 SPRIN         11  39.8%   561.4       192.9       0.000       489.5       0.000      0.5000E-01   0.000    
   14336   9.123      0.6364E-03 SPRIN         11  36.5%   518.1       218.6       0.000       489.5       0.000      0.5000E-01   0.000    
   14337   9.124      0.6364E-03 SPRIN         11  16.1%   246.0       380.5       0.000       489.5       0.000      0.5000E-01   0.000    
   14338   9.125      0.6364E-03 SPRIN         11  57.3%   794.1       54.38       0.000       489.5       0.000      0.5000E-01   0.000    
   14339   9.125      0.6364E-03 SPRIN         11   1.3%   49.12       497.7       0.000       489.5       0.000      0.5000E-01   0.000    
   14340   9.126      0.6364E-03 SPRIN         11  64.0%   883.5       1.217       0.000       489.5       0.000      0.5000E-01   0.000    
   14341   9.127      0.6364E-03 SPRIN         11   3.7%   80.26       479.1       0.000       489.5       0.000      0.5000E-01   0.000    
   14342   9.127      0.6364E-03 SPRIN         11  52.9%   736.4       88.76       0.000       489.5       0.000      0.5000E-01   0.000    
   14343   9.128      0.6364E-03 SPRIN         11  21.8%   322.1       335.2       0.000       489.5       0.000      0.5000E-01   0.000    
   14344   9.128      0.6364E-03 SPRIN         11  30.3%   434.7       268.3       0.000       489.5       0.000      0.5000E-01   0.000    
   14345   9.129      0.6364E-03 SPRIN         11  45.7%   640.1       146.1       0.000       489.5       0.000      0.5000E-01   0.000    
   14346   9.130      0.6364E-03 SPRIN         11   8.6%   146.4       439.8       0.000       489.5       0.000      0.5000E-01   0.000    
   14347   9.130      0.6364E-03 SPRIN         11  62.0%   857.0       16.94       0.000       489.5       0.000      0.5000E-01   0.000    
   14348   9.131      0.6364E-03 SPRIN         11   0.1%   32.02       507.8       0.000       489.5       0.000      0.5000E-01   0.000    
   14349   9.132      0.6364E-03 SPRIN         11  61.6%   852.3       19.78       0.000       489.5       0.000      0.5000E-01   0.000    
   14350   9.132      0.6364E-03 SPRIN         11   9.3%   155.2       434.5       0.000       489.5       0.000      0.5000E-01   0.000    
   14351   9.133      0.6364E-03 SPRIN         11  44.8%   628.4       153.0       0.000       489.5       0.000      0.5000E-01   0.000    
   14352   9.134      0.6364E-03 SPRIN         11  31.2%   447.4       260.7       0.000       489.5       0.000      0.5000E-01   0.000    
   14353   9.134      0.6364E-03 SPRIN         11  20.9%   310.1       342.4       0.000       489.5       0.000      0.5000E-01   0.000    
   14354   9.135      0.6364E-03 SPRIN         11  53.7%   745.9       83.07       0.000       489.5       0.000      0.5000E-01   0.000    
   CYCLE    TIME      TIME-STEP  ELEMENT          ERROR  I-ENERGY    K-ENERGY T  K-ENERGY R  EXT-WORK     MAS.ERR     TOTAL MASS  MASS ADDED
   14355   9.135      0.6364E-03 SPRIN         11   3.3%   74.53       482.5       0.000       489.5       0.000      0.5000E-01   0.000    
   14356   9.136      0.6364E-03 SPRIN         11  64.1%   884.5      0.5877       0.000       489.5       0.000      0.5000E-01   0.000    
   14357   9.137      0.6364E-03 SPRIN         11   1.6%   52.88       495.4       0.000       489.5       0.000      0.5000E-01   0.000    
   14358   9.137      0.6364E-03 SPRIN         11  56.7%   786.1       59.16       0.000       489.5       0.000      0.5000E-01   0.000    
   14359   9.138      0.6364E-03 SPRIN         11  17.0%   257.2       373.9       0.000       489.5       0.000      0.5000E-01   0.000    
   14360   9.139      0.6364E-03 SPRIN         11  35.6%   505.4       226.2       0.000       489.5       0.000      0.5000E-01   0.000    
   14361   9.139      0.6364E-03 SPRIN         11  40.7%   573.7       185.5       0.000       489.5       0.000      0.5000E-01   0.000    
   14362   9.140      0.6364E-03 SPRIN         11  12.6%   198.7       408.6       0.000       489.5       0.000      0.5000E-01   0.000    
   14363   9.141      0.6364E-03 SPRIN         11  59.7%   826.2       35.27       0.000       489.5       0.000      0.5000E-01   0.000    
   14364   9.141      0.6364E-03 SPRIN         11   0.4%   36.84       505.0       0.000       489.5       0.000      0.5000E-01   0.000    
   14365   9.142      0.6364E-03 SPRIN         11  63.3%   874.2       6.761       0.000       489.5       0.000      0.5000E-01   0.000    
   14366   9.142      0.6364E-03 SPRIN         11   5.9%   109.8       461.5       0.000       489.5       0.000      0.5000E-01   0.000    
   14367   9.143      0.6364E-03 SPRIN         11  49.5%   690.8       115.9       0.000       489.5       0.000      0.5000E-01   0.000    
   14368   9.144      0.6364E-03 SPRIN         11  26.0%   377.1       302.5       0.000       489.5       0.000      0.5000E-01   0.000    
   14369   9.144      0.6364E-03 SPRIN         11  26.1%   378.2       301.8       0.000       489.5       0.000      0.5000E-01   0.000    
   14370   9.145      0.6364E-03 SPRIN         11  49.4%   689.8       116.5       0.000       489.5       0.000      0.5000E-01   0.000    
   14371   9.146      0.6364E-03 SPRIN         11   6.0%   110.5       461.1       0.000       489.5       0.000      0.5000E-01   0.000    
   14372   9.146      0.6364E-03 SPRIN         11  63.3%   873.9       6.923       0.000       489.5       0.000      0.5000E-01   0.000    
   14373   9.147      0.6364E-03 SPRIN         11   0.4%   36.66       505.1       0.000       489.5       0.000      0.5000E-01   0.000    
   14374   9.148      0.6364E-03 SPRIN         11  59.7%   826.8       34.92       0.000       489.5       0.000      0.5000E-01   0.000    
   14375   9.148      0.6364E-03 SPRIN         11  12.5%   197.8       409.2       0.000       489.5       0.000      0.5000E-01   0.000    
   14376   9.149      0.6364E-03 SPRIN         11  40.8%   574.9       184.8       0.000       489.5       0.000      0.5000E-01   0.000    
   14377   9.149      0.6364E-03 SPRIN         11  35.5%   504.2       226.9       0.000       489.5       0.000      0.5000E-01   0.000    
   14378   9.150      0.6364E-03 SPRIN         11  17.0%   258.2       373.2       0.000       489.5       0.000      0.5000E-01   0.000    
   14379   9.151      0.6364E-03 SPRIN         11  56.6%   785.3       59.61       0.000       489.5       0.000      0.5000E-01   0.000    
   14380   9.151      0.6364E-03 SPRIN         11   1.7%   53.25       495.2       0.000       489.5       0.000      0.5000E-01   0.000    
   14381   9.152      0.6364E-03 SPRIN         11  64.1%   884.6      0.5409       0.000       489.5       0.000      0.5000E-01   0.000    
   14382   9.153      0.6364E-03 SPRIN         11   3.2%   74.02       482.8       0.000       489.5       0.000      0.5000E-01   0.000    
   14383   9.153      0.6364E-03 SPRIN         11  53.7%   746.8       82.55       0.000       489.5       0.000      0.5000E-01   0.000    
   14384   9.154      0.6364E-03 SPRIN         11  20.9%   309.0       343.0       0.000       489.5       0.000      0.5000E-01   0.000    
   14385   9.155      0.6364E-03 SPRIN         11  31.3%   448.6       260.0       0.000       489.5       0.000      0.5000E-01   0.000    
   14386   9.155      0.6364E-03 SPRIN         11  44.8%   627.3       153.6       0.000       489.5       0.000      0.5000E-01   0.000    
   14387   9.156      0.6364E-03 SPRIN         11   9.4%   156.1       434.0       0.000       489.5       0.000      0.5000E-01   0.000    
   14388   9.156      0.6364E-03 SPRIN         11  61.6%   851.8       20.05       0.000       489.5       0.000      0.5000E-01   0.000    
   14389   9.157      0.6364E-03 SPRIN         11   0.1%   32.04       507.8       0.000       489.5       0.000      0.5000E-01   0.000    
   14390   9.158      0.6364E-03 SPRIN         11  62.0%   857.5       16.69       0.000       489.5       0.000      0.5000E-01   0.000    
   14391   9.158      0.6364E-03 SPRIN         11   8.6%   145.6       440.3       0.000       489.5       0.000      0.5000E-01   0.000    
   14392   9.159      0.6364E-03 SPRIN         11  45.8%   641.1       145.4       0.000       489.5       0.000      0.5000E-01   0.000    
   14393   9.160      0.6364E-03 SPRIN         11  30.2%   433.5       269.0       0.000       489.5       0.000      0.5000E-01   0.000    
   14394   9.160      0.6364E-03 SPRIN         11  21.9%   323.2       334.6       0.000       489.5       0.000      0.5000E-01   0.000    
   14395   9.161      0.6364E-03 SPRIN         11  52.9%   735.5       89.29       0.000       489.5       0.000      0.5000E-01   0.000    
   14396   9.162      0.6364E-03 SPRIN         11   3.7%   80.80       478.8       0.000       489.5       0.000      0.5000E-01   0.000    
   14397   9.162      0.6364E-03 SPRIN         11  64.0%   883.4       1.287       0.000       489.5       0.000      0.5000E-01   0.000    
   14398   9.163      0.6364E-03 SPRIN         11   1.3%   48.79       497.9       0.000       489.5       0.000      0.5000E-01   0.000    
   14399   9.163      0.6364E-03 SPRIN         11  57.3%   794.9       53.94       0.000       489.5       0.000      0.5000E-01   0.000    
   14400   9.164      0.6364E-03 SPRIN         11  16.1%   245.0       381.1       0.000       489.5       0.000      0.5000E-01   0.000    
   14401   9.165      0.6364E-03 SPRIN         11  36.6%   519.2       217.9       0.000       489.5       0.000      0.5000E-01   0.000    
   14402   9.165      0.6364E-03 SPRIN         11  39.7%   560.2       193.5       0.000       489.5       0.000      0.5000E-01   0.000    
   14403   9.166      0.6364E-03 SPRIN         11  13.4%   209.9       402.0       0.000       489.5       0.000      0.5000E-01   0.000    
   14404   9.167      0.6364E-03 SPRIN         11  59.1%   819.0       39.60       0.000       489.5       0.000      0.5000E-01   0.000    
   14405   9.167      0.6364E-03 SPRIN         11   0.6%   39.16       503.6       0.000       489.5       0.000      0.5000E-01   0.000    
   14406   9.168      0.6364E-03 SPRIN         11  63.5%   877.1       4.992       0.000       489.5       0.000      0.5000E-01   0.000    
   14407   9.169      0.6364E-03 SPRIN         11   5.3%   102.0       466.2       0.000       489.5       0.000      0.5000E-01   0.000    
   14408   9.169      0.6364E-03 SPRIN         11  50.4%   702.4       109.0       0.000       489.5       0.000      0.5000E-01   0.000    
   14409   9.170      0.6364E-03 SPRIN         11  24.9%   363.4       310.6       0.000       489.5       0.000      0.5000E-01   0.000    
   CYCLE    TIME      TIME-STEP  ELEMENT          ERROR  I-ENERGY    K-ENERGY T  K-ENERGY R  EXT-WORK     MAS.ERR     TOTAL MASS  MASS ADDED
   14410   9.170      0.6364E-03 SPRIN         11  27.1%   392.0       293.7       0.000       489.5       0.000      0.5000E-01   0.000    
   14411   9.171      0.6364E-03 SPRIN         11  48.6%   678.0       123.5       0.000       489.5       0.000      0.5000E-01   0.000    
   14412   9.172      0.6364E-03 SPRIN         11   6.6%   118.8       456.2       0.000       489.5       0.000      0.5000E-01   0.000    
   14413   9.172      0.6364E-03 SPRIN         11  63.0%   870.4       8.978       0.000       489.5       0.000      0.5000E-01   0.000    
   14414   9.173      0.6364E-03 SPRIN         11   0.3%   34.83       506.2       0.000       489.5       0.000      0.5000E-01   0.000    
   14415   9.174      0.6364E-03 SPRIN         11  60.2%   833.7       30.84       0.000       489.5       0.000      0.5000E-01   0.000    
   14416   9.174      0.6364E-03 SPRIN         11  11.7%   186.9       415.7       0.000       489.5       0.000      0.5000E-01   0.000    
   14417   9.175      0.6364E-03 SPRIN         11  41.8%   588.2       176.9       0.000       489.5       0.000      0.5000E-01   0.000    
   14418   9.176      0.6364E-03 SPRIN         11  34.5%   490.4       235.1       0.000       489.5       0.000      0.5000E-01   0.000    
   14419   9.176      0.6364E-03 SPRIN         11  18.0%   270.6       365.9       0.000       489.5       0.000      0.5000E-01   0.000    
   14420   9.177      0.6364E-03 SPRIN         11  55.9%   776.2       65.05       0.000       489.5       0.000      0.5000E-01   0.000    
   14421   9.177      0.6364E-03 SPRIN         11   2.0%   57.81       492.5       0.000       489.5       0.000      0.5000E-01   0.000    
   14422   9.178      0.6364E-03 SPRIN         11  64.1%   885.3      0.1351       0.000       489.5       0.000      0.5000E-01   0.000    
   14423   9.179      0.6364E-03 SPRIN         11   2.8%   68.19       486.3       0.000       489.5       0.000      0.5000E-01   0.000    
   14424   9.179      0.6364E-03 SPRIN         11  54.5%   756.9       76.52       0.000       489.5       0.000      0.5000E-01   0.000    
   14425   9.180      0.6364E-03 SPRIN         11  19.9%   296.0       350.8       0.000       489.5       0.000      0.5000E-01   0.000    
   14426   9.181      0.6364E-03 SPRIN         11  32.4%   462.5       251.7       0.000       489.5       0.000      0.5000E-01   0.000    
   14427   9.181      0.6364E-03 SPRIN         11  43.8%   614.4       161.3       0.000       489.5       0.000      0.5000E-01   0.000    
   14428   9.182      0.6364E-03 SPRIN         11  10.1%   166.0       428.1       0.000       489.5       0.000      0.5000E-01   0.000    
   14429   9.183      0.6364E-03 SPRIN         11  61.2%   846.2       23.40       0.000       489.5       0.000      0.5000E-01   0.000    
   14430   9.183      0.6364E-03 SPRIN         11   0.1%   32.52       507.5       0.000       489.5       0.000      0.5000E-01   0.000    
   14431   9.184      0.6364E-03 SPRIN         11  62.4%   862.2       13.86       0.000       489.5       0.000      0.5000E-01   0.000    
   14432   9.184      0.6364E-03 SPRIN         11   7.9%   136.3       445.8       0.000       489.5       0.000      0.5000E-01   0.000    
   14433   9.185      0.6364E-03 SPRIN         11  46.7%   653.6       138.0       0.000       489.5       0.000      0.5000E-01   0.000    
   14434   9.186      0.6364E-03 SPRIN         11  29.2%   419.6       277.2       0.000       489.5       0.000      0.5000E-01   0.000    
   14435   9.186      0.6364E-03 SPRIN         11  22.9%   336.5       326.7       0.000       489.5       0.000      0.5000E-01   0.000    
   14436   9.187      0.6364E-03 SPRIN         11  52.1%   724.7       95.69       0.000       489.5       0.000      0.5000E-01   0.000    
   14437   9.188      0.6364E-03 SPRIN         11   4.2%   87.48       474.8       0.000       489.5       0.000      0.5000E-01   0.000    
   14438   9.188      0.6364E-03 SPRIN         11  63.8%   881.7       2.255       0.000       489.5       0.000      0.5000E-01   0.000    
   14439   9.189      0.6364E-03 SPRIN         11   1.0%   45.13       500.0       0.000       489.5       0.000      0.5000E-01   0.000    
   14440   9.190      0.6364E-03 SPRIN         11  58.0%   803.3       48.94       0.000       489.5       0.000      0.5000E-01   0.000    
   14441   9.190      0.6364E-03 SPRIN         11  15.2%   233.1       388.2       0.000       489.5       0.000      0.5000E-01   0.000    
   14442   9.191      0.6364E-03 SPRIN         11  37.7%   533.0       209.8       0.000       489.5       0.000      0.5000E-01   0.000    
   14443   9.191      0.6364E-03 SPRIN         11  38.7%   546.7       201.6       0.000       489.5       0.000      0.5000E-01   0.000    
   14444   9.192      0.6364E-03 SPRIN         11  14.3%   221.4       395.2       0.000       489.5       0.000      0.5000E-01   0.000    
   14445   9.193      0.6364E-03 SPRIN         11  58.6%   811.3       44.17       0.000       489.5       0.000      0.5000E-01   0.000    
   14446   9.193      0.6364E-03 SPRIN         11   0.8%   41.93       501.9       0.000       489.5       0.000      0.5000E-01   0.000    
   14447   9.194      0.6364E-03 SPRIN         11  63.7%   879.7       3.488       0.000       489.5       0.000      0.5000E-01   0.000    
   14448   9.195      0.6364E-03 SPRIN         11   4.8%   94.53       470.6       0.000       489.5       0.000      0.5000E-01   0.000    
   14449   9.195      0.6364E-03 SPRIN         11  51.2%   713.7       102.2       0.000       489.5       0.000      0.5000E-01   0.000    
   14450   9.196      0.6364E-03 SPRIN         11  23.9%   349.9       318.7       0.000       489.5       0.000      0.5000E-01   0.000    
   14451   9.197      0.6364E-03 SPRIN         11  28.1%   405.8       285.5       0.000       489.5       0.000      0.5000E-01   0.000    
   14452   9.197      0.6364E-03 SPRIN         11  47.6%   665.9       130.7       0.000       489.5       0.000      0.5000E-01   0.000    
   14453   9.198      0.6364E-03 SPRIN         11   7.2%   127.4       451.1       0.000       489.5       0.000      0.5000E-01   0.000    
   14454   9.198      0.6364E-03 SPRIN         11  62.7%   866.5       11.29       0.000       489.5       0.000      0.5000E-01   0.000    
   14455   9.199      0.6364E-03 SPRIN         11   0.2%   33.44       507.0       0.000       489.5       0.000      0.5000E-01   0.000    
   14456   9.200      0.6364E-03 SPRIN         11  60.7%   840.2       26.99       0.000       489.5       0.000      0.5000E-01   0.000    
   14457   9.200      0.6364E-03 SPRIN         11  10.9%   176.3       422.0       0.000       489.5       0.000      0.5000E-01   0.000    
     ANIMATION FILE: SPR_PRE_2FLAGA047 WRITTEN
   14458   9.201      0.6364E-03 SPRIN         11  42.8%   601.4       169.0       0.000       489.5       0.000      0.5000E-01   0.000    
   14459   9.202      0.6364E-03 SPRIN         11  33.4%   476.4       243.4       0.000       489.5       0.000      0.5000E-01   0.000    
   14460   9.202      0.6364E-03 SPRIN         11  18.9%   283.3       358.3       0.000       489.5       0.000      0.5000E-01   0.000    
   14461   9.203      0.6364E-03 SPRIN         11  55.2%   766.7       70.70       0.000       489.5       0.000      0.5000E-01   0.000    
   14462   9.204      0.6364E-03 SPRIN         11   2.4%   62.80       489.5       0.000       489.5       0.000      0.5000E-01   0.000    
   14463   9.204      0.6364E-03 SPRIN         11  64.1%   885.5      0.2723E-06   0.000       489.5       0.000      0.5000E-01   0.000    
   14464   9.205      0.6364E-03 SPRIN         11   2.4%   62.78       489.5       0.000       489.5       0.000      0.5000E-01   0.000    
   CYCLE    TIME      TIME-STEP  ELEMENT          ERROR  I-ENERGY    K-ENERGY T  K-ENERGY R  EXT-WORK     MAS.ERR     TOTAL MASS  MASS ADDED
   14465   9.205      0.6364E-03 SPRIN         11  55.2%   766.7       70.68       0.000       489.5       0.000      0.5000E-01   0.000    
   14466   9.206      0.6364E-03 SPRIN         11  18.9%   283.2       358.4       0.000       489.5       0.000      0.5000E-01   0.000    
   14467   9.207      0.6364E-03 SPRIN         11  33.4%   476.5       243.4       0.000       489.5       0.000      0.5000E-01   0.000    
   14468   9.207      0.6364E-03 SPRIN         11  42.8%   601.4       169.1       0.000       489.5       0.000      0.5000E-01   0.000    
   14469   9.208      0.6364E-03 SPRIN         11  10.9%   176.3       422.0       0.000       489.5       0.000      0.5000E-01   0.000    
   14470   9.209      0.6364E-03 SPRIN         11  60.7%   840.1       27.00       0.000       489.5       0.000      0.5000E-01   0.000    
   14471   9.209      0.6364E-03 SPRIN         11   0.2%   33.45       507.0       0.000       489.5       0.000      0.5000E-01   0.000    
   14472   9.210      0.6364E-03 SPRIN         11  62.7%   866.6       11.29       0.000       489.5       0.000      0.5000E-01   0.000    
   14473   9.211      0.6364E-03 SPRIN         11   7.2%   127.3       451.1       0.000       489.5       0.000      0.5000E-01   0.000    
   14474   9.211      0.6364E-03 SPRIN         11  47.6%   665.9       130.7       0.000       489.5       0.000      0.5000E-01   0.000    
   14475   9.212      0.6364E-03 SPRIN         11  28.1%   405.7       285.5       0.000       489.5       0.000      0.5000E-01   0.000    
   14476   9.212      0.6364E-03 SPRIN         11  23.9%   350.0       318.7       0.000       489.5       0.000      0.5000E-01   0.000    
   14477   9.213      0.6364E-03 SPRIN         11  51.2%   713.7       102.3       0.000       489.5       0.000      0.5000E-01   0.000    
   14478   9.214      0.6364E-03 SPRIN         11   4.8%   94.55       470.6       0.000       489.5       0.000      0.5000E-01   0.000    
   14479   9.214      0.6364E-03 SPRIN         11  63.7%   879.7       3.492       0.000       489.5       0.000      0.5000E-01   0.000    
   14480   9.215      0.6364E-03 SPRIN         11   0.8%   41.92       501.9       0.000       489.5       0.000      0.5000E-01   0.000    
   14481   9.216      0.6364E-03 SPRIN         11  58.6%   811.3       44.15       0.000       489.5       0.000      0.5000E-01   0.000    
   14482   9.216      0.6364E-03 SPRIN         11  14.3%   221.4       395.2       0.000       489.5       0.000      0.5000E-01   0.000    
   14483   9.217      0.6364E-03 SPRIN         11  38.7%   546.7       201.6       0.000       489.5       0.000      0.5000E-01   0.000    
   14484   9.218      0.6364E-03 SPRIN         11  37.7%   533.0       209.8       0.000       489.5       0.000      0.5000E-01   0.000    
   14485   9.218      0.6364E-03 SPRIN         11  15.2%   233.1       388.2       0.000       489.5       0.000      0.5000E-01   0.000    
   14486   9.219      0.6364E-03 SPRIN         11  58.0%   803.3       48.95       0.000       489.5       0.000      0.5000E-01   0.000    
   14487   9.219      0.6364E-03 SPRIN         11   1.0%   45.14       500.0       0.000       489.5       0.000      0.5000E-01   0.000    
   14488   9.220      0.6364E-03 SPRIN         11  63.8%   881.7       2.252       0.000       489.5       0.000      0.5000E-01   0.000    
   14489   9.221      0.6364E-03 SPRIN         11   4.2%   87.46       474.8       0.000       489.5       0.000      0.5000E-01   0.000    
   14490   9.221      0.6364E-03 SPRIN         11  52.1%   724.7       95.67       0.000       489.5       0.000      0.5000E-01   0.000    
   14491   9.222      0.6364E-03 SPRIN         11  22.9%   336.5       326.7       0.000       489.5       0.000      0.5000E-01   0.000    
   14492   9.223      0.6364E-03 SPRIN         11  29.2%   419.6       277.2       0.000       489.5       0.000      0.5000E-01   0.000    
   14493   9.223      0.6364E-03 SPRIN         11  46.7%   653.6       138.0       0.000       489.5       0.000      0.5000E-01   0.000    
   14494   9.224      0.6364E-03 SPRIN         11   7.9%   136.3       445.8       0.000       489.5       0.000      0.5000E-01   0.000    
   14495   9.225      0.6364E-03 SPRIN         11  62.4%   862.2       13.87       0.000       489.5       0.000      0.5000E-01   0.000    
   14496   9.225      0.6364E-03 SPRIN         11   0.1%   32.52       507.5       0.000       489.5       0.000      0.5000E-01   0.000    
   14497   9.226      0.6364E-03 SPRIN         11  61.2%   846.2       23.39       0.000       489.5       0.000      0.5000E-01   0.000    
   14498   9.226      0.6364E-03 SPRIN         11  10.1%   166.0       428.1       0.000       489.5       0.000      0.5000E-01   0.000    
   14499   9.227      0.6364E-03 SPRIN         11  43.8%   614.5       161.3       0.000       489.5       0.000      0.5000E-01   0.000    
   14500   9.228      0.6364E-03 SPRIN         11  32.4%   462.5       251.7       0.000       489.5       0.000      0.5000E-01   0.000    
   14501   9.228      0.6364E-03 SPRIN         11  19.9%   296.1       350.7       0.000       489.5       0.000      0.5000E-01   0.000    
   14502   9.229      0.6364E-03 SPRIN         11  54.5%   756.9       76.54       0.000       489.5       0.000      0.5000E-01   0.000    
   14503   9.230      0.6364E-03 SPRIN         11   2.8%   68.21       486.3       0.000       489.5       0.000      0.5000E-01   0.000    
   14504   9.230      0.6364E-03 SPRIN         11  64.1%   885.3      0.1358       0.000       489.5       0.000      0.5000E-01   0.000    
   14505   9.231      0.6364E-03 SPRIN         11   2.0%   57.79       492.5       0.000       489.5       0.000      0.5000E-01   0.000    
   14506   9.232      0.6364E-03 SPRIN         11  55.9%   776.2       65.04       0.000       489.5       0.000      0.5000E-01   0.000    
   14507   9.232      0.6364E-03 SPRIN         11  18.0%   270.6       365.9       0.000       489.5       0.000      0.5000E-01   0.000    
   14508   9.233      0.6364E-03 SPRIN         11  34.5%   490.4       235.1       0.000       489.5       0.000      0.5000E-01   0.000    
   14509   9.233      0.6364E-03 SPRIN         11  41.8%   588.2       176.9       0.000       489.5       0.000      0.5000E-01   0.000    
   14510   9.234      0.6364E-03 SPRIN         11  11.7%   186.9       415.7       0.000       489.5       0.000      0.5000E-01   0.000    
   14511   9.235      0.6364E-03 SPRIN         11  60.2%   833.7       30.85       0.000       489.5       0.000      0.5000E-01   0.000    
   14512   9.235      0.6364E-03 SPRIN         11   0.3%   34.83       506.2       0.000       489.5       0.000      0.5000E-01   0.000    
   14513   9.236      0.6364E-03 SPRIN         11  63.0%   870.4       8.972       0.000       489.5       0.000      0.5000E-01   0.000    
   14514   9.237      0.6364E-03 SPRIN         11   6.6%   118.7       456.2       0.000       489.5       0.000      0.5000E-01   0.000    
   14515   9.237      0.6364E-03 SPRIN         11  48.6%   678.0       123.5       0.000       489.5       0.000      0.5000E-01   0.000    
   14516   9.238      0.6364E-03 SPRIN         11  27.1%   391.9       293.7       0.000       489.5       0.000      0.5000E-01   0.000    
   14517   9.239      0.6364E-03 SPRIN         11  24.9%   363.5       310.6       0.000       489.5       0.000      0.5000E-01   0.000    
   14518   9.239      0.6364E-03 SPRIN         11  50.4%   702.3       109.0       0.000       489.5       0.000      0.5000E-01   0.000    
   14519   9.240      0.6364E-03 SPRIN         11   5.3%   102.0       466.2       0.000       489.5       0.000      0.5000E-01   0.000    
   CYCLE    TIME      TIME-STEP  ELEMENT          ERROR  I-ENERGY    K-ENERGY T  K-ENERGY R  EXT-WORK     MAS.ERR     TOTAL MASS  MASS ADDED
   14520   9.240      0.6364E-03 SPRIN         11  63.5%   877.1       4.997       0.000       489.5       0.000      0.5000E-01   0.000    
   14521   9.241      0.6364E-03 SPRIN         11   0.6%   39.15       503.6       0.000       489.5       0.000      0.5000E-01   0.000    
   14522   9.242      0.6364E-03 SPRIN         11  59.1%   819.0       39.59       0.000       489.5       0.000      0.5000E-01   0.000    
   14523   9.242      0.6364E-03 SPRIN         11  13.4%   209.9       402.0       0.000       489.5       0.000      0.5000E-01   0.000    
   14524   9.243      0.6364E-03 SPRIN         11  39.7%   560.3       193.5       0.000       489.5       0.000      0.5000E-01   0.000    
   14525   9.244      0.6364E-03 SPRIN         11  36.6%   519.2       218.0       0.000       489.5       0.000      0.5000E-01   0.000    
   14526   9.244      0.6364E-03 SPRIN         11  16.1%   245.1       381.1       0.000       489.5       0.000      0.5000E-01   0.000    
   14527   9.245      0.6364E-03 SPRIN         11  57.3%   794.8       53.96       0.000       489.5       0.000      0.5000E-01   0.000    
   14528   9.246      0.6364E-03 SPRIN         11   1.3%   48.80       497.9       0.000       489.5       0.000      0.5000E-01   0.000    
   14529   9.246      0.6364E-03 SPRIN         11  64.0%   883.4       1.284       0.000       489.5       0.000      0.5000E-01   0.000    
   14530   9.247      0.6364E-03 SPRIN         11   3.7%   80.79       478.8       0.000       489.5       0.000      0.5000E-01   0.000    
   14531   9.247      0.6364E-03 SPRIN         11  52.9%   735.5       89.27       0.000       489.5       0.000      0.5000E-01   0.000    
   14532   9.248      0.6364E-03 SPRIN         11  21.9%   323.2       334.6       0.000       489.5       0.000      0.5000E-01   0.000    
   14533   9.249      0.6364E-03 SPRIN         11  30.2%   433.5       268.9       0.000       489.5       0.000      0.5000E-01   0.000    
   14534   9.249      0.6364E-03 SPRIN         11  45.8%   641.1       145.4       0.000       489.5       0.000      0.5000E-01   0.000    
   14535   9.250      0.6364E-03 SPRIN         11   8.6%   145.6       440.2       0.000       489.5       0.000      0.5000E-01   0.000    
   14536   9.251      0.6364E-03 SPRIN         11  62.0%   857.5       16.70       0.000       489.5       0.000      0.5000E-01   0.000    
   14537   9.251      0.6364E-03 SPRIN         11   0.1%   32.04       507.8       0.000       489.5       0.000      0.5000E-01   0.000    
   14538   9.252      0.6364E-03 SPRIN         11  61.6%   851.8       20.04       0.000       489.5       0.000      0.5000E-01   0.000    
   14539   9.253      0.6364E-03 SPRIN         11   9.4%   156.0       434.0       0.000       489.5       0.000      0.5000E-01   0.000    
   14540   9.253      0.6364E-03 SPRIN         11  44.8%   627.4       153.6       0.000       489.5       0.000      0.5000E-01   0.000    
   14541   9.254      0.6364E-03 SPRIN         11  31.3%   448.6       260.0       0.000       489.5       0.000      0.5000E-01   0.000    
   14542   9.254      0.6364E-03 SPRIN         11  20.9%   309.0       343.0       0.000       489.5       0.000      0.5000E-01   0.000    
   14543   9.255      0.6364E-03 SPRIN         11  53.7%   746.8       82.56       0.000       489.5       0.000      0.5000E-01   0.000    
   14544   9.256      0.6364E-03 SPRIN         11   3.2%   74.04       482.8       0.000       489.5       0.000      0.5000E-01   0.000    
   14545   9.256      0.6364E-03 SPRIN         11  64.1%   884.6      0.5424       0.000       489.5       0.000      0.5000E-01   0.000    
   14546   9.257      0.6364E-03 SPRIN         11   1.7%   53.23       495.2       0.000       489.5       0.000      0.5000E-01   0.000    
   14547   9.258      0.6364E-03 SPRIN         11  56.6%   785.4       59.60       0.000       489.5       0.000      0.5000E-01   0.000    
   14548   9.258      0.6364E-03 SPRIN         11  17.0%   258.2       373.3       0.000       489.5       0.000      0.5000E-01   0.000    
   14549   9.259      0.6364E-03 SPRIN         11  35.5%   504.3       226.8       0.000       489.5       0.000      0.5000E-01   0.000    
   14550   9.260      0.6364E-03 SPRIN         11  40.8%   574.8       184.9       0.000       489.5       0.000      0.5000E-01   0.000    
   14551   9.260      0.6364E-03 SPRIN         11  12.5%   197.8       409.2       0.000       489.5       0.000      0.5000E-01   0.000    
   14552   9.261      0.6364E-03 SPRIN         11  59.7%   826.8       34.93       0.000       489.5       0.000      0.5000E-01   0.000    
   14553   9.261      0.6364E-03 SPRIN         11   0.4%   36.66       505.1       0.000       489.5       0.000      0.5000E-01   0.000    
   14554   9.262      0.6364E-03 SPRIN         11  63.3%   873.9       6.918       0.000       489.5       0.000      0.5000E-01   0.000    
   14555   9.263      0.6364E-03 SPRIN         11   6.0%   110.5       461.1       0.000       489.5       0.000      0.5000E-01   0.000    
   14556   9.263      0.6364E-03 SPRIN         11  49.4%   689.8       116.4       0.000       489.5       0.000      0.5000E-01   0.000    
   14557   9.264      0.6364E-03 SPRIN         11  26.0%   378.2       301.9       0.000       489.5       0.000      0.5000E-01   0.000    
   14558   9.265      0.6364E-03 SPRIN         11  26.0%   377.1       302.5       0.000       489.5       0.000      0.5000E-01   0.000    
   14559   9.265      0.6364E-03 SPRIN         11  49.5%   690.8       115.9       0.000       489.5       0.000      0.5000E-01   0.000    
   14560   9.266      0.6364E-03 SPRIN         11   5.9%   109.9       461.5       0.000       489.5       0.000      0.5000E-01   0.000    
   14561   9.267      0.6364E-03 SPRIN         11  63.3%   874.2       6.766       0.000       489.5       0.000      0.5000E-01   0.000    
   14562   9.267      0.6364E-03 SPRIN         11   0.4%   36.83       505.0       0.000       489.5       0.000      0.5000E-01   0.000    
   14563   9.268      0.6364E-03 SPRIN         11  59.7%   826.3       35.26       0.000       489.5       0.000      0.5000E-01   0.000    
   14564   9.268      0.6364E-03 SPRIN         11  12.6%   198.7       408.7       0.000       489.5       0.000      0.5000E-01   0.000    
   14565   9.269      0.6364E-03 SPRIN         11  40.7%   573.8       185.5       0.000       489.5       0.000      0.5000E-01   0.000    
   14566   9.270      0.6364E-03 SPRIN         11  35.6%   505.4       226.2       0.000       489.5       0.000      0.5000E-01   0.000    
   14567   9.270      0.6364E-03 SPRIN         11  17.0%   257.2       373.8       0.000       489.5       0.000      0.5000E-01   0.000    
   14568   9.271      0.6364E-03 SPRIN         11  56.7%   786.1       59.17       0.000       489.5       0.000      0.5000E-01   0.000    
   14569   9.272      0.6364E-03 SPRIN         11   1.6%   52.89       495.4       0.000       489.5       0.000      0.5000E-01   0.000    
   14570   9.272      0.6364E-03 SPRIN         11  64.1%   884.5      0.5861       0.000       489.5       0.000      0.5000E-01   0.000    
   14571   9.273      0.6364E-03 SPRIN         11   3.3%   74.52       482.6       0.000       489.5       0.000      0.5000E-01   0.000    
   14572   9.274      0.6364E-03 SPRIN         11  53.7%   745.9       83.05       0.000       489.5       0.000      0.5000E-01   0.000    
   14573   9.274      0.6364E-03 SPRIN         11  20.9%   310.1       342.4       0.000       489.5       0.000      0.5000E-01   0.000    
   14574   9.275      0.6364E-03 SPRIN         11  31.2%   447.5       260.6       0.000       489.5       0.000      0.5000E-01   0.000    
   CYCLE    TIME      TIME-STEP  ELEMENT          ERROR  I-ENERGY    K-ENERGY T  K-ENERGY R  EXT-WORK     MAS.ERR     TOTAL MASS  MASS ADDED
   14575   9.275      0.6364E-03 SPRIN         11  44.8%   628.4       153.0       0.000       489.5       0.000      0.5000E-01   0.000    
   14576   9.276      0.6364E-03 SPRIN         11   9.3%   155.3       434.5       0.000       489.5       0.000      0.5000E-01   0.000    
   14577   9.277      0.6364E-03 SPRIN         11  61.6%   852.3       19.79       0.000       489.5       0.000      0.5000E-01   0.000    
   14578   9.277      0.6364E-03 SPRIN         11   0.1%   32.02       507.8       0.000       489.5       0.000      0.5000E-01   0.000    
   14579   9.278      0.6364E-03 SPRIN         11  62.0%   857.1       16.94       0.000       489.5       0.000      0.5000E-01   0.000    
   14580   9.279      0.6364E-03 SPRIN         11   8.6%   146.4       439.8       0.000       489.5       0.000      0.5000E-01   0.000    
   14581   9.279      0.6364E-03 SPRIN         11  45.7%   640.1       146.0       0.000       489.5       0.000      0.5000E-01   0.000    
   14582   9.280      0.6364E-03 SPRIN         11  30.3%   434.6       268.3       0.000       489.5       0.000      0.5000E-01   0.000    
   14583   9.281      0.6364E-03 SPRIN         11  21.8%   322.2       335.2       0.000       489.5       0.000      0.5000E-01   0.000    
   14584   9.281      0.6364E-03 SPRIN         11  52.9%   736.3       88.77       0.000       489.5       0.000      0.5000E-01   0.000    
   14585   9.282      0.6364E-03 SPRIN         11   3.7%   80.28       479.1       0.000       489.5       0.000      0.5000E-01   0.000    
   14586   9.282      0.6364E-03 SPRIN         11  64.0%   883.5       1.219       0.000       489.5       0.000      0.5000E-01   0.000    
   14587   9.283      0.6364E-03 SPRIN         11   1.3%   49.11       497.7       0.000       489.5       0.000      0.5000E-01   0.000    
   14588   9.284      0.6364E-03 SPRIN         11  57.3%   794.2       54.36       0.000       489.5       0.000      0.5000E-01   0.000    
   14589   9.284      0.6364E-03 SPRIN         11  16.1%   246.0       380.5       0.000       489.5       0.000      0.5000E-01   0.000    
   14590   9.285      0.6364E-03 SPRIN         11  36.6%   518.1       218.6       0.000       489.5       0.000      0.5000E-01   0.000    
   14591   9.286      0.6364E-03 SPRIN         11  39.8%   561.4       192.9       0.000       489.5       0.000      0.5000E-01   0.000    
   14592   9.286      0.6364E-03 SPRIN         11  13.3%   209.0       402.5       0.000       489.5       0.000      0.5000E-01   0.000    
   14593   9.287      0.6364E-03 SPRIN         11  59.2%   819.6       39.24       0.000       489.5       0.000      0.5000E-01   0.000    
   14594   9.288      0.6364E-03 SPRIN         11   0.6%   38.95       503.7       0.000       489.5       0.000      0.5000E-01   0.000    
   14595   9.288      0.6364E-03 SPRIN         11  63.5%   876.9       5.127       0.000       489.5       0.000      0.5000E-01   0.000    
   14596   9.289      0.6364E-03 SPRIN         11   5.4%   102.6       465.8       0.000       489.5       0.000      0.5000E-01   0.000    
   14597   9.289      0.6364E-03 SPRIN         11  50.3%   701.4       109.5       0.000       489.5       0.000      0.5000E-01   0.000    
   14598   9.290      0.6364E-03 SPRIN         11  25.0%   364.6       310.0       0.000       489.5       0.000      0.5000E-01   0.000    
   14599   9.291      0.6364E-03 SPRIN         11  27.0%   390.8       294.3       0.000       489.5       0.000      0.5000E-01   0.000    
   14600   9.291      0.6364E-03 SPRIN         11  48.6%   678.9       122.9       0.000       489.5       0.000      0.5000E-01   0.000    
   14601   9.292      0.6364E-03 SPRIN         11   6.5%   118.1       456.6       0.000       489.5       0.000      0.5000E-01   0.000    
   14602   9.293      0.6364E-03 SPRIN         11  63.0%   870.7       8.800       0.000       489.5       0.000      0.5000E-01   0.000    
   14603   9.293      0.6364E-03 SPRIN         11   0.3%   34.96       506.1       0.000       489.5       0.000      0.5000E-01   0.000    
   14604   9.294      0.6364E-03 SPRIN         11  60.2%   833.2       31.16       0.000       489.5       0.000      0.5000E-01   0.000    
   14605   9.295      0.6364E-03 SPRIN         11  11.8%   187.8       415.1       0.000       489.5       0.000      0.5000E-01   0.000    
   14606   9.295      0.6364E-03 SPRIN         11  41.7%   587.1       177.5       0.000       489.5       0.000      0.5000E-01   0.000    
   14607   9.296      0.6364E-03 SPRIN         11  34.6%   491.5       234.5       0.000       489.5       0.000      0.5000E-01   0.000    
   14608   9.296      0.6364E-03 SPRIN         11  17.9%   269.6       366.5       0.000       489.5       0.000      0.5000E-01   0.000    
   14609   9.297      0.6364E-03 SPRIN         11  56.0%   777.0       64.60       0.000       489.5       0.000      0.5000E-01   0.000    
   14610   9.298      0.6364E-03 SPRIN         11   2.0%   57.42       492.7       0.000       489.5       0.000      0.5000E-01   0.000    
   14611   9.298      0.6364E-03 SPRIN         11  64.1%   885.3      0.1581       0.000       489.5       0.000      0.5000E-01   0.000    
   14612   9.299      0.6364E-03 SPRIN         11   2.8%   68.65       486.0       0.000       489.5       0.000      0.5000E-01   0.000    
   14613   9.300      0.6364E-03 SPRIN         11  54.4%   756.1       77.01       0.000       489.5       0.000      0.5000E-01   0.000    
   14614   9.300      0.6364E-03 SPRIN         11  20.0%   297.1       350.1       0.000       489.5       0.000      0.5000E-01   0.000    
   14615   9.301      0.6364E-03 SPRIN         11  32.3%   461.4       252.4       0.000       489.5       0.000      0.5000E-01   0.000    
   14616   9.302      0.6364E-03 SPRIN         11  43.9%   615.5       160.7       0.000       489.5       0.000      0.5000E-01   0.000    
   14617   9.302      0.6364E-03 SPRIN         11  10.1%   165.2       428.6       0.000       489.5       0.000      0.5000E-01   0.000    
   14618   9.303      0.6364E-03 SPRIN         11  61.2%   846.7       23.12       0.000       489.5       0.000      0.5000E-01   0.000    
   14619   9.303      0.6364E-03 SPRIN         11   0.1%   32.46       507.6       0.000       489.5       0.000      0.5000E-01   0.000    
   14620   9.304      0.6364E-03 SPRIN         11  62.4%   861.9       14.08       0.000       489.5       0.000      0.5000E-01   0.000    
   14621   9.305      0.6364E-03 SPRIN         11   7.9%   137.0       445.3       0.000       489.5       0.000      0.5000E-01   0.000    
   14622   9.305      0.6364E-03 SPRIN         11  46.6%   652.6       138.6       0.000       489.5       0.000      0.5000E-01   0.000    
   14623   9.306      0.6364E-03 SPRIN         11  29.2%   420.7       276.6       0.000       489.5       0.000      0.5000E-01   0.000    
   14624   9.307      0.6364E-03 SPRIN         11  22.8%   335.4       327.3       0.000       489.5       0.000      0.5000E-01   0.000    
   14625   9.307      0.6364E-03 SPRIN         11  52.1%   725.6       95.16       0.000       489.5       0.000      0.5000E-01   0.000    
   14626   9.308      0.6364E-03 SPRIN         11   4.2%   86.92       475.2       0.000       489.5       0.000      0.5000E-01   0.000    
   14627   9.309      0.6364E-03 SPRIN         11  63.9%   881.9       2.166       0.000       489.5       0.000      0.5000E-01   0.000    
   14628   9.309      0.6364E-03 SPRIN         11   1.1%   45.42       499.9       0.000       489.5       0.000      0.5000E-01   0.000    
   14629   9.310      0.6364E-03 SPRIN         11  57.9%   802.6       49.34       0.000       489.5       0.000      0.5000E-01   0.000    
   CYCLE    TIME      TIME-STEP  ELEMENT          ERROR  I-ENERGY    K-ENERGY T  K-ENERGY R  EXT-WORK     MAS.ERR     TOTAL MASS  MASS ADDED
   14630   9.310      0.6364E-03 SPRIN         11  15.2%   234.0       387.6       0.000       489.5       0.000      0.5000E-01   0.000    
   14631   9.311      0.6364E-03 SPRIN         11  37.6%   531.9       210.4       0.000       489.5       0.000      0.5000E-01   0.000    
   14632   9.312      0.6364E-03 SPRIN         11  38.8%   547.8       201.0       0.000       489.5       0.000      0.5000E-01   0.000    
   14633   9.312      0.6364E-03 SPRIN         11  14.2%   220.4       395.7       0.000       489.5       0.000      0.5000E-01   0.000    
   14634   9.313      0.6364E-03 SPRIN         11  58.6%   811.9       43.78       0.000       489.5       0.000      0.5000E-01   0.000    
   14635   9.314      0.6364E-03 SPRIN         11   0.8%   41.68       502.1       0.000       489.5       0.000      0.5000E-01   0.000    
   14636   9.314      0.6364E-03 SPRIN         11  63.7%   879.5       3.602       0.000       489.5       0.000      0.5000E-01   0.000    
   14637   9.315      0.6364E-03 SPRIN         11   4.8%   95.13       470.3       0.000       489.5       0.000      0.5000E-01   0.000    
   14638   9.316      0.6364E-03 SPRIN         11  51.2%   712.8       102.8       0.000       489.5       0.000      0.5000E-01   0.000    
   14639   9.316      0.6364E-03 SPRIN         11  24.0%   351.0       318.0       0.000       489.5       0.000      0.5000E-01   0.000    
   14640   9.317      0.6364E-03 SPRIN         11  28.0%   404.6       286.1       0.000       489.5       0.000      0.5000E-01   0.000    
   14641   9.317      0.6364E-03 SPRIN         11  47.7%   666.9       130.1       0.000       489.5       0.000      0.5000E-01   0.000    
   14642   9.318      0.6364E-03 SPRIN         11   7.2%   126.6       451.5       0.000       489.5       0.000      0.5000E-01   0.000    
   14643   9.319      0.6364E-03 SPRIN         11  62.7%   866.9       11.09       0.000       489.5       0.000      0.5000E-01   0.000    
   14644   9.319      0.6364E-03 SPRIN         11   0.2%   33.54       506.9       0.000       489.5       0.000      0.5000E-01   0.000    
   14645   9.320      0.6364E-03 SPRIN         11  60.7%   839.6       27.30       0.000       489.5       0.000      0.5000E-01   0.000    
   14646   9.321      0.6364E-03 SPRIN         11  11.0%   177.2       421.5       0.000       489.5       0.000      0.5000E-01   0.000    
   14647   9.321      0.6364E-03 SPRIN         11  42.7%   600.3       169.7       0.000       489.5       0.000      0.5000E-01   0.000    
   14648   9.322      0.6364E-03 SPRIN         11  33.5%   477.6       242.7       0.000       489.5       0.000      0.5000E-01   0.000    
   14649   9.323      0.6364E-03 SPRIN         11  18.8%   282.2       359.0       0.000       489.5       0.000      0.5000E-01   0.000    
   14650   9.323      0.6364E-03 SPRIN         11  55.3%   767.5       70.23       0.000       489.5       0.000      0.5000E-01   0.000    
   14651   9.324      0.6364E-03 SPRIN         11   2.3%   62.37       489.8       0.000       489.5       0.000      0.5000E-01   0.000    
   14652   9.324      0.6364E-03 SPRIN         11  64.1%   885.5      0.8786E-03   0.000       489.5       0.000      0.5000E-01   0.000    
   14653   9.325      0.6364E-03 SPRIN         11   2.4%   63.21       489.3       0.000       489.5       0.000      0.5000E-01   0.000    
   14654   9.326      0.6364E-03 SPRIN         11  55.2%   765.9       71.15       0.000       489.5       0.000      0.5000E-01   0.000    
   14655   9.326      0.6364E-03 SPRIN         11  19.0%   284.3       357.8       0.000       489.5       0.000      0.5000E-01   0.000    
   14656   9.327      0.6364E-03 SPRIN         11  33.3%   475.3       244.1       0.000       489.5       0.000      0.5000E-01   0.000    
   14657   9.328      0.6364E-03 SPRIN         11  42.9%   602.5       168.4       0.000       489.5       0.000      0.5000E-01   0.000    
   14658   9.328      0.6364E-03 SPRIN         11  10.8%   175.5       422.5       0.000       489.5       0.000      0.5000E-01   0.000    
   14659   9.329      0.6364E-03 SPRIN         11  60.8%   840.7       26.70       0.000       489.5       0.000      0.5000E-01   0.000    
   14660   9.330      0.6364E-03 SPRIN         11   0.2%   33.35       507.0       0.000       489.5       0.000      0.5000E-01   0.000    
   14661   9.330      0.6364E-03 SPRIN         11  62.7%   866.2       11.49       0.000       489.5       0.000      0.5000E-01   0.000    
   14662   9.331      0.6364E-03 SPRIN         11   7.3%   128.1       450.7       0.000       489.5       0.000      0.5000E-01   0.000    
   14663   9.331      0.6364E-03 SPRIN         11  47.6%   664.9       131.3       0.000       489.5       0.000      0.5000E-01   0.000    
   14664   9.332      0.6364E-03 SPRIN         11  28.2%   406.9       284.8       0.000       489.5       0.000      0.5000E-01   0.000    
   14665   9.333      0.6364E-03 SPRIN         11  23.8%   348.8       319.3       0.000       489.5       0.000      0.5000E-01   0.000    
   14666   9.333      0.6364E-03 SPRIN         11  51.3%   714.6       101.7       0.000       489.5       0.000      0.5000E-01   0.000    
   14667   9.334      0.6364E-03 SPRIN         11   4.7%   93.96       471.0       0.000       489.5       0.000      0.5000E-01   0.000    
   14668   9.335      0.6364E-03 SPRIN         11  63.7%   879.8       3.381       0.000       489.5       0.000      0.5000E-01   0.000    
   14669   9.335      0.6364E-03 SPRIN         11   0.8%   42.17       501.8       0.000       489.5       0.000      0.5000E-01   0.000    
   14670   9.336      0.6364E-03 SPRIN         11  58.5%   810.7       44.54       0.000       489.5       0.000      0.5000E-01   0.000    
   14671   9.337      0.6364E-03 SPRIN         11  14.3%   222.3       394.6       0.000       489.5       0.000      0.5000E-01   0.000    
   14672   9.337      0.6364E-03 SPRIN         11  38.6%   545.6       202.3       0.000       489.5       0.000      0.5000E-01   0.000    
   14673   9.338      0.6364E-03 SPRIN         11  37.8%   534.1       209.1       0.000       489.5       0.000      0.5000E-01   0.000    
   14674   9.338      0.6364E-03 SPRIN         11  15.1%   232.1       388.8       0.000       489.5       0.000      0.5000E-01   0.000    
   14675   9.339      0.6364E-03 SPRIN         11  58.0%   803.9       48.55       0.000       489.5       0.000      0.5000E-01   0.000    
   14676   9.340      0.6364E-03 SPRIN         11   1.0%   44.86       500.2       0.000       489.5       0.000      0.5000E-01   0.000    
   14677   9.340      0.6364E-03 SPRIN         11  63.8%   881.6       2.343       0.000       489.5       0.000      0.5000E-01   0.000    
   14678   9.341      0.6364E-03 SPRIN         11   4.3%   88.02       474.5       0.000       489.5       0.000      0.5000E-01   0.000    
   14679   9.342      0.6364E-03 SPRIN         11  52.0%   723.8       96.21       0.000       489.5       0.000      0.5000E-01   0.000    
   14680   9.342      0.6364E-03 SPRIN         11  23.0%   337.6       326.0       0.000       489.5       0.000      0.5000E-01   0.000    
   14681   9.343      0.6364E-03 SPRIN         11  29.1%   418.5       277.9       0.000       489.5       0.000      0.5000E-01   0.000    
   14682   9.344      0.6364E-03 SPRIN         11  46.8%   654.6       137.4       0.000       489.5       0.000      0.5000E-01   0.000    
   14683   9.344      0.6364E-03 SPRIN         11   7.8%   135.6       446.2       0.000       489.5       0.000      0.5000E-01   0.000    
   14684   9.345      0.6364E-03 SPRIN         11  62.4%   862.6       13.65       0.000       489.5       0.000      0.5000E-01   0.000    
   CYCLE    TIME      TIME-STEP  ELEMENT          ERROR  I-ENERGY    K-ENERGY T  K-ENERGY R  EXT-WORK     MAS.ERR     TOTAL MASS  MASS ADDED
   14685   9.345      0.6364E-03 SPRIN         11   0.1%   32.57       507.5       0.000       489.5       0.000      0.5000E-01   0.000    
   14686   9.346      0.6364E-03 SPRIN         11  61.1%   845.7       23.68       0.000       489.5       0.000      0.5000E-01   0.000    
   14687   9.347      0.6364E-03 SPRIN         11  10.2%   166.9       427.6       0.000       489.5       0.000      0.5000E-01   0.000    
   14688   9.347      0.6364E-03 SPRIN         11  43.7%   613.4       161.9       0.000       489.5       0.000      0.5000E-01   0.000    
   14689   9.348      0.6364E-03 SPRIN         11  32.5%   463.6       251.0       0.000       489.5       0.000      0.5000E-01   0.000    
   14690   9.349      0.6364E-03 SPRIN         11  19.8%   295.0       351.4       0.000       489.5       0.000      0.5000E-01   0.000    
   14691   9.349      0.6364E-03 SPRIN         11  54.5%   757.7       76.05       0.000       489.5       0.000      0.5000E-01   0.000    
   14692   9.350      0.6364E-03 SPRIN         11   2.7%   67.75       486.6       0.000       489.5       0.000      0.5000E-01   0.000    
   14693   9.351      0.6364E-03 SPRIN         11  64.1%   885.3      0.1145       0.000       489.5       0.000      0.5000E-01   0.000    
   14694   9.351      0.6364E-03 SPRIN         11   2.0%   58.19       492.3       0.000       489.5       0.000      0.5000E-01   0.000    
   14695   9.352      0.6364E-03 SPRIN         11  55.9%   775.5       65.49       0.000       489.5       0.000      0.5000E-01   0.000    
   14696   9.352      0.6364E-03 SPRIN         11  18.1%   271.6       365.3       0.000       489.5       0.000      0.5000E-01   0.000    
   14697   9.353      0.6364E-03 SPRIN         11  34.4%   489.3       235.8       0.000       489.5       0.000      0.5000E-01   0.000    
   14698   9.354      0.6364E-03 SPRIN         11  41.9%   589.3       176.3       0.000       489.5       0.000      0.5000E-01   0.000    
   14699   9.354      0.6364E-03 SPRIN         11  11.6%   186.1       416.2       0.000       489.5       0.000      0.5000E-01   0.000    
   14700   9.355      0.6364E-03 SPRIN         11  60.3%   834.2       30.52       0.000       489.5       0.000      0.5000E-01   0.000    
   14701   9.356      0.6364E-03 SPRIN         11   0.3%   34.70       506.2       0.000       489.5       0.000      0.5000E-01   0.000    
   14702   9.356      0.6364E-03 SPRIN         11  63.0%   870.1       9.152       0.000       489.5       0.000      0.5000E-01   0.000    
   14703   9.357      0.6364E-03 SPRIN         11   6.6%   119.4       455.8       0.000       489.5       0.000      0.5000E-01   0.000    
   14704   9.358      0.6364E-03 SPRIN         11  48.5%   677.0       124.1       0.000       489.5       0.000      0.5000E-01   0.000    
   14705   9.358      0.6364E-03 SPRIN         11  27.2%   393.1       293.0       0.000       489.5       0.000      0.5000E-01   0.000    
   14706   9.359      0.6364E-03 SPRIN         11  24.9%   362.4       311.3       0.000       489.5       0.000      0.5000E-01   0.000    
   14707   9.359      0.6364E-03 SPRIN         11  50.5%   703.3       108.4       0.000       489.5       0.000      0.5000E-01   0.000    
   14708   9.360      0.6364E-03 SPRIN         11   5.3%   101.4       466.6       0.000       489.5       0.000      0.5000E-01   0.000    
   14709   9.361      0.6364E-03 SPRIN         11  63.5%   877.4       4.863       0.000       489.5       0.000      0.5000E-01   0.000    
   14710   9.361      0.6364E-03 SPRIN         11   0.6%   39.36       503.5       0.000       489.5       0.000      0.5000E-01   0.000    
   14711   9.362      0.6364E-03 SPRIN         11  59.1%   818.4       39.96       0.000       489.5       0.000      0.5000E-01   0.000    
   14712   9.363      0.6364E-03 SPRIN         11  13.5%   210.8       401.4       0.000       489.5       0.000      0.5000E-01   0.000    
   14713   9.363      0.6364E-03 SPRIN         11  39.6%   559.2       194.2       0.000       489.5       0.000      0.5000E-01   0.000    
   14714   9.364      0.6364E-03 SPRIN         11  36.7%   520.3       217.3       0.000       489.5       0.000      0.5000E-01   0.000    
   14715   9.365      0.6364E-03 SPRIN         11  16.0%   244.1       381.7       0.000       489.5       0.000      0.5000E-01   0.000    
   14716   9.365      0.6364E-03 SPRIN         11  57.4%   795.5       53.54       0.000       489.5       0.000      0.5000E-01   0.000    
   14717   9.366      0.6364E-03 SPRIN         11   1.3%   48.48       498.0       0.000       489.5       0.000      0.5000E-01   0.000    
   14718   9.366      0.6364E-03 SPRIN         11  64.0%   883.3       1.354       0.000       489.5       0.000      0.5000E-01   0.000    
   14719   9.367      0.6364E-03 SPRIN         11   3.8%   81.32       478.5       0.000       489.5       0.000      0.5000E-01   0.000    
   14720   9.368      0.6364E-03 SPRIN         11  52.8%   734.6       89.79       0.000       489.5       0.000      0.5000E-01   0.000    
   14721   9.368      0.6364E-03 SPRIN         11  22.0%   324.3       333.9       0.000       489.5       0.000      0.5000E-01   0.000    
   14722   9.369      0.6364E-03 SPRIN         11  30.1%   432.4       269.6       0.000       489.5       0.000      0.5000E-01   0.000    
   14723   9.370      0.6364E-03 SPRIN         11  45.9%   642.1       144.8       0.000       489.5       0.000      0.5000E-01   0.000    
   14724   9.370      0.6364E-03 SPRIN         11   8.5%   144.8       440.7       0.000       489.5       0.000      0.5000E-01   0.000    
   14725   9.371      0.6364E-03 SPRIN         11  62.1%   857.9       16.46       0.000       489.5       0.000      0.5000E-01   0.000    
   14726   9.372      0.6364E-03 SPRIN         11   0.1%   32.06       507.8       0.000       489.5       0.000      0.5000E-01   0.000    
   14727   9.372      0.6364E-03 SPRIN         11  61.6%   851.4       20.31       0.000       489.5       0.000      0.5000E-01   0.000    
   14728   9.373      0.6364E-03 SPRIN         11   9.4%   156.8       433.6       0.000       489.5       0.000      0.5000E-01   0.000    
   14729   9.373      0.6364E-03 SPRIN         11  44.7%   626.3       154.2       0.000       489.5       0.000      0.5000E-01   0.000    
   14730   9.374      0.6364E-03 SPRIN         11  31.4%   449.7       259.3       0.000       489.5       0.000      0.5000E-01   0.000    
   14731   9.375      0.6364E-03 SPRIN         11  20.8%   308.0       343.7       0.000       489.5       0.000      0.5000E-01   0.000    
   14732   9.375      0.6364E-03 SPRIN         11  53.8%   747.6       82.06       0.000       489.5       0.000      0.5000E-01   0.000    
   14733   9.376      0.6364E-03 SPRIN         11   3.2%   73.54       483.1       0.000       489.5       0.000      0.5000E-01   0.000    
   14734   9.377      0.6364E-03 SPRIN         11  64.1%   884.7      0.4989       0.000       489.5       0.000      0.5000E-01   0.000    
   14735   9.377      0.6364E-03 SPRIN         11   1.7%   53.59       495.0       0.000       489.5       0.000      0.5000E-01   0.000    
   14736   9.378      0.6364E-03 SPRIN         11  56.6%   784.6       60.03       0.000       489.5       0.000      0.5000E-01   0.000    
   14737   9.379      0.6364E-03 SPRIN         11  17.1%   259.2       372.7       0.000       489.5       0.000      0.5000E-01   0.000    
   14738   9.379      0.6364E-03 SPRIN         11  35.4%   503.1       227.5       0.000       489.5       0.000      0.5000E-01   0.000    
   14739   9.380      0.6364E-03 SPRIN         11  40.9%   575.9       184.2       0.000       489.5       0.000      0.5000E-01   0.000    
   CYCLE    TIME      TIME-STEP  ELEMENT          ERROR  I-ENERGY    K-ENERGY T  K-ENERGY R  EXT-WORK     MAS.ERR     TOTAL MASS  MASS ADDED
   14740   9.380      0.6364E-03 SPRIN         11  12.4%   196.9       409.7       0.000       489.5       0.000      0.5000E-01   0.000    
   14741   9.381      0.6364E-03 SPRIN         11  59.8%   827.4       34.58       0.000       489.5       0.000      0.5000E-01   0.000    
   14742   9.382      0.6364E-03 SPRIN         11   0.4%   36.50       505.2       0.000       489.5       0.000      0.5000E-01   0.000    
   14743   9.382      0.6364E-03 SPRIN         11  63.2%   873.6       7.076       0.000       489.5       0.000      0.5000E-01   0.000    
   14744   9.383      0.6364E-03 SPRIN         11   6.0%   111.1       460.8       0.000       489.5       0.000      0.5000E-01   0.000    
   14745   9.384      0.6364E-03 SPRIN         11  49.4%   688.9       117.0       0.000       489.5       0.000      0.5000E-01   0.000    
   14746   9.384      0.6364E-03 SPRIN         11  26.1%   379.3       301.2       0.000       489.5       0.000      0.5000E-01   0.000    
   14747   9.385      0.6364E-03 SPRIN         11  25.9%   376.0       303.2       0.000       489.5       0.000      0.5000E-01   0.000    
   14748   9.386      0.6364E-03 SPRIN         11  49.6%   691.7       115.3       0.000       489.5       0.000      0.5000E-01   0.000    
   14749   9.386      0.6364E-03 SPRIN         11   5.9%   109.2       461.9       0.000       489.5       0.000      0.5000E-01   0.000    
   14750   9.387      0.6364E-03 SPRIN         11  63.3%   874.4       6.611       0.000       489.5       0.000      0.5000E-01   0.000    
   14751   9.387      0.6364E-03 SPRIN         11   0.4%   37.00       504.9       0.000       489.5       0.000      0.5000E-01   0.000    
   14752   9.388      0.6364E-03 SPRIN         11  59.6%   825.7       35.61       0.000       489.5       0.000      0.5000E-01   0.000    
   14753   9.389      0.6364E-03 SPRIN         11  12.6%   199.6       408.1       0.000       489.5       0.000      0.5000E-01   0.000    
   14754   9.389      0.6364E-03 SPRIN         11  40.6%   572.7       186.2       0.000       489.5       0.000      0.5000E-01   0.000    
   14755   9.390      0.6364E-03 SPRIN         11  35.7%   506.5       225.5       0.000       489.5       0.000      0.5000E-01   0.000    
   14756   9.391      0.6364E-03 SPRIN         11  16.9%   256.2       374.4       0.000       489.5       0.000      0.5000E-01   0.000    
   14757   9.391      0.6364E-03 SPRIN         11  56.7%   786.8       58.74       0.000       489.5       0.000      0.5000E-01   0.000    
   14758   9.392      0.6364E-03 SPRIN         11   1.6%   52.54       495.6       0.000       489.5       0.000      0.5000E-01   0.000    
   14759   9.393      0.6364E-03 SPRIN         11  64.1%   884.5      0.6332       0.000       489.5       0.000      0.5000E-01   0.000    
   14760   9.393      0.6364E-03 SPRIN         11   3.3%   75.01       482.3       0.000       489.5       0.000      0.5000E-01   0.000    
   14761   9.394      0.6364E-03 SPRIN         11  53.6%   745.1       83.55       0.000       489.5       0.000      0.5000E-01   0.000    
   14762   9.394      0.6364E-03 SPRIN         11  21.0%   311.1       341.8       0.000       489.5       0.000      0.5000E-01   0.000    
   14763   9.395      0.6364E-03 SPRIN         11  31.2%   446.3       261.3       0.000       489.5       0.000      0.5000E-01   0.000    
   14764   9.396      0.6364E-03 SPRIN         11  44.9%   629.4       152.4       0.000       489.5       0.000      0.5000E-01   0.000    
   14765   9.396      0.6364E-03 SPRIN         11   9.3%   154.5       435.0       0.000       489.5       0.000      0.5000E-01   0.000    
   14766   9.397      0.6364E-03 SPRIN         11  61.7%   852.7       19.52       0.000       489.5       0.000      0.5000E-01   0.000    
   14767   9.398      0.6364E-03 SPRIN         11   0.1%   32.01       507.8       0.000       489.5       0.000      0.5000E-01   0.000    
   14768   9.398      0.6364E-03 SPRIN         11  62.0%   856.7       17.18       0.000       489.5       0.000      0.5000E-01   0.000    
   14769   9.399      0.6364E-03 SPRIN         11   8.7%   147.2       439.3       0.000       489.5       0.000      0.5000E-01   0.000    
   14770   9.400      0.6364E-03 SPRIN         11  45.6%   639.1       146.6       0.000       489.5       0.000      0.5000E-01   0.000    
   14771   9.400      0.6364E-03 SPRIN         11  30.4%   435.8       267.6       0.000       489.5       0.000      0.5000E-01   0.000    
     ANIMATION FILE: SPR_PRE_2FLAGA048 WRITTEN
   14772   9.401      0.6364E-03 SPRIN         11  21.8%   321.1       335.8       0.000       489.5       0.000      0.5000E-01   0.000    
   14773   9.401      0.6364E-03 SPRIN         11  53.0%   737.2       88.26       0.000       489.5       0.000      0.5000E-01   0.000    
   14774   9.402      0.6364E-03 SPRIN         11   3.6%   79.75       479.4       0.000       489.5       0.000      0.5000E-01   0.000    
   14775   9.403      0.6364E-03 SPRIN         11  64.0%   883.6       1.154       0.000       489.5       0.000      0.5000E-01   0.000    
   14776   9.403      0.6364E-03 SPRIN         11   1.4%   49.43       497.5       0.000       489.5       0.000      0.5000E-01   0.000    
   14777   9.404      0.6364E-03 SPRIN         11  57.2%   793.5       54.78       0.000       489.5       0.000      0.5000E-01   0.000    
   14778   9.405      0.6364E-03 SPRIN         11  16.2%   247.0       379.9       0.000       489.5       0.000      0.5000E-01   0.000    
   14779   9.405      0.6364E-03 SPRIN         11  36.5%   517.0       219.3       0.000       489.5       0.000      0.5000E-01   0.000    
   14780   9.406      0.6364E-03 SPRIN         11  39.9%   562.5       192.2       0.000       489.5       0.000      0.5000E-01   0.000    
   14781   9.407      0.6364E-03 SPRIN         11  13.3%   208.1       403.1       0.000       489.5       0.000      0.5000E-01   0.000    
   14782   9.407      0.6364E-03 SPRIN         11  59.2%   820.2       38.88       0.000       489.5       0.000      0.5000E-01   0.000    
   14783   9.408      0.6364E-03 SPRIN         11   0.6%   38.75       503.8       0.000       489.5       0.000      0.5000E-01   0.000    
   14784   9.408      0.6364E-03 SPRIN         11  63.5%   876.7       5.264       0.000       489.5       0.000      0.5000E-01   0.000    
   14785   9.409      0.6364E-03 SPRIN         11   5.4%   103.2       465.5       0.000       489.5       0.000      0.5000E-01   0.000    
   14786   9.410      0.6364E-03 SPRIN         11  50.2%   700.5       110.1       0.000       489.5       0.000      0.5000E-01   0.000    
   14787   9.410      0.6364E-03 SPRIN         11  25.1%   365.7       309.3       0.000       489.5       0.000      0.5000E-01   0.000    
   14788   9.411      0.6364E-03 SPRIN         11  26.9%   389.7       295.0       0.000       489.5       0.000      0.5000E-01   0.000    
   14789   9.412      0.6364E-03 SPRIN         11  48.7%   679.9       122.3       0.000       489.5       0.000      0.5000E-01   0.000    
   14790   9.412      0.6364E-03 SPRIN         11   6.5%   117.4       457.0       0.000       489.5       0.000      0.5000E-01   0.000    
   14791   9.413      0.6364E-03 SPRIN         11  63.0%   871.0       8.623       0.000       489.5       0.000      0.5000E-01   0.000    
   14792   9.414      0.6364E-03 SPRIN         11   0.3%   35.09       506.0       0.000       489.5       0.000      0.5000E-01   0.000    
   14793   9.414      0.6364E-03 SPRIN         11  60.2%   832.6       31.49       0.000       489.5       0.000      0.5000E-01   0.000    
   14794   9.415      0.6364E-03 SPRIN         11  11.8%   188.7       414.6       0.000       489.5       0.000      0.5000E-01   0.000    
   CYCLE    TIME      TIME-STEP  ELEMENT          ERROR  I-ENERGY    K-ENERGY T  K-ENERGY R  EXT-WORK     MAS.ERR     TOTAL MASS  MASS ADDED
   14795   9.415      0.6364E-03 SPRIN         11  41.7%   586.0       178.2       0.000       489.5       0.000      0.5000E-01   0.000    
   14796   9.416      0.6364E-03 SPRIN         11  34.6%   492.6       233.8       0.000       489.5       0.000      0.5000E-01   0.000    
   14797   9.417      0.6364E-03 SPRIN         11  17.8%   268.6       367.1       0.000       489.5       0.000      0.5000E-01   0.000    
   14798   9.417      0.6364E-03 SPRIN         11  56.0%   777.7       64.15       0.000       489.5       0.000      0.5000E-01   0.000    
   14799   9.418      0.6364E-03 SPRIN         11   1.9%   57.03       493.0       0.000       489.5       0.000      0.5000E-01   0.000    
   14800   9.419      0.6364E-03 SPRIN         11  64.1%   885.2      0.1830       0.000       489.5       0.000      0.5000E-01   0.000    
   14801   9.419      0.6364E-03 SPRIN         11   2.8%   69.12       485.8       0.000       489.5       0.000      0.5000E-01   0.000    
   14802   9.420      0.6364E-03 SPRIN         11  54.4%   755.3       77.49       0.000       489.5       0.000      0.5000E-01   0.000    
   14803   9.421      0.6364E-03 SPRIN         11  20.0%   298.1       349.5       0.000       489.5       0.000      0.5000E-01   0.000    
   14804   9.421      0.6364E-03 SPRIN         11  32.2%   460.3       253.0       0.000       489.5       0.000      0.5000E-01   0.000    
   14805   9.422      0.6364E-03 SPRIN         11  43.9%   616.6       160.0       0.000       489.5       0.000      0.5000E-01   0.000    
   14806   9.422      0.6364E-03 SPRIN         11  10.0%   164.4       429.1       0.000       489.5       0.000      0.5000E-01   0.000    
   14807   9.423      0.6364E-03 SPRIN         11  61.3%   847.1       22.84       0.000       489.5       0.000      0.5000E-01   0.000    
   14808   9.424      0.6364E-03 SPRIN         11   0.1%   32.41       507.6       0.000       489.5       0.000      0.5000E-01   0.000    
   14809   9.424      0.6364E-03 SPRIN         11  62.3%   861.5       14.31       0.000       489.5       0.000      0.5000E-01   0.000    
   14810   9.425      0.6364E-03 SPRIN         11   8.0%   137.8       444.9       0.000       489.5       0.000      0.5000E-01   0.000    
   14811   9.426      0.6364E-03 SPRIN         11  46.6%   651.6       139.2       0.000       489.5       0.000      0.5000E-01   0.000    
   14812   9.426      0.6364E-03 SPRIN         11  29.3%   421.9       275.9       0.000       489.5       0.000      0.5000E-01   0.000    
   14813   9.427      0.6364E-03 SPRIN         11  22.8%   334.3       328.0       0.000       489.5       0.000      0.5000E-01   0.000    
   14814   9.428      0.6364E-03 SPRIN         11  52.2%   726.5       94.63       0.000       489.5       0.000      0.5000E-01   0.000    
   14815   9.428      0.6364E-03 SPRIN         11   4.1%   86.36       475.5       0.000       489.5       0.000      0.5000E-01   0.000    
   14816   9.429      0.6364E-03 SPRIN         11  63.9%   882.0       2.078       0.000       489.5       0.000      0.5000E-01   0.000    
   14817   9.429      0.6364E-03 SPRIN         11   1.1%   45.70       499.7       0.000       489.5       0.000      0.5000E-01   0.000    
   14818   9.430      0.6364E-03 SPRIN         11  57.9%   801.9       49.74       0.000       489.5       0.000      0.5000E-01   0.000    
   14819   9.431      0.6364E-03 SPRIN         11  15.3%   235.0       387.1       0.000       489.5       0.000      0.5000E-01   0.000    
   14820   9.431      0.6364E-03 SPRIN         11  37.5%   530.8       211.1       0.000       489.5       0.000      0.5000E-01   0.000    
   14821   9.432      0.6364E-03 SPRIN         11  38.9%   548.9       200.3       0.000       489.5       0.000      0.5000E-01   0.000    
   14822   9.433      0.6364E-03 SPRIN         11  14.1%   219.5       396.3       0.000       489.5       0.000      0.5000E-01   0.000    
   14823   9.433      0.6364E-03 SPRIN         11  58.7%   812.6       43.40       0.000       489.5       0.000      0.5000E-01   0.000    
   14824   9.434      0.6364E-03 SPRIN         11   0.8%   41.44       502.2       0.000       489.5       0.000      0.5000E-01   0.000    
   14825   9.435      0.6364E-03 SPRIN         11  63.7%   879.3       3.717       0.000       489.5       0.000      0.5000E-01   0.000    
   14826   9.435      0.6364E-03 SPRIN         11   4.8%   95.73       469.9       0.000       489.5       0.000      0.5000E-01   0.000    
   14827   9.436      0.6364E-03 SPRIN         11  51.1%   711.9       103.3       0.000       489.5       0.000      0.5000E-01   0.000    
   14828   9.436      0.6364E-03 SPRIN         11  24.1%   352.1       317.4       0.000       489.5       0.000      0.5000E-01   0.000    
   14829   9.437      0.6364E-03 SPRIN         11  27.9%   403.5       286.8       0.000       489.5       0.000      0.5000E-01   0.000    
   14830   9.438      0.6364E-03 SPRIN         11  47.8%   667.9       129.5       0.000       489.5       0.000      0.5000E-01   0.000    
   14831   9.438      0.6364E-03 SPRIN         11   7.1%   125.9       452.0       0.000       489.5       0.000      0.5000E-01   0.000    
   14832   9.439      0.6364E-03 SPRIN         11  62.8%   867.2       10.90       0.000       489.5       0.000      0.5000E-01   0.000    
   14833   9.440      0.6364E-03 SPRIN         11   0.2%   33.64       506.9       0.000       489.5       0.000      0.5000E-01   0.000    
   14834   9.440      0.6364E-03 SPRIN         11  60.6%   839.1       27.61       0.000       489.5       0.000      0.5000E-01   0.000    
   14835   9.441      0.6364E-03 SPRIN         11  11.0%   178.0       421.0       0.000       489.5       0.000      0.5000E-01   0.000    
   14836   9.442      0.6364E-03 SPRIN         11  42.6%   599.3       170.3       0.000       489.5       0.000      0.5000E-01   0.000    
   14837   9.442      0.6364E-03 SPRIN         11  33.6%   478.7       242.0       0.000       489.5       0.000      0.5000E-01   0.000    
   14838   9.443      0.6364E-03 SPRIN         11  18.8%   281.2       359.6       0.000       489.5       0.000      0.5000E-01   0.000    
   14839   9.443      0.6364E-03 SPRIN         11  55.3%   768.3       69.76       0.000       489.5       0.000      0.5000E-01   0.000    
   14840   9.444      0.6364E-03 SPRIN         11   2.3%   61.95       490.0       0.000       489.5       0.000      0.5000E-01   0.000    
   14841   9.445      0.6364E-03 SPRIN         11  64.1%   885.5      0.3576E-02   0.000       489.5       0.000      0.5000E-01   0.000    
   14842   9.445      0.6364E-03 SPRIN         11   2.4%   63.64       489.0       0.000       489.5       0.000      0.5000E-01   0.000    
   14843   9.446      0.6364E-03 SPRIN         11  55.1%   765.2       71.62       0.000       489.5       0.000      0.5000E-01   0.000    
   14844   9.447      0.6364E-03 SPRIN         11  19.1%   285.3       357.1       0.000       489.5       0.000      0.5000E-01   0.000    
   14845   9.447      0.6364E-03 SPRIN         11  33.3%   474.2       244.7       0.000       489.5       0.000      0.5000E-01   0.000    
   14846   9.448      0.6364E-03 SPRIN         11  43.0%   603.5       167.8       0.000       489.5       0.000      0.5000E-01   0.000    
   14847   9.449      0.6364E-03 SPRIN         11  10.8%   174.6       423.0       0.000       489.5       0.000      0.5000E-01   0.000    
   14848   9.449      0.6364E-03 SPRIN         11  60.8%   841.2       26.40       0.000       489.5       0.000      0.5000E-01   0.000    
   14849   9.450      0.6364E-03 SPRIN         11   0.2%   33.26       507.1       0.000       489.5       0.000      0.5000E-01   0.000    
   CYCLE    TIME      TIME-STEP  ELEMENT          ERROR  I-ENERGY    K-ENERGY T  K-ENERGY R  EXT-WORK     MAS.ERR     TOTAL MASS  MASS ADDED
   14850   9.450      0.6364E-03 SPRIN         11  62.7%   865.9       11.69       0.000       489.5       0.000      0.5000E-01   0.000    
   14851   9.451      0.6364E-03 SPRIN         11   7.3%   128.8       450.3       0.000       489.5       0.000      0.5000E-01   0.000    
   14852   9.452      0.6364E-03 SPRIN         11  47.5%   663.9       131.9       0.000       489.5       0.000      0.5000E-01   0.000    
   14853   9.452      0.6364E-03 SPRIN         11  28.3%   408.0       284.1       0.000       489.5       0.000      0.5000E-01   0.000    
   14854   9.453      0.6364E-03 SPRIN         11  23.8%   347.7       320.0       0.000       489.5       0.000      0.5000E-01   0.000    
   14855   9.454      0.6364E-03 SPRIN         11  51.4%   715.5       101.2       0.000       489.5       0.000      0.5000E-01   0.000    
   14856   9.454      0.6364E-03 SPRIN         11   4.7%   93.36       471.3       0.000       489.5       0.000      0.5000E-01   0.000    
   14857   9.455      0.6364E-03 SPRIN         11  63.7%   880.0       3.271       0.000       489.5       0.000      0.5000E-01   0.000    
   14858   9.456      0.6364E-03 SPRIN         11   0.8%   42.42       501.7       0.000       489.5       0.000      0.5000E-01   0.000    
   14859   9.456      0.6364E-03 SPRIN         11  58.5%   810.0       44.92       0.000       489.5       0.000      0.5000E-01   0.000    
   14860   9.457      0.6364E-03 SPRIN         11  14.4%   223.3       394.0       0.000       489.5       0.000      0.5000E-01   0.000    
   14861   9.457      0.6364E-03 SPRIN         11  38.5%   544.5       202.9       0.000       489.5       0.000      0.5000E-01   0.000    
   14862   9.458      0.6364E-03 SPRIN         11  37.8%   535.2       208.4       0.000       489.5       0.000      0.5000E-01   0.000    
   14863   9.459      0.6364E-03 SPRIN         11  15.0%   231.2       389.3       0.000       489.5       0.000      0.5000E-01   0.000    
   14864   9.459      0.6364E-03 SPRIN         11  58.1%   804.6       48.15       0.000       489.5       0.000      0.5000E-01   0.000    
   14865   9.460      0.6364E-03 SPRIN         11   1.0%   44.58       500.4       0.000       489.5       0.000      0.5000E-01   0.000    
   14866   9.461      0.6364E-03 SPRIN         11  63.8%   881.4       2.436       0.000       489.5       0.000      0.5000E-01   0.000    
   14867   9.461      0.6364E-03 SPRIN         11   4.3%   88.59       474.2       0.000       489.5       0.000      0.5000E-01   0.000    
   14868   9.462      0.6364E-03 SPRIN         11  51.9%   722.9       96.74       0.000       489.5       0.000      0.5000E-01   0.000    
   14869   9.463      0.6364E-03 SPRIN         11  23.1%   338.7       325.4       0.000       489.5       0.000      0.5000E-01   0.000    
   14870   9.463      0.6364E-03 SPRIN         11  29.0%   417.4       278.6       0.000       489.5       0.000      0.5000E-01   0.000    
   14871   9.464      0.6364E-03 SPRIN         11  46.9%   655.6       136.8       0.000       489.5       0.000      0.5000E-01   0.000    
   14872   9.464      0.6364E-03 SPRIN         11   7.8%   134.8       446.7       0.000       489.5       0.000      0.5000E-01   0.000    
   14873   9.465      0.6364E-03 SPRIN         11  62.4%   863.0       13.43       0.000       489.5       0.000      0.5000E-01   0.000    
   14874   9.466      0.6364E-03 SPRIN         11   0.1%   32.64       507.5       0.000       489.5       0.000      0.5000E-01   0.000    
   14875   9.466      0.6364E-03 SPRIN         11  61.1%   845.2       23.97       0.000       489.5       0.000      0.5000E-01   0.000    
   14876   9.467      0.6364E-03 SPRIN         11  10.2%   167.7       427.1       0.000       489.5       0.000      0.5000E-01   0.000    
   14877   9.468      0.6364E-03 SPRIN         11  43.6%   612.4       162.5       0.000       489.5       0.000      0.5000E-01   0.000    
   14878   9.468      0.6364E-03 SPRIN         11  32.5%   464.8       250.3       0.000       489.5       0.000      0.5000E-01   0.000    
   14879   9.469      0.6364E-03 SPRIN         11  19.7%   293.9       352.0       0.000       489.5       0.000      0.5000E-01   0.000    
   14880   9.470      0.6364E-03 SPRIN         11  54.6%   758.5       75.56       0.000       489.5       0.000      0.5000E-01   0.000    
   14881   9.470      0.6364E-03 SPRIN         11   2.7%   67.29       486.8       0.000       489.5       0.000      0.5000E-01   0.000    
   14882   9.471      0.6364E-03 SPRIN         11  64.1%   885.4      0.9501E-01   0.000       489.5       0.000      0.5000E-01   0.000    
   14883   9.471      0.6364E-03 SPRIN         11   2.1%   58.58       492.0       0.000       489.5       0.000      0.5000E-01   0.000    
   14884   9.472      0.6364E-03 SPRIN         11  55.8%   774.7       65.95       0.000       489.5       0.000      0.5000E-01   0.000    
   14885   9.473      0.6364E-03 SPRIN         11  18.1%   272.7       364.7       0.000       489.5       0.000      0.5000E-01   0.000    
   14886   9.473      0.6364E-03 SPRIN         11  34.3%   488.1       236.5       0.000       489.5       0.000      0.5000E-01   0.000    
   14887   9.474      0.6364E-03 SPRIN         11  42.0%   590.4       175.6       0.000       489.5       0.000      0.5000E-01   0.000    
   14888   9.475      0.6364E-03 SPRIN         11  11.6%   185.2       416.7       0.000       489.5       0.000      0.5000E-01   0.000    
   14889   9.475      0.6364E-03 SPRIN         11  60.3%   834.8       30.20       0.000       489.5       0.000      0.5000E-01   0.000    
   14890   9.476      0.6364E-03 SPRIN         11   0.3%   34.57       506.3       0.000       489.5       0.000      0.5000E-01   0.000    
   14891   9.477      0.6364E-03 SPRIN         11  63.0%   869.8       9.334       0.000       489.5       0.000      0.5000E-01   0.000    
   14892   9.477      0.6364E-03 SPRIN         11   6.7%   120.1       455.4       0.000       489.5       0.000      0.5000E-01   0.000    
   14893   9.478      0.6364E-03 SPRIN         11  48.4%   676.0       124.6       0.000       489.5       0.000      0.5000E-01   0.000    
   14894   9.478      0.6364E-03 SPRIN         11  27.2%   394.2       292.3       0.000       489.5       0.000      0.5000E-01   0.000    
   14895   9.479      0.6364E-03 SPRIN         11  24.8%   361.3       311.9       0.000       489.5       0.000      0.5000E-01   0.000    
   14896   9.480      0.6364E-03 SPRIN         11  50.5%   704.2       107.9       0.000       489.5       0.000      0.5000E-01   0.000    
   14897   9.480      0.6364E-03 SPRIN         11   5.2%   100.8       466.9       0.000       489.5       0.000      0.5000E-01   0.000    
   14898   9.481      0.6364E-03 SPRIN         11  63.5%   877.6       4.732       0.000       489.5       0.000      0.5000E-01   0.000    
   14899   9.482      0.6364E-03 SPRIN         11   0.6%   39.57       503.3       0.000       489.5       0.000      0.5000E-01   0.000    
   14900   9.482      0.6364E-03 SPRIN         11  59.0%   817.8       40.32       0.000       489.5       0.000      0.5000E-01   0.000    
   14901   9.483      0.6364E-03 SPRIN         11  13.6%   211.8       400.9       0.000       489.5       0.000      0.5000E-01   0.000    
   14902   9.484      0.6364E-03 SPRIN         11  39.6%   558.1       194.8       0.000       489.5       0.000      0.5000E-01   0.000    
   14903   9.484      0.6364E-03 SPRIN         11  36.8%   521.5       216.6       0.000       489.5       0.000      0.5000E-01   0.000    
   14904   9.485      0.6364E-03 SPRIN         11  15.9%   243.1       382.3       0.000       489.5       0.000      0.5000E-01   0.000    
   CYCLE    TIME      TIME-STEP  ELEMENT          ERROR  I-ENERGY    K-ENERGY T  K-ENERGY R  EXT-WORK     MAS.ERR     TOTAL MASS  MASS ADDED
   14905   9.485      0.6364E-03 SPRIN         11  57.4%   796.2       53.12       0.000       489.5       0.000      0.5000E-01   0.000    
   14906   9.486      0.6364E-03 SPRIN         11   1.3%   48.17       498.2       0.000       489.5       0.000      0.5000E-01   0.000    
   14907   9.487      0.6364E-03 SPRIN         11  64.0%   883.1       1.425       0.000       489.5       0.000      0.5000E-01   0.000    
   14908   9.487      0.6364E-03 SPRIN         11   3.8%   81.85       478.2       0.000       489.5       0.000      0.5000E-01   0.000    
   14909   9.488      0.6364E-03 SPRIN         11  52.7%   733.7       90.31       0.000       489.5       0.000      0.5000E-01   0.000    
   14910   9.489      0.6364E-03 SPRIN         11  22.1%   325.4       333.3       0.000       489.5       0.000      0.5000E-01   0.000    
   14911   9.489      0.6364E-03 SPRIN         11  30.0%   431.3       270.3       0.000       489.5       0.000      0.5000E-01   0.000    
   14912   9.490      0.6364E-03 SPRIN         11  45.9%   643.2       144.2       0.000       489.5       0.000      0.5000E-01   0.000    
   14913   9.491      0.6364E-03 SPRIN         11   8.5%   144.1       441.2       0.000       489.5       0.000      0.5000E-01   0.000    
   14914   9.491      0.6364E-03 SPRIN         11  62.1%   858.3       16.22       0.000       489.5       0.000      0.5000E-01   0.000    
   14915   9.492      0.6364E-03 SPRIN         11   0.1%   32.09       507.8       0.000       489.5       0.000      0.5000E-01   0.000    
   14916   9.492      0.6364E-03 SPRIN         11  61.5%   851.0       20.57       0.000       489.5       0.000      0.5000E-01   0.000    
   14917   9.493      0.6364E-03 SPRIN         11   9.5%   157.6       433.1       0.000       489.5       0.000      0.5000E-01   0.000    
   14918   9.494      0.6364E-03 SPRIN         11  44.6%   625.3       154.8       0.000       489.5       0.000      0.5000E-01   0.000    
   14919   9.494      0.6364E-03 SPRIN         11  31.5%   450.8       258.6       0.000       489.5       0.000      0.5000E-01   0.000    
   14920   9.495      0.6364E-03 SPRIN         11  20.7%   306.9       344.3       0.000       489.5       0.000      0.5000E-01   0.000    
   14921   9.496      0.6364E-03 SPRIN         11  53.8%   748.4       81.56       0.000       489.5       0.000      0.5000E-01   0.000    
   14922   9.496      0.6364E-03 SPRIN         11   3.1%   73.05       483.4       0.000       489.5       0.000      0.5000E-01   0.000    
   14923   9.497      0.6364E-03 SPRIN         11  64.1%   884.8      0.4572       0.000       489.5       0.000      0.5000E-01   0.000    
   14924   9.498      0.6364E-03 SPRIN         11   1.7%   53.95       494.8       0.000       489.5       0.000      0.5000E-01   0.000    
   14925   9.498      0.6364E-03 SPRIN         11  56.5%   783.9       60.47       0.000       489.5       0.000      0.5000E-01   0.000    
   14926   9.499      0.6364E-03 SPRIN         11  17.2%   260.2       372.1       0.000       489.5       0.000      0.5000E-01   0.000    
   14927   9.499      0.6364E-03 SPRIN         11  35.3%   502.0       228.2       0.000       489.5       0.000      0.5000E-01   0.000    
   14928   9.500      0.6364E-03 SPRIN         11  41.0%   577.0       183.6       0.000       489.5       0.000      0.5000E-01   0.000    
   14929   9.501      0.6364E-03 SPRIN         11  12.4%   196.0       410.2       0.000       489.5       0.000      0.5000E-01   0.000    
   14930   9.501      0.6364E-03 SPRIN         11  59.8%   828.0       34.24       0.000       489.5       0.000      0.5000E-01   0.000    
   14931   9.502      0.6364E-03 SPRIN         11   0.4%   36.33       505.3       0.000       489.5       0.000      0.5000E-01   0.000    
   14932   9.503      0.6364E-03 SPRIN         11  63.2%   873.4       7.236       0.000       489.5       0.000      0.5000E-01   0.000    
   14933   9.503      0.6364E-03 SPRIN         11   6.1%   111.8       460.4       0.000       489.5       0.000      0.5000E-01   0.000    
   14934   9.504      0.6364E-03 SPRIN         11  49.3%   687.9       117.6       0.000       489.5       0.000      0.5000E-01   0.000    
   14935   9.505      0.6364E-03 SPRIN         11  26.2%   380.5       300.5       0.000       489.5       0.000      0.5000E-01   0.000    
   14936   9.505      0.6364E-03 SPRIN         11  25.8%   374.9       303.8       0.000       489.5       0.000      0.5000E-01   0.000    
   14937   9.506      0.6364E-03 SPRIN         11  49.7%   692.7       114.7       0.000       489.5       0.000      0.5000E-01   0.000    
   14938   9.506      0.6364E-03 SPRIN         11   5.8%   108.5       462.3       0.000       489.5       0.000      0.5000E-01   0.000    
   14939   9.507      0.6364E-03 SPRIN         11  63.3%   874.7       6.458       0.000       489.5       0.000      0.5000E-01   0.000    
   14940   9.508      0.6364E-03 SPRIN         11   0.4%   37.18       504.8       0.000       489.5       0.000      0.5000E-01   0.000    
   14941   9.508      0.6364E-03 SPRIN         11  59.6%   825.1       35.95       0.000       489.5       0.000      0.5000E-01   0.000    
   14942   9.509      0.6364E-03 SPRIN         11  12.7%   200.5       407.6       0.000       489.5       0.000      0.5000E-01   0.000    
   14943   9.510      0.6364E-03 SPRIN         11  40.6%   571.6       186.8       0.000       489.5       0.000      0.5000E-01   0.000    
   14944   9.510      0.6364E-03 SPRIN         11  35.8%   507.6       224.8       0.000       489.5       0.000      0.5000E-01   0.000    
   14945   9.511      0.6364E-03 SPRIN         11  16.8%   255.2       375.0       0.000       489.5       0.000      0.5000E-01   0.000    
   14946   9.512      0.6364E-03 SPRIN         11  56.8%   787.5       58.30       0.000       489.5       0.000      0.5000E-01   0.000    
   14947   9.512      0.6364E-03 SPRIN         11   1.6%   52.19       495.8       0.000       489.5       0.000      0.5000E-01   0.000    
   14948   9.513      0.6364E-03 SPRIN         11  64.0%   884.4      0.6821       0.000       489.5       0.000      0.5000E-01   0.000    
   14949   9.513      0.6364E-03 SPRIN         11   3.3%   75.52       482.0       0.000       489.5       0.000      0.5000E-01   0.000    
   14950   9.514      0.6364E-03 SPRIN         11  53.5%   744.3       84.06       0.000       489.5       0.000      0.5000E-01   0.000    
   14951   9.515      0.6364E-03 SPRIN         11  21.1%   312.2       341.1       0.000       489.5       0.000      0.5000E-01   0.000    
   14952   9.515      0.6364E-03 SPRIN         11  31.1%   445.2       262.0       0.000       489.5       0.000      0.5000E-01   0.000    
   14953   9.516      0.6364E-03 SPRIN         11  45.0%   630.5       151.7       0.000       489.5       0.000      0.5000E-01   0.000    
   14954   9.517      0.6364E-03 SPRIN         11   9.2%   153.7       435.5       0.000       489.5       0.000      0.5000E-01   0.000    
   14955   9.517      0.6364E-03 SPRIN         11  61.7%   853.2       19.26       0.000       489.5       0.000      0.5000E-01   0.000    
   14956   9.518      0.6364E-03 SPRIN         11   0.1%   32.00       507.9       0.000       489.5       0.000      0.5000E-01   0.000    
   14957   9.519      0.6364E-03 SPRIN         11  61.9%   856.2       17.43       0.000       489.5       0.000      0.5000E-01   0.000    
   14958   9.519      0.6364E-03 SPRIN         11   8.8%   147.9       438.9       0.000       489.5       0.000      0.5000E-01   0.000    
   14959   9.520      0.6364E-03 SPRIN         11  45.6%   638.0       147.3       0.000       489.5       0.000      0.5000E-01   0.000    
   CYCLE    TIME      TIME-STEP  ELEMENT          ERROR  I-ENERGY    K-ENERGY T  K-ENERGY R  EXT-WORK     MAS.ERR     TOTAL MASS  MASS ADDED
   14960   9.520      0.6364E-03 SPRIN         11  30.5%   436.9       266.9       0.000       489.5       0.000      0.5000E-01   0.000    
   14961   9.521      0.6364E-03 SPRIN         11  21.7%   320.0       336.5       0.000       489.5       0.000      0.5000E-01   0.000    
   14962   9.522      0.6364E-03 SPRIN         11  53.1%   738.1       87.74       0.000       489.5       0.000      0.5000E-01   0.000    
   14963   9.522      0.6364E-03 SPRIN         11   3.6%   79.22       479.7       0.000       489.5       0.000      0.5000E-01   0.000    
   14964   9.523      0.6364E-03 SPRIN         11  64.0%   883.7       1.090       0.000       489.5       0.000      0.5000E-01   0.000    
   14965   9.524      0.6364E-03 SPRIN         11   1.4%   49.75       497.3       0.000       489.5       0.000      0.5000E-01   0.000    
   14966   9.524      0.6364E-03 SPRIN         11  57.2%   792.7       55.20       0.000       489.5       0.000      0.5000E-01   0.000    
   14967   9.525      0.6364E-03 SPRIN         11  16.3%   248.0       379.3       0.000       489.5       0.000      0.5000E-01   0.000    
   14968   9.526      0.6364E-03 SPRIN         11  36.4%   515.8       220.0       0.000       489.5       0.000      0.5000E-01   0.000    
   14969   9.526      0.6364E-03 SPRIN         11  40.0%   563.6       191.6       0.000       489.5       0.000      0.5000E-01   0.000    
   14970   9.527      0.6364E-03 SPRIN         11  13.2%   207.2       403.6       0.000       489.5       0.000      0.5000E-01   0.000    
   14971   9.527      0.6364E-03 SPRIN         11  59.3%   820.8       38.52       0.000       489.5       0.000      0.5000E-01   0.000    
   14972   9.528      0.6364E-03 SPRIN         11   0.6%   38.55       504.0       0.000       489.5       0.000      0.5000E-01   0.000    
   14973   9.529      0.6364E-03 SPRIN         11  63.5%   876.4       5.402       0.000       489.5       0.000      0.5000E-01   0.000    
   14974   9.529      0.6364E-03 SPRIN         11   5.5%   103.9       465.1       0.000       489.5       0.000      0.5000E-01   0.000    
   14975   9.530      0.6364E-03 SPRIN         11  50.2%   699.6       110.7       0.000       489.5       0.000      0.5000E-01   0.000    
   14976   9.531      0.6364E-03 SPRIN         11  25.2%   366.8       308.6       0.000       489.5       0.000      0.5000E-01   0.000    
   14977   9.531      0.6364E-03 SPRIN         11  26.8%   388.6       295.7       0.000       489.5       0.000      0.5000E-01   0.000    
   14978   9.532      0.6364E-03 SPRIN         11  48.8%   680.9       121.8       0.000       489.5       0.000      0.5000E-01   0.000    
   14979   9.533      0.6364E-03 SPRIN         11   6.4%   116.7       457.5       0.000       489.5       0.000      0.5000E-01   0.000    
   14980   9.533      0.6364E-03 SPRIN         11  63.1%   871.3       8.449       0.000       489.5       0.000      0.5000E-01   0.000    
   14981   9.534      0.6364E-03 SPRIN         11   0.3%   35.23       505.9       0.000       489.5       0.000      0.5000E-01   0.000    
   14982   9.534      0.6364E-03 SPRIN         11  60.1%   832.1       31.82       0.000       489.5       0.000      0.5000E-01   0.000    
   14983   9.535      0.6364E-03 SPRIN         11  11.9%   189.6       414.1       0.000       489.5       0.000      0.5000E-01   0.000    
   14984   9.536      0.6364E-03 SPRIN         11  41.6%   584.9       178.8       0.000       489.5       0.000      0.5000E-01   0.000    
   14985   9.536      0.6364E-03 SPRIN         11  34.7%   493.8       233.1       0.000       489.5       0.000      0.5000E-01   0.000    
   14986   9.537      0.6364E-03 SPRIN         11  17.7%   267.6       367.7       0.000       489.5       0.000      0.5000E-01   0.000    
   14987   9.538      0.6364E-03 SPRIN         11  56.1%   778.5       63.70       0.000       489.5       0.000      0.5000E-01   0.000    
   14988   9.538      0.6364E-03 SPRIN         11   1.9%   56.65       493.2       0.000       489.5       0.000      0.5000E-01   0.000    
   14989   9.539      0.6364E-03 SPRIN         11  64.1%   885.2      0.2098       0.000       489.5       0.000      0.5000E-01   0.000    
   14990   9.540      0.6364E-03 SPRIN         11   2.9%   69.59       485.5       0.000       489.5       0.000      0.5000E-01   0.000    
   14991   9.540      0.6364E-03 SPRIN         11  54.3%   754.5       77.98       0.000       489.5       0.000      0.5000E-01   0.000    
   14992   9.541      0.6364E-03 SPRIN         11  20.1%   299.2       348.9       0.000       489.5       0.000      0.5000E-01   0.000    
   14993   9.541      0.6364E-03 SPRIN         11  32.1%   459.1       253.7       0.000       489.5       0.000      0.5000E-01   0.000    
   14994   9.542      0.6364E-03 SPRIN         11  44.0%   617.6       159.4       0.000       489.5       0.000      0.5000E-01   0.000    
   14995   9.543      0.6364E-03 SPRIN         11   9.9%   163.6       429.6       0.000       489.5       0.000      0.5000E-01   0.000    
   14996   9.543      0.6364E-03 SPRIN         11  61.3%   847.6       22.56       0.000       489.5       0.000      0.5000E-01   0.000    
   14997   9.544      0.6364E-03 SPRIN         11   0.1%   32.36       507.6       0.000       489.5       0.000      0.5000E-01   0.000    
   14998   9.545      0.6364E-03 SPRIN         11  62.3%   861.1       14.53       0.000       489.5       0.000      0.5000E-01   0.000    
   14999   9.545      0.6364E-03 SPRIN         11   8.1%   138.5       444.5       0.000       489.5       0.000      0.5000E-01   0.000    
   15000   9.546      0.6364E-03 SPRIN         11  46.5%   650.6       139.8       0.000       489.5       0.000      0.5000E-01   0.000    
   15001   9.547      0.6364E-03 SPRIN         11  29.4%   423.0       275.2       0.000       489.5       0.000      0.5000E-01   0.000    
   15002   9.547      0.6364E-03 SPRIN         11  22.7%   333.3       328.6       0.000       489.5       0.000      0.5000E-01   0.000    
   15003   9.548      0.6364E-03 SPRIN         11  52.3%   727.4       94.10       0.000       489.5       0.000      0.5000E-01   0.000    
   15004   9.548      0.6364E-03 SPRIN         11   4.1%   85.80       475.8       0.000       489.5       0.000      0.5000E-01   0.000    
   15005   9.549      0.6364E-03 SPRIN         11  63.9%   882.2       1.992       0.000       489.5       0.000      0.5000E-01   0.000    
   15006   9.550      0.6364E-03 SPRIN         11   1.1%   45.99       499.5       0.000       489.5       0.000      0.5000E-01   0.000    
   15007   9.550      0.6364E-03 SPRIN         11  57.8%   801.2       50.15       0.000       489.5       0.000      0.5000E-01   0.000    
   15008   9.551      0.6364E-03 SPRIN         11  15.4%   236.0       386.5       0.000       489.5       0.000      0.5000E-01   0.000    
   15009   9.552      0.6364E-03 SPRIN         11  37.4%   529.6       211.8       0.000       489.5       0.000      0.5000E-01   0.000    
   15010   9.552      0.6364E-03 SPRIN         11  38.9%   550.0       199.6       0.000       489.5       0.000      0.5000E-01   0.000    
   15011   9.553      0.6364E-03 SPRIN         11  14.1%   218.6       396.9       0.000       489.5       0.000      0.5000E-01   0.000    
   15012   9.554      0.6364E-03 SPRIN         11  58.7%   813.2       43.02       0.000       489.5       0.000      0.5000E-01   0.000    
   15013   9.554      0.6364E-03 SPRIN         11   0.8%   41.21       502.4       0.000       489.5       0.000      0.5000E-01   0.000    
   15014   9.555      0.6364E-03 SPRIN         11  63.6%   879.1       3.833       0.000       489.5       0.000      0.5000E-01   0.000    
   CYCLE    TIME      TIME-STEP  ELEMENT          ERROR  I-ENERGY    K-ENERGY T  K-ENERGY R  EXT-WORK     MAS.ERR     TOTAL MASS  MASS ADDED
   15015   9.555      0.6364E-03 SPRIN         11   4.9%   96.33       469.6       0.000       489.5       0.000      0.5000E-01   0.000    
   15016   9.556      0.6364E-03 SPRIN         11  51.0%   710.9       103.9       0.000       489.5       0.000      0.5000E-01   0.000    
   15017   9.557      0.6364E-03 SPRIN         11  24.2%   353.2       316.7       0.000       489.5       0.000      0.5000E-01   0.000    
   15018   9.557      0.6364E-03 SPRIN         11  27.9%   402.4       287.5       0.000       489.5       0.000      0.5000E-01   0.000    
   15019   9.558      0.6364E-03 SPRIN         11  47.9%   668.9       128.9       0.000       489.5       0.000      0.5000E-01   0.000    
   15020   9.559      0.6364E-03 SPRIN         11   7.1%   125.2       452.4       0.000       489.5       0.000      0.5000E-01   0.000    
   15021   9.559      0.6364E-03 SPRIN         11  62.8%   867.5       10.70       0.000       489.5       0.000      0.5000E-01   0.000    
   15022   9.560      0.6364E-03 SPRIN         11   0.2%   33.74       506.8       0.000       489.5       0.000      0.5000E-01   0.000    
   15023   9.561      0.6364E-03 SPRIN         11  60.6%   838.6       27.92       0.000       489.5       0.000      0.5000E-01   0.000    
   15024   9.561      0.6364E-03 SPRIN         11  11.1%   178.9       420.4       0.000       489.5       0.000      0.5000E-01   0.000    
   15025   9.562      0.6364E-03 SPRIN         11  42.6%   598.2       171.0       0.000       489.5       0.000      0.5000E-01   0.000    
   15026   9.562      0.6364E-03 SPRIN         11  33.7%   479.9       241.4       0.000       489.5       0.000      0.5000E-01   0.000    
   15027   9.563      0.6364E-03 SPRIN         11  18.7%   280.1       360.2       0.000       489.5       0.000      0.5000E-01   0.000    
   15028   9.564      0.6364E-03 SPRIN         11  55.4%   769.1       69.29       0.000       489.5       0.000      0.5000E-01   0.000    
   15029   9.564      0.6364E-03 SPRIN         11   2.3%   61.53       490.3       0.000       489.5       0.000      0.5000E-01   0.000    
   15030   9.565      0.6364E-03 SPRIN         11  64.1%   885.5      0.8094E-02   0.000       489.5       0.000      0.5000E-01   0.000    
   15031   9.566      0.6364E-03 SPRIN         11   2.5%   64.07       488.8       0.000       489.5       0.000      0.5000E-01   0.000    
   15032   9.566      0.6364E-03 SPRIN         11  55.0%   764.4       72.10       0.000       489.5       0.000      0.5000E-01   0.000    
   15033   9.567      0.6364E-03 SPRIN         11  19.2%   286.4       356.5       0.000       489.5       0.000      0.5000E-01   0.000    
   15034   9.568      0.6364E-03 SPRIN         11  33.2%   473.1       245.4       0.000       489.5       0.000      0.5000E-01   0.000    
   15035   9.568      0.6364E-03 SPRIN         11  43.0%   604.6       167.1       0.000       489.5       0.000      0.5000E-01   0.000    
   15036   9.569      0.6364E-03 SPRIN         11  10.7%   173.8       423.5       0.000       489.5       0.000      0.5000E-01   0.000    
   15037   9.569      0.6364E-03 SPRIN         11  60.8%   841.7       26.10       0.000       489.5       0.000      0.5000E-01   0.000    
   15038   9.570      0.6364E-03 SPRIN         11   0.1%   33.18       507.1       0.000       489.5       0.000      0.5000E-01   0.000    
   15039   9.571      0.6364E-03 SPRIN         11  62.6%   865.5       11.90       0.000       489.5       0.000      0.5000E-01   0.000    
   15040   9.571      0.6364E-03 SPRIN         11   7.4%   129.5       449.8       0.000       489.5       0.000      0.5000E-01   0.000    
   15041   9.572      0.6364E-03 SPRIN         11  47.4%   662.9       132.4       0.000       489.5       0.000      0.5000E-01   0.000    
   15042   9.573      0.6364E-03 SPRIN         11  28.4%   409.1       283.5       0.000       489.5       0.000      0.5000E-01   0.000    
   15043   9.573      0.6364E-03 SPRIN         11  23.7%   346.6       320.6       0.000       489.5       0.000      0.5000E-01   0.000    
   15044   9.574      0.6364E-03 SPRIN         11  51.4%   716.4       100.6       0.000       489.5       0.000      0.5000E-01   0.000    
   15045   9.575      0.6364E-03 SPRIN         11   4.6%   92.78       471.7       0.000       489.5       0.000      0.5000E-01   0.000    
   15046   9.575      0.6364E-03 SPRIN         11  63.7%   880.2       3.163       0.000       489.5       0.000      0.5000E-01   0.000    
   15047   9.576      0.6364E-03 SPRIN         11   0.9%   42.67       501.5       0.000       489.5       0.000      0.5000E-01   0.000    
   15048   9.576      0.6364E-03 SPRIN         11  58.4%   809.4       45.31       0.000       489.5       0.000      0.5000E-01   0.000    
   15049   9.577      0.6364E-03 SPRIN         11  14.5%   224.2       393.5       0.000       489.5       0.000      0.5000E-01   0.000    
   15050   9.578      0.6364E-03 SPRIN         11  38.4%   543.3       203.6       0.000       489.5       0.000      0.5000E-01   0.000    
   15051   9.578      0.6364E-03 SPRIN         11  37.9%   536.3       207.8       0.000       489.5       0.000      0.5000E-01   0.000    
   15052   9.579      0.6364E-03 SPRIN         11  14.9%   230.2       389.9       0.000       489.5       0.000      0.5000E-01   0.000    
   15053   9.580      0.6364E-03 SPRIN         11  58.1%   805.3       47.75       0.000       489.5       0.000      0.5000E-01   0.000    
   15054   9.580      0.6364E-03 SPRIN         11   1.0%   44.31       500.5       0.000       489.5       0.000      0.5000E-01   0.000    
   15055   9.581      0.6364E-03 SPRIN         11  63.8%   881.3       2.531       0.000       489.5       0.000      0.5000E-01   0.000    
   15056   9.582      0.6364E-03 SPRIN         11   4.4%   89.16       473.8       0.000       489.5       0.000      0.5000E-01   0.000    
   15057   9.582      0.6364E-03 SPRIN         11  51.9%   722.0       97.27       0.000       489.5       0.000      0.5000E-01   0.000    
   15058   9.583      0.6364E-03 SPRIN         11  23.2%   339.8       324.7       0.000       489.5       0.000      0.5000E-01   0.000    
   15059   9.583      0.6364E-03 SPRIN         11  28.9%   416.2       279.2       0.000       489.5       0.000      0.5000E-01   0.000    
   15060   9.584      0.6364E-03 SPRIN         11  47.0%   656.6       136.2       0.000       489.5       0.000      0.5000E-01   0.000    
   15061   9.585      0.6364E-03 SPRIN         11   7.7%   134.1       447.1       0.000       489.5       0.000      0.5000E-01   0.000    
   15062   9.585      0.6364E-03 SPRIN         11  62.5%   863.3       13.21       0.000       489.5       0.000      0.5000E-01   0.000    
   15063   9.586      0.6364E-03 SPRIN         11   0.1%   32.70       507.4       0.000       489.5       0.000      0.5000E-01   0.000    
   15064   9.587      0.6364E-03 SPRIN         11  61.1%   844.8       24.26       0.000       489.5       0.000      0.5000E-01   0.000    
   15065   9.587      0.6364E-03 SPRIN         11  10.3%   168.5       426.6       0.000       489.5       0.000      0.5000E-01   0.000    
   15066   9.588      0.6364E-03 SPRIN         11  43.5%   611.3       163.2       0.000       489.5       0.000      0.5000E-01   0.000    
   15067   9.589      0.6364E-03 SPRIN         11  32.6%   465.9       249.7       0.000       489.5       0.000      0.5000E-01   0.000    
   15068   9.589      0.6364E-03 SPRIN         11  19.6%   292.9       352.6       0.000       489.5       0.000      0.5000E-01   0.000    
   15069   9.590      0.6364E-03 SPRIN         11  54.7%   759.3       75.08       0.000       489.5       0.000      0.5000E-01   0.000    
   CYCLE    TIME      TIME-STEP  ELEMENT          ERROR  I-ENERGY    K-ENERGY T  K-ENERGY R  EXT-WORK     MAS.ERR     TOTAL MASS  MASS ADDED
   15070   9.590      0.6364E-03 SPRIN         11   2.7%   66.84       487.1       0.000       489.5       0.000      0.5000E-01   0.000    
   15071   9.591      0.6364E-03 SPRIN         11  64.1%   885.4      0.7733E-01   0.000       489.5       0.000      0.5000E-01   0.000    
   15072   9.592      0.6364E-03 SPRIN         11   2.1%   58.98       491.8       0.000       489.5       0.000      0.5000E-01   0.000    
   15073   9.592      0.6364E-03 SPRIN         11  55.8%   773.9       66.41       0.000       489.5       0.000      0.5000E-01   0.000    
   15074   9.593      0.6364E-03 SPRIN         11  18.2%   273.7       364.0       0.000       489.5       0.000      0.5000E-01   0.000    
   15075   9.594      0.6364E-03 SPRIN         11  34.2%   487.0       237.1       0.000       489.5       0.000      0.5000E-01   0.000    
   15076   9.594      0.6364E-03 SPRIN         11  42.1%   591.4       175.0       0.000       489.5       0.000      0.5000E-01   0.000    
   15077   9.595      0.6364E-03 SPRIN         11  11.5%   184.3       417.2       0.000       489.5       0.000      0.5000E-01   0.000    
   15078   9.596      0.6364E-03 SPRIN         11  60.4%   835.3       29.88       0.000       489.5       0.000      0.5000E-01   0.000    
   15079   9.596      0.6364E-03 SPRIN         11   0.2%   34.45       506.4       0.000       489.5       0.000      0.5000E-01   0.000    
   15080   9.597      0.6364E-03 SPRIN         11  62.9%   869.5       9.517       0.000       489.5       0.000      0.5000E-01   0.000    
   15081   9.597      0.6364E-03 SPRIN         11   6.7%   120.8       455.0       0.000       489.5       0.000      0.5000E-01   0.000    
   15082   9.598      0.6364E-03 SPRIN         11  48.3%   675.1       125.2       0.000       489.5       0.000      0.5000E-01   0.000    
   15083   9.599      0.6364E-03 SPRIN         11  27.3%   395.3       291.7       0.000       489.5       0.000      0.5000E-01   0.000    
   15084   9.599      0.6364E-03 SPRIN         11  24.7%   360.1       312.6       0.000       489.5       0.000      0.5000E-01   0.000    
   15085   9.600      0.6364E-03 SPRIN         11  50.6%   705.1       107.3       0.000       489.5       0.000      0.5000E-01   0.000    
     ANIMATION FILE: SPR_PRE_2FLAGA049 WRITTEN
   15086   9.601      0.6364E-03 SPRIN         11   5.2%   100.1       467.3       0.000       489.5       0.000      0.5000E-01   0.000    
   15087   9.601      0.6364E-03 SPRIN         11  63.6%   877.8       4.602       0.000       489.5       0.000      0.5000E-01   0.000    
   15088   9.602      0.6364E-03 SPRIN         11   0.6%   39.79       503.2       0.000       489.5       0.000      0.5000E-01   0.000    
   15089   9.603      0.6364E-03 SPRIN         11  59.0%   817.1       40.69       0.000       489.5       0.000      0.5000E-01   0.000    
   15090   9.603      0.6364E-03 SPRIN         11  13.6%   212.7       400.3       0.000       489.5       0.000      0.5000E-01   0.000    
   15091   9.604      0.6364E-03 SPRIN         11  39.5%   556.9       195.5       0.000       489.5       0.000      0.5000E-01   0.000    
   15092   9.604      0.6364E-03 SPRIN         11  36.9%   522.6       215.9       0.000       489.5       0.000      0.5000E-01   0.000    
   15093   9.605      0.6364E-03 SPRIN         11  15.8%   242.1       382.8       0.000       489.5       0.000      0.5000E-01   0.000    
   15094   9.606      0.6364E-03 SPRIN         11  57.5%   796.9       52.71       0.000       489.5       0.000      0.5000E-01   0.000    
   15095   9.606      0.6364E-03 SPRIN         11   1.3%   47.86       498.4       0.000       489.5       0.000      0.5000E-01   0.000    
   15096   9.607      0.6364E-03 SPRIN         11  63.9%   883.0       1.497       0.000       489.5       0.000      0.5000E-01   0.000    
   15097   9.608      0.6364E-03 SPRIN         11   3.8%   82.39       477.9       0.000       489.5       0.000      0.5000E-01   0.000    
   15098   9.608      0.6364E-03 SPRIN         11  52.7%   732.9       90.83       0.000       489.5       0.000      0.5000E-01   0.000    
   15099   9.609      0.6364E-03 SPRIN         11  22.2%   326.5       332.6       0.000       489.5       0.000      0.5000E-01   0.000    
   15100   9.610      0.6364E-03 SPRIN         11  29.9%   430.1       271.0       0.000       489.5       0.000      0.5000E-01   0.000    
   15101   9.610      0.6364E-03 SPRIN         11  46.0%   644.2       143.6       0.000       489.5       0.000      0.5000E-01   0.000    
   15102   9.611      0.6364E-03 SPRIN         11   8.4%   143.3       441.6       0.000       489.5       0.000      0.5000E-01   0.000    
   15103   9.611      0.6364E-03 SPRIN         11  62.1%   858.7       15.98       0.000       489.5       0.000      0.5000E-01   0.000    
   15104   9.612      0.6364E-03 SPRIN         11   0.1%   32.12       507.8       0.000       489.5       0.000      0.5000E-01   0.000    
   15105   9.613      0.6364E-03 SPRIN         11  61.5%   850.5       20.84       0.000       489.5       0.000      0.5000E-01   0.000    
   15106   9.613      0.6364E-03 SPRIN         11   9.6%   158.5       432.6       0.000       489.5       0.000      0.5000E-01   0.000    
   15107   9.614      0.6364E-03 SPRIN         11  44.5%   624.2       155.5       0.000       489.5       0.000      0.5000E-01   0.000    
   15108   9.615      0.6364E-03 SPRIN         11  31.6%   452.0       258.0       0.000       489.5       0.000      0.5000E-01   0.000    
   15109   9.615      0.6364E-03 SPRIN         11  20.6%   305.8       344.9       0.000       489.5       0.000      0.5000E-01   0.000    
   15110   9.616      0.6364E-03 SPRIN         11  53.9%   749.3       81.06       0.000       489.5       0.000      0.5000E-01   0.000    
   15111   9.617      0.6364E-03 SPRIN         11   3.1%   72.57       483.7       0.000       489.5       0.000      0.5000E-01   0.000    
   15112   9.617      0.6364E-03 SPRIN         11  64.1%   884.8      0.4174       0.000       489.5       0.000      0.5000E-01   0.000    
   15113   9.618      0.6364E-03 SPRIN         11   1.7%   54.31       494.6       0.000       489.5       0.000      0.5000E-01   0.000    
   15114   9.618      0.6364E-03 SPRIN         11  56.4%   783.1       60.91       0.000       489.5       0.000      0.5000E-01   0.000    
   15115   9.619      0.6364E-03 SPRIN         11  17.3%   261.2       371.5       0.000       489.5       0.000      0.5000E-01   0.000    
   15116   9.620      0.6364E-03 SPRIN         11  35.3%   500.9       228.9       0.000       489.5       0.000      0.5000E-01   0.000    
   15117   9.620      0.6364E-03 SPRIN         11  41.1%   578.1       182.9       0.000       489.5       0.000      0.5000E-01   0.000    
   15118   9.621      0.6364E-03 SPRIN         11  12.3%   195.1       410.8       0.000       489.5       0.000      0.5000E-01   0.000    
   15119   9.622      0.6364E-03 SPRIN         11  59.9%   828.5       33.90       0.000       489.5       0.000      0.5000E-01   0.000    
   15120   9.622      0.6364E-03 SPRIN         11   0.4%   36.17       505.4       0.000       489.5       0.000      0.5000E-01   0.000    
   15121   9.623      0.6364E-03 SPRIN         11  63.2%   873.1       7.398       0.000       489.5       0.000      0.5000E-01   0.000    
   15122   9.624      0.6364E-03 SPRIN         11   6.1%   112.5       460.0       0.000       489.5       0.000      0.5000E-01   0.000    
   15123   9.624      0.6364E-03 SPRIN         11  49.2%   687.0       118.2       0.000       489.5       0.000      0.5000E-01   0.000    
   15124   9.625      0.6364E-03 SPRIN         11  26.3%   381.6       299.9       0.000       489.5       0.000      0.5000E-01   0.000    
   CYCLE    TIME      TIME-STEP  ELEMENT          ERROR  I-ENERGY    K-ENERGY T  K-ENERGY R  EXT-WORK     MAS.ERR     TOTAL MASS  MASS ADDED
   15125   9.625      0.6364E-03 SPRIN         11  25.7%   373.8       304.5       0.000       489.5       0.000      0.5000E-01   0.000    
   15126   9.626      0.6364E-03 SPRIN         11  49.7%   693.6       114.2       0.000       489.5       0.000      0.5000E-01   0.000    
   15127   9.627      0.6364E-03 SPRIN         11   5.8%   107.9       462.7       0.000       489.5       0.000      0.5000E-01   0.000    
   15128   9.627      0.6364E-03 SPRIN         11  63.3%   874.9       6.307       0.000       489.5       0.000      0.5000E-01   0.000    
   15129   9.628      0.6364E-03 SPRIN         11   0.5%   37.36       504.7       0.000       489.5       0.000      0.5000E-01   0.000    
   15130   9.629      0.6364E-03 SPRIN         11  59.6%   824.5       36.30       0.000       489.5       0.000      0.5000E-01   0.000    
   15131   9.629      0.6364E-03 SPRIN         11  12.8%   201.4       407.0       0.000       489.5       0.000      0.5000E-01   0.000    
   15132   9.630      0.6364E-03 SPRIN         11  40.5%   570.5       187.5       0.000       489.5       0.000      0.5000E-01   0.000    
   15133   9.631      0.6364E-03 SPRIN         11  35.9%   508.8       224.2       0.000       489.5       0.000      0.5000E-01   0.000    
   15134   9.631      0.6364E-03 SPRIN         11  16.7%   254.2       375.6       0.000       489.5       0.000      0.5000E-01   0.000    
   15135   9.632      0.6364E-03 SPRIN         11  56.8%   788.3       57.87       0.000       489.5       0.000      0.5000E-01   0.000    
   15136   9.632      0.6364E-03 SPRIN         11   1.6%   51.84       496.0       0.000       489.5       0.000      0.5000E-01   0.000    
   15137   9.633      0.6364E-03 SPRIN         11  64.0%   884.3      0.7328       0.000       489.5       0.000      0.5000E-01   0.000    
   15138   9.634      0.6364E-03 SPRIN         11   3.4%   76.02       481.7       0.000       489.5       0.000      0.5000E-01   0.000    
   15139   9.634      0.6364E-03 SPRIN         11  53.5%   743.4       84.56       0.000       489.5       0.000      0.5000E-01   0.000    
   15140   9.635      0.6364E-03 SPRIN         11  21.2%   313.3       340.5       0.000       489.5       0.000      0.5000E-01   0.000    
   15141   9.636      0.6364E-03 SPRIN         11  31.0%   444.0       262.7       0.000       489.5       0.000      0.5000E-01   0.000    
   15142   9.636      0.6364E-03 SPRIN         11  45.1%   631.5       151.1       0.000       489.5       0.000      0.5000E-01   0.000    
   15143   9.637      0.6364E-03 SPRIN         11   9.1%   152.9       435.9       0.000       489.5       0.000      0.5000E-01   0.000    
   15144   9.638      0.6364E-03 SPRIN         11  61.7%   853.6       19.00       0.000       489.5       0.000      0.5000E-01   0.000    
   15145   9.638      0.6364E-03 SPRIN         11   0.1%   31.99       507.9       0.000       489.5       0.000      0.5000E-01   0.000    
   15146   9.639      0.6364E-03 SPRIN         11  61.9%   855.8       17.68       0.000       489.5       0.000      0.5000E-01   0.000    
   15147   9.639      0.6364E-03 SPRIN         11   8.8%   148.7       438.4       0.000       489.5       0.000      0.5000E-01   0.000    
   15148   9.640      0.6364E-03 SPRIN         11  45.5%   637.0       147.9       0.000       489.5       0.000      0.5000E-01   0.000    
   15149   9.641      0.6364E-03 SPRIN         11  30.5%   438.1       266.2       0.000       489.5       0.000      0.5000E-01   0.000    
   15150   9.641      0.6364E-03 SPRIN         11  21.6%   318.9       337.1       0.000       489.5       0.000      0.5000E-01   0.000    
   15151   9.642      0.6364E-03 SPRIN         11  53.1%   738.9       87.23       0.000       489.5       0.000      0.5000E-01   0.000    
   15152   9.643      0.6364E-03 SPRIN         11   3.6%   78.70       480.1       0.000       489.5       0.000      0.5000E-01   0.000    
   15153   9.643      0.6364E-03 SPRIN         11  64.0%   883.8       1.028       0.000       489.5       0.000      0.5000E-01   0.000    
   15154   9.644      0.6364E-03 SPRIN         11   1.4%   50.08       497.1       0.000       489.5       0.000      0.5000E-01   0.000    
   15155   9.645      0.6364E-03 SPRIN         11  57.1%   792.0       55.63       0.000       489.5       0.000      0.5000E-01   0.000    
   15156   9.645      0.6364E-03 SPRIN         11  16.3%   249.0       378.7       0.000       489.5       0.000      0.5000E-01   0.000    
   15157   9.646      0.6364E-03 SPRIN         11  36.3%   514.7       220.6       0.000       489.5       0.000      0.5000E-01   0.000    
   15158   9.646      0.6364E-03 SPRIN         11  40.0%   564.7       190.9       0.000       489.5       0.000      0.5000E-01   0.000    
   15159   9.647      0.6364E-03 SPRIN         11  13.1%   206.2       404.2       0.000       489.5       0.000      0.5000E-01   0.000    
   15160   9.648      0.6364E-03 SPRIN         11  59.3%   821.4       38.16       0.000       489.5       0.000      0.5000E-01   0.000    
   15161   9.648      0.6364E-03 SPRIN         11   0.5%   38.35       504.1       0.000       489.5       0.000      0.5000E-01   0.000    
   15162   9.649      0.6364E-03 SPRIN         11  63.4%   876.2       5.543       0.000       489.5       0.000      0.5000E-01   0.000    
   15163   9.650      0.6364E-03 SPRIN         11   5.5%   104.5       464.7       0.000       489.5       0.000      0.5000E-01   0.000    
   15164   9.650      0.6364E-03 SPRIN         11  50.1%   698.6       111.2       0.000       489.5       0.000      0.5000E-01   0.000    
   15165   9.651      0.6364E-03 SPRIN         11  25.3%   367.9       308.0       0.000       489.5       0.000      0.5000E-01   0.000    
   15166   9.652      0.6364E-03 SPRIN         11  26.7%   387.5       296.3       0.000       489.5       0.000      0.5000E-01   0.000    
   15167   9.652      0.6364E-03 SPRIN         11  48.8%   681.9       121.2       0.000       489.5       0.000      0.5000E-01   0.000    
   15168   9.653      0.6364E-03 SPRIN         11   6.4%   116.0       457.9       0.000       489.5       0.000      0.5000E-01   0.000    
   15169   9.653      0.6364E-03 SPRIN         11  63.1%   871.6       8.276       0.000       489.5       0.000      0.5000E-01   0.000    
   15170   9.654      0.6364E-03 SPRIN         11   0.3%   35.38       505.8       0.000       489.5       0.000      0.5000E-01   0.000    
   15171   9.655      0.6364E-03 SPRIN         11  60.1%   831.5       32.15       0.000       489.5       0.000      0.5000E-01   0.000    
   15172   9.655      0.6364E-03 SPRIN         11  12.0%   190.5       413.6       0.000       489.5       0.000      0.5000E-01   0.000    
   15173   9.656      0.6364E-03 SPRIN         11  41.5%   583.9       179.5       0.000       489.5       0.000      0.5000E-01   0.000    
   15174   9.657      0.6364E-03 SPRIN         11  34.8%   494.9       232.4       0.000       489.5       0.000      0.5000E-01   0.000    
   15175   9.657      0.6364E-03 SPRIN         11  17.7%   266.6       368.3       0.000       489.5       0.000      0.5000E-01   0.000    
   15176   9.658      0.6364E-03 SPRIN         11  56.2%   779.2       63.25       0.000       489.5       0.000      0.5000E-01   0.000    
   15177   9.659      0.6364E-03 SPRIN         11   1.9%   56.26       493.4       0.000       489.5       0.000      0.5000E-01   0.000    
   15178   9.659      0.6364E-03 SPRIN         11  64.1%   885.1      0.2383       0.000       489.5       0.000      0.5000E-01   0.000    
   15179   9.660      0.6364E-03 SPRIN         11   2.9%   70.06       485.2       0.000       489.5       0.000      0.5000E-01   0.000    
   CYCLE    TIME      TIME-STEP  ELEMENT          ERROR  I-ENERGY    K-ENERGY T  K-ENERGY R  EXT-WORK     MAS.ERR     TOTAL MASS  MASS ADDED
   15180   9.660      0.6364E-03 SPRIN         11  54.2%   753.6       78.47       0.000       489.5       0.000      0.5000E-01   0.000    
   15181   9.661      0.6364E-03 SPRIN         11  20.2%   300.3       348.2       0.000       489.5       0.000      0.5000E-01   0.000    
   15182   9.662      0.6364E-03 SPRIN         11  32.0%   458.0       254.4       0.000       489.5       0.000      0.5000E-01   0.000    
   15183   9.662      0.6364E-03 SPRIN         11  44.1%   618.7       158.8       0.000       489.5       0.000      0.5000E-01   0.000    
   15184   9.663      0.6364E-03 SPRIN         11   9.9%   162.7       430.1       0.000       489.5       0.000      0.5000E-01   0.000    
   15185   9.664      0.6364E-03 SPRIN         11  61.3%   848.1       22.28       0.000       489.5       0.000      0.5000E-01   0.000    
   15186   9.664      0.6364E-03 SPRIN         11   0.1%   32.31       507.7       0.000       489.5       0.000      0.5000E-01   0.000    
   15187   9.665      0.6364E-03 SPRIN         11  62.3%   860.7       14.76       0.000       489.5       0.000      0.5000E-01   0.000    
   15188   9.666      0.6364E-03 SPRIN         11   8.1%   139.3       444.0       0.000       489.5       0.000      0.5000E-01   0.000    
   15189   9.666      0.6364E-03 SPRIN         11  46.4%   649.6       140.4       0.000       489.5       0.000      0.5000E-01   0.000    
   15190   9.667      0.6364E-03 SPRIN         11  29.5%   424.1       274.5       0.000       489.5       0.000      0.5000E-01   0.000    
   15191   9.667      0.6364E-03 SPRIN         11  22.6%   332.2       329.3       0.000       489.5       0.000      0.5000E-01   0.000    
   15192   9.668      0.6364E-03 SPRIN         11  52.3%   728.3       93.58       0.000       489.5       0.000      0.5000E-01   0.000    
   15193   9.669      0.6364E-03 SPRIN         11   4.1%   85.25       476.2       0.000       489.5       0.000      0.5000E-01   0.000    
   15194   9.669      0.6364E-03 SPRIN         11  63.9%   882.3       1.908       0.000       489.5       0.000      0.5000E-01   0.000    
   15195   9.670      0.6364E-03 SPRIN         11   1.1%   46.28       499.4       0.000       489.5       0.000      0.5000E-01   0.000    
   15196   9.671      0.6364E-03 SPRIN         11  57.8%   800.6       50.55       0.000       489.5       0.000      0.5000E-01   0.000    
   15197   9.671      0.6364E-03 SPRIN         11  15.4%   237.0       385.9       0.000       489.5       0.000      0.5000E-01   0.000    
   15198   9.672      0.6364E-03 SPRIN         11  37.3%   528.5       212.4       0.000       489.5       0.000      0.5000E-01   0.000    
   15199   9.673      0.6364E-03 SPRIN         11  39.0%   551.1       199.0       0.000       489.5       0.000      0.5000E-01   0.000    
   15200   9.673      0.6364E-03 SPRIN         11  14.0%   217.6       397.4       0.000       489.5       0.000      0.5000E-01   0.000    
   15201   9.674      0.6364E-03 SPRIN         11  58.8%   813.9       42.65       0.000       489.5       0.000      0.5000E-01   0.000    
   15202   9.674      0.6364E-03 SPRIN         11   0.7%   40.97       502.5       0.000       489.5       0.000      0.5000E-01   0.000    
   15203   9.675      0.6364E-03 SPRIN         11  63.6%   878.9       3.952       0.000       489.5       0.000      0.5000E-01   0.000    
   15204   9.676      0.6364E-03 SPRIN         11   4.9%   96.93       469.2       0.000       489.5       0.000      0.5000E-01   0.000    
   15205   9.676      0.6364E-03 SPRIN         11  51.0%   710.0       104.4       0.000       489.5       0.000      0.5000E-01   0.000    
   15206   9.677      0.6364E-03 SPRIN         11  24.3%   354.3       316.1       0.000       489.5       0.000      0.5000E-01   0.000    
   15207   9.678      0.6364E-03 SPRIN         11  27.8%   401.2       288.1       0.000       489.5       0.000      0.5000E-01   0.000    
   15208   9.678      0.6364E-03 SPRIN         11  47.9%   669.9       128.3       0.000       489.5       0.000      0.5000E-01   0.000    
   15209   9.679      0.6364E-03 SPRIN         11   7.0%   124.5       452.8       0.000       489.5       0.000      0.5000E-01   0.000    
   15210   9.680      0.6364E-03 SPRIN         11  62.8%   867.9       10.51       0.000       489.5       0.000      0.5000E-01   0.000    
   15211   9.680      0.6364E-03 SPRIN         11   0.2%   33.85       506.7       0.000       489.5       0.000      0.5000E-01   0.000    
   15212   9.681      0.6364E-03 SPRIN         11  60.6%   838.1       28.23       0.000       489.5       0.000      0.5000E-01   0.000    
   15213   9.681      0.6364E-03 SPRIN         11  11.2%   179.8       419.9       0.000       489.5       0.000      0.5000E-01   0.000    
   15214   9.682      0.6364E-03 SPRIN         11  42.5%   597.1       171.6       0.000       489.5       0.000      0.5000E-01   0.000    
   15215   9.683      0.6364E-03 SPRIN         11  33.8%   481.0       240.7       0.000       489.5       0.000      0.5000E-01   0.000    
   15216   9.683      0.6364E-03 SPRIN         11  18.6%   279.1       360.8       0.000       489.5       0.000      0.5000E-01   0.000    
   15217   9.684      0.6364E-03 SPRIN         11  55.4%   769.9       68.82       0.000       489.5       0.000      0.5000E-01   0.000    
   15218   9.685      0.6364E-03 SPRIN         11   2.2%   61.11       490.5       0.000       489.5       0.000      0.5000E-01   0.000    
   15219   9.685      0.6364E-03 SPRIN         11  64.1%   885.5      0.1443E-01   0.000       489.5       0.000      0.5000E-01   0.000    
   15220   9.686      0.6364E-03 SPRIN         11   2.5%   64.51       488.5       0.000       489.5       0.000      0.5000E-01   0.000    
   15221   9.687      0.6364E-03 SPRIN         11  55.0%   763.6       72.57       0.000       489.5       0.000      0.5000E-01   0.000    
   15222   9.687      0.6364E-03 SPRIN         11  19.2%   287.4       355.9       0.000       489.5       0.000      0.5000E-01   0.000    
   15223   9.688      0.6364E-03 SPRIN         11  33.1%   471.9       246.1       0.000       489.5       0.000      0.5000E-01   0.000    
   15224   9.688      0.6364E-03 SPRIN         11  43.1%   605.7       166.5       0.000       489.5       0.000      0.5000E-01   0.000    
   15225   9.689      0.6364E-03 SPRIN         11  10.6%   172.9       424.0       0.000       489.5       0.000      0.5000E-01   0.000    
   15226   9.690      0.6364E-03 SPRIN         11  60.9%   842.2       25.80       0.000       489.5       0.000      0.5000E-01   0.000    
   15227   9.690      0.6364E-03 SPRIN         11   0.1%   33.09       507.2       0.000       489.5       0.000      0.5000E-01   0.000    
   15228   9.691      0.6364E-03 SPRIN         11  62.6%   865.2       12.10       0.000       489.5       0.000      0.5000E-01   0.000    
   15229   9.692      0.6364E-03 SPRIN         11   7.4%   130.2       449.4       0.000       489.5       0.000      0.5000E-01   0.000    
   15230   9.692      0.6364E-03 SPRIN         11  47.3%   661.9       133.0       0.000       489.5       0.000      0.5000E-01   0.000    
   15231   9.693      0.6364E-03 SPRIN         11  28.5%   410.3       282.8       0.000       489.5       0.000      0.5000E-01   0.000    
   15232   9.694      0.6364E-03 SPRIN         11  23.6%   345.5       321.3       0.000       489.5       0.000      0.5000E-01   0.000    
   15233   9.694      0.6364E-03 SPRIN         11  51.5%   717.3       100.1       0.000       489.5       0.000      0.5000E-01   0.000    
   15234   9.695      0.6364E-03 SPRIN         11   4.6%   92.19       472.0       0.000       489.5       0.000      0.5000E-01   0.000    
   CYCLE    TIME      TIME-STEP  ELEMENT          ERROR  I-ENERGY    K-ENERGY T  K-ENERGY R  EXT-WORK     MAS.ERR     TOTAL MASS  MASS ADDED
   15235   9.695      0.6364E-03 SPRIN         11  63.7%   880.4       3.057       0.000       489.5       0.000      0.5000E-01   0.000    
   15236   9.696      0.6364E-03 SPRIN         11   0.9%   42.92       501.3       0.000       489.5       0.000      0.5000E-01   0.000    
   15237   9.697      0.6364E-03 SPRIN         11  58.4%   808.7       45.70       0.000       489.5       0.000      0.5000E-01   0.000    
   15238   9.697      0.6364E-03 SPRIN         11  14.6%   225.2       392.9       0.000       489.5       0.000      0.5000E-01   0.000    
   15239   9.698      0.6364E-03 SPRIN         11  38.4%   542.2       204.3       0.000       489.5       0.000      0.5000E-01   0.000    
   15240   9.699      0.6364E-03 SPRIN         11  38.0%   537.5       207.1       0.000       489.5       0.000      0.5000E-01   0.000    
   15241   9.699      0.6364E-03 SPRIN         11  14.9%   229.2       390.5       0.000       489.5       0.000      0.5000E-01   0.000    
   15242   9.700      0.6364E-03 SPRIN         11  58.2%   805.9       47.36       0.000       489.5       0.000      0.5000E-01   0.000    
   15243   9.701      0.6364E-03 SPRIN         11   1.0%   44.04       500.7       0.000       489.5       0.000      0.5000E-01   0.000    
   15244   9.701      0.6364E-03 SPRIN         11  63.8%   881.1       2.628       0.000       489.5       0.000      0.5000E-01   0.000    
   15245   9.702      0.6364E-03 SPRIN         11   4.4%   89.73       473.5       0.000       489.5       0.000      0.5000E-01   0.000    
   15246   9.702      0.6364E-03 SPRIN         11  51.8%   721.1       97.81       0.000       489.5       0.000      0.5000E-01   0.000    
   15247   9.703      0.6364E-03 SPRIN         11  23.2%   340.9       324.1       0.000       489.5       0.000      0.5000E-01   0.000    
   15248   9.704      0.6364E-03 SPRIN         11  28.8%   415.1       279.9       0.000       489.5       0.000      0.5000E-01   0.000    
   15249   9.704      0.6364E-03 SPRIN         11  47.0%   657.6       135.6       0.000       489.5       0.000      0.5000E-01   0.000    
   15250   9.705      0.6364E-03 SPRIN         11   7.7%   133.3       447.5       0.000       489.5       0.000      0.5000E-01   0.000    
   15251   9.706      0.6364E-03 SPRIN         11  62.5%   863.7       13.00       0.000       489.5       0.000      0.5000E-01   0.000    
   15252   9.706      0.6364E-03 SPRIN         11   0.1%   32.77       507.4       0.000       489.5       0.000      0.5000E-01   0.000    
   15253   9.707      0.6364E-03 SPRIN         11  61.0%   844.3       24.55       0.000       489.5       0.000      0.5000E-01   0.000    
   15254   9.708      0.6364E-03 SPRIN         11  10.4%   169.4       426.1       0.000       489.5       0.000      0.5000E-01   0.000    
   15255   9.708      0.6364E-03 SPRIN         11  43.5%   610.2       163.8       0.000       489.5       0.000      0.5000E-01   0.000    
   15256   9.709      0.6364E-03 SPRIN         11  32.7%   467.1       249.0       0.000       489.5       0.000      0.5000E-01   0.000    
   15257   9.709      0.6364E-03 SPRIN         11  19.6%   291.8       353.2       0.000       489.5       0.000      0.5000E-01   0.000    
   15258   9.710      0.6364E-03 SPRIN         11  54.7%   760.1       74.60       0.000       489.5       0.000      0.5000E-01   0.000    
   15259   9.711      0.6364E-03 SPRIN         11   2.6%   66.39       487.4       0.000       489.5       0.000      0.5000E-01   0.000    
   15260   9.711      0.6364E-03 SPRIN         11  64.1%   885.4      0.6146E-01   0.000       489.5       0.000      0.5000E-01   0.000    
   15261   9.712      0.6364E-03 SPRIN         11   2.1%   59.38       491.6       0.000       489.5       0.000      0.5000E-01   0.000    
   15262   9.713      0.6364E-03 SPRIN         11  55.7%   773.1       66.86       0.000       489.5       0.000      0.5000E-01   0.000    
   15263   9.713      0.6364E-03 SPRIN         11  18.3%   274.7       363.4       0.000       489.5       0.000      0.5000E-01   0.000    
   15264   9.714      0.6364E-03 SPRIN         11  34.1%   485.8       237.8       0.000       489.5       0.000      0.5000E-01   0.000    
   15265   9.715      0.6364E-03 SPRIN         11  42.1%   592.5       174.3       0.000       489.5       0.000      0.5000E-01   0.000    
   15266   9.715      0.6364E-03 SPRIN         11  11.4%   183.4       417.7       0.000       489.5       0.000      0.5000E-01   0.000    
   15267   9.716      0.6364E-03 SPRIN         11  60.4%   835.8       29.56       0.000       489.5       0.000      0.5000E-01   0.000    
   15268   9.716      0.6364E-03 SPRIN         11   0.2%   34.33       506.5       0.000       489.5       0.000      0.5000E-01   0.000    
   15269   9.717      0.6364E-03 SPRIN         11  62.9%   869.2       9.702       0.000       489.5       0.000      0.5000E-01   0.000    
   15270   9.718      0.6364E-03 SPRIN         11   6.8%   121.5       454.6       0.000       489.5       0.000      0.5000E-01   0.000    
   15271   9.718      0.6364E-03 SPRIN         11  48.3%   674.1       125.8       0.000       489.5       0.000      0.5000E-01   0.000    
   15272   9.719      0.6364E-03 SPRIN         11  27.4%   396.5       291.0       0.000       489.5       0.000      0.5000E-01   0.000    
   15273   9.720      0.6364E-03 SPRIN         11  24.6%   359.0       313.3       0.000       489.5       0.000      0.5000E-01   0.000    
   15274   9.720      0.6364E-03 SPRIN         11  50.7%   706.1       106.8       0.000       489.5       0.000      0.5000E-01   0.000    
   15275   9.721      0.6364E-03 SPRIN         11   5.1%   99.52       467.7       0.000       489.5       0.000      0.5000E-01   0.000    
   15276   9.722      0.6364E-03 SPRIN         11  63.6%   878.0       4.474       0.000       489.5       0.000      0.5000E-01   0.000    
   15277   9.722      0.6364E-03 SPRIN         11   0.7%   40.01       503.1       0.000       489.5       0.000      0.5000E-01   0.000    
   15278   9.723      0.6364E-03 SPRIN         11  59.0%   816.5       41.06       0.000       489.5       0.000      0.5000E-01   0.000    
   15279   9.723      0.6364E-03 SPRIN         11  13.7%   213.6       399.8       0.000       489.5       0.000      0.5000E-01   0.000    
   15280   9.724      0.6364E-03 SPRIN         11  39.4%   555.8       196.2       0.000       489.5       0.000      0.5000E-01   0.000    
   15281   9.725      0.6364E-03 SPRIN         11  37.0%   523.7       215.3       0.000       489.5       0.000      0.5000E-01   0.000    
   15282   9.725      0.6364E-03 SPRIN         11  15.8%   241.1       383.4       0.000       489.5       0.000      0.5000E-01   0.000    
   15283   9.726      0.6364E-03 SPRIN         11  57.5%   797.6       52.29       0.000       489.5       0.000      0.5000E-01   0.000    
   15284   9.727      0.6364E-03 SPRIN         11   1.2%   47.55       498.6       0.000       489.5       0.000      0.5000E-01   0.000    
   15285   9.727      0.6364E-03 SPRIN         11  63.9%   882.9       1.572       0.000       489.5       0.000      0.5000E-01   0.000    
   15286   9.728      0.6364E-03 SPRIN         11   3.9%   82.93       477.5       0.000       489.5       0.000      0.5000E-01   0.000    
   15287   9.729      0.6364E-03 SPRIN         11  52.6%   732.0       91.35       0.000       489.5       0.000      0.5000E-01   0.000    
   15288   9.729      0.6364E-03 SPRIN         11  22.2%   327.5       332.0       0.000       489.5       0.000      0.5000E-01   0.000    
   15289   9.730      0.6364E-03 SPRIN         11  29.9%   429.0       271.6       0.000       489.5       0.000      0.5000E-01   0.000    
   CYCLE    TIME      TIME-STEP  ELEMENT          ERROR  I-ENERGY    K-ENERGY T  K-ENERGY R  EXT-WORK     MAS.ERR     TOTAL MASS  MASS ADDED
   15290   9.730      0.6364E-03 SPRIN         11  46.1%   645.2       143.0       0.000       489.5       0.000      0.5000E-01   0.000    
   15291   9.731      0.6364E-03 SPRIN         11   8.4%   142.5       442.1       0.000       489.5       0.000      0.5000E-01   0.000    
   15292   9.732      0.6364E-03 SPRIN         11  62.1%   859.1       15.74       0.000       489.5       0.000      0.5000E-01   0.000    
   15293   9.732      0.6364E-03 SPRIN         11   0.1%   32.15       507.8       0.000       489.5       0.000      0.5000E-01   0.000    
   15294   9.733      0.6364E-03 SPRIN         11  61.5%   850.0       21.11       0.000       489.5       0.000      0.5000E-01   0.000    
   15295   9.734      0.6364E-03 SPRIN         11   9.6%   159.3       432.1       0.000       489.5       0.000      0.5000E-01   0.000    
   15296   9.734      0.6364E-03 SPRIN         11  44.4%   623.2       156.1       0.000       489.5       0.000      0.5000E-01   0.000    
   15297   9.735      0.6364E-03 SPRIN         11  31.7%   453.1       257.3       0.000       489.5       0.000      0.5000E-01   0.000    
   15298   9.736      0.6364E-03 SPRIN         11  20.5%   304.8       345.6       0.000       489.5       0.000      0.5000E-01   0.000    
   15299   9.736      0.6364E-03 SPRIN         11  54.0%   750.1       80.57       0.000       489.5       0.000      0.5000E-01   0.000    
   15300   9.737      0.6364E-03 SPRIN         11   3.1%   72.08       484.0       0.000       489.5       0.000      0.5000E-01   0.000    
   15301   9.737      0.6364E-03 SPRIN         11  64.1%   884.9      0.3793       0.000       489.5       0.000      0.5000E-01   0.000    
   15302   9.738      0.6364E-03 SPRIN         11   1.8%   54.68       494.4       0.000       489.5       0.000      0.5000E-01   0.000    
   15303   9.739      0.6364E-03 SPRIN         11  56.4%   782.4       61.36       0.000       489.5       0.000      0.5000E-01   0.000    
   15304   9.739      0.6364E-03 SPRIN         11  17.3%   262.2       370.9       0.000       489.5       0.000      0.5000E-01   0.000    
   15305   9.740      0.6364E-03 SPRIN         11  35.2%   499.7       229.5       0.000       489.5       0.000      0.5000E-01   0.000    
   15306   9.741      0.6364E-03 SPRIN         11  41.1%   579.2       182.3       0.000       489.5       0.000      0.5000E-01   0.000    
   15307   9.741      0.6364E-03 SPRIN         11  12.2%   194.2       411.3       0.000       489.5       0.000      0.5000E-01   0.000    
   15308   9.742      0.6364E-03 SPRIN         11  59.9%   829.1       33.56       0.000       489.5       0.000      0.5000E-01   0.000    
   15309   9.743      0.6364E-03 SPRIN         11   0.4%   36.01       505.5       0.000       489.5       0.000      0.5000E-01   0.000    
   15310   9.743      0.6364E-03 SPRIN         11  63.2%   872.8       7.562       0.000       489.5       0.000      0.5000E-01   0.000    
   15311   9.744      0.6364E-03 SPRIN         11   6.2%   113.1       459.6       0.000       489.5       0.000      0.5000E-01   0.000    
   15312   9.744      0.6364E-03 SPRIN         11  49.2%   686.0       118.7       0.000       489.5       0.000      0.5000E-01   0.000    
   15313   9.745      0.6364E-03 SPRIN         11  26.4%   382.7       299.2       0.000       489.5       0.000      0.5000E-01   0.000    
   15314   9.746      0.6364E-03 SPRIN         11  25.6%   372.6       305.2       0.000       489.5       0.000      0.5000E-01   0.000    
   15315   9.746      0.6364E-03 SPRIN         11  49.8%   694.6       113.6       0.000       489.5       0.000      0.5000E-01   0.000    
   15316   9.747      0.6364E-03 SPRIN         11   5.7%   107.2       463.1       0.000       489.5       0.000      0.5000E-01   0.000    
   15317   9.748      0.6364E-03 SPRIN         11  63.4%   875.2       6.157       0.000       489.5       0.000      0.5000E-01   0.000    
   15318   9.748      0.6364E-03 SPRIN         11   0.5%   37.54       504.6       0.000       489.5       0.000      0.5000E-01   0.000    
   15319   9.749      0.6364E-03 SPRIN         11  59.5%   823.9       36.65       0.000       489.5       0.000      0.5000E-01   0.000    
   15320   9.750      0.6364E-03 SPRIN         11  12.8%   202.4       406.5       0.000       489.5       0.000      0.5000E-01   0.000    
   15321   9.750      0.6364E-03 SPRIN         11  40.4%   569.4       188.1       0.000       489.5       0.000      0.5000E-01   0.000    
   15322   9.751      0.6364E-03 SPRIN         11  35.9%   509.9       223.5       0.000       489.5       0.000      0.5000E-01   0.000    
   15323   9.751      0.6364E-03 SPRIN         11  16.7%   253.2       376.2       0.000       489.5       0.000      0.5000E-01   0.000    
   15324   9.752      0.6364E-03 SPRIN         11  56.9%   789.0       57.44       0.000       489.5       0.000      0.5000E-01   0.000    
   15325   9.753      0.6364E-03 SPRIN         11   1.5%   51.50       496.2       0.000       489.5       0.000      0.5000E-01   0.000    
   15326   9.753      0.6364E-03 SPRIN         11  64.0%   884.2      0.7853       0.000       489.5       0.000      0.5000E-01   0.000    
   15327   9.754      0.6364E-03 SPRIN         11   3.4%   76.53       481.4       0.000       489.5       0.000      0.5000E-01   0.000    
   15328   9.755      0.6364E-03 SPRIN         11  53.4%   742.6       85.07       0.000       489.5       0.000      0.5000E-01   0.000    
   15329   9.755      0.6364E-03 SPRIN         11  21.3%   314.4       339.8       0.000       489.5       0.000      0.5000E-01   0.000    
   15330   9.756      0.6364E-03 SPRIN         11  30.9%   442.9       263.4       0.000       489.5       0.000      0.5000E-01   0.000    
   15331   9.757      0.6364E-03 SPRIN         11  45.1%   632.6       150.5       0.000       489.5       0.000      0.5000E-01   0.000    
   15332   9.757      0.6364E-03 SPRIN         11   9.1%   152.1       436.4       0.000       489.5       0.000      0.5000E-01   0.000    
   15333   9.758      0.6364E-03 SPRIN         11  61.8%   854.0       18.75       0.000       489.5       0.000      0.5000E-01   0.000    
   15334   9.758      0.6364E-03 SPRIN         11   0.1%   31.98       507.9       0.000       489.5       0.000      0.5000E-01   0.000    
   15335   9.759      0.6364E-03 SPRIN         11  61.9%   855.4       17.93       0.000       489.5       0.000      0.5000E-01   0.000    
   15336   9.760      0.6364E-03 SPRIN         11   8.9%   149.5       437.9       0.000       489.5       0.000      0.5000E-01   0.000    
   15337   9.760      0.6364E-03 SPRIN         11  45.4%   635.9       148.5       0.000       489.5       0.000      0.5000E-01   0.000    
   15338   9.761      0.6364E-03 SPRIN         11  30.6%   439.2       265.6       0.000       489.5       0.000      0.5000E-01   0.000    
   15339   9.762      0.6364E-03 SPRIN         11  21.5%   317.8       337.8       0.000       489.5       0.000      0.5000E-01   0.000    
   15340   9.762      0.6364E-03 SPRIN         11  53.2%   739.8       86.72       0.000       489.5       0.000      0.5000E-01   0.000    
   15341   9.763      0.6364E-03 SPRIN         11   3.5%   78.19       480.4       0.000       489.5       0.000      0.5000E-01   0.000    
   15342   9.764      0.6364E-03 SPRIN         11  64.0%   883.9      0.9677       0.000       489.5       0.000      0.5000E-01   0.000    
   15343   9.764      0.6364E-03 SPRIN         11   1.4%   50.41       496.9       0.000       489.5       0.000      0.5000E-01   0.000    
   15344   9.765      0.6364E-03 SPRIN         11  57.1%   791.3       56.05       0.000       489.5       0.000      0.5000E-01   0.000    
   CYCLE    TIME      TIME-STEP  ELEMENT          ERROR  I-ENERGY    K-ENERGY T  K-ENERGY R  EXT-WORK     MAS.ERR     TOTAL MASS  MASS ADDED
   15345   9.765      0.6364E-03 SPRIN         11  16.4%   250.0       378.2       0.000       489.5       0.000      0.5000E-01   0.000    
   15346   9.766      0.6364E-03 SPRIN         11  36.2%   513.6       221.3       0.000       489.5       0.000      0.5000E-01   0.000    
   15347   9.767      0.6364E-03 SPRIN         11  40.1%   565.8       190.2       0.000       489.5       0.000      0.5000E-01   0.000    
   15348   9.767      0.6364E-03 SPRIN         11  13.1%   205.3       404.7       0.000       489.5       0.000      0.5000E-01   0.000    
   15349   9.768      0.6364E-03 SPRIN         11  59.4%   822.0       37.80       0.000       489.5       0.000      0.5000E-01   0.000    
   15350   9.769      0.6364E-03 SPRIN         11   0.5%   38.15       504.2       0.000       489.5       0.000      0.5000E-01   0.000    
   15351   9.769      0.6364E-03 SPRIN         11  63.4%   876.0       5.685       0.000       489.5       0.000      0.5000E-01   0.000    
   15352   9.770      0.6364E-03 SPRIN         11   5.6%   105.2       464.3       0.000       489.5       0.000      0.5000E-01   0.000    
   15353   9.771      0.6364E-03 SPRIN         11  50.0%   697.7       111.8       0.000       489.5       0.000      0.5000E-01   0.000    
   15354   9.771      0.6364E-03 SPRIN         11  25.4%   369.0       307.3       0.000       489.5       0.000      0.5000E-01   0.000    
   15355   9.772      0.6364E-03 SPRIN         11  26.7%   386.3       297.0       0.000       489.5       0.000      0.5000E-01   0.000    
   15356   9.772      0.6364E-03 SPRIN         11  48.9%   682.8       120.6       0.000       489.5       0.000      0.5000E-01   0.000    
   15357   9.773      0.6364E-03 SPRIN         11   6.3%   115.3       458.3       0.000       489.5       0.000      0.5000E-01   0.000    
   15358   9.774      0.6364E-03 SPRIN         11  63.1%   871.9       8.104       0.000       489.5       0.000      0.5000E-01   0.000    
   15359   9.774      0.6364E-03 SPRIN         11   0.3%   35.52       505.8       0.000       489.5       0.000      0.5000E-01   0.000    
   15360   9.775      0.6364E-03 SPRIN         11  60.0%   830.9       32.48       0.000       489.5       0.000      0.5000E-01   0.000    
   15361   9.776      0.6364E-03 SPRIN         11  12.0%   191.3       413.0       0.000       489.5       0.000      0.5000E-01   0.000    
   15362   9.776      0.6364E-03 SPRIN         11  41.4%   582.8       180.1       0.000       489.5       0.000      0.5000E-01   0.000    
   15363   9.777      0.6364E-03 SPRIN         11  34.9%   496.0       231.7       0.000       489.5       0.000      0.5000E-01   0.000    
   15364   9.778      0.6364E-03 SPRIN         11  17.6%   265.5       368.9       0.000       489.5       0.000      0.5000E-01   0.000    
   15365   9.778      0.6364E-03 SPRIN         11  56.2%   780.0       62.80       0.000       489.5       0.000      0.5000E-01   0.000    
   15366   9.779      0.6364E-03 SPRIN         11   1.9%   55.89       493.6       0.000       489.5       0.000      0.5000E-01   0.000    
   15367   9.779      0.6364E-03 SPRIN         11  64.1%   885.1      0.2686       0.000       489.5       0.000      0.5000E-01   0.000    
   15368   9.780      0.6364E-03 SPRIN         11   3.0%   70.53       484.9       0.000       489.5       0.000      0.5000E-01   0.000    
   15369   9.781      0.6364E-03 SPRIN         11  54.2%   752.8       78.97       0.000       489.5       0.000      0.5000E-01   0.000    
   15370   9.781      0.6364E-03 SPRIN         11  20.3%   301.3       347.6       0.000       489.5       0.000      0.5000E-01   0.000    
   15371   9.782      0.6364E-03 SPRIN         11  32.0%   456.8       255.1       0.000       489.5       0.000      0.5000E-01   0.000    
   15372   9.783      0.6364E-03 SPRIN         11  44.2%   619.8       158.1       0.000       489.5       0.000      0.5000E-01   0.000    
   15373   9.783      0.6364E-03 SPRIN         11   9.8%   161.9       430.5       0.000       489.5       0.000      0.5000E-01   0.000    
   15374   9.784      0.6364E-03 SPRIN         11  61.4%   848.6       22.00       0.000       489.5       0.000      0.5000E-01   0.000    
   15375   9.785      0.6364E-03 SPRIN         11   0.1%   32.27       507.7       0.000       489.5       0.000      0.5000E-01   0.000    
   15376   9.785      0.6364E-03 SPRIN         11  62.2%   860.3       14.99       0.000       489.5       0.000      0.5000E-01   0.000    
   15377   9.786      0.6364E-03 SPRIN         11   8.2%   140.1       443.6       0.000       489.5       0.000      0.5000E-01   0.000    
   15378   9.786      0.6364E-03 SPRIN         11  46.3%   648.5       141.0       0.000       489.5       0.000      0.5000E-01   0.000    
   15379   9.787      0.6364E-03 SPRIN         11  29.6%   425.3       273.8       0.000       489.5       0.000      0.5000E-01   0.000    
   15380   9.788      0.6364E-03 SPRIN         11  22.5%   331.1       329.9       0.000       489.5       0.000      0.5000E-01   0.000    
   15381   9.788      0.6364E-03 SPRIN         11  52.4%   729.1       93.05       0.000       489.5       0.000      0.5000E-01   0.000    
   15382   9.789      0.6364E-03 SPRIN         11   4.0%   84.70       476.5       0.000       489.5       0.000      0.5000E-01   0.000    
   15383   9.790      0.6364E-03 SPRIN         11  63.9%   882.5       1.826       0.000       489.5       0.000      0.5000E-01   0.000    
   15384   9.790      0.6364E-03 SPRIN         11   1.2%   46.58       499.2       0.000       489.5       0.000      0.5000E-01   0.000    
   15385   9.791      0.6364E-03 SPRIN         11  57.7%   799.9       50.96       0.000       489.5       0.000      0.5000E-01   0.000    
   15386   9.792      0.6364E-03 SPRIN         11  15.5%   237.9       385.3       0.000       489.5       0.000      0.5000E-01   0.000    
   15387   9.792      0.6364E-03 SPRIN         11  37.2%   527.4       213.1       0.000       489.5       0.000      0.5000E-01   0.000    
   15388   9.793      0.6364E-03 SPRIN         11  39.1%   552.2       198.3       0.000       489.5       0.000      0.5000E-01   0.000    
   15389   9.793      0.6364E-03 SPRIN         11  13.9%   216.7       398.0       0.000       489.5       0.000      0.5000E-01   0.000    
   15390   9.794      0.6364E-03 SPRIN         11  58.8%   814.5       42.27       0.000       489.5       0.000      0.5000E-01   0.000    
   15391   9.795      0.6364E-03 SPRIN         11   0.7%   40.74       502.6       0.000       489.5       0.000      0.5000E-01   0.000    
   15392   9.795      0.6364E-03 SPRIN         11  63.6%   878.7       4.072       0.000       489.5       0.000      0.5000E-01   0.000    
   15393   9.796      0.6364E-03 SPRIN         11   5.0%   97.54       468.9       0.000       489.5       0.000      0.5000E-01   0.000    
   15394   9.797      0.6364E-03 SPRIN         11  50.9%   709.1       105.0       0.000       489.5       0.000      0.5000E-01   0.000    
   15395   9.797      0.6364E-03 SPRIN         11  24.3%   355.4       315.4       0.000       489.5       0.000      0.5000E-01   0.000    
   15396   9.798      0.6364E-03 SPRIN         11  27.7%   400.1       288.8       0.000       489.5       0.000      0.5000E-01   0.000    
   15397   9.799      0.6364E-03 SPRIN         11  48.0%   670.9       127.7       0.000       489.5       0.000      0.5000E-01   0.000    
   15398   9.799      0.6364E-03 SPRIN         11   7.0%   123.8       453.2       0.000       489.5       0.000      0.5000E-01   0.000    
   15399   9.800      0.6364E-03 SPRIN         11  62.8%   868.2       10.31       0.000       489.5       0.000      0.5000E-01   0.000    
   CYCLE    TIME      TIME-STEP  ELEMENT          ERROR  I-ENERGY    K-ENERGY T  K-ENERGY R  EXT-WORK     MAS.ERR     TOTAL MASS  MASS ADDED
   15400   9.800      0.6364E-03 SPRIN         11   0.2%   33.95       506.7       0.000       489.5       0.000      0.5000E-01   0.000    
     ANIMATION FILE: SPR_PRE_2FLAGA050 WRITTEN
   15401   9.801      0.6364E-03 SPRIN         11  60.5%   837.6       28.54       0.000       489.5       0.000      0.5000E-01   0.000    
   15402   9.802      0.6364E-03 SPRIN         11  11.2%   180.6       419.4       0.000       489.5       0.000      0.5000E-01   0.000    
   15403   9.802      0.6364E-03 SPRIN         11  42.4%   596.0       172.3       0.000       489.5       0.000      0.5000E-01   0.000    
   15404   9.803      0.6364E-03 SPRIN         11  33.9%   482.1       240.0       0.000       489.5       0.000      0.5000E-01   0.000    
   15405   9.804      0.6364E-03 SPRIN         11  18.5%   278.1       361.4       0.000       489.5       0.000      0.5000E-01   0.000    
   15406   9.804      0.6364E-03 SPRIN         11  55.5%   770.6       68.36       0.000       489.5       0.000      0.5000E-01   0.000    
   15407   9.805      0.6364E-03 SPRIN         11   2.2%   60.70       490.8       0.000       489.5       0.000      0.5000E-01   0.000    
   15408   9.806      0.6364E-03 SPRIN         11  64.1%   885.5      0.2259E-01   0.000       489.5       0.000      0.5000E-01   0.000    
   15409   9.806      0.6364E-03 SPRIN         11   2.5%   64.95       488.2       0.000       489.5       0.000      0.5000E-01   0.000    
   15410   9.807      0.6364E-03 SPRIN         11  54.9%   762.8       73.05       0.000       489.5       0.000      0.5000E-01   0.000    
   15411   9.808      0.6364E-03 SPRIN         11  19.3%   288.4       355.3       0.000       489.5       0.000      0.5000E-01   0.000    
   15412   9.808      0.6364E-03 SPRIN         11  33.0%   470.8       246.8       0.000       489.5       0.000      0.5000E-01   0.000    
   15413   9.809      0.6364E-03 SPRIN         11  43.2%   606.8       165.9       0.000       489.5       0.000      0.5000E-01   0.000    
   15414   9.809      0.6364E-03 SPRIN         11  10.6%   172.1       424.5       0.000       489.5       0.000      0.5000E-01   0.000    
   15415   9.810      0.6364E-03 SPRIN         11  60.9%   842.7       25.50       0.000       489.5       0.000      0.5000E-01   0.000    
   15416   9.811      0.6364E-03 SPRIN         11   0.1%   33.01       507.2       0.000       489.5       0.000      0.5000E-01   0.000    
   15417   9.811      0.6364E-03 SPRIN         11  62.6%   864.8       12.31       0.000       489.5       0.000      0.5000E-01   0.000    
   15418   9.812      0.6364E-03 SPRIN         11   7.5%   131.0       449.0       0.000       489.5       0.000      0.5000E-01   0.000    
   15419   9.813      0.6364E-03 SPRIN         11  47.3%   660.9       133.6       0.000       489.5       0.000      0.5000E-01   0.000    
   15420   9.813      0.6364E-03 SPRIN         11  28.5%   411.4       282.1       0.000       489.5       0.000      0.5000E-01   0.000    
   15421   9.814      0.6364E-03 SPRIN         11  23.5%   344.4       321.9       0.000       489.5       0.000      0.5000E-01   0.000    
   15422   9.815      0.6364E-03 SPRIN         11  51.6%   718.2       99.55       0.000       489.5       0.000      0.5000E-01   0.000    
   15423   9.815      0.6364E-03 SPRIN         11   4.5%   91.61       472.4       0.000       489.5       0.000      0.5000E-01   0.000    
   15424   9.816      0.6364E-03 SPRIN         11  63.8%   880.6       2.953       0.000       489.5       0.000      0.5000E-01   0.000    
   15425   9.816      0.6364E-03 SPRIN         11   0.9%   43.18       501.2       0.000       489.5       0.000      0.5000E-01   0.000    
   15426   9.817      0.6364E-03 SPRIN         11  58.3%   808.1       46.09       0.000       489.5       0.000      0.5000E-01   0.000    
   15427   9.818      0.6364E-03 SPRIN         11  14.6%   226.1       392.3       0.000       489.5       0.000      0.5000E-01   0.000    
   15428   9.818      0.6364E-03 SPRIN         11  38.3%   541.1       204.9       0.000       489.5       0.000      0.5000E-01   0.000    
   15429   9.819      0.6364E-03 SPRIN         11  38.1%   538.6       206.4       0.000       489.5       0.000      0.5000E-01   0.000    
   15430   9.820      0.6364E-03 SPRIN         11  14.8%   228.3       391.1       0.000       489.5       0.000      0.5000E-01   0.000    
   15431   9.820      0.6364E-03 SPRIN         11  58.2%   806.6       46.96       0.000       489.5       0.000      0.5000E-01   0.000    
   15432   9.821      0.6364E-03 SPRIN         11   0.9%   43.77       500.8       0.000       489.5       0.000      0.5000E-01   0.000    
   15433   9.822      0.6364E-03 SPRIN         11  63.8%   880.9       2.726       0.000       489.5       0.000      0.5000E-01   0.000    
   15434   9.822      0.6364E-03 SPRIN         11   4.4%   90.31       473.2       0.000       489.5       0.000      0.5000E-01   0.000    
   15435   9.823      0.6364E-03 SPRIN         11  51.7%   720.2       98.35       0.000       489.5       0.000      0.5000E-01   0.000    
   15436   9.823      0.6364E-03 SPRIN         11  23.3%   342.0       323.4       0.000       489.5       0.000      0.5000E-01   0.000    
   15437   9.824      0.6364E-03 SPRIN         11  28.7%   413.9       280.6       0.000       489.5       0.000      0.5000E-01   0.000    
   15438   9.825      0.6364E-03 SPRIN         11  47.1%   658.7       135.0       0.000       489.5       0.000      0.5000E-01   0.000    
   15439   9.825      0.6364E-03 SPRIN         11   7.6%   132.6       448.0       0.000       489.5       0.000      0.5000E-01   0.000    
   15440   9.826      0.6364E-03 SPRIN         11  62.5%   864.0       12.78       0.000       489.5       0.000      0.5000E-01   0.000    
   15441   9.827      0.6364E-03 SPRIN         11   0.1%   32.84       507.3       0.000       489.5       0.000      0.5000E-01   0.000    
   15442   9.827      0.6364E-03 SPRIN         11  61.0%   843.8       24.84       0.000       489.5       0.000      0.5000E-01   0.000    
   15443   9.828      0.6364E-03 SPRIN         11  10.4%   170.2       425.6       0.000       489.5       0.000      0.5000E-01   0.000    
   15444   9.829      0.6364E-03 SPRIN         11  43.4%   609.2       164.4       0.000       489.5       0.000      0.5000E-01   0.000    
   15445   9.829      0.6364E-03 SPRIN         11  32.8%   468.2       248.3       0.000       489.5       0.000      0.5000E-01   0.000    
   15446   9.830      0.6364E-03 SPRIN         11  19.5%   290.8       353.9       0.000       489.5       0.000      0.5000E-01   0.000    
   15447   9.830      0.6364E-03 SPRIN         11  54.8%   761.0       74.12       0.000       489.5       0.000      0.5000E-01   0.000    
   15448   9.831      0.6364E-03 SPRIN         11   2.6%   65.94       487.7       0.000       489.5       0.000      0.5000E-01   0.000    
   15449   9.832      0.6364E-03 SPRIN         11  64.1%   885.4      0.4742E-01   0.000       489.5       0.000      0.5000E-01   0.000    
   15450   9.832      0.6364E-03 SPRIN         11   2.1%   59.79       491.3       0.000       489.5       0.000      0.5000E-01   0.000    
   15451   9.833      0.6364E-03 SPRIN         11  55.6%   772.4       67.33       0.000       489.5       0.000      0.5000E-01   0.000    
   15452   9.834      0.6364E-03 SPRIN         11  18.4%   275.8       362.8       0.000       489.5       0.000      0.5000E-01   0.000    
   15453   9.834      0.6364E-03 SPRIN         11  34.0%   484.7       238.5       0.000       489.5       0.000      0.5000E-01   0.000    
   15454   9.835      0.6364E-03 SPRIN         11  42.2%   593.6       173.7       0.000       489.5       0.000      0.5000E-01   0.000    
   CYCLE    TIME      TIME-STEP  ELEMENT          ERROR  I-ENERGY    K-ENERGY T  K-ENERGY R  EXT-WORK     MAS.ERR     TOTAL MASS  MASS ADDED
   15455   9.836      0.6364E-03 SPRIN         11  11.4%   182.6       418.3       0.000       489.5       0.000      0.5000E-01   0.000    
   15456   9.836      0.6364E-03 SPRIN         11  60.4%   836.4       29.24       0.000       489.5       0.000      0.5000E-01   0.000    
   15457   9.837      0.6364E-03 SPRIN         11   0.2%   34.21       506.5       0.000       489.5       0.000      0.5000E-01   0.000    
   15458   9.837      0.6364E-03 SPRIN         11  62.9%   868.9       9.889       0.000       489.5       0.000      0.5000E-01   0.000    
   15459   9.838      0.6364E-03 SPRIN         11   6.8%   122.2       454.2       0.000       489.5       0.000      0.5000E-01   0.000    
   15460   9.839      0.6364E-03 SPRIN         11  48.2%   673.1       126.4       0.000       489.5       0.000      0.5000E-01   0.000    
   15461   9.839      0.6364E-03 SPRIN         11  27.5%   397.6       290.3       0.000       489.5       0.000      0.5000E-01   0.000    
   15462   9.840      0.6364E-03 SPRIN         11  24.5%   357.9       313.9       0.000       489.5       0.000      0.5000E-01   0.000    
   15463   9.841      0.6364E-03 SPRIN         11  50.7%   707.0       106.2       0.000       489.5       0.000      0.5000E-01   0.000    
   15464   9.841      0.6364E-03 SPRIN         11   5.1%   98.91       468.0       0.000       489.5       0.000      0.5000E-01   0.000    
   15465   9.842      0.6364E-03 SPRIN         11  63.6%   878.2       4.348       0.000       489.5       0.000      0.5000E-01   0.000    
   15466   9.843      0.6364E-03 SPRIN         11   0.7%   40.23       503.0       0.000       489.5       0.000      0.5000E-01   0.000    
   15467   9.843      0.6364E-03 SPRIN         11  58.9%   815.9       41.43       0.000       489.5       0.000      0.5000E-01   0.000    
   15468   9.844      0.6364E-03 SPRIN         11  13.8%   214.6       399.2       0.000       489.5       0.000      0.5000E-01   0.000    
   15469   9.844      0.6364E-03 SPRIN         11  39.3%   554.7       196.8       0.000       489.5       0.000      0.5000E-01   0.000    
   15470   9.845      0.6364E-03 SPRIN         11  37.1%   524.8       214.6       0.000       489.5       0.000      0.5000E-01   0.000    
   15471   9.846      0.6364E-03 SPRIN         11  15.7%   240.1       384.0       0.000       489.5       0.000      0.5000E-01   0.000    
   15472   9.846      0.6364E-03 SPRIN         11  57.6%   798.3       51.88       0.000       489.5       0.000      0.5000E-01   0.000    
   15473   9.847      0.6364E-03 SPRIN         11   1.2%   47.25       498.8       0.000       489.5       0.000      0.5000E-01   0.000    
   15474   9.848      0.6364E-03 SPRIN         11  63.9%   882.8       1.648       0.000       489.5       0.000      0.5000E-01   0.000    
   15475   9.848      0.6364E-03 SPRIN         11   3.9%   83.47       477.2       0.000       489.5       0.000      0.5000E-01   0.000    
   15476   9.849      0.6364E-03 SPRIN         11  52.5%   731.1       91.88       0.000       489.5       0.000      0.5000E-01   0.000    
   15477   9.850      0.6364E-03 SPRIN         11  22.3%   328.6       331.4       0.000       489.5       0.000      0.5000E-01   0.000    
   15478   9.850      0.6364E-03 SPRIN         11  29.8%   427.8       272.3       0.000       489.5       0.000      0.5000E-01   0.000    
   15479   9.851      0.6364E-03 SPRIN         11  46.2%   646.2       142.4       0.000       489.5       0.000      0.5000E-01   0.000    
   15480   9.851      0.6364E-03 SPRIN         11   8.3%   141.8       442.5       0.000       489.5       0.000      0.5000E-01   0.000    
   15481   9.852      0.6364E-03 SPRIN         11  62.2%   859.5       15.51       0.000       489.5       0.000      0.5000E-01   0.000    
   15482   9.853      0.6364E-03 SPRIN         11   0.1%   32.18       507.7       0.000       489.5       0.000      0.5000E-01   0.000    
   15483   9.853      0.6364E-03 SPRIN         11  61.4%   849.6       21.38       0.000       489.5       0.000      0.5000E-01   0.000    
   15484   9.854      0.6364E-03 SPRIN         11   9.7%   160.1       431.6       0.000       489.5       0.000      0.5000E-01   0.000    
   15485   9.855      0.6364E-03 SPRIN         11  44.4%   622.1       156.7       0.000       489.5       0.000      0.5000E-01   0.000    
   15486   9.855      0.6364E-03 SPRIN         11  31.8%   454.3       256.6       0.000       489.5       0.000      0.5000E-01   0.000    
   15487   9.856      0.6364E-03 SPRIN         11  20.5%   303.7       346.2       0.000       489.5       0.000      0.5000E-01   0.000    
   15488   9.857      0.6364E-03 SPRIN         11  54.0%   751.0       80.07       0.000       489.5       0.000      0.5000E-01   0.000    
   15489   9.857      0.6364E-03 SPRIN         11   3.0%   71.60       484.3       0.000       489.5       0.000      0.5000E-01   0.000    
   15490   9.858      0.6364E-03 SPRIN         11  64.1%   884.9      0.3431       0.000       489.5       0.000      0.5000E-01   0.000    
   15491   9.858      0.6364E-03 SPRIN         11   1.8%   55.05       494.1       0.000       489.5       0.000      0.5000E-01   0.000    
   15492   9.859      0.6364E-03 SPRIN         11  56.3%   781.7       61.80       0.000       489.5       0.000      0.5000E-01   0.000    
   15493   9.860      0.6364E-03 SPRIN         11  17.4%   263.3       370.2       0.000       489.5       0.000      0.5000E-01   0.000    
   15494   9.860      0.6364E-03 SPRIN         11  35.1%   498.6       230.2       0.000       489.5       0.000      0.5000E-01   0.000    
   15495   9.861      0.6364E-03 SPRIN         11  41.2%   580.3       181.6       0.000       489.5       0.000      0.5000E-01   0.000    
   15496   9.862      0.6364E-03 SPRIN         11  12.2%   193.3       411.8       0.000       489.5       0.000      0.5000E-01   0.000    
   15497   9.862      0.6364E-03 SPRIN         11  59.9%   829.7       33.23       0.000       489.5       0.000      0.5000E-01   0.000    
   15498   9.863      0.6364E-03 SPRIN         11   0.4%   35.86       505.6       0.000       489.5       0.000      0.5000E-01   0.000    
   15499   9.864      0.6364E-03 SPRIN         11  63.2%   872.5       7.728       0.000       489.5       0.000      0.5000E-01   0.000    
   15500   9.864      0.6364E-03 SPRIN         11   6.2%   113.8       459.2       0.000       489.5       0.000      0.5000E-01   0.000    
   15501   9.865      0.6364E-03 SPRIN         11  49.1%   685.0       119.3       0.000       489.5       0.000      0.5000E-01   0.000    
   15502   9.865      0.6364E-03 SPRIN         11  26.5%   383.8       298.5       0.000       489.5       0.000      0.5000E-01   0.000    
   15503   9.866      0.6364E-03 SPRIN         11  25.5%   371.5       305.8       0.000       489.5       0.000      0.5000E-01   0.000    
   15504   9.867      0.6364E-03 SPRIN         11  49.9%   695.5       113.0       0.000       489.5       0.000      0.5000E-01   0.000    
   15505   9.867      0.6364E-03 SPRIN         11   5.7%   106.6       463.5       0.000       489.5       0.000      0.5000E-01   0.000    
   15506   9.868      0.6364E-03 SPRIN         11  63.4%   875.4       6.009       0.000       489.5       0.000      0.5000E-01   0.000    
   15507   9.869      0.6364E-03 SPRIN         11   0.5%   37.73       504.4       0.000       489.5       0.000      0.5000E-01   0.000    
   15508   9.869      0.6364E-03 SPRIN         11  59.5%   823.3       37.01       0.000       489.5       0.000      0.5000E-01   0.000    
   15509   9.870      0.6364E-03 SPRIN         11  12.9%   203.3       405.9       0.000       489.5       0.000      0.5000E-01   0.000    
   CYCLE    TIME      TIME-STEP  ELEMENT          ERROR  I-ENERGY    K-ENERGY T  K-ENERGY R  EXT-WORK     MAS.ERR     TOTAL MASS  MASS ADDED
   15510   9.871      0.6364E-03 SPRIN         11  40.3%   568.3       188.8       0.000       489.5       0.000      0.5000E-01   0.000    
   15511   9.871      0.6364E-03 SPRIN         11  36.0%   511.0       222.8       0.000       489.5       0.000      0.5000E-01   0.000    
   15512   9.872      0.6364E-03 SPRIN         11  16.6%   252.2       376.8       0.000       489.5       0.000      0.5000E-01   0.000    
   15513   9.872      0.6364E-03 SPRIN         11  56.9%   789.7       57.01       0.000       489.5       0.000      0.5000E-01   0.000    
   15514   9.873      0.6364E-03 SPRIN         11   1.5%   51.16       496.4       0.000       489.5       0.000      0.5000E-01   0.000    
   15515   9.874      0.6364E-03 SPRIN         11  64.0%   884.1      0.8396       0.000       489.5       0.000      0.5000E-01   0.000    
   15516   9.874      0.6364E-03 SPRIN         11   3.4%   77.04       481.1       0.000       489.5       0.000      0.5000E-01   0.000    
   15517   9.875      0.6364E-03 SPRIN         11  53.3%   741.7       85.58       0.000       489.5       0.000      0.5000E-01   0.000    
   15518   9.876      0.6364E-03 SPRIN         11  21.3%   315.4       339.2       0.000       489.5       0.000      0.5000E-01   0.000    
   15519   9.876      0.6364E-03 SPRIN         11  30.8%   441.8       264.0       0.000       489.5       0.000      0.5000E-01   0.000    
   15520   9.877      0.6364E-03 SPRIN         11  45.2%   633.6       149.9       0.000       489.5       0.000      0.5000E-01   0.000    
   15521   9.878      0.6364E-03 SPRIN         11   9.0%   151.3       436.9       0.000       489.5       0.000      0.5000E-01   0.000    
   15522   9.878      0.6364E-03 SPRIN         11  61.8%   854.4       18.49       0.000       489.5       0.000      0.5000E-01   0.000    
   15523   9.879      0.6364E-03 SPRIN         11   0.1%   31.98       507.9       0.000       489.5       0.000      0.5000E-01   0.000    
   15524   9.879      0.6364E-03 SPRIN         11  61.8%   855.0       18.18       0.000       489.5       0.000      0.5000E-01   0.000    
   15525   9.880      0.6364E-03 SPRIN         11   8.9%   150.3       437.5       0.000       489.5       0.000      0.5000E-01   0.000    
   15526   9.881      0.6364E-03 SPRIN         11  45.3%   634.9       149.1       0.000       489.5       0.000      0.5000E-01   0.000    
   15527   9.881      0.6364E-03 SPRIN         11  30.7%   440.3       264.9       0.000       489.5       0.000      0.5000E-01   0.000    
   15528   9.882      0.6364E-03 SPRIN         11  21.4%   316.8       338.4       0.000       489.5       0.000      0.5000E-01   0.000    
   15529   9.883      0.6364E-03 SPRIN         11  53.3%   740.6       86.21       0.000       489.5       0.000      0.5000E-01   0.000    
   15530   9.883      0.6364E-03 SPRIN         11   3.5%   77.67       480.7       0.000       489.5       0.000      0.5000E-01   0.000    
   15531   9.884      0.6364E-03 SPRIN         11  64.0%   884.0      0.9093       0.000       489.5       0.000      0.5000E-01   0.000    
   15532   9.885      0.6364E-03 SPRIN         11   1.5%   50.74       496.7       0.000       489.5       0.000      0.5000E-01   0.000    
   15533   9.885      0.6364E-03 SPRIN         11  57.0%   790.6       56.48       0.000       489.5       0.000      0.5000E-01   0.000    
   15534   9.886      0.6364E-03 SPRIN         11  16.5%   251.0       377.6       0.000       489.5       0.000      0.5000E-01   0.000    
   15535   9.886      0.6364E-03 SPRIN         11  36.1%   512.4       222.0       0.000       489.5       0.000      0.5000E-01   0.000    
   15536   9.887      0.6364E-03 SPRIN         11  40.2%   566.9       189.6       0.000       489.5       0.000      0.5000E-01   0.000    
   15537   9.888      0.6364E-03 SPRIN         11  13.0%   204.4       405.3       0.000       489.5       0.000      0.5000E-01   0.000    
   15538   9.888      0.6364E-03 SPRIN         11  59.4%   822.6       37.45       0.000       489.5       0.000      0.5000E-01   0.000    
   15539   9.889      0.6364E-03 SPRIN         11   0.5%   37.96       504.3       0.000       489.5       0.000      0.5000E-01   0.000    
   15540   9.890      0.6364E-03 SPRIN         11  63.4%   875.7       5.829       0.000       489.5       0.000      0.5000E-01   0.000    
   15541   9.890      0.6364E-03 SPRIN         11   5.6%   105.8       463.9       0.000       489.5       0.000      0.5000E-01   0.000    
   15542   9.891      0.6364E-03 SPRIN         11  50.0%   696.7       112.3       0.000       489.5       0.000      0.5000E-01   0.000    
   15543   9.892      0.6364E-03 SPRIN         11  25.4%   370.1       306.7       0.000       489.5       0.000      0.5000E-01   0.000    
   15544   9.892      0.6364E-03 SPRIN         11  26.6%   385.2       297.7       0.000       489.5       0.000      0.5000E-01   0.000    
   15545   9.893      0.6364E-03 SPRIN         11  49.0%   683.8       120.0       0.000       489.5       0.000      0.5000E-01   0.000    
   15546   9.893      0.6364E-03 SPRIN         11   6.3%   114.7       458.7       0.000       489.5       0.000      0.5000E-01   0.000    
   15547   9.894      0.6364E-03 SPRIN         11  63.1%   872.2       7.935       0.000       489.5       0.000      0.5000E-01   0.000    
   15548   9.895      0.6364E-03 SPRIN         11   0.3%   35.67       505.7       0.000       489.5       0.000      0.5000E-01   0.000    
   15549   9.895      0.6364E-03 SPRIN         11  60.0%   830.4       32.81       0.000       489.5       0.000      0.5000E-01   0.000    
   15550   9.896      0.6364E-03 SPRIN         11  12.1%   192.2       412.5       0.000       489.5       0.000      0.5000E-01   0.000    
   15551   9.897      0.6364E-03 SPRIN         11  41.3%   581.7       180.8       0.000       489.5       0.000      0.5000E-01   0.000    
   15552   9.897      0.6364E-03 SPRIN         11  35.0%   497.2       231.1       0.000       489.5       0.000      0.5000E-01   0.000    
   15553   9.898      0.6364E-03 SPRIN         11  17.5%   264.5       369.5       0.000       489.5       0.000      0.5000E-01   0.000    
   15554   9.899      0.6364E-03 SPRIN         11  56.3%   780.7       62.35       0.000       489.5       0.000      0.5000E-01   0.000    
   15555   9.899      0.6364E-03 SPRIN         11   1.8%   55.51       493.9       0.000       489.5       0.000      0.5000E-01   0.000    
   15556   9.900      0.6364E-03 SPRIN         11  64.1%   885.0      0.3008       0.000       489.5       0.000      0.5000E-01   0.000    
   15557   9.900      0.6364E-03 SPRIN         11   3.0%   71.01       484.6       0.000       489.5       0.000      0.5000E-01   0.000    
   15558   9.901      0.6364E-03 SPRIN         11  54.1%   752.0       79.46       0.000       489.5       0.000      0.5000E-01   0.000    
   15559   9.902      0.6364E-03 SPRIN         11  20.4%   302.4       347.0       0.000       489.5       0.000      0.5000E-01   0.000    
   15560   9.902      0.6364E-03 SPRIN         11  31.9%   455.7       255.8       0.000       489.5       0.000      0.5000E-01   0.000    
   15561   9.903      0.6364E-03 SPRIN         11  44.3%   620.8       157.5       0.000       489.5       0.000      0.5000E-01   0.000    
   15562   9.904      0.6364E-03 SPRIN         11   9.8%   161.1       431.0       0.000       489.5       0.000      0.5000E-01   0.000    
   15563   9.904      0.6364E-03 SPRIN         11  61.4%   849.0       21.72       0.000       489.5       0.000      0.5000E-01   0.000    
   15564   9.905      0.6364E-03 SPRIN         11   0.1%   32.23       507.7       0.000       489.5       0.000      0.5000E-01   0.000    
   CYCLE    TIME      TIME-STEP  ELEMENT          ERROR  I-ENERGY    K-ENERGY T  K-ENERGY R  EXT-WORK     MAS.ERR     TOTAL MASS  MASS ADDED
   15565   9.906      0.6364E-03 SPRIN         11  62.2%   859.9       15.22       0.000       489.5       0.000      0.5000E-01   0.000    
   15566   9.906      0.6364E-03 SPRIN         11   8.2%   140.8       443.1       0.000       489.5       0.000      0.5000E-01   0.000    
   15567   9.907      0.6364E-03 SPRIN         11  46.3%   647.5       141.6       0.000       489.5       0.000      0.5000E-01   0.000    
   15568   9.907      0.6364E-03 SPRIN         11  29.7%   426.4       273.2       0.000       489.5       0.000      0.5000E-01   0.000    
   15569   9.908      0.6364E-03 SPRIN         11  22.4%   330.0       330.5       0.000       489.5       0.000      0.5000E-01   0.000    
   15570   9.909      0.6364E-03 SPRIN         11  52.5%   730.0       92.52       0.000       489.5       0.000      0.5000E-01   0.000    
   15571   9.909      0.6364E-03 SPRIN         11   4.0%   84.15       476.8       0.000       489.5       0.000      0.5000E-01   0.000    
   15572   9.910      0.6364E-03 SPRIN         11  63.9%   882.6       1.745       0.000       489.5       0.000      0.5000E-01   0.000    
   15573   9.911      0.6364E-03 SPRIN         11   1.2%   46.87       499.0       0.000       489.5       0.000      0.5000E-01   0.000    
   15574   9.911      0.6364E-03 SPRIN         11  57.7%   799.2       51.37       0.000       489.5       0.000      0.5000E-01   0.000    
   15575   9.912      0.6364E-03 SPRIN         11  15.6%   238.9       384.7       0.000       489.5       0.000      0.5000E-01   0.000    
   15576   9.913      0.6364E-03 SPRIN         11  37.2%   526.2       213.8       0.000       489.5       0.000      0.5000E-01   0.000    
   15577   9.913      0.6364E-03 SPRIN         11  39.2%   553.3       197.6       0.000       489.5       0.000      0.5000E-01   0.000    
   15578   9.914      0.6364E-03 SPRIN         11  13.9%   215.7       398.5       0.000       489.5       0.000      0.5000E-01   0.000    
   15579   9.914      0.6364E-03 SPRIN         11  58.8%   815.1       41.90       0.000       489.5       0.000      0.5000E-01   0.000    
   15580   9.915      0.6364E-03 SPRIN         11   0.7%   40.51       502.8       0.000       489.5       0.000      0.5000E-01   0.000    
   15581   9.916      0.6364E-03 SPRIN         11  63.6%   878.5       4.194       0.000       489.5       0.000      0.5000E-01   0.000    
   15582   9.916      0.6364E-03 SPRIN         11   5.0%   98.15       468.5       0.000       489.5       0.000      0.5000E-01   0.000    
   15583   9.917      0.6364E-03 SPRIN         11  50.8%   708.2       105.5       0.000       489.5       0.000      0.5000E-01   0.000    
   15584   9.918      0.6364E-03 SPRIN         11  24.4%   356.6       314.7       0.000       489.5       0.000      0.5000E-01   0.000    
   15585   9.918      0.6364E-03 SPRIN         11  27.6%   399.0       289.5       0.000       489.5       0.000      0.5000E-01   0.000    
   15586   9.919      0.6364E-03 SPRIN         11  48.1%   671.9       127.1       0.000       489.5       0.000      0.5000E-01   0.000    
   15587   9.920      0.6364E-03 SPRIN         11   6.9%   123.1       453.7       0.000       489.5       0.000      0.5000E-01   0.000    
   15588   9.920      0.6364E-03 SPRIN         11  62.9%   868.5       10.12       0.000       489.5       0.000      0.5000E-01   0.000    
   15589   9.921      0.6364E-03 SPRIN         11   0.2%   34.07       506.6       0.000       489.5       0.000      0.5000E-01   0.000    
   15590   9.921      0.6364E-03 SPRIN         11  60.5%   837.0       28.85       0.000       489.5       0.000      0.5000E-01   0.000    
   15591   9.922      0.6364E-03 SPRIN         11  11.3%   181.5       418.9       0.000       489.5       0.000      0.5000E-01   0.000    
   15592   9.923      0.6364E-03 SPRIN         11  42.3%   594.9       172.9       0.000       489.5       0.000      0.5000E-01   0.000    
   15593   9.923      0.6364E-03 SPRIN         11  33.9%   483.3       239.3       0.000       489.5       0.000      0.5000E-01   0.000    
   15594   9.924      0.6364E-03 SPRIN         11  18.5%   277.0       362.1       0.000       489.5       0.000      0.5000E-01   0.000    
   15595   9.925      0.6364E-03 SPRIN         11  55.6%   771.4       67.90       0.000       489.5       0.000      0.5000E-01   0.000    
   15596   9.925      0.6364E-03 SPRIN         11   2.2%   60.29       491.0       0.000       489.5       0.000      0.5000E-01   0.000    
   15597   9.926      0.6364E-03 SPRIN         11  64.1%   885.5      0.3256E-01   0.000       489.5       0.000      0.5000E-01   0.000    
   15598   9.927      0.6364E-03 SPRIN         11   2.6%   65.39       488.0       0.000       489.5       0.000      0.5000E-01   0.000    
   15599   9.927      0.6364E-03 SPRIN         11  54.9%   762.0       73.53       0.000       489.5       0.000      0.5000E-01   0.000    
   15600   9.928      0.6364E-03 SPRIN         11  19.4%   289.5       354.6       0.000       489.5       0.000      0.5000E-01   0.000    
   15601   9.928      0.6364E-03 SPRIN         11  32.9%   469.6       247.5       0.000       489.5       0.000      0.5000E-01   0.000    
   15602   9.929      0.6364E-03 SPRIN         11  43.3%   607.8       165.2       0.000       489.5       0.000      0.5000E-01   0.000    
   15603   9.930      0.6364E-03 SPRIN         11  10.5%   171.2       425.0       0.000       489.5       0.000      0.5000E-01   0.000    
   15604   9.930      0.6364E-03 SPRIN         11  61.0%   843.2       25.20       0.000       489.5       0.000      0.5000E-01   0.000    
   15605   9.931      0.6364E-03 SPRIN         11   0.1%   32.93       507.3       0.000       489.5       0.000      0.5000E-01   0.000    
   15606   9.932      0.6364E-03 SPRIN         11  62.6%   864.5       12.52       0.000       489.5       0.000      0.5000E-01   0.000    
   15607   9.932      0.6364E-03 SPRIN         11   7.5%   131.7       448.5       0.000       489.5       0.000      0.5000E-01   0.000    
   15608   9.933      0.6364E-03 SPRIN         11  47.2%   659.9       134.2       0.000       489.5       0.000      0.5000E-01   0.000    
   15609   9.934      0.6364E-03 SPRIN         11  28.6%   412.5       281.4       0.000       489.5       0.000      0.5000E-01   0.000    
   15610   9.934      0.6364E-03 SPRIN         11  23.4%   343.3       322.6       0.000       489.5       0.000      0.5000E-01   0.000    
   15611   9.935      0.6364E-03 SPRIN         11  51.6%   719.1       99.01       0.000       489.5       0.000      0.5000E-01   0.000    
   15612   9.935      0.6364E-03 SPRIN         11   4.5%   91.02       472.7       0.000       489.5       0.000      0.5000E-01   0.000    
   15613   9.936      0.6364E-03 SPRIN         11  63.8%   880.7       2.851       0.000       489.5       0.000      0.5000E-01   0.000    
   15614   9.937      0.6364E-03 SPRIN         11   0.9%   43.44       501.0       0.000       489.5       0.000      0.5000E-01   0.000    
   15615   9.937      0.6364E-03 SPRIN         11  58.3%   807.4       46.48       0.000       489.5       0.000      0.5000E-01   0.000    
   15616   9.938      0.6364E-03 SPRIN         11  14.7%   227.1       391.8       0.000       489.5       0.000      0.5000E-01   0.000    
   15617   9.939      0.6364E-03 SPRIN         11  38.2%   540.0       205.6       0.000       489.5       0.000      0.5000E-01   0.000    
   15618   9.939      0.6364E-03 SPRIN         11  38.2%   539.7       205.8       0.000       489.5       0.000      0.5000E-01   0.000    
   15619   9.940      0.6364E-03 SPRIN         11  14.7%   227.3       391.6       0.000       489.5       0.000      0.5000E-01   0.000    
   CYCLE    TIME      TIME-STEP  ELEMENT          ERROR  I-ENERGY    K-ENERGY T  K-ENERGY R  EXT-WORK     MAS.ERR     TOTAL MASS  MASS ADDED
   15620   9.941      0.6364E-03 SPRIN         11  58.3%   807.3       46.57       0.000       489.5       0.000      0.5000E-01   0.000    
   15621   9.941      0.6364E-03 SPRIN         11   0.9%   43.51       501.0       0.000       489.5       0.000      0.5000E-01   0.000    
   15622   9.942      0.6364E-03 SPRIN         11  63.8%   880.8       2.827       0.000       489.5       0.000      0.5000E-01   0.000    
   15623   9.942      0.6364E-03 SPRIN         11   4.5%   90.89       472.8       0.000       489.5       0.000      0.5000E-01   0.000    
   15624   9.943      0.6364E-03 SPRIN         11  51.7%   719.3       98.88       0.000       489.5       0.000      0.5000E-01   0.000    
   15625   9.944      0.6364E-03 SPRIN         11  23.4%   343.1       322.8       0.000       489.5       0.000      0.5000E-01   0.000    
   15626   9.944      0.6364E-03 SPRIN         11  28.6%   412.8       281.3       0.000       489.5       0.000      0.5000E-01   0.000    
   15627   9.945      0.6364E-03 SPRIN         11  47.2%   659.7       134.4       0.000       489.5       0.000      0.5000E-01   0.000    
   15628   9.946      0.6364E-03 SPRIN         11   7.6%   131.9       448.4       0.000       489.5       0.000      0.5000E-01   0.000    
   15629   9.946      0.6364E-03 SPRIN         11  62.5%   864.4       12.57       0.000       489.5       0.000      0.5000E-01   0.000    
   15630   9.947      0.6364E-03 SPRIN         11   0.1%   32.92       507.3       0.000       489.5       0.000      0.5000E-01   0.000    
   15631   9.948      0.6364E-03 SPRIN         11  61.0%   843.3       25.13       0.000       489.5       0.000      0.5000E-01   0.000    
   15632   9.948      0.6364E-03 SPRIN         11  10.5%   171.0       425.1       0.000       489.5       0.000      0.5000E-01   0.000    
   15633   9.949      0.6364E-03 SPRIN         11  43.3%   608.1       165.1       0.000       489.5       0.000      0.5000E-01   0.000    
   15634   9.949      0.6364E-03 SPRIN         11  32.9%   469.4       247.6       0.000       489.5       0.000      0.5000E-01   0.000    
   15635   9.950      0.6364E-03 SPRIN         11  19.4%   289.7       354.5       0.000       489.5       0.000      0.5000E-01   0.000    
   15636   9.951      0.6364E-03 SPRIN         11  54.8%   761.8       73.64       0.000       489.5       0.000      0.5000E-01   0.000    
   15637   9.951      0.6364E-03 SPRIN         11   2.6%   65.49       487.9       0.000       489.5       0.000      0.5000E-01   0.000    
   15638   9.952      0.6364E-03 SPRIN         11  64.1%   885.5      0.3519E-01   0.000       489.5       0.000      0.5000E-01   0.000    
   15639   9.953      0.6364E-03 SPRIN         11   2.2%   60.19       491.1       0.000       489.5       0.000      0.5000E-01   0.000    
   15640   9.953      0.6364E-03 SPRIN         11  55.6%   771.6       67.79       0.000       489.5       0.000      0.5000E-01   0.000    
   15641   9.954      0.6364E-03 SPRIN         11  18.4%   276.8       362.2       0.000       489.5       0.000      0.5000E-01   0.000    
   15642   9.955      0.6364E-03 SPRIN         11  34.0%   483.6       239.2       0.000       489.5       0.000      0.5000E-01   0.000    
   15643   9.955      0.6364E-03 SPRIN         11  42.3%   594.7       173.0       0.000       489.5       0.000      0.5000E-01   0.000    
   15644   9.956      0.6364E-03 SPRIN         11  11.3%   181.7       418.8       0.000       489.5       0.000      0.5000E-01   0.000    
   15645   9.956      0.6364E-03 SPRIN         11  60.5%   836.9       28.93       0.000       489.5       0.000      0.5000E-01   0.000    
   15646   9.957      0.6364E-03 SPRIN         11   0.2%   34.09       506.6       0.000       489.5       0.000      0.5000E-01   0.000    
   15647   9.958      0.6364E-03 SPRIN         11  62.9%   868.6       10.08       0.000       489.5       0.000      0.5000E-01   0.000    
   15648   9.958      0.6364E-03 SPRIN         11   6.9%   122.9       453.8       0.000       489.5       0.000      0.5000E-01   0.000    
   15649   9.959      0.6364E-03 SPRIN         11  48.1%   672.1       127.0       0.000       489.5       0.000      0.5000E-01   0.000    
   15650   9.960      0.6364E-03 SPRIN         11  27.6%   398.7       289.7       0.000       489.5       0.000      0.5000E-01   0.000    
   15651   9.960      0.6364E-03 SPRIN         11  24.4%   356.8       314.6       0.000       489.5       0.000      0.5000E-01   0.000    
   15652   9.961      0.6364E-03 SPRIN         11  50.8%   707.9       105.7       0.000       489.5       0.000      0.5000E-01   0.000    
   15653   9.962      0.6364E-03 SPRIN         11   5.0%   98.29       468.4       0.000       489.5       0.000      0.5000E-01   0.000    
   15654   9.962      0.6364E-03 SPRIN         11  63.6%   878.4       4.224       0.000       489.5       0.000      0.5000E-01   0.000    
   15655   9.963      0.6364E-03 SPRIN         11   0.7%   40.46       502.8       0.000       489.5       0.000      0.5000E-01   0.000    
   15656   9.963      0.6364E-03 SPRIN         11  58.9%   815.3       41.81       0.000       489.5       0.000      0.5000E-01   0.000    
   15657   9.964      0.6364E-03 SPRIN         11  13.8%   215.5       398.7       0.000       489.5       0.000      0.5000E-01   0.000    
   15658   9.965      0.6364E-03 SPRIN         11  39.2%   553.6       197.5       0.000       489.5       0.000      0.5000E-01   0.000    
   15659   9.965      0.6364E-03 SPRIN         11  37.1%   526.0       213.9       0.000       489.5       0.000      0.5000E-01   0.000    
   15660   9.966      0.6364E-03 SPRIN         11  15.6%   239.1       384.6       0.000       489.5       0.000      0.5000E-01   0.000    
   15661   9.967      0.6364E-03 SPRIN         11  57.6%   799.0       51.47       0.000       489.5       0.000      0.5000E-01   0.000    
   15662   9.967      0.6364E-03 SPRIN         11   1.2%   46.95       499.0       0.000       489.5       0.000      0.5000E-01   0.000    
   15663   9.968      0.6364E-03 SPRIN         11  63.9%   882.6       1.727       0.000       489.5       0.000      0.5000E-01   0.000    
   15664   9.969      0.6364E-03 SPRIN         11   4.0%   84.02       476.9       0.000       489.5       0.000      0.5000E-01   0.000    
   15665   9.969      0.6364E-03 SPRIN         11  52.5%   730.2       92.40       0.000       489.5       0.000      0.5000E-01   0.000    
   15666   9.970      0.6364E-03 SPRIN         11  22.4%   329.7       330.7       0.000       489.5       0.000      0.5000E-01   0.000    
   15667   9.970      0.6364E-03 SPRIN         11  29.7%   426.7       273.0       0.000       489.5       0.000      0.5000E-01   0.000    
   15668   9.971      0.6364E-03 SPRIN         11  46.2%   647.3       141.8       0.000       489.5       0.000      0.5000E-01   0.000    
   15669   9.972      0.6364E-03 SPRIN         11   8.2%   141.0       443.0       0.000       489.5       0.000      0.5000E-01   0.000    
   15670   9.972      0.6364E-03 SPRIN         11  62.2%   859.9       15.28       0.000       489.5       0.000      0.5000E-01   0.000    
   15671   9.973      0.6364E-03 SPRIN         11   0.1%   32.22       507.7       0.000       489.5       0.000      0.5000E-01   0.000    
   15672   9.974      0.6364E-03 SPRIN         11  61.4%   849.1       21.66       0.000       489.5       0.000      0.5000E-01   0.000    
   15673   9.974      0.6364E-03 SPRIN         11   9.7%   160.9       431.1       0.000       489.5       0.000      0.5000E-01   0.000    
   15674   9.975      0.6364E-03 SPRIN         11  44.3%   621.1       157.4       0.000       489.5       0.000      0.5000E-01   0.000    
   CYCLE    TIME      TIME-STEP  ELEMENT          ERROR  I-ENERGY    K-ENERGY T  K-ENERGY R  EXT-WORK     MAS.ERR     TOTAL MASS  MASS ADDED
   15675   9.976      0.6364E-03 SPRIN         11  31.8%   455.4       255.9       0.000       489.5       0.000      0.5000E-01   0.000    
   15676   9.976      0.6364E-03 SPRIN         11  20.4%   302.6       346.8       0.000       489.5       0.000      0.5000E-01   0.000    
   15677   9.977      0.6364E-03 SPRIN         11  54.1%   751.8       79.58       0.000       489.5       0.000      0.5000E-01   0.000    
   15678   9.977      0.6364E-03 SPRIN         11   3.0%   71.12       484.6       0.000       489.5       0.000      0.5000E-01   0.000    
   15679   9.978      0.6364E-03 SPRIN         11  64.1%   885.0      0.3087       0.000       489.5       0.000      0.5000E-01   0.000    
   15680   9.979      0.6364E-03 SPRIN         11   1.8%   55.42       493.9       0.000       489.5       0.000      0.5000E-01   0.000    
   15681   9.979      0.6364E-03 SPRIN         11  56.3%   780.9       62.25       0.000       489.5       0.000      0.5000E-01   0.000    
   15682   9.980      0.6364E-03 SPRIN         11  17.5%   264.3       369.6       0.000       489.5       0.000      0.5000E-01   0.000    
   15683   9.981      0.6364E-03 SPRIN         11  35.0%   497.5       230.9       0.000       489.5       0.000      0.5000E-01   0.000    
   15684   9.981      0.6364E-03 SPRIN         11  41.3%   581.4       181.0       0.000       489.5       0.000      0.5000E-01   0.000    
   15685   9.982      0.6364E-03 SPRIN         11  12.1%   192.4       412.4       0.000       489.5       0.000      0.5000E-01   0.000    
   15686   9.983      0.6364E-03 SPRIN         11  60.0%   830.2       32.89       0.000       489.5       0.000      0.5000E-01   0.000    
   15687   9.983      0.6364E-03 SPRIN         11   0.3%   35.71       505.6       0.000       489.5       0.000      0.5000E-01   0.000    
   15688   9.984      0.6364E-03 SPRIN         11  63.1%   872.3       7.895       0.000       489.5       0.000      0.5000E-01   0.000    
   15689   9.984      0.6364E-03 SPRIN         11   6.3%   114.5       458.8       0.000       489.5       0.000      0.5000E-01   0.000    
   15690   9.985      0.6364E-03 SPRIN         11  49.0%   684.0       119.9       0.000       489.5       0.000      0.5000E-01   0.000    
   15691   9.986      0.6364E-03 SPRIN         11  26.6%   384.9       297.8       0.000       489.5       0.000      0.5000E-01   0.000    
   15692   9.986      0.6364E-03 SPRIN         11  25.5%   370.4       306.5       0.000       489.5       0.000      0.5000E-01   0.000    
   15693   9.987      0.6364E-03 SPRIN         11  49.9%   696.5       112.5       0.000       489.5       0.000      0.5000E-01   0.000    
   15694   9.988      0.6364E-03 SPRIN         11   5.6%   105.9       463.8       0.000       489.5       0.000      0.5000E-01   0.000    
   15695   9.988      0.6364E-03 SPRIN         11  63.4%   875.7       5.863       0.000       489.5       0.000      0.5000E-01   0.000    
   15696   9.989      0.6364E-03 SPRIN         11   0.5%   37.91       504.3       0.000       489.5       0.000      0.5000E-01   0.000    
   15697   9.990      0.6364E-03 SPRIN         11  59.4%   822.7       37.36       0.000       489.5       0.000      0.5000E-01   0.000    
   15698   9.990      0.6364E-03 SPRIN         11  13.0%   204.2       405.4       0.000       489.5       0.000      0.5000E-01   0.000    
   15699   9.991      0.6364E-03 SPRIN         11  40.2%   567.1       189.4       0.000       489.5       0.000      0.5000E-01   0.000    
   15700   9.991      0.6364E-03 SPRIN         11  36.1%   512.2       222.1       0.000       489.5       0.000      0.5000E-01   0.000    
   15701   9.992      0.6364E-03 SPRIN         11  16.5%   251.2       377.4       0.000       489.5       0.000      0.5000E-01   0.000    
   15702   9.993      0.6364E-03 SPRIN         11  57.0%   790.4       56.58       0.000       489.5       0.000      0.5000E-01   0.000    
   15703   9.993      0.6364E-03 SPRIN         11   1.5%   50.82       496.6       0.000       489.5       0.000      0.5000E-01   0.000    
   15704   9.994      0.6364E-03 SPRIN         11  64.0%   884.0      0.8958       0.000       489.5       0.000      0.5000E-01   0.000    
   15705   9.995      0.6364E-03 SPRIN         11   3.5%   77.55       480.7       0.000       489.5       0.000      0.5000E-01   0.000    
   15706   9.995      0.6364E-03 SPRIN         11  53.3%   740.8       86.09       0.000       489.5       0.000      0.5000E-01   0.000    
   15707   9.996      0.6364E-03 SPRIN         11  21.4%   316.5       338.6       0.000       489.5       0.000      0.5000E-01   0.000    
   15708   9.997      0.6364E-03 SPRIN         11  30.7%   440.6       264.7       0.000       489.5       0.000      0.5000E-01   0.000    
   15709   9.997      0.6364E-03 SPRIN         11  45.3%   634.7       149.3       0.000       489.5       0.000      0.5000E-01   0.000    
   15710   9.998      0.6364E-03 SPRIN         11   9.0%   150.5       437.4       0.000       489.5       0.000      0.5000E-01   0.000    
   15711   9.998      0.6364E-03 SPRIN         11  61.8%   854.9       18.24       0.000       489.5       0.000      0.5000E-01   0.000    
   15712   9.999      0.6364E-03 SPRIN         11   0.1%   31.98       507.9       0.000       489.5       0.000      0.5000E-01   0.000    
   15713   10.00      0.6364E-03 SPRIN         11  61.8%   854.6       18.43       0.000       489.5       0.000      0.5000E-01   0.000    
   15714   10.00      0.6364E-03 SPRIN         11   9.0%   151.1       437.0       0.000       489.5       0.000      0.5000E-01   0.000    
     ANIMATION FILE: SPR_PRE_2FLAGA051 WRITTEN
   15715   10.00      0.6364E-03 SPRIN         11  45.2%   633.9       149.7       0.000       489.5       0.000      0.5000E-01   0.000    

     RESTART FILES: SPR_PRE_2FLAG_0001_[0001-0004].rst WRITTEN
     -------------

  
                           ** CPU USER TIME **
  
  
                        ** SUMMARY **
  
 #PROC  ELEMENT   KINCOND   INTEG     IO        T0        ASM       RESOL    
   1   .2452E+00 .3400E+00 .1963E+00 .1679E+01 .5723E+00 .1012E+00 .4236E+01
   2   .2129E+00 .2759E+00 .1928E+00 .9736E+00 .1660E+01 .1024E+00 .4611E+01
   3   .2137E+00 .2915E+00 .2045E+00 .8976E+00 .1681E+01 .1005E+00 .4577E+01
   4   .2045E+00 .2765E+00 .1938E+00 .9610E+00 .1689E+01 .9863E-01 .4579E+01
  
                 ** SPMD COM. TIME **
  
 #PROC  FORCES    RBYFOR    RBYVEL    VEL       TOT       %        
   1   .5967E-01 .0000E+00 .0000E+00 .6858E-01 .1283E+00 .3028E+01
   2   .6354E-01 .0000E+00 .0000E+00 .6767E-01 .1312E+00 .2845E+01
   3   .6104E-01 .0000E+00 .0000E+00 .6764E-01 .1287E+00 .2811E+01
   4   .6093E-01 .0000E+00 .0000E+00 .6530E-01 .1262E+00 .2756E+01
  
 
                   ** CUMULATIVE CPU TIME SUMMARY **
  
 CONTACT SORTING.............: .0000E+00     0.00 % 
 CONTACT FORCES..............: .9045E-01     0.50 % 
 ELEMENT FORCES..............: .8764E+00     4.87 % 
 KINEMATIC COND..............: .1184E+01     6.58 % 
 INTEGRATION.................: .7875E+00     4.37 % 
 ASSEMBLING..................: .4027E+00     2.24 % 
 OTHERS (including I/O)......: .1466E+02    81.44 % 
 TOTAL.......................: .1800E+02   100.00 % 
  
  
                           ** ELAPSED TIME **
  
  
                        ** SUMMARY **
  
 #PROC  ELEMENT   KINCOND   INTEG     IO        T0        ASM       RESOL    
   1   .1559E+00 .2164E+00 .1231E+00 .1136E+01 .3605E+00 .6390E-01 .2733E+01
   2   .1285E+00 .1647E+00 .1152E+00 .5854E+00 .9826E+00 .6179E-01 .2733E+01
   3   .1293E+00 .1754E+00 .1227E+00 .5416E+00 .1003E+01 .6052E-01 .2732E+01
   4   .1241E+00 .1662E+00 .1165E+00 .5793E+00 .1007E+01 .5952E-01 .2733E+01
  
        ELEMENT   KINCOND   INTEG     IO        T0        ASM       RESOL    
 MIN   .1241E+00 .1647E+00 .1152E+00 .5416E+00 .3605E+00 .5952E-01 .2732E+01
 MAX   .1559E+00 .2164E+00 .1231E+00 .1136E+01 .1007E+01 .6390E-01 .2733E+01
 AVG   .1344E+00 .1807E+00 .1194E+00 .7105E+00 .8381E+00 .6143E-01 .2732E+01
  
                 ** SPMD COM. TIME **
  
 #PROC  FORCES    RBYFOR    RBYVEL    VEL       TOT       %        
   1   .3776E-01 .0000E+00 .0000E+00 .4365E-01 .8141E-01 .2979E+01
   2   .3825E-01 .0000E+00 .0000E+00 .4098E-01 .7923E-01 .2900E+01
   3   .3686E-01 .0000E+00 .0000E+00 .4083E-01 .7769E-01 .2843E+01
   4   .3693E-01 .0000E+00 .0000E+00 .3976E-01 .7669E-01 .2807E+01
  
        FORCES    RBYFOR    RBYVEL    VEL       TOT       %        
 MIN   .3686E-01 .0000E+00 .0000E+00 .3976E-01 .7669E-01 .2807E+01
 MAX   .3825E-01 .0000E+00 .0000E+00 .4365E-01 .8141E-01 .2979E+01
 AVG   .3745E-01 .0000E+00 .0000E+00 .4130E-01 .7875E-01 .2882E+01
  
                   ** MEMORY USAGE STATISTICS **
  
 TOTAL MEMORY USED .........................:      228 MB
 MAXIMUM MEMORY PER PROCESSOR...............:       57 MB
 MINIMUM MEMORY PER PROCESSOR...............:       57 MB
 AVERAGE MEMORY PER PROCESSOR...............:       57 MB
  
                   ** DISK USAGE STATISTICS **
  
 TOTAL DISK SPACE USED .....................:          1 MB
 ANIMATION/H3D/TH/OUTP SIZE ................:          0 MB
 RESTART FILE SIZE .........................:          1 MB
  
                   ** COMPUTE TIME INFORMATION **
                        ** CURRENT ENGINE **
  
 EXECUTION STARTED .........................:      2022/11/23  16:23:00
 EXECUTION COMPLETED .......................:      2022/11/23  16:23:02
  
 ELAPSED TIME     =          2.83 s
                          0:00:02
 ESTIMATED SPEEDUP=          6.36



     NORMAL TERMINATION      



     TOTAL NUMBER OF CYCLES  :   15716

  
                   ** COMPUTE RUNTIME INFORMATION SUMMARY **
  
        STARTER RUNTIME =          0.60s (00:00:00)
 # 001   ENGINE RUNTIME =          2.83s (00:00:02)
 ------------------------------ 
 STARTER+ENGINE RUNTIME =          3.43s (00:00:03)
  
