 CONV_EL6_0001.out
************************************************************************
**                                                                    **
**                                                                    **
**                         OpenRadioss Engine                         **
**                                                                    **
**            Non-linear Finite Element Analysis Software             **
**                                                                    **
**                                                                    **
**                                                                    **
**                    Linux 64 bits, GNU compiler                     **
**                                                                    **
**                                                                    **
**                                                                    **
**                                                                    **
************************************************************************
** OpenRadioss Software                                               **
** COPYRIGHT (C) 1986-2023 Altair Engineering, Inc.                   **
** Licensed under GNU Affero General Public License.                  **
** See License file.                                                  **
************************************************************************
 
 NUMBER OF SPMD DOMAINS           1
 NUMBER OF THREADS PER DOMAIN     2
 NUMBER OF HMPP PROCESSES         2
  
 COMPUTATION HARDWARE DESCRIPTION
  
 HOSTNAME     CPU TYPE, FREQUENCY AND MEMORY
 FR-LAP206   Intel(R) Core(TM) i7-8850H CPU @ 2.60GHz (x86_64), 2592 MHz,  25424 MB RAM,   7168 MB swap
  
************************************************************************


 CONV_EL6D01                                                                     


 FINAL TIME . . . . . . . . . . . . . . . . . . .  0.2000100E-02

 TIME INTERVAL FOR TIME HISTORY PLOTS . . . . . .  0.1000000E-04

 TIME STEP SCALE FACTOR . . . . . . . . . . . . .  0.9000000    

 MINIMUM TIME STEP  . . . . . . . . . . . . . . .   0.000000    


 BRICK TIME STEP SCALE FACTOR . . . . . . . . . .  0.9000000    
 BRICK MINIMUM TIME STEP. . . . . . . . . . . . .   0.000000    
 MIN. TIME STEP FLAG (1:STOP RUN, 2:DELETE BRICK)     1

 QUAD TIME STEP SCALE FACTOR. . . . . . . . . . .  0.9000000    
 QUAD MINIMUM TIME STEP . . . . . . . . . . . . .   0.000000    
 MIN. TIME STEP FLAG (1:STOP RUN, 2:DELETE QUAD).     1

 SHELL TIME STEP SCALE FACTOR . . . . . . . . . .  0.9000000    
 SHELL MINIMUM TIME STEP. . . . . . . . . . . . .   0.000000    
 MIN. TIME FLAG (1:STOP, 2:DELETE, 3:SMALL STRAIN)    2

 TRUSS TIME STEP SCALE FACTOR . . . . . . . . . .  0.9000000    
 TRUSS MINIMUM TIME STEP. . . . . . . . . . . . .   0.000000    
 MIN. TIME FLAG (1:STOP, 2:DELETE). . . . . . . .     0

 BEAM TIME STEP SCALE FACTOR. . . . . . . . . . .  0.9000000    
 BEAM MINIMUM TIME STEP . . . . . . . . . . . . .   0.000000    
 MIN. TIME FLAG (1:STOP, 2:DELETE). . . . . . . .     0

 SPRING TIME STEP SCALE FACTOR. . . . . . . . . .  0.9000000    
 SPRING MINIMUM TIME STEP . . . . . . . . . . . .   0.000000    
 MIN. TIME FLAG (1:STOP, 2:DELETE). . . . . . . .     0

 AIRBAG TIME STEP SCALE FACTOR. . . . . . . . . .  0.9000000    
 AIRBAG MINIMUM TIME STEP . . . . . . . . . . . .   0.000000    
 MIN. TIME FLAG (1:STOP). . . . . . . . . . . . .     0

 CONTACT TIME STEP SCALE FACTOR . . . . . . . . .  0.9000000    
 CONTACT MINIMUM TIME STEP. . . . . . . . . . . .   0.000000    
 MIN. TIME FLAG(1:STOP, 2:REMOVE NODE FROM INTERF)    0

 PRINTOUT CYCLE FREQUENCY . . . . . . . . . . . .   100

 RESTART CYCLE FREQUENCY. . . . . . . . . . . . .       5000

 MAXIMUM RESTART WRITE BEFORE OVERWRITE . . . . .     0

 INVERS: INPUT DECK VERSION . . . . . . . . . . .  2019
 ITTYP : FLAG FOR TYPE OF T-FILE. . . . . . . . .     4


 TIME FOR FIRST ANIMATION-FILE PLOT . . . . . . .   0.000000    
 TIME INTERVAL FOR ANIMATION-FILE PLOTS . . . . .  0.1000000E-02
 TIME TO STOP ANIMATION-FILE PLOTS. . . . . . . .  0.1000000E+21
 SENSOR FOR ANIMATION-FILE PLOTS. . . . . . . . .          0
 TIME INTERVAL FOR SENSOR ANIMATION-FILE PLOTS. .   0.000000    

 VARIABLE SAVED ON ANIMATION FILES (1: YES) :
      PLASTIC STRAIN. . . . . .     1
      DENSITY     (SOLID ONLY).     0
      SPECIFIC ENERGY . . . . .     1
      HOURGLASS ENERGY. . . . .     1
      TEMPERATURE (SOLID ONLY).     0
      THICKNESS   (SHELL ONLY).     0
      PRESSURE    (SOLID ONLY).     0
      VON MISES . . . . . . . .     1
      TURBULENT ENERGY (FLUID).     0
      TURBULENT VISCOSITY(FLUID)    0
      VORTICITY (FLUID) . . . .     0
 NODAL VALUES SAVED ON ANIMATION FILES (1: YES) :
      PRESSURE. . . . . . . . .     0
      DENSITY . . . . . . . . .     0
      TEMPERATURE . . . . . . .     0
 VECTOR SAVED ON ANIMATION FILES (1: YES) :
      VELOCITY VECTOR . . . . .     1
      DISPLACEMENT VECTOR . . .     0
      ACCELERATION VECTOR . . .     0
      CONTACT FORCES. . . . . .     0
      INTERNAL FORCES . . . . .     0
      EXTERNAL FORCES . . . . .     0
      SECTION RBY RWALL FORCES.     0
      ROTATIONAL VELOCITY VECTOR    0
      CONTACT PRESSURE (VECTORS)    0
 SHELL TENSOR SAVED ON ANIMATION FILES (1: YES) :
      MEMBRANE STRESS . . . . .     0
      BENDING STRESS(MOMENT/T^2)    0
      UPPER LAYER STRESS. . . .     0
      LOWER LAYER STRESS. . . .     0
      MEMBRANE STRAIN . . . . .     0
      CURVATURE . . . . . . . .     0
      UPPER LAYER STRAIN. . . .     0
      LOWER LAYER STRAIN. . . .     0
 NODAL MASS SAVED ON ANIMATION FILES (1: YES) :    0
 KEEP DELETED ELEMENT (1: YES) :    0


 INITIAL TIME STEP. . . . . . . . . . . . . . . .   0.000000    
 MAXIMUM TIME STEP. . . . . . . . . . . . . . . .  0.1000000E+31

 PARALLEL ARITHMETIC ON
 NUMBER OF INTERFACES TO BE ELIMINATED. . . . . .        0

 NUMBER OF SOLID  ELEMENT BLOCKS TO BE ELIMINATED        0

 NUMBER OF QUAD   ELEMENT BLOCKS TO BE ELIMINATED        0

 NUMBER OF SHELL  ELEMENT BLOCKS TO BE ELIMINATED        0

 NUMBER OF TRUSS  ELEMENT BLOCKS TO BE ELIMINATED        0

 NUMBER OF BEAM   ELEMENT BLOCKS TO BE ELIMINATED        0

 NUMBER OF SPRING ELEMENT BLOCKS TO BE ELIMINATED        0

 NUMBER OF SH_3N  ELEMENT BLOCKS TO BE ELIMINATED        0

 NUMBER OF  SPH PARTICLES BLOCKS TO BE ELIMINATED        0

 NUMBER OF RIGID LINKS. . . . . . . . . . . . . .        0

 NUMBER OF NEW BOUNDARY CONDITIONS. . . . . . . .        0

 04/09/2023
   CYCLE    TIME      TIME-STEP  ELEMENT          ERROR  I-ENERGY    K-ENERGY T  K-ENERGY R  EXT-WORK     MAS.ERR     TOTAL MASS  MASS ADDED
       0   0.000      0.4475E-06 SOLID        186   0.0%   0.000       0.000       0.000       0.000       0.000      0.1762       0.000    
     ANIMATION FILE: CONV_EL6A001 WRITTEN
     100  0.4473E-04  0.4471E-06 SOLID        214  -0.0%   259.3       1386.       83.78       1729.       0.000      0.1762       0.000    
     200  0.8943E-04  0.4469E-06 SOLID        209  -0.0%   1135.       4632.       109.2       5877.       0.000      0.1762       0.000    
     300  0.1341E-03  0.4468E-06 SOLID         83  -0.0%   2734.       8865.       131.5      0.1173E+05   0.000      0.1762       0.000    
     400  0.1788E-03  0.4465E-06 SOLID        159   0.0%   4999.      0.1381E+05   146.6      0.1896E+05   0.000      0.1762       0.000    
     500  0.2234E-03  0.4465E-06 SOLID        165   0.0%   7199.      0.1989E+05   154.3      0.2724E+05   0.000      0.1762       0.000    
     600  0.2681E-03  0.4465E-06 SOLID        182   0.0%   9710.      0.2613E+05   122.6      0.3597E+05   0.000      0.1762       0.000    
     700  0.3127E-03  0.4458E-06 SOLID        182   0.0%  0.1391E+05  0.3110E+05   153.2      0.4516E+05   0.000      0.1762       0.000    
     800  0.3572E-03  0.4451E-06 SOLID        182   0.0%  0.2083E+05  0.3466E+05   272.7      0.5576E+05   0.000      0.1762       0.000    
     900  0.4017E-03  0.4443E-06 SOLID        182   0.0%  0.2974E+05  0.3741E+05   397.8      0.6756E+05   0.000      0.1762       0.000    
    1000  0.4461E-03  0.4442E-06 SOLID        182   0.0%  0.3991E+05  0.3956E+05   469.1      0.7994E+05   0.000      0.1762       0.000    
    1100  0.4905E-03  0.4440E-06 SOLID        182   0.0%  0.5194E+05  0.4002E+05   429.3      0.9239E+05   0.000      0.1762       0.000    
    1200  0.5349E-03  0.4436E-06 SOLID        182   0.0%  0.6536E+05  0.3879E+05   459.0      0.1046E+06   0.000      0.1762       0.000    
    1300  0.5792E-03  0.4429E-06 SOLID        182   0.0%  0.7855E+05  0.3671E+05   226.0      0.1155E+06   0.000      0.1762       0.000    
    1400  0.6235E-03  0.4424E-06 SOLID        182   0.0%  0.9031E+05  0.3406E+05   146.5      0.1245E+06   0.000      0.1762       0.000    
    1500  0.6677E-03  0.4416E-06 SOLID        182   0.0%  0.1019E+06  0.3013E+05   161.1      0.1322E+06   0.000      0.1762       0.000    
    1600  0.7118E-03  0.4405E-06 SOLID        182   0.0%  0.1139E+06  0.2505E+05   188.9      0.1391E+06   0.000      0.1762       0.000    
    1700  0.7558E-03  0.4399E-06 SOLID        182   0.0%  0.1254E+06  0.1959E+05   226.2      0.1452E+06   0.000      0.1762       0.000    
    1800  0.7998E-03  0.4399E-06 SOLID        182   0.0%  0.1355E+06  0.1477E+05   207.8      0.1505E+06   0.000      0.1762       0.000    
    1900  0.8438E-03  0.4399E-06 SOLID        182   0.0%  0.1447E+06  0.1049E+05   219.9      0.1554E+06   0.000      0.1762       0.000    
    2000  0.8878E-03  0.4397E-06 SOLID        182   0.0%  0.1525E+06   6628.       128.3      0.1593E+06   0.000      0.1762       0.000    
    2100  0.9317E-03  0.4400E-06 SOLID        182   0.0%  0.1574E+06   3811.       55.35      0.1613E+06   0.000      0.1762       0.000    
    2200  0.9758E-03  0.4401E-06 SOLID        182   0.0%  0.1587E+06   2597.       57.81      0.1613E+06   0.000      0.1762       0.000    
     ANIMATION FILE: CONV_EL6A002 WRITTEN
    2300  0.1020E-02  0.4397E-06 SOLID        182   0.0%  0.1564E+06   3249.       63.80      0.1598E+06   0.000      0.1762       0.000    
    2400  0.1064E-02  0.4393E-06 SOLID        182   0.0%  0.1520E+06   4810.       88.38      0.1569E+06   0.000      0.1762       0.000    
    2500  0.1108E-02  0.4393E-06 SOLID        182   0.0%  0.1450E+06   7435.       119.6      0.1526E+06   0.000      0.1762       0.000    
    2600  0.1152E-02  0.4397E-06 SOLID        182   0.0%  0.1364E+06  0.1128E+05   84.89      0.1478E+06   0.000      0.1762       0.000    
    2700  0.1196E-02  0.4399E-06 SOLID        182   0.0%  0.1264E+06  0.1639E+05   68.35      0.1428E+06   0.000      0.1762       0.000    
    2800  0.1240E-02  0.4407E-06 SOLID        182   0.0%  0.1154E+06  0.2163E+05   114.0      0.1372E+06   0.000      0.1762       0.000    
    2900  0.1284E-02  0.4417E-06 SOLID        182   0.0%  0.1033E+06  0.2664E+05   225.5      0.1302E+06   0.000      0.1762       0.000    
    3000  0.1328E-02  0.4424E-06 SOLID        182   0.0%  0.9020E+05  0.3152E+05   273.6      0.1220E+06   0.000      0.1762       0.000    
    3100  0.1372E-02  0.4426E-06 SOLID        182   0.0%  0.7626E+05  0.3612E+05   382.6      0.1128E+06   0.000      0.1762       0.000    
    3200  0.1416E-02  0.4429E-06 SOLID        182   0.0%  0.6207E+05  0.3969E+05   478.4      0.1022E+06   0.000      0.1762       0.000    
    3300  0.1461E-02  0.4433E-06 SOLID        182   0.0%  0.4918E+05  0.4156E+05   376.4      0.9111E+05   0.000      0.1762       0.000    
    3400  0.1505E-02  0.4436E-06 SOLID        182   0.0%  0.3834E+05  0.4173E+05   286.1      0.8035E+05   0.000      0.1762       0.000    
    3500  0.1549E-02  0.4440E-06 SOLID        182   0.0%  0.2983E+05  0.4028E+05   260.9      0.7037E+05   0.000      0.1762       0.000    
    3600  0.1594E-02  0.4450E-06 SOLID        182   0.0%  0.2322E+05  0.3725E+05   302.7      0.6077E+05   0.000      0.1762       0.000    
    3700  0.1638E-02  0.4461E-06 SOLID        182   0.0%  0.1926E+05  0.3225E+05   279.5      0.5179E+05   0.000      0.1762       0.000    
    3800  0.1683E-02  0.4463E-06 SOLID        161   0.0%  0.1706E+05  0.2618E+05   229.4      0.4347E+05   0.000      0.1762       0.000    
    3900  0.1728E-02  0.4464E-06 SOLID         84   0.0%  0.1524E+05  0.1988E+05   264.9      0.3539E+05   0.000      0.1762       0.000    
    4000  0.1772E-02  0.4467E-06 SOLID        119   0.0%  0.1296E+05  0.1432E+05   248.2      0.2752E+05   0.000      0.1762       0.000    
    4100  0.1817E-02  0.4470E-06 SOLID        120   0.0%  0.1124E+05   9386.       85.73      0.2071E+05   0.000      0.1762       0.000    
    4200  0.1862E-02  0.4471E-06 SOLID         92   0.0%  0.1033E+05   5329.       31.83      0.1569E+05   0.000      0.1762       0.000    
    4300  0.1906E-02  0.4471E-06 SOLID        142   0.0%   9183.       3020.       54.96      0.1226E+05   0.000      0.1762       0.000    
    4400  0.1951E-02  0.4473E-06 SOLID         62   0.0%   7952.       2703.       84.51      0.1074E+05   0.000      0.1762       0.000    
    4500  0.1996E-02  0.4471E-06 SOLID        205   0.0%   7420.       3780.       99.82      0.1130E+05   0.000      0.1762       0.000    

     RESTART FILES: CONV_EL6_0001_[0001-0001].rst WRITTEN
     -------------

     ANIMATION FILE: CONV_EL6A003 WRITTEN
  
                           ** CPU USER TIME **
  
  
                        ** SUMMARY **
  
 #PROC  ELEMENT   KINCOND   INTEG     IO        T0        ASM       RESOL    
   1   .3870E+01 .2360E+00 .7328E-01 .2977E+00 .2272E+00 .7104E-01 .5159E+01
  
 
                   ** CUMULATIVE CPU TIME SUMMARY **
  
 CONTACT SORTING.............: .0000E+00     0.00 % 
 CONTACT FORCES..............: .5178E-02     0.10 % 
 ELEMENT FORCES..............: .3870E+01    75.02 % 
 KINEMATIC COND..............: .2360E+00     4.57 % 
 INTEGRATION.................: .7328E-01     1.42 % 
 ASSEMBLING..................: .7104E-01     1.38 % 
 OTHERS (including I/O)......: .9034E+00    17.51 % 
 TOTAL.......................: .5159E+01   100.00 % 
  
  
                           ** ELAPSED TIME **
  
  
                        ** SUMMARY **
  
 #PROC  ELEMENT   KINCOND   INTEG     IO        T0        ASM       RESOL    
   1   .1983E+01 .1247E+00 .4393E-01 .2115E+00 .2138E+00 .3233E-01 .2939E+01
  
                   ** MEMORY USAGE STATISTICS **
  
 TOTAL MEMORY USED .........................:       78 MB
 MAXIMUM MEMORY PER PROCESSOR...............:       78 MB
 MINIMUM MEMORY PER PROCESSOR...............:       78 MB
 AVERAGE MEMORY PER PROCESSOR...............:       78 MB
  
                   ** DISK USAGE STATISTICS **
  
 TOTAL DISK SPACE USED .....................:          0 MB
 ANIMATION/H3D/TH/OUTP SIZE ................:          0 MB
 RESTART FILE SIZE .........................:          0 MB
  
                   ** COMPUTE TIME INFORMATION **
                        ** CURRENT ENGINE **
  
 EXECUTION STARTED .........................:      2023/09/04  14:19:58
 EXECUTION COMPLETED .......................:      2023/09/04  14:20:01
  
 ELAPSED TIME     =          3.21 s
                          0:00:03



     NORMAL TERMINATION      



     TOTAL NUMBER OF CYCLES  :    4511

  
                   ** COMPUTE RUNTIME INFORMATION SUMMARY **
  
        STARTER RUNTIME =          6.90s (00:00:06)
 # 001   ENGINE RUNTIME =          3.21s (00:00:03)
 ------------------------------ 
 STARTER+ENGINE RUNTIME =         10.11s (00:00:10)
  
