 CONV_EL6_0001.out
************************************************************************
**                                                                    **
**                                                                    **
**                 Altair Radioss(TM) Engine MAINLINE                 **
**                                                                    **
**            Non-linear Finite Element Analysis Software             **
**                   from Altair Engineering, Inc.                    **
**                                                                    **
**                                                                    **
**              Linux 64 bits, Intel compiler, Intel MPI              **
**                                                                    **
**                           BETA_VERSION                             **
**                                                                    **
** Build tag: 1025865_12638000000_2070_0072427_10                     **
************************************************************************
**  COPYRIGHT (C) 1986-2020                 Altair Engineering, Inc.  **
** All Rights Reserved.  Copyright notice does not imply publication. **
** Contains trade secrets of Altair Engineering Inc.                  **
** Decompilation or disassembly of this software strictly prohibited. **
************************************************************************
 
 NUMBER OF SPMD DOMAINS           4
 NUMBER OF THREADS PER DOMAIN     1
 NUMBER OF HMPP PROCESSES         4
  
 COMPUTATION HARDWARE DESCRIPTION
  
 CPU#  HOSTNAME     CPU TYPE, FREQUENCY AND MEMORY
   1   fradf-shady.europe.altair.com   Intel(R) Xeon(R) CPU           X5680  @ 3.33GHz (x86_64), 3326 MHz,  19924 MB RAM,  49149 MB swap
   2   fradf-shady.europe.altair.com   Intel(R) Xeon(R) CPU           X5680  @ 3.33GHz (x86_64), 3326 MHz,  19924 MB RAM,  49149 MB swap
   3   fradf-shady.europe.altair.com   Intel(R) Xeon(R) CPU           X5680  @ 3.33GHz (x86_64), 3326 MHz,  19924 MB RAM,  49149 MB swap
   4   fradf-shady.europe.altair.com   Intel(R) Xeon(R) CPU           X5680  @ 3.33GHz (x86_64), 3326 MHz,  19924 MB RAM,  49149 MB swap
  
************************************************************************


 CONV_EL6D01                                                                     


 FINAL TIME . . . . . . . . . . . . . . . . . . .  0.2000100E-02

 TIME INTERVAL FOR TIME HISTORY PLOTS . . . . . .  0.1000000E-04

 TIME STEP SCALE FACTOR . . . . . . . . . . . . .  0.9000000    

 MINIMUM TIME STEP  . . . . . . . . . . . . . . .   0.000000    


 BRICK TIME STEP SCALE FACTOR . . . . . . . . . .  0.9000000    
 BRICK MINIMUM TIME STEP. . . . . . . . . . . . .   0.000000    
 MIN. TIME STEP FLAG (1:STOP RUN, 2:DELETE BRICK)     1

 QUAD TIME STEP SCALE FACTOR. . . . . . . . . . .  0.9000000    
 QUAD MINIMUM TIME STEP . . . . . . . . . . . . .   0.000000    
 MIN. TIME STEP FLAG (1:STOP RUN, 2:DELETE QUAD).     1

 SHELL TIME STEP SCALE FACTOR . . . . . . . . . .  0.9000000    
 SHELL MINIMUM TIME STEP. . . . . . . . . . . . .   0.000000    
 MIN. TIME FLAG (1:STOP, 2:DELETE, 3:SMALL STRAIN)    2

 TRUSS TIME STEP SCALE FACTOR . . . . . . . . . .  0.9000000    
 TRUSS MINIMUM TIME STEP. . . . . . . . . . . . .   0.000000    
 MIN. TIME FLAG (1:STOP, 2:DELETE). . . . . . . .     0

 BEAM TIME STEP SCALE FACTOR. . . . . . . . . . .  0.9000000    
 BEAM MINIMUM TIME STEP . . . . . . . . . . . . .   0.000000    
 MIN. TIME FLAG (1:STOP, 2:DELETE). . . . . . . .     0

 SPRING TIME STEP SCALE FACTOR. . . . . . . . . .  0.9000000    
 SPRING MINIMUM TIME STEP . . . . . . . . . . . .   0.000000    
 MIN. TIME FLAG (1:STOP, 2:DELETE). . . . . . . .     0

 AIRBAG TIME STEP SCALE FACTOR. . . . . . . . . .  0.9000000    
 AIRBAG MINIMUM TIME STEP . . . . . . . . . . . .   0.000000    
 MIN. TIME FLAG (1:STOP). . . . . . . . . . . . .     0

 CONTACT TIME STEP SCALE FACTOR . . . . . . . . .  0.9000000    
 CONTACT MINIMUM TIME STEP. . . . . . . . . . . .   0.000000    
 MIN. TIME FLAG(1:STOP, 2:REMOVE NODE FROM INTERF)    0

 FVMBAG TIME STEP SCALE FACTOR. . . . . . . . . .   0.000000    
 FVMBAG MINIMUM TIME STEP . . . . . . . . . . . .   0.000000    
 FVMBAG TIME STEP FLAG. . . . . . . . . . . . . .     1

 PRINTOUT CYCLE FREQUENCY . . . . . . . . . . . .   100

 RESTART CYCLE FREQUENCY. . . . . . . . . . . . .       5000

 MAXIMUM RESTART WRITE BEFORE OVERWRITE . . . . .     0

 INVERS: INPUT DECK VERSION . . . . . . . . . . .  2019
 ITTYP : FLAG FOR TYPE OF T-FILE. . . . . . . . .     4


 TIME FOR FIRST ANIMATION-FILE PLOT . . . . . . .   0.000000    
 TIME INTERVAL FOR ANIMATION-FILE PLOTS . . . . .  0.1000000E-02
 SENSOR FOR ANIMATION-FILE PLOTS. . . . . . . . .          0
 TIME INTERVAL FOR SENSOR ANIMATION-FILE PLOTS. .   0.000000    

 VARIABLE SAVED ON ANIMATION FILES (1: YES) :
      PLASTIC STRAIN. . . . . .     1
      DENSITY     (SOLID ONLY).     0
      SPECIFIC ENERGY . . . . .     1
      HOURGLASS ENERGY. . . . .     1
      TEMPERATURE (SOLID ONLY).     0
      THICKNESS   (SHELL ONLY).     0
      PRESSURE    (SOLID ONLY).     0
      VON MISES . . . . . . . .     1
      TURBULENT ENERGY (FLUID).     0
      TURBULENT VISCOSITY(FLUID)    0
      VORTICITY (FLUID) . . . .     0
 NODAL VALUES SAVED ON ANIMATION FILES (1: YES) :
      PRESSURE. . . . . . . . .     0
      DENSITY . . . . . . . . .     0
      TEMPERATURE . . . . . . .     0
 VECTOR SAVED ON ANIMATION FILES (1: YES) :
      VELOCITY VECTOR . . . . .     1
      DISPLACEMENT VECTOR . . .     0
      ACCELERATION VECTOR . . .     0
      CONTACT FORCES. . . . . .     0
      INTERNAL FORCES . . . . .     0
      EXTERNAL FORCES . . . . .     0
      SECTION RBY RWALL FORCES.     0
      ROTATIONAL VELOCITY VECTOR    0
      CONTACT PRESSURE (VECTORS)    0
 SHELL TENSOR SAVED ON ANIMATION FILES (1: YES) :
      MEMBRANE STRESS . . . . .     0
      BENDING STRESS(MOMENT/T^2)    0
      UPPER LAYER STRESS. . . .     0
      LOWER LAYER STRESS. . . .     0
      MEMBRANE STRAIN . . . . .     0
      CURVATURE . . . . . . . .     0
      UPPER LAYER STRAIN. . . .     0
      LOWER LAYER STRAIN. . . .     0
 NODAL MASS SAVED ON ANIMATION FILES (1: YES) :    0
 KEEP DELETED ELEMENT (1: YES) :    0


 INITIAL TIME STEP. . . . . . . . . . . . . . . .   0.000000    
 MAXIMUM TIME STEP. . . . . . . . . . . . . . . .  0.1000000E+31

 PARALLEL ARITHMETIC ON
 NUMBER OF INTERFACES TO BE ELIMINATED. . . . . .        0

 NUMBER OF SOLID  ELEMENT BLOCKS TO BE ELIMINATED        0

 NUMBER OF QUAD   ELEMENT BLOCKS TO BE ELIMINATED        0

 NUMBER OF SHELL  ELEMENT BLOCKS TO BE ELIMINATED        0

 NUMBER OF TRUSS  ELEMENT BLOCKS TO BE ELIMINATED        0

 NUMBER OF BEAM   ELEMENT BLOCKS TO BE ELIMINATED        0

 NUMBER OF SPRING ELEMENT BLOCKS TO BE ELIMINATED        0

 NUMBER OF SH_3N  ELEMENT BLOCKS TO BE ELIMINATED        0

 NUMBER OF  SPH PARTICLES BLOCKS TO BE ELIMINATED        0

 NUMBER OF RIGID LINKS. . . . . . . . . . . . . .        0

 NUMBER OF NEW BOUNDARY CONDITIONS. . . . . . . .        0

 17/07/2020
 CYCLE    TIME      TIME-STEP  ELEMENT          ERROR  I-ENERGY    K-ENERGY T  K-ENERGY R  EXT-WORK MAS.ERR
     0   0.000      0.4475E-06 SOLID        186   0.0%   0.000       0.000       0.000       0.000       0.000    
     ANIMATION FILE: CONV_EL6A001 WRITTEN
   100  0.4473E-04  0.4471E-06 SOLID        214  -0.0%   259.1       1386.       83.87       1729.       0.000    
   200  0.8943E-04  0.4469E-06 SOLID        209  -0.0%   1135.       4633.       109.3       5877.       0.000    
   300  0.1341E-03  0.4468E-06 SOLID         83  -0.0%   2733.       8867.       131.5      0.1173E+05   0.000    
   400  0.1788E-03  0.4465E-06 SOLID        159   0.0%   4998.      0.1381E+05   146.7      0.1896E+05   0.000    
   500  0.2234E-03  0.4465E-06 SOLID        165   0.0%   7197.      0.1989E+05   154.2      0.2724E+05   0.000    
   600  0.2681E-03  0.4465E-06 SOLID        182   0.0%   9706.      0.2614E+05   122.5      0.3597E+05   0.000    
   700  0.3127E-03  0.4458E-06 SOLID        182   0.0%  0.1390E+05  0.3111E+05   153.2      0.4516E+05   0.000    
   800  0.3572E-03  0.4451E-06 SOLID        182   0.0%  0.2082E+05  0.3467E+05   273.0      0.5576E+05   0.000    
   900  0.4017E-03  0.4443E-06 SOLID        182   0.0%  0.2974E+05  0.3742E+05   398.3      0.6756E+05   0.000    
  1000  0.4461E-03  0.4442E-06 SOLID        182   0.0%  0.3990E+05  0.3957E+05   468.7      0.7994E+05   0.000    
  1100  0.4905E-03  0.4440E-06 SOLID        182   0.0%  0.5194E+05  0.4003E+05   429.2      0.9239E+05   0.000    
  1200  0.5349E-03  0.4436E-06 SOLID        182   0.0%  0.6536E+05  0.3880E+05   459.7      0.1046E+06   0.000    
  1300  0.5792E-03  0.4429E-06 SOLID        182   0.0%  0.7855E+05  0.3672E+05   226.5      0.1155E+06   0.000    
  1400  0.6235E-03  0.4424E-06 SOLID        182   0.0%  0.9031E+05  0.3407E+05   146.4      0.1245E+06   0.000    
  1500  0.6677E-03  0.4416E-06 SOLID        182   0.0%  0.1019E+06  0.3014E+05   160.6      0.1322E+06   0.000    
  1600  0.7118E-03  0.4405E-06 SOLID        182   0.0%  0.1139E+06  0.2507E+05   188.9      0.1391E+06   0.000    
  1700  0.7558E-03  0.4399E-06 SOLID        182   0.0%  0.1254E+06  0.1959E+05   228.6      0.1452E+06   0.000    
  1800  0.7998E-03  0.4399E-06 SOLID        182   0.0%  0.1355E+06  0.1478E+05   207.9      0.1505E+06   0.000    
  1900  0.8438E-03  0.4399E-06 SOLID        182   0.0%  0.1447E+06  0.1050E+05   221.9      0.1554E+06   0.000    
  2000  0.8878E-03  0.4397E-06 SOLID        182   0.0%  0.1526E+06   6636.       128.4      0.1593E+06   0.000    
  2100  0.9317E-03  0.4400E-06 SOLID        182   0.0%  0.1574E+06   3818.       55.53      0.1613E+06   0.000    
  2200  0.9758E-03  0.4401E-06 SOLID        182   0.0%  0.1587E+06   2604.       58.04      0.1613E+06   0.000    
     ANIMATION FILE: CONV_EL6A002 WRITTEN
  2300  0.1020E-02  0.4396E-06 SOLID        182   0.0%  0.1564E+06   3260.       63.81      0.1598E+06   0.000    
  2400  0.1064E-02  0.4393E-06 SOLID        182   0.0%  0.1520E+06   4818.       88.63      0.1569E+06   0.000    
  2500  0.1108E-02  0.4393E-06 SOLID        182   0.0%  0.1450E+06   7445.       119.5      0.1526E+06   0.000    
  2600  0.1152E-02  0.4397E-06 SOLID        182   0.0%  0.1364E+06  0.1129E+05   84.63      0.1478E+06   0.000    
  2700  0.1196E-02  0.4399E-06 SOLID        182   0.0%  0.1264E+06  0.1640E+05   67.97      0.1428E+06   0.000    
  2800  0.1240E-02  0.4407E-06 SOLID        182   0.0%  0.1154E+06  0.2165E+05   113.1      0.1372E+06   0.000    
  2900  0.1284E-02  0.4417E-06 SOLID        182   0.0%  0.1033E+06  0.2666E+05   226.8      0.1302E+06   0.000    
  3000  0.1328E-02  0.4424E-06 SOLID        182   0.0%  0.9018E+05  0.3154E+05   272.8      0.1220E+06   0.000    
  3100  0.1372E-02  0.4426E-06 SOLID        182   0.0%  0.7624E+05  0.3614E+05   385.1      0.1128E+06   0.000    
  3200  0.1416E-02  0.4429E-06 SOLID        182   0.0%  0.6205E+05  0.3972E+05   481.4      0.1022E+06   0.000    
  3300  0.1461E-02  0.4433E-06 SOLID        182   0.0%  0.4914E+05  0.4159E+05   374.2      0.9111E+05   0.000    
  3400  0.1505E-02  0.4436E-06 SOLID        182   0.0%  0.3829E+05  0.4176E+05   286.4      0.8034E+05   0.000    
  3500  0.1549E-02  0.4440E-06 SOLID        182   0.0%  0.2979E+05  0.4031E+05   261.3      0.7036E+05   0.000    
  3600  0.1594E-02  0.4450E-06 SOLID        182   0.0%  0.2317E+05  0.3729E+05   303.3      0.6076E+05   0.000    
  3700  0.1638E-02  0.4461E-06 SOLID        182   0.0%  0.1922E+05  0.3228E+05   279.5      0.5178E+05   0.000    
  3800  0.1683E-02  0.4463E-06 SOLID        161   0.0%  0.1703E+05  0.2621E+05   228.3      0.4346E+05   0.000    
  3900  0.1728E-02  0.4463E-06 SOLID         84   0.0%  0.1521E+05  0.1990E+05   267.9      0.3538E+05   0.000    
  4000  0.1772E-02  0.4467E-06 SOLID        119   0.0%  0.1291E+05  0.1434E+05   250.0      0.2750E+05   0.000    
  4100  0.1817E-02  0.4470E-06 SOLID        120   0.0%  0.1119E+05   9404.       84.49      0.2068E+05   0.000    
  4200  0.1862E-02  0.4471E-06 SOLID         92   0.0%  0.1029E+05   5342.       31.37      0.1566E+05   0.000    
  4300  0.1906E-02  0.4471E-06 SOLID        142   0.0%   9142.       3030.       55.62      0.1223E+05   0.000    
  4400  0.1951E-02  0.4473E-06 SOLID         62   0.0%   7907.       2715.       85.53      0.1070E+05   0.000    
  4500  0.1996E-02  0.4471E-06 SOLID        205   0.0%   7376.       3797.       100.5      0.1127E+05   0.000    

     RESTART FILES: CONV_EL6_0001_[0001-0004].rst WRITTEN
     -------------

     ANIMATION FILE: CONV_EL6A003 WRITTEN
  
                           ** CPU USER TIME **
  
  
                        ** SUMMARY **
  
 #PROC  ELEMENT   KINCOND   INTEG     IO        T0        ASM       RESOL    
   1   .1348E+01 .5199E-01 .2399E-01 .2700E-01 .7548E+00 .1800E-01 .2323E+01
   2   .1263E+01 .3399E-01 .1700E-01 .2999E-01 .5559E+00 .2499E-01 .2456E+01
   3   .1587E+01 .3799E-01 .2100E-01 .2899E-01 .9799E-01 .1999E-01 .2485E+01
   4   .1987E+01 .7598E-01 .2400E-01 .3799E-01 .1140E+00 .2200E-01 .2508E+01
  
                 ** SPMD COM. TIME **
  
 #PROC  FORCES    RBYFOR    RBYVEL    VEL       TOT       %        
   1   .3699E-01 .9992E-03 .0000E+00 .8997E-02 .4699E-01 .2023E+01
   2   .3579E+00 .1000E-02 .0000E+00 .0000E+00 .3589E+00 .1462E+02
   3   .5039E+00 .3999E-02 .0000E+00 .6999E-02 .5149E+00 .2072E+02
   4   .5299E-01 .4000E-02 .0000E+00 .4999E-02 .6199E-01 .2472E+01
  
 
                   ** CUMULATIVE CPU TIME SUMMARY **
  
 CONTACT SORTING.............: .0000E+00     0.00 % 
 CONTACT FORCES..............: .3998E-02     0.04 % 
 ELEMENT FORCES..............: .6184E+01    63.29 % 
 KINEMATIC COND..............: .2000E+00     2.05 % 
 INTEGRATION.................: .8599E-01     0.88 % 
 ASSEMBLING..................: .8498E-01     0.87 % 
 OTHERS (including I/O)......: .3212E+01    32.87 % 
 TOTAL.......................: .9771E+01   100.00 % 
  
  
                           ** ELAPSED TIME **
  
  
                        ** SUMMARY **
  
 #PROC  ELEMENT   KINCOND   INTEG     IO        T0        ASM       RESOL    
   1   .2852E+01 .9388E-01 .8566E-01 .8393E-01 .1465E+01 .2533E-01 .4861E+01
   2   .2467E+01 .3133E-01 .2550E-01 .6762E-01 .1067E+01 .2618E-01 .5155E+01
   3   .3281E+01 .7341E-01 .3632E-01 .8860E-01 .2985E+00 .4643E-01 .5156E+01
   4   .3861E+01 .8535E-01 .2862E-01 .6819E-01 .5677E+00 .2581E-01 .5156E+01
  
        ELEMENT   KINCOND   INTEG     IO        T0        ASM       RESOL    
 MIN   .2467E+01 .3133E-01 .2550E-01 .6762E-01 .2985E+00 .2533E-01 .4861E+01
 MAX   .3861E+01 .9388E-01 .8566E-01 .8860E-01 .1465E+01 .4643E-01 .5156E+01
 AVG   .3115E+01 .7099E-01 .4402E-01 .7709E-01 .8495E+00 .3094E-01 .5082E+01
  
                 ** SPMD COM. TIME **
  
 #PROC  FORCES    RBYFOR    RBYVEL    VEL       TOT       %        
   1   .7116E-01 .2476E-02 .0000E+00 .1554E-01 .8917E-01 .1834E+01
   2   .1100E+01 .2321E-02 .0000E+00 .5530E-02 .1108E+01 .2150E+02
   3   .8802E+00 .2209E-02 .0000E+00 .2569E-01 .9081E+00 .1761E+02
   4   .1497E+00 .2287E-02 .0000E+00 .5620E-02 .1576E+00 .3057E+01
  
        FORCES    RBYFOR    RBYVEL    VEL       TOT       %        
 MIN   .7116E-01 .2209E-02 .0000E+00 .5530E-02 .8917E-01 .1834E+01
 MAX   .1100E+01 .2476E-02 .0000E+00 .2569E-01 .1108E+01 .2150E+02
 AVG   .5504E+00 .2323E-02 .0000E+00 .1309E-01 .5658E+00 .1100E+02
  
                   ** MEMORY USAGE STATISTICS **
  
 TOTAL MEMORY USED .........................:     1438 MB
 MAXIMUM MEMORY PER PROCESSOR...............:      360 MB
 MINIMUM MEMORY PER PROCESSOR...............:      359 MB
 AVERAGE MEMORY PER PROCESSOR...............:      359 MB
  
                   ** DISK USAGE STATISTICS **
  
 TOTAL DISK SPACE USED .....................:          0 MB
 ANIMATION/H3D/TH/OUTP SIZE ................:          0 MB
 RESTART FILE SIZE .........................:          0 MB
  
                   ** COMPUTE TIME INFORMATION **
                        ** CURRENT ENGINE **
  
 EXECUTION STARTED .........................:      2020/07/17  16:31:34
 EXECUTION COMPLETED .......................:      2020/07/17  16:31:39
  
 ELAPSED TIME     =          5.32 s
                          0:00:05
 ESTIMATED SPEEDUP=          1.84



     NORMAL TERMINATION      



     TOTAL NUMBER OF CYCLES  :    4511

  
                   ** COMPUTE RUNTIME INFORMATION SUMMARY **
  
        STARTER RUNTIME =          0.39s (00:00:00)
 # 001   ENGINE RUNTIME =          5.32s (00:00:05)
 ------------------------------ 
 STARTER+ENGINE RUNTIME =          5.71s (00:00:05)
  
