 BOX1BL_0001.out
************************************************************************
**                                                                    **
**                                                                    **
**                         OpenRadioss Engine                         **
**                                                                    **
**            Non-linear Finite Element Analysis Software             **
**                                                                    **
**                                                                    **
**                                                                    **
**                Linux 64 bits, GNU compiler, OpenMPI                **
**                                                                    **
**                                                                    **
**                                                                    **
** CommitID: 440deeba848d606665f88afb8302e85b1ecf72bf                 **
************************************************************************
** OpenRadioss Software                                               **
** COPYRIGHT (C) 1986-2022 Altair Engineering, Inc.                   **
** Licensed under GNU Affero General Public License.                  **
** See License file.                                                  **
************************************************************************
 
 NUMBER OF SPMD DOMAINS           4
 NUMBER OF THREADS PER DOMAIN     2
 NUMBER OF HMPP PROCESSES         8
  
 COMPUTATION HARDWARE DESCRIPTION
  
 CPU#  HOSTNAME     CPU TYPE, FREQUENCY AND MEMORY
   1   fr-shady.europe.altair.com   Intel(R) Xeon(R) CPU           X5680  @ 3.33GHz (x86_64), 1596 MHz,  20012 MB RAM,  49126 MB swap
   2   fr-shady.europe.altair.com   Intel(R) Xeon(R) CPU           X5680  @ 3.33GHz (x86_64), 1596 MHz,  20012 MB RAM,  49126 MB swap
   3   fr-shady.europe.altair.com   Intel(R) Xeon(R) CPU           X5680  @ 3.33GHz (x86_64), 1596 MHz,  20012 MB RAM,  49126 MB swap
   4   fr-shady.europe.altair.com   Intel(R) Xeon(R) CPU           X5680  @ 3.33GHz (x86_64), 1596 MHz,  20012 MB RAM,  49126 MB swap
  
************************************************************************


 BOX1BLD01                                                                       


 FINAL TIME . . . . . . . . . . . . . . . . . . .  0.1000100    

 TIME INTERVAL FOR TIME HISTORY PLOTS . . . . . .  0.1000000E-02

 TIME STEP SCALE FACTOR . . . . . . . . . . . . .  0.1000000    

 MINIMUM TIME STEP  . . . . . . . . . . . . . . .   0.000000    


 BRICK TIME STEP SCALE FACTOR . . . . . . . . . .  0.1000000    
 BRICK MINIMUM TIME STEP. . . . . . . . . . . . .   0.000000    
 MIN. TIME STEP FLAG (1:STOP RUN, 2:DELETE BRICK)     1

 QUAD TIME STEP SCALE FACTOR. . . . . . . . . . .  0.1000000    
 QUAD MINIMUM TIME STEP . . . . . . . . . . . . .   0.000000    
 MIN. TIME STEP FLAG (1:STOP RUN, 2:DELETE QUAD).     1

 SHELL TIME STEP SCALE FACTOR . . . . . . . . . .  0.1000000    
 SHELL MINIMUM TIME STEP. . . . . . . . . . . . .   0.000000    
 MIN. TIME FLAG (1:STOP, 2:DELETE, 3:SMALL STRAIN)    2

 TRUSS TIME STEP SCALE FACTOR . . . . . . . . . .  0.1000000    
 TRUSS MINIMUM TIME STEP. . . . . . . . . . . . .   0.000000    
 MIN. TIME FLAG (1:STOP, 2:DELETE). . . . . . . .     0

 BEAM TIME STEP SCALE FACTOR. . . . . . . . . . .  0.1000000    
 BEAM MINIMUM TIME STEP . . . . . . . . . . . . .   0.000000    
 MIN. TIME FLAG (1:STOP, 2:DELETE). . . . . . . .     0

 SPRING TIME STEP SCALE FACTOR. . . . . . . . . .  0.1000000    
 SPRING MINIMUM TIME STEP . . . . . . . . . . . .   0.000000    
 MIN. TIME FLAG (1:STOP, 2:DELETE). . . . . . . .     0

 AIRBAG TIME STEP SCALE FACTOR. . . . . . . . . .  0.1000000    
 AIRBAG MINIMUM TIME STEP . . . . . . . . . . . .   0.000000    
 MIN. TIME FLAG (1:STOP). . . . . . . . . . . . .     0

 CONTACT TIME STEP SCALE FACTOR . . . . . . . . .  0.1000000    
 CONTACT MINIMUM TIME STEP. . . . . . . . . . . .   0.000000    
 MIN. TIME FLAG(1:STOP, 2:REMOVE NODE FROM INTERF)    0

 PRINTOUT CYCLE FREQUENCY . . . . . . . . . . . .    -1

 RESTART CYCLE FREQUENCY. . . . . . . . . . . . .   10000000

 MAXIMUM RESTART WRITE BEFORE OVERWRITE . . . . .     0

 INVERS: INPUT DECK VERSION . . . . . . . . . . .  2019
 ITTYP : FLAG FOR TYPE OF T-FILE. . . . . . . . .     4


 TIME FOR FIRST ANIMATION-FILE PLOT . . . . . . .   0.000000    
 TIME INTERVAL FOR ANIMATION-FILE PLOTS . . . . .  0.1000000E-01
 SENSOR FOR ANIMATION-FILE PLOTS. . . . . . . . .          0
 TIME INTERVAL FOR SENSOR ANIMATION-FILE PLOTS. .   0.000000    

 VARIABLE SAVED ON ANIMATION FILES (1: YES) :
      PLASTIC STRAIN. . . . . .     0
      DENSITY     (SOLID ONLY).     0
      SPECIFIC ENERGY . . . . .     0
      HOURGLASS ENERGY. . . . .     0
      TEMPERATURE (SOLID ONLY).     0
      THICKNESS   (SHELL ONLY).     0
      PRESSURE    (SOLID ONLY).     0
      VON MISES . . . . . . . .     0
      TURBULENT ENERGY (FLUID).     0
      TURBULENT VISCOSITY(FLUID)    0
      VORTICITY (FLUID) . . . .     0
 NODAL VALUES SAVED ON ANIMATION FILES (1: YES) :
      PRESSURE. . . . . . . . .     0
      DENSITY . . . . . . . . .     0
      TEMPERATURE . . . . . . .     0
 VECTOR SAVED ON ANIMATION FILES (1: YES) :
      VELOCITY VECTOR . . . . .     0
      DISPLACEMENT VECTOR . . .     0
      ACCELERATION VECTOR . . .     0
      CONTACT FORCES. . . . . .     0
      INTERNAL FORCES . . . . .     0
      EXTERNAL FORCES . . . . .     0
      SECTION RBY RWALL FORCES.     0
      ROTATIONAL VELOCITY VECTOR    0
      CONTACT PRESSURE (VECTORS)    0
 SHELL TENSOR SAVED ON ANIMATION FILES (1: YES) :
      MEMBRANE STRESS . . . . .     0
      BENDING STRESS(MOMENT/T^2)    0
      UPPER LAYER STRESS. . . .     0
      LOWER LAYER STRESS. . . .     0
      MEMBRANE STRAIN . . . . .     0
      CURVATURE . . . . . . . .     0
      UPPER LAYER STRAIN. . . .     0
      LOWER LAYER STRAIN. . . .     0
 NODAL MASS SAVED ON ANIMATION FILES (1: YES) :    0
 KEEP DELETED ELEMENT (1: YES) :    0


 INITIAL TIME STEP. . . . . . . . . . . . . . . .   0.000000    
 MAXIMUM TIME STEP. . . . . . . . . . . . . . . .  0.1000000E+31

 PARALLEL ARITHMETIC ON
 NUMBER OF INTERFACES TO BE ELIMINATED. . . . . .        0

 NUMBER OF SOLID  ELEMENT BLOCKS TO BE ELIMINATED        0

 NUMBER OF QUAD   ELEMENT BLOCKS TO BE ELIMINATED        0

 NUMBER OF SHELL  ELEMENT BLOCKS TO BE ELIMINATED        0

 NUMBER OF TRUSS  ELEMENT BLOCKS TO BE ELIMINATED        0

 NUMBER OF BEAM   ELEMENT BLOCKS TO BE ELIMINATED        0

 NUMBER OF SPRING ELEMENT BLOCKS TO BE ELIMINATED        0

 NUMBER OF SH_3N  ELEMENT BLOCKS TO BE ELIMINATED        0

 NUMBER OF  SPH PARTICLES BLOCKS TO BE ELIMINATED        0

 NUMBER OF RIGID LINKS. . . . . . . . . . . . . .        0

 NUMBER OF NEW BOUNDARY CONDITIONS. . . . . . . .        0

 23/11/2022
   CYCLE    TIME      TIME-STEP  ELEMENT          ERROR  I-ENERGY    K-ENERGY T  K-ENERGY R  EXT-WORK     MAS.ERR     TOTAL MASS  MASS ADDED
       0   0.000      0.9753E-04 SHELL         61   0.0%   0.000       7681.       0.000       0.000       0.000       240.0       0.000    
     ANIMATION FILE: BOX1BLA001 WRITTEN
       1  0.9753E-04  0.9752E-04 SHELL         61   0.0%  0.1440E-02   7681.       0.000       0.000       0.000       240.0       0.000    
       2  0.1950E-03  0.9750E-04 SHELL         61   0.0%  0.5696E-02   7681.      0.1154E-11   0.000       0.000       240.0       0.000    
       3  0.2925E-03  0.9749E-04 SHELL         91   0.0%  0.1258E-01   7681.      0.4120E-10   0.000       0.000       240.0       0.000    
       4  0.3900E-03  0.9747E-04 SHELL         11   0.0%  0.2179E-01   7681.      0.4527E-09   0.000       0.000       240.0       0.000    
       5  0.4875E-03  0.9746E-04 SHELL         11   0.0%  0.3297E-01   7681.      0.2789E-08   0.000       0.000       240.0       0.000    
       6  0.5850E-03  0.9744E-04 SHELL         11   0.0%  0.4567E-01   7681.      0.1209E-07   0.000       0.000       240.0       0.000    
       7  0.6824E-03  0.9743E-04 SHELL         11   0.0%  0.5945E-01   7681.      0.4129E-07   0.000       0.000       240.0       0.000    
       8  0.7798E-03  0.9742E-04 SHELL         11   0.0%  0.7389E-01   7681.      0.1185E-06   0.000       0.000       240.0       0.000    
       9  0.8773E-03  0.9741E-04 SHELL         11   0.0%  0.8862E-01   7681.      0.2982E-06   0.000       0.000       240.0       0.000    
      10  0.9747E-03  0.9740E-04 SHELL         11   0.0%  0.1033       7681.      0.6758E-06   0.000       0.000       240.0       0.000    
      11  0.1072E-02  0.9740E-04 SHELL         11   0.0%  0.1177       7681.      0.1407E-05   0.000       0.000       240.0       0.000    
      12  0.1169E-02  0.9739E-04 SHELL         11   0.0%  0.1318       7681.      0.2730E-05   0.000       0.000       240.0       0.000    
      13  0.1267E-02  0.9738E-04 SHELL         11   0.0%  0.1454       7681.      0.4991E-05   0.000       0.000       240.0       0.000    
      14  0.1364E-02  0.9738E-04 SHELL         11   0.0%  0.1587       7681.      0.8669E-05   0.000       0.000       240.0       0.000    
      15  0.1462E-02  0.9738E-04 SHELL         11   0.0%  0.1716       7681.      0.1440E-04   0.000       0.000       240.0       0.000    
      16  0.1559E-02  0.9737E-04 SHELL         11   0.0%  0.1844       7681.      0.2300E-04   0.000       0.000       240.0       0.000    
      17  0.1656E-02  0.9737E-04 SHELL         11   0.0%  0.1971       7681.      0.3547E-04   0.000       0.000       240.0       0.000    
      18  0.1754E-02  0.9737E-04 SHELL         11   0.0%  0.2099       7681.      0.5301E-04   0.000       0.000       240.0       0.000    
      19  0.1851E-02  0.9737E-04 SHELL         11   0.0%  0.2230       7681.      0.7701E-04   0.000       0.000       240.0       0.000    
      20  0.1948E-02  0.9737E-04 SHELL         11   0.0%  0.2364       7681.      0.1090E-03   0.000       0.000       240.0       0.000    
      21  0.2046E-02  0.9737E-04 SHELL         52   0.0%  0.2502       7681.      0.1506E-03   0.000       0.000       240.0       0.000    
      22  0.2143E-02  0.9735E-04 SHELL         52   0.0%  0.2643       7681.      0.2035E-03   0.000       0.000       240.0       0.000    
      23  0.2241E-02  0.9734E-04 SHELL         52   0.0%  0.2788       7681.      0.2695E-03   0.000       0.000       240.0       0.000    
      24  0.2338E-02  0.9732E-04 SHELL         52   0.0%  0.2936       7681.      0.3500E-03   0.000       0.000       240.0       0.000    
      25  0.2435E-02  0.9730E-04 SHELL         52   0.0%  0.3085       7681.      0.4463E-03   0.000       0.000       240.0       0.000    
      26  0.2533E-02  0.9729E-04 SHELL         52   0.0%  0.3236       7681.      0.5595E-03   0.000       0.000       240.0       0.000    
      27  0.2630E-02  0.9727E-04 SHELL         52   0.0%  0.3386       7681.      0.6902E-03   0.000       0.000       240.0       0.000    
      28  0.2727E-02  0.9726E-04 SHELL         52   0.0%  0.3536       7681.      0.8382E-03   0.000       0.000       240.0       0.000    
      29  0.2824E-02  0.9724E-04 SHELL         52   0.0%  0.3684       7681.      0.1003E-02   0.000       0.000       240.0       0.000    
      30  0.2922E-02  0.9723E-04 SHELL         52   0.0%  0.3832       7681.      0.1183E-02   0.000       0.000       240.0       0.000    
      31  0.3019E-02  0.9721E-04 SHELL         52   0.0%  0.3980       7681.      0.1376E-02   0.000       0.000       240.0       0.000    
      32  0.3116E-02  0.9720E-04 SHELL         52   0.0%  0.4127       7681.      0.1580E-02   0.000       0.000       240.0       0.000    
      33  0.3213E-02  0.9718E-04 SHELL         52   0.0%  0.4274       7681.      0.1790E-02   0.000       0.000       240.0       0.000    
      34  0.3310E-02  0.9717E-04 SHELL         52  -0.0%  0.4422       7681.      0.2003E-02   0.000       0.000       240.0       0.000    
      35  0.3408E-02  0.9715E-04 SHELL         52  -0.0%  0.4570       7681.      0.2214E-02   0.000       0.000       240.0       0.000    
      36  0.3505E-02  0.9714E-04 SHELL         52  -0.0%  0.4718       7681.      0.2418E-02   0.000       0.000       240.0       0.000    
      37  0.3602E-02  0.9713E-04 SHELL         52  -0.0%  0.4867       7681.      0.2609E-02   0.000       0.000       240.0       0.000    
      38  0.3699E-02  0.9711E-04 SHELL         52  -0.0%  0.5016       7681.      0.2784E-02   0.000       0.000       240.0       0.000    
      39  0.3796E-02  0.9710E-04 SHELL         52  -0.0%  0.5165       7681.      0.2937E-02   0.000       0.000       240.0       0.000    
      40  0.3893E-02  0.9708E-04 SHELL         52  -0.0%  0.5315       7681.      0.3065E-02   0.000       0.000       240.0       0.000    
      41  0.3990E-02  0.9707E-04 SHELL         52  -0.0%  0.5464       7681.      0.3165E-02   0.000       0.000       240.0       0.000    
      42  0.4087E-02  0.9705E-04 SHELL         52  -0.0%  0.5613       7681.      0.3235E-02   0.000       0.000       240.0       0.000    
      43  0.4184E-02  0.9704E-04 SHELL         52  -0.0%  0.5763       7681.      0.3274E-02   0.000       0.000       240.0       0.000    
      44  0.4281E-02  0.9702E-04 SHELL         52  -0.0%  0.5913       7681.      0.3284E-02   0.000       0.000       240.0       0.000    
      45  0.4378E-02  0.9701E-04 SHELL         52  -0.0%  0.6064       7681.      0.3267E-02   0.000       0.000       240.0       0.000    
      46  0.4476E-02  0.9699E-04 SHELL         52  -0.0%  0.6216       7681.      0.3224E-02   0.000       0.000       240.0       0.000    
      47  0.4572E-02  0.9698E-04 SHELL         52  -0.0%  0.6370       7681.      0.3162E-02   0.000       0.000       240.0       0.000    
      48  0.4669E-02  0.9696E-04 SHELL         52  -0.0%  0.6525       7681.      0.3085E-02   0.000       0.000       240.0       0.000    
      49  0.4766E-02  0.9694E-04 SHELL         52  -0.0%  0.6681       7681.      0.3000E-02   0.000       0.000       240.0       0.000    
      50  0.4863E-02  0.9693E-04 SHELL         52  -0.0%  0.6839       7681.      0.2912E-02   0.000       0.000       240.0       0.000    
      51  0.4960E-02  0.9691E-04 SHELL         52  -0.0%  0.6998       7681.      0.2830E-02   0.000       0.000       240.0       0.000    
      52  0.5057E-02  0.9689E-04 SHELL         52  -0.0%  0.7158       7681.      0.2759E-02   0.000       0.000       240.0       0.000    
      53  0.5154E-02  0.9688E-04 SHELL         52  -0.0%  0.7319       7681.      0.2705E-02   0.000       0.000       240.0       0.000    
      54  0.5251E-02  0.9686E-04 SHELL         52  -0.0%  0.7481       7680.      0.2676E-02   0.000       0.000       240.0       0.000    
   CYCLE    TIME      TIME-STEP  ELEMENT          ERROR  I-ENERGY    K-ENERGY T  K-ENERGY R  EXT-WORK     MAS.ERR     TOTAL MASS  MASS ADDED
      55  0.5348E-02  0.9684E-04 SHELL         52  -0.0%  0.7642       7680.      0.2674E-02   0.000       0.000       240.0       0.000    
      56  0.5445E-02  0.9683E-04 SHELL         52  -0.0%  0.7804       7680.      0.2703E-02   0.000       0.000       240.0       0.000    
      57  0.5542E-02  0.9681E-04 SHELL         52  -0.0%  0.7964       7680.      0.2766E-02   0.000       0.000       240.0       0.000    
      58  0.5638E-02  0.9679E-04 SHELL         52  -0.0%  0.8125       7680.      0.2862E-02   0.000       0.000       240.0       0.000    
      59  0.5735E-02  0.9677E-04 SHELL         52  -0.0%  0.8285       7680.      0.2991E-02   0.000       0.000       240.0       0.000    
      60  0.5832E-02  0.9676E-04 SHELL         52  -0.0%  0.8444       7680.      0.3150E-02   0.000       0.000       240.0       0.000    
      61  0.5929E-02  0.9674E-04 SHELL         52  -0.0%  0.8604       7680.      0.3337E-02   0.000       0.000       240.0       0.000    
      62  0.6025E-02  0.9672E-04 SHELL         52  -0.0%  0.8763       7680.      0.3546E-02   0.000       0.000       240.0       0.000    
      63  0.6122E-02  0.9670E-04 SHELL         52  -0.0%  0.8923       7680.      0.3774E-02   0.000       0.000       240.0       0.000    
      64  0.6219E-02  0.9669E-04 SHELL         52  -0.0%  0.9083       7680.      0.4013E-02   0.000       0.000       240.0       0.000    
      65  0.6316E-02  0.9667E-04 SHELL         52  -0.0%  0.9245       7680.      0.4260E-02   0.000       0.000       240.0       0.000    
      66  0.6412E-02  0.9665E-04 SHELL         52  -0.0%  0.9408       7680.      0.4509E-02   0.000       0.000       240.0       0.000    
      67  0.6509E-02  0.9663E-04 SHELL         52  -0.0%  0.9573       7680.      0.4753E-02   0.000       0.000       240.0       0.000    
      68  0.6605E-02  0.9662E-04 SHELL         52  -0.0%  0.9739       7680.      0.4990E-02   0.000       0.000       240.0       0.000    
      69  0.6702E-02  0.9660E-04 SHELL         52  -0.0%  0.9906       7680.      0.5213E-02   0.000       0.000       240.0       0.000    
      70  0.6799E-02  0.9658E-04 SHELL         52  -0.0%   1.008       7680.      0.5421E-02   0.000       0.000       240.0       0.000    
      71  0.6895E-02  0.9656E-04 SHELL         52  -0.0%   1.025       7680.      0.5610E-02   0.000       0.000       240.0       0.000    
      72  0.6992E-02  0.9655E-04 SHELL         52  -0.0%   1.042       7680.      0.5778E-02   0.000       0.000       240.0       0.000    
      73  0.7088E-02  0.9653E-04 SHELL         52  -0.0%   1.059       7680.      0.5926E-02   0.000       0.000       240.0       0.000    
      74  0.7185E-02  0.9651E-04 SHELL         52  -0.0%   1.076       7680.      0.6052E-02   0.000       0.000       240.0       0.000    
      75  0.7281E-02  0.9650E-04 SHELL         52  -0.0%   1.093       7680.      0.6156E-02   0.000       0.000       240.0       0.000    
      76  0.7378E-02  0.9648E-04 SHELL         52  -0.0%   1.111       7680.      0.6241E-02   0.000       0.000       240.0       0.000    
      77  0.7474E-02  0.9646E-04 SHELL         52  -0.0%   1.128       7680.      0.6306E-02   0.000       0.000       240.0       0.000    
      78  0.7571E-02  0.9644E-04 SHELL         52  -0.0%   1.145       7680.      0.6354E-02   0.000       0.000       240.0       0.000    
      79  0.7667E-02  0.9643E-04 SHELL         52  -0.0%   1.162       7680.      0.6387E-02   0.000       0.000       240.0       0.000    
      80  0.7764E-02  0.9641E-04 SHELL         52  -0.0%   1.178       7680.      0.6408E-02   0.000       0.000       240.0       0.000    
      81  0.7860E-02  0.9639E-04 SHELL         52  -0.0%   1.195       7680.      0.6417E-02   0.000       0.000       240.0       0.000    
      82  0.7957E-02  0.9637E-04 SHELL         52  -0.0%   1.212       7680.      0.6419E-02   0.000       0.000       240.0       0.000    
      83  0.8053E-02  0.9636E-04 SHELL         52  -0.0%   1.228       7680.      0.6415E-02   0.000       0.000       240.0       0.000    
      84  0.8149E-02  0.9634E-04 SHELL         52  -0.0%   1.245       7680.      0.6408E-02   0.000       0.000       240.0       0.000    
      85  0.8246E-02  0.9632E-04 SHELL         52  -0.0%   1.261       7680.      0.6401E-02   0.000       0.000       240.0       0.000    
      86  0.8342E-02  0.9630E-04 SHELL         52  -0.0%   1.278       7680.      0.6398E-02   0.000       0.000       240.0       0.000    
      87  0.8438E-02  0.9629E-04 SHELL         52  -0.0%   1.295       7680.      0.6400E-02   0.000       0.000       240.0       0.000    
      88  0.8534E-02  0.9627E-04 SHELL         52  -0.0%   1.312       7680.      0.6411E-02   0.000       0.000       240.0       0.000    
      89  0.8631E-02  0.9625E-04 SHELL         52  -0.0%   1.330       7680.      0.6434E-02   0.000       0.000       240.0       0.000    
      90  0.8727E-02  0.9623E-04 SHELL         52  -0.0%   1.349       7680.      0.6469E-02   0.000       0.000       240.0       0.000    
      91  0.8823E-02  0.9622E-04 SHELL         52  -0.0%   1.368       7680.      0.6520E-02   0.000       0.000       240.0       0.000    
      92  0.8919E-02  0.9620E-04 SHELL         52  -0.0%   1.387       7680.      0.6588E-02   0.000       0.000       240.0       0.000    
      93  0.9016E-02  0.9618E-04 SHELL         52  -0.0%   1.407       7680.      0.6674E-02   0.000       0.000       240.0       0.000    
      94  0.9112E-02  0.9616E-04 SHELL         52  -0.0%   1.429       7680.      0.6777E-02   0.000       0.000       240.0       0.000    
      95  0.9208E-02  0.9615E-04 SHELL         52  -0.0%   1.451       7680.      0.6898E-02   0.000       0.000       240.0       0.000    
      96  0.9304E-02  0.9613E-04 SHELL         52  -0.0%   1.474       7680.      0.7035E-02   0.000       0.000       240.0       0.000    
      97  0.9400E-02  0.9611E-04 SHELL         52  -0.0%   1.497       7680.      0.7188E-02   0.000       0.000       240.0       0.000    
      98  0.9496E-02  0.9610E-04 SHELL         52  -0.0%   1.522       7680.      0.7353E-02   0.000       0.000       240.0       0.000    
      99  0.9592E-02  0.9608E-04 SHELL         52  -0.0%   1.548       7680.      0.7529E-02   0.000       0.000       240.0       0.000    
     100  0.9689E-02  0.9606E-04 SHELL         52  -0.0%   1.575       7680.      0.7713E-02   0.000       0.000       240.0       0.000    
     101  0.9785E-02  0.9605E-04 SHELL         52  -0.0%   1.603       7680.      0.7902E-02   0.000       0.000       240.0       0.000    
     102  0.9881E-02  0.9603E-04 SHELL         52  -0.0%   1.632       7680.      0.8093E-02   0.000       0.000       240.0       0.000    
     103  0.9977E-02  0.9601E-04 SHELL         52  -0.0%   1.663       7680.      0.8284E-02   0.000       0.000       240.0       0.000    
     104  0.1007E-01  0.9600E-04 SHELL         52  -0.0%   1.694       7680.      0.8472E-02   0.000       0.000       240.0       0.000    
     ANIMATION FILE: BOX1BLA002 WRITTEN
     105  0.1017E-01  0.9598E-04 SHELL         52  -0.0%   1.726       7680.      0.8656E-02   0.000       0.000       240.0       0.000    
     106  0.1026E-01  0.9597E-04 SHELL         52  -0.0%   1.760       7679.      0.8834E-02   0.000       0.000       240.0       0.000    
     107  0.1036E-01  0.9595E-04 SHELL         52  -0.0%   1.794       7679.      0.9005E-02   0.000       0.000       240.0       0.000    
     108  0.1046E-01  0.9594E-04 SHELL         52  -0.0%   1.829       7679.      0.9160E-02   0.000       0.000       240.0       0.000    
     109  0.1055E-01  0.9592E-04 SHELL         52  -0.0%   1.864       7679.      0.9294E-02   0.000       0.000       240.0       0.000    
   CYCLE    TIME      TIME-STEP  ELEMENT          ERROR  I-ENERGY    K-ENERGY T  K-ENERGY R  EXT-WORK     MAS.ERR     TOTAL MASS  MASS ADDED
     110  0.1065E-01  0.9590E-04 SHELL         52  -0.0%   1.899       7679.      0.9418E-02   0.000       0.000       240.0       0.000    
     111  0.1074E-01  0.9589E-04 SHELL         52  -0.0%   1.934       7679.      0.9534E-02   0.000       0.000       240.0       0.000    
     112  0.1084E-01  0.9587E-04 SHELL         52  -0.0%   1.970       7679.      0.9647E-02   0.000       0.000       240.0       0.000    
     113  0.1094E-01  0.9586E-04 SHELL         52  -0.0%   2.005       7679.      0.9756E-02   0.000       0.000       240.0       0.000    
     114  0.1103E-01  0.9584E-04 SHELL         52  -0.0%   2.039       7679.      0.9864E-02   0.000       0.000       240.0       0.000    
     115  0.1113E-01  0.9583E-04 SHELL         52  -0.0%   2.074       7679.      0.9971E-02   0.000       0.000       240.0       0.000    
     116  0.1122E-01  0.9581E-04 SHELL         52  -0.0%   2.109       7679.      0.1008E-01   0.000       0.000       240.0       0.000    
     117  0.1132E-01  0.9580E-04 SHELL         12  -0.0%   2.144       7679.      0.1018E-01   0.000       0.000       240.0       0.000    
     118  0.1142E-01  0.9578E-04 SHELL         12  -0.0%   2.179       7679.      0.1028E-01   0.000       0.000       240.0       0.000    
     119  0.1151E-01  0.9577E-04 SHELL         12  -0.0%   2.213       7679.      0.1038E-01   0.000       0.000       240.0       0.000    
     120  0.1161E-01  0.9575E-04 SHELL         12  -0.0%   2.248       7679.      0.1047E-01   0.000       0.000       240.0       0.000    
     121  0.1170E-01  0.9573E-04 SHELL         12  -0.0%   2.283       7679.      0.1055E-01   0.000       0.000       240.0       0.000    
     122  0.1180E-01  0.9572E-04 SHELL         12  -0.0%   2.318       7679.      0.1062E-01   0.000       0.000       240.0       0.000    
     123  0.1189E-01  0.9570E-04 SHELL         12  -0.0%   2.353       7679.      0.1069E-01   0.000       0.000       240.0       0.000    
     124  0.1199E-01  0.9569E-04 SHELL         12  -0.0%   2.388       7679.      0.1074E-01   0.000       0.000       240.0       0.000    
     125  0.1209E-01  0.9567E-04 SHELL         12  -0.0%   2.422       7679.      0.1078E-01   0.000       0.000       240.0       0.000    
     126  0.1218E-01  0.9565E-04 SHELL         12  -0.0%   2.456       7679.      0.1081E-01   0.000       0.000       240.0       0.000    
     127  0.1228E-01  0.9564E-04 SHELL         12  -0.0%   2.491       7679.      0.1083E-01   0.000       0.000       240.0       0.000    
     128  0.1237E-01  0.9562E-04 SHELL         12  -0.0%   2.525       7679.      0.1084E-01   0.000       0.000       240.0       0.000    
     129  0.1247E-01  0.9560E-04 SHELL         12  -0.0%   2.558       7679.      0.1085E-01   0.000       0.000       240.0       0.000    
     130  0.1256E-01  0.9559E-04 SHELL         12  -0.0%   2.592       7679.      0.1086E-01   0.000       0.000       240.0       0.000    
     131  0.1266E-01  0.9557E-04 SHELL         12  -0.0%   2.625       7679.      0.1087E-01   0.000       0.000       240.0       0.000    
     132  0.1275E-01  0.9555E-04 SHELL         12  -0.0%   2.658       7679.      0.1088E-01   0.000       0.000       240.0       0.000    
     133  0.1285E-01  0.9554E-04 SHELL         12  -0.0%   2.691       7679.      0.1091E-01   0.000       0.000       240.0       0.000    
     134  0.1295E-01  0.9552E-04 SHELL         12  -0.0%   2.725       7678.      0.1095E-01   0.000       0.000       240.0       0.000    
     135  0.1304E-01  0.9550E-04 SHELL         12  -0.0%   2.758       7678.      0.1101E-01   0.000       0.000       240.0       0.000    
     136  0.1314E-01  0.9548E-04 SHELL         12  -0.0%   2.791       7678.      0.1109E-01   0.000       0.000       240.0       0.000    
     137  0.1323E-01  0.9547E-04 SHELL         12  -0.0%   2.825       7678.      0.1118E-01   0.000       0.000       240.0       0.000    
     138  0.1333E-01  0.9545E-04 SHELL         12  -0.0%   2.858       7678.      0.1129E-01   0.000       0.000       240.0       0.000    
     139  0.1342E-01  0.9543E-04 SHELL         12  -0.0%   2.892       7678.      0.1141E-01   0.000       0.000       240.0       0.000    
     140  0.1352E-01  0.9541E-04 SHELL         12  -0.0%   2.926       7678.      0.1154E-01   0.000       0.000       240.0       0.000    
     141  0.1361E-01  0.9539E-04 SHELL         12  -0.0%   2.960       7678.      0.1167E-01   0.000       0.000       240.0       0.000    
     142  0.1371E-01  0.9538E-04 SHELL         12  -0.0%   2.994       7678.      0.1180E-01   0.000       0.000       240.0       0.000    
     143  0.1380E-01  0.9536E-04 SHELL         12  -0.0%   3.028       7678.      0.1191E-01   0.000       0.000       240.0       0.000    
     144  0.1390E-01  0.9534E-04 SHELL         12  -0.0%   3.062       7678.      0.1201E-01   0.000       0.000       240.0       0.000    
     145  0.1400E-01  0.9532E-04 SHELL         12  -0.0%   3.097       7678.      0.1208E-01   0.000       0.000       240.0       0.000    
     146  0.1409E-01  0.9530E-04 SHELL         12  -0.0%   3.131       7678.      0.1212E-01   0.000       0.000       240.0       0.000    
     147  0.1419E-01  0.9529E-04 SHELL         12  -0.0%   3.165       7678.      0.1212E-01   0.000       0.000       240.0       0.000    
     148  0.1428E-01  0.9527E-04 SHELL         12  -0.0%   3.199       7678.      0.1208E-01   0.000       0.000       240.0       0.000    
     149  0.1438E-01  0.9525E-04 SHELL         12  -0.0%   3.233       7678.      0.1200E-01   0.000       0.000       240.0       0.000    
     150  0.1447E-01  0.9523E-04 SHELL         12  -0.0%   3.267       7678.      0.1188E-01   0.000       0.000       240.0       0.000    
     151  0.1457E-01  0.9522E-04 SHELL         12  -0.0%   3.300       7678.      0.1174E-01   0.000       0.000       240.0       0.000    
     152  0.1466E-01  0.9520E-04 SHELL         12  -0.0%   3.334       7678.      0.1156E-01   0.000       0.000       240.0       0.000    
     153  0.1476E-01  0.9518E-04 SHELL         12  -0.0%   3.367       7678.      0.1137E-01   0.000       0.000       240.0       0.000    
     154  0.1485E-01  0.9516E-04 SHELL         52  -0.0%   3.401       7678.      0.1118E-01   0.000       0.000       240.0       0.000    
     155  0.1495E-01  0.9515E-04 SHELL         52  -0.0%   3.434       7678.      0.1099E-01   0.000       0.000       240.0       0.000    
     156  0.1504E-01  0.9513E-04 SHELL         52  -0.0%   3.467       7678.      0.1081E-01   0.000       0.000       240.0       0.000    
     157  0.1514E-01  0.9511E-04 SHELL         52  -0.0%   3.500       7678.      0.1067E-01   0.000       0.000       240.0       0.000    
     158  0.1523E-01  0.9510E-04 SHELL         52  -0.0%   3.533       7678.      0.1056E-01   0.000       0.000       240.0       0.000    
     159  0.1533E-01  0.9508E-04 SHELL         52  -0.0%   3.566       7678.      0.1051E-01   0.000       0.000       240.0       0.000    
     160  0.1542E-01  0.9507E-04 SHELL         52  -0.0%   3.599       7678.      0.1050E-01   0.000       0.000       240.0       0.000    
     161  0.1552E-01  0.9505E-04 SHELL         52  -0.0%   3.632       7678.      0.1055E-01   0.000       0.000       240.0       0.000    
     162  0.1561E-01  0.9504E-04 SHELL         52  -0.0%   3.665       7678.      0.1066E-01   0.000       0.000       240.0       0.000    
     163  0.1571E-01  0.9502E-04 SHELL         52  -0.0%   3.699       7678.      0.1082E-01   0.000       0.000       240.0       0.000    
     164  0.1580E-01  0.9501E-04 SHELL         52  -0.0%   3.732       7677.      0.1102E-01   0.000       0.000       240.0       0.000    
   CYCLE    TIME      TIME-STEP  ELEMENT          ERROR  I-ENERGY    K-ENERGY T  K-ENERGY R  EXT-WORK     MAS.ERR     TOTAL MASS  MASS ADDED
     165  0.1590E-01  0.9499E-04 SHELL         52  -0.0%   3.765       7677.      0.1126E-01   0.000       0.000       240.0       0.000    
     166  0.1599E-01  0.9498E-04 SHELL         52  -0.0%   3.798       7677.      0.1153E-01   0.000       0.000       240.0       0.000    
     167  0.1609E-01  0.9497E-04 SHELL         52  -0.0%   3.831       7677.      0.1181E-01   0.000       0.000       240.0       0.000    
     168  0.1618E-01  0.9495E-04 SHELL         52  -0.0%   3.864       7677.      0.1209E-01   0.000       0.000       240.0       0.000    
     169  0.1628E-01  0.9494E-04 SHELL         52  -0.0%   3.896       7677.      0.1236E-01   0.000       0.000       240.0       0.000    
     170  0.1637E-01  0.9493E-04 SHELL         52  -0.0%   3.929       7677.      0.1259E-01   0.000       0.000       240.0       0.000    
     171  0.1647E-01  0.9491E-04 SHELL         52  -0.0%   3.962       7677.      0.1280E-01   0.000       0.000       240.0       0.000    
     172  0.1656E-01  0.9490E-04 SHELL         52  -0.0%   3.994       7677.      0.1296E-01   0.000       0.000       240.0       0.000    
     173  0.1666E-01  0.9489E-04 SHELL         52  -0.0%   4.027       7677.      0.1307E-01   0.000       0.000       240.0       0.000    
     174  0.1675E-01  0.9488E-04 SHELL         52  -0.0%   4.059       7677.      0.1313E-01   0.000       0.000       240.0       0.000    
     175  0.1685E-01  0.9486E-04 SHELL         52  -0.0%   4.091       7677.      0.1314E-01   0.000       0.000       240.0       0.000    
     176  0.1694E-01  0.9485E-04 SHELL         52  -0.0%   4.123       7677.      0.1311E-01   0.000       0.000       240.0       0.000    
     177  0.1704E-01  0.9484E-04 SHELL         52  -0.0%   4.155       7677.      0.1305E-01   0.000       0.000       240.0       0.000    
     178  0.1713E-01  0.9483E-04 SHELL         52  -0.0%   4.187       7677.      0.1296E-01   0.000       0.000       240.0       0.000    
     179  0.1723E-01  0.9482E-04 SHELL         52  -0.0%   4.219       7677.      0.1286E-01   0.000       0.000       240.0       0.000    
     180  0.1732E-01  0.9480E-04 SHELL         52  -0.0%   4.251       7677.      0.1276E-01   0.000       0.000       240.0       0.000    
     181  0.1742E-01  0.9479E-04 SHELL         52  -0.0%   4.283       7677.      0.1267E-01   0.000       0.000       240.0       0.000    
     182  0.1751E-01  0.9478E-04 SHELL         52  -0.0%   4.315       7677.      0.1260E-01   0.000       0.000       240.0       0.000    
     183  0.1761E-01  0.9477E-04 SHELL         52  -0.0%   4.347       7677.      0.1256E-01   0.000       0.000       240.0       0.000    
     184  0.1770E-01  0.9476E-04 SHELL         52  -0.0%   4.379       7677.      0.1256E-01   0.000       0.000       240.0       0.000    
     185  0.1780E-01  0.9475E-04 SHELL         52  -0.0%   4.411       7677.      0.1259E-01   0.000       0.000       240.0       0.000    
     186  0.1789E-01  0.9473E-04 SHELL         52  -0.0%   4.443       7677.      0.1267E-01   0.000       0.000       240.0       0.000    
     187  0.1799E-01  0.9472E-04 SHELL         52  -0.0%   4.475       7677.      0.1278E-01   0.000       0.000       240.0       0.000    
     188  0.1808E-01  0.9471E-04 SHELL         52  -0.0%   4.507       7677.      0.1292E-01   0.000       0.000       240.0       0.000    
     189  0.1818E-01  0.9470E-04 SHELL         52  -0.0%   4.539       7677.      0.1308E-01   0.000       0.000       240.0       0.000    
     190  0.1827E-01  0.9469E-04 SHELL         52  -0.0%   4.571       7677.      0.1326E-01   0.000       0.000       240.0       0.000    
     191  0.1836E-01  0.9467E-04 SHELL         52  -0.0%   4.603       7677.      0.1343E-01   0.000       0.000       240.0       0.000    
     192  0.1846E-01  0.9466E-04 SHELL         52  -0.0%   4.635       7677.      0.1358E-01   0.000       0.000       240.0       0.000    
     193  0.1855E-01  0.9465E-04 SHELL         52  -0.0%   4.667       7677.      0.1371E-01   0.000       0.000       240.0       0.000    
     194  0.1865E-01  0.9463E-04 SHELL         52  -0.0%   4.700       7676.      0.1380E-01   0.000       0.000       240.0       0.000    
     195  0.1874E-01  0.9462E-04 SHELL         52  -0.0%   4.732       7676.      0.1384E-01   0.000       0.000       240.0       0.000    
     196  0.1884E-01  0.9461E-04 SHELL         52  -0.0%   4.764       7676.      0.1382E-01   0.000       0.000       240.0       0.000    
     197  0.1893E-01  0.9459E-04 SHELL         52  -0.0%   4.796       7676.      0.1375E-01   0.000       0.000       240.0       0.000    
     198  0.1903E-01  0.9458E-04 SHELL         52  -0.0%   4.828       7676.      0.1363E-01   0.000       0.000       240.0       0.000    
     199  0.1912E-01  0.9457E-04 SHELL         52  -0.0%   4.861       7676.      0.1345E-01   0.000       0.000       240.0       0.000    
     200  0.1922E-01  0.9455E-04 SHELL         52  -0.0%   4.893       7676.      0.1323E-01   0.000       0.000       240.0       0.000    
     201  0.1931E-01  0.9454E-04 SHELL         52  -0.0%   4.925       7676.      0.1297E-01   0.000       0.000       240.0       0.000    
     202  0.1941E-01  0.9452E-04 SHELL         52  -0.0%   4.958       7676.      0.1270E-01   0.000       0.000       240.0       0.000    
     203  0.1950E-01  0.9451E-04 SHELL         52  -0.0%   4.990       7676.      0.1242E-01   0.000       0.000       240.0       0.000    
     204  0.1959E-01  0.9449E-04 SHELL         52  -0.0%   5.022       7676.      0.1216E-01   0.000       0.000       240.0       0.000    
     205  0.1969E-01  0.9448E-04 SHELL         52  -0.0%   5.054       7676.      0.1192E-01   0.000       0.000       240.0       0.000    
     206  0.1978E-01  0.9446E-04 SHELL         52  -0.0%   5.086       7676.      0.1172E-01   0.000       0.000       240.0       0.000    
     207  0.1988E-01  0.9445E-04 SHELL         52  -0.0%   5.119       7676.      0.1157E-01   0.000       0.000       240.0       0.000    
     208  0.1997E-01  0.9443E-04 SHELL         52  -0.0%   5.151       7676.      0.1148E-01   0.000       0.000       240.0       0.000    
     209  0.2007E-01  0.9442E-04 SHELL         52  -0.0%   5.183       7676.      0.1145E-01   0.000       0.000       240.0       0.000    
     ANIMATION FILE: BOX1BLA003 WRITTEN
     210  0.2016E-01  0.9440E-04 SHELL         52  -0.0%   5.214       7676.      0.1148E-01   0.000       0.000       240.0       0.000    
     211  0.2026E-01  0.9439E-04 SHELL         52  -0.0%   5.246       7676.      0.1157E-01   0.000       0.000       240.0       0.000    
     212  0.2035E-01  0.9437E-04 SHELL         52  -0.0%   5.278       7676.      0.1171E-01   0.000       0.000       240.0       0.000    
     213  0.2044E-01  0.9436E-04 SHELL         52  -0.0%   5.310       7676.      0.1188E-01   0.000       0.000       240.0       0.000    
     214  0.2054E-01  0.9434E-04 SHELL         52  -0.0%   5.341       7676.      0.1208E-01   0.000       0.000       240.0       0.000    
     215  0.2063E-01  0.9432E-04 SHELL         52  -0.0%   5.373       7676.      0.1228E-01   0.000       0.000       240.0       0.000    
     216  0.2073E-01  0.9431E-04 SHELL         52  -0.0%   5.405       7676.      0.1248E-01   0.000       0.000       240.0       0.000    
     217  0.2082E-01  0.9429E-04 SHELL         52  -0.0%   5.436       7676.      0.1266E-01   0.000       0.000       240.0       0.000    
     218  0.2092E-01  0.9428E-04 SHELL         52  -0.0%   5.468       7676.      0.1280E-01   0.000       0.000       240.0       0.000    
     219  0.2101E-01  0.9426E-04 SHELL         52  -0.0%   5.500       7676.      0.1289E-01   0.000       0.000       240.0       0.000    
   CYCLE    TIME      TIME-STEP  ELEMENT          ERROR  I-ENERGY    K-ENERGY T  K-ENERGY R  EXT-WORK     MAS.ERR     TOTAL MASS  MASS ADDED
     220  0.2110E-01  0.9424E-04 SHELL         52  -0.0%   5.532       7676.      0.1293E-01   0.000       0.000       240.0       0.000    
     221  0.2120E-01  0.9423E-04 SHELL         52  -0.0%   5.564       7676.      0.1290E-01   0.000       0.000       240.0       0.000    
     222  0.2129E-01  0.9421E-04 SHELL         52  -0.0%   5.596       7676.      0.1282E-01   0.000       0.000       240.0       0.000    
     223  0.2139E-01  0.9420E-04 SHELL         52  -0.0%   5.628       7676.      0.1268E-01   0.000       0.000       240.0       0.000    
     224  0.2148E-01  0.9418E-04 SHELL         52  -0.0%   5.660       7676.      0.1249E-01   0.000       0.000       240.0       0.000    
     225  0.2158E-01  0.9417E-04 SHELL         52  -0.0%   5.692       7675.      0.1226E-01   0.000       0.000       240.0       0.000    
     226  0.2167E-01  0.9415E-04 SHELL         52  -0.0%   5.724       7675.      0.1201E-01   0.000       0.000       240.0       0.000    
     227  0.2176E-01  0.9413E-04 SHELL         52  -0.0%   5.757       7675.      0.1176E-01   0.000       0.000       240.0       0.000    
     228  0.2186E-01  0.9412E-04 SHELL         12  -0.0%   5.789       7675.      0.1151E-01   0.000       0.000       240.0       0.000    
     229  0.2195E-01  0.9410E-04 SHELL         12  -0.0%   5.821       7675.      0.1129E-01   0.000       0.000       240.0       0.000    
     230  0.2205E-01  0.9409E-04 SHELL         12  -0.0%   5.853       7675.      0.1110E-01   0.000       0.000       240.0       0.000    
     231  0.2214E-01  0.9407E-04 SHELL         12  -0.0%   5.886       7675.      0.1096E-01   0.000       0.000       240.0       0.000    
     232  0.2223E-01  0.9406E-04 SHELL         12  -0.0%   5.918       7675.      0.1088E-01   0.000       0.000       240.0       0.000    
     233  0.2233E-01  0.9404E-04 SHELL         12  -0.0%   5.950       7675.      0.1087E-01   0.000       0.000       240.0       0.000    
     234  0.2242E-01  0.9403E-04 SHELL         12  -0.0%   5.982       7675.      0.1092E-01   0.000       0.000       240.0       0.000    
     235  0.2252E-01  0.9401E-04 SHELL         12  -0.0%   6.014       7675.      0.1103E-01   0.000       0.000       240.0       0.000    
     236  0.2261E-01  0.9400E-04 SHELL         12  -0.0%   6.046       7675.      0.1119E-01   0.000       0.000       240.0       0.000    
     237  0.2270E-01  0.9398E-04 SHELL         12  -0.0%   6.078       7675.      0.1139E-01   0.000       0.000       240.0       0.000    
     238  0.2280E-01  0.9397E-04 SHELL         12  -0.0%   6.109       7675.      0.1162E-01   0.000       0.000       240.0       0.000    
     239  0.2289E-01  0.9395E-04 SHELL         12  -0.0%   6.141       7675.      0.1186E-01   0.000       0.000       240.0       0.000    
     240  0.2299E-01  0.9394E-04 SHELL         12  -0.0%   6.173       7675.      0.1209E-01   0.000       0.000       240.0       0.000    
     241  0.2308E-01  0.9392E-04 SHELL         12  -0.0%   6.206       7675.      0.1229E-01   0.000       0.000       240.0       0.000    
     242  0.2317E-01  0.9391E-04 SHELL         12  -0.0%   6.238       7675.      0.1246E-01   0.000       0.000       240.0       0.000    
     243  0.2327E-01  0.9389E-04 SHELL         12  -0.0%   6.270       7675.      0.1257E-01   0.000       0.000       240.0       0.000    
     244  0.2336E-01  0.9388E-04 SHELL         12  -0.0%   6.303       7675.      0.1262E-01   0.000       0.000       240.0       0.000    
     245  0.2346E-01  0.9387E-04 SHELL         12  -0.0%   6.335       7675.      0.1260E-01   0.000       0.000       240.0       0.000    
     246  0.2355E-01  0.9385E-04 SHELL         12  -0.0%   6.368       7675.      0.1252E-01   0.000       0.000       240.0       0.000    
     247  0.2364E-01  0.9384E-04 SHELL         12  -0.0%   6.401       7675.      0.1237E-01   0.000       0.000       240.0       0.000    
     248  0.2374E-01  0.9382E-04 SHELL         12  -0.0%   6.434       7675.      0.1217E-01   0.000       0.000       240.0       0.000    
     249  0.2383E-01  0.9381E-04 SHELL         12  -0.0%   6.467       7675.      0.1192E-01   0.000       0.000       240.0       0.000    
     250  0.2392E-01  0.9380E-04 SHELL         12  -0.0%   6.500       7675.      0.1164E-01   0.000       0.000       240.0       0.000    
     251  0.2402E-01  0.9378E-04 SHELL         12  -0.0%   6.533       7675.      0.1135E-01   0.000       0.000       240.0       0.000    
     252  0.2411E-01  0.9377E-04 SHELL         12  -0.0%   6.566       7675.      0.1106E-01   0.000       0.000       240.0       0.000    
     253  0.2421E-01  0.9376E-04 SHELL         12  -0.0%   6.599       7675.      0.1079E-01   0.000       0.000       240.0       0.000    
     254  0.2430E-01  0.9374E-04 SHELL         12  -0.0%   6.632       7675.      0.1056E-01   0.000       0.000       240.0       0.000    
     255  0.2439E-01  0.9373E-04 SHELL         12  -0.0%   6.665       7674.      0.1037E-01   0.000       0.000       240.0       0.000    
     256  0.2449E-01  0.9372E-04 SHELL         12  -0.0%   6.698       7674.      0.1024E-01   0.000       0.000       240.0       0.000    
     257  0.2458E-01  0.9370E-04 SHELL         12  -0.0%   6.731       7674.      0.1017E-01   0.000       0.000       240.0       0.000    
     258  0.2467E-01  0.9369E-04 SHELL         12  -0.0%   6.764       7674.      0.1016E-01   0.000       0.000       240.0       0.000    
     259  0.2477E-01  0.9368E-04 SHELL         12  -0.0%   6.796       7674.      0.1023E-01   0.000       0.000       240.0       0.000    
     260  0.2486E-01  0.9366E-04 SHELL         12  -0.0%   6.829       7674.      0.1035E-01   0.000       0.000       240.0       0.000    
     261  0.2496E-01  0.9365E-04 SHELL         12  -0.0%   6.861       7674.      0.1052E-01   0.000       0.000       240.0       0.000    
     262  0.2505E-01  0.9364E-04 SHELL         12  -0.0%   6.894       7674.      0.1073E-01   0.000       0.000       240.0       0.000    
     263  0.2514E-01  0.9362E-04 SHELL         12  -0.0%   6.926       7674.      0.1097E-01   0.000       0.000       240.0       0.000    
     264  0.2524E-01  0.9361E-04 SHELL         12  -0.0%   6.958       7674.      0.1122E-01   0.000       0.000       240.0       0.000    
     265  0.2533E-01  0.9360E-04 SHELL         12  -0.0%   6.991       7674.      0.1145E-01   0.000       0.000       240.0       0.000    
     266  0.2542E-01  0.9358E-04 SHELL         12  -0.0%   7.023       7674.      0.1167E-01   0.000       0.000       240.0       0.000    
     267  0.2552E-01  0.9357E-04 SHELL         12  -0.0%   7.056       7674.      0.1184E-01   0.000       0.000       240.0       0.000    
     268  0.2561E-01  0.9356E-04 SHELL         12  -0.0%   7.088       7674.      0.1197E-01   0.000       0.000       240.0       0.000    
     269  0.2570E-01  0.9355E-04 SHELL         12  -0.0%   7.121       7674.      0.1204E-01   0.000       0.000       240.0       0.000    
     270  0.2580E-01  0.9353E-04 SHELL         12  -0.0%   7.153       7674.      0.1205E-01   0.000       0.000       240.0       0.000    
     271  0.2589E-01  0.9352E-04 SHELL         12  -0.0%   7.186       7674.      0.1199E-01   0.000       0.000       240.0       0.000    
     272  0.2599E-01  0.9351E-04 SHELL         12  -0.0%   7.219       7674.      0.1188E-01   0.000       0.000       240.0       0.000    
     273  0.2608E-01  0.9350E-04 SHELL         12  -0.0%   7.252       7674.      0.1173E-01   0.000       0.000       240.0       0.000    
     274  0.2617E-01  0.9348E-04 SHELL         12  -0.0%   7.285       7674.      0.1153E-01   0.000       0.000       240.0       0.000    
   CYCLE    TIME      TIME-STEP  ELEMENT          ERROR  I-ENERGY    K-ENERGY T  K-ENERGY R  EXT-WORK     MAS.ERR     TOTAL MASS  MASS ADDED
     275  0.2627E-01  0.9347E-04 SHELL         52  -0.0%   7.319       7674.      0.1130E-01   0.000       0.000       240.0       0.000    
     276  0.2636E-01  0.9346E-04 SHELL         52  -0.0%   7.352       7674.      0.1107E-01   0.000       0.000       240.0       0.000    
     277  0.2645E-01  0.9345E-04 SHELL         52  -0.0%   7.385       7674.      0.1083E-01   0.000       0.000       240.0       0.000    
     278  0.2655E-01  0.9343E-04 SHELL         52  -0.0%   7.418       7674.      0.1061E-01   0.000       0.000       240.0       0.000    
     279  0.2664E-01  0.9342E-04 SHELL         52  -0.0%   7.451       7674.      0.1041E-01   0.000       0.000       240.0       0.000    
     280  0.2673E-01  0.9341E-04 SHELL         52  -0.0%   7.484       7674.      0.1025E-01   0.000       0.000       240.0       0.000    
     281  0.2683E-01  0.9340E-04 SHELL         52  -0.0%   7.517       7674.      0.1013E-01   0.000       0.000       240.0       0.000    
     282  0.2692E-01  0.9338E-04 SHELL         52  -0.0%   7.550       7674.      0.1007E-01   0.000       0.000       240.0       0.000    
     283  0.2701E-01  0.9337E-04 SHELL         52  -0.0%   7.583       7674.      0.1005E-01   0.000       0.000       240.0       0.000    
     284  0.2711E-01  0.9336E-04 SHELL         52  -0.0%   7.616       7674.      0.1007E-01   0.000       0.000       240.0       0.000    
     285  0.2720E-01  0.9335E-04 SHELL         52  -0.0%   7.649       7674.      0.1014E-01   0.000       0.000       240.0       0.000    
     286  0.2729E-01  0.9333E-04 SHELL         52  -0.0%   7.682       7673.      0.1023E-01   0.000       0.000       240.0       0.000    
     287  0.2739E-01  0.9332E-04 SHELL         52  -0.0%   7.714       7673.      0.1035E-01   0.000       0.000       240.0       0.000    
     288  0.2748E-01  0.9331E-04 SHELL         52  -0.0%   7.747       7673.      0.1048E-01   0.000       0.000       240.0       0.000    
     289  0.2757E-01  0.9330E-04 SHELL         52  -0.0%   7.780       7673.      0.1060E-01   0.000       0.000       240.0       0.000    
     290  0.2767E-01  0.9329E-04 SHELL         52  -0.0%   7.813       7673.      0.1072E-01   0.000       0.000       240.0       0.000    
     291  0.2776E-01  0.9327E-04 SHELL         52  -0.0%   7.845       7673.      0.1082E-01   0.000       0.000       240.0       0.000    
     292  0.2785E-01  0.9326E-04 SHELL         52  -0.0%   7.878       7673.      0.1090E-01   0.000       0.000       240.0       0.000    
     293  0.2795E-01  0.9325E-04 SHELL         52  -0.0%   7.911       7673.      0.1094E-01   0.000       0.000       240.0       0.000    
     294  0.2804E-01  0.9324E-04 SHELL         52  -0.0%   7.944       7673.      0.1095E-01   0.000       0.000       240.0       0.000    
     295  0.2813E-01  0.9323E-04 SHELL         52  -0.0%   7.977       7673.      0.1093E-01   0.000       0.000       240.0       0.000    
     296  0.2823E-01  0.9321E-04 SHELL         52  -0.0%   8.010       7673.      0.1088E-01   0.000       0.000       240.0       0.000    
     297  0.2832E-01  0.9320E-04 SHELL         52  -0.0%   8.044       7673.      0.1081E-01   0.000       0.000       240.0       0.000    
     298  0.2841E-01  0.9319E-04 SHELL         52  -0.0%   8.077       7673.      0.1072E-01   0.000       0.000       240.0       0.000    
     299  0.2851E-01  0.9318E-04 SHELL         52  -0.0%   8.110       7673.      0.1064E-01   0.000       0.000       240.0       0.000    
     300  0.2860E-01  0.9317E-04 SHELL         52  -0.0%   8.143       7673.      0.1057E-01   0.000       0.000       240.0       0.000    
     301  0.2869E-01  0.9316E-04 SHELL         52  -0.0%   8.177       7673.      0.1051E-01   0.000       0.000       240.0       0.000    
     302  0.2879E-01  0.9314E-04 SHELL         52  -0.0%   8.210       7673.      0.1048E-01   0.000       0.000       240.0       0.000    
     303  0.2888E-01  0.9313E-04 SHELL         52  -0.0%   8.243       7673.      0.1049E-01   0.000       0.000       240.0       0.000    
     304  0.2897E-01  0.9312E-04 SHELL         52  -0.0%   8.276       7673.      0.1054E-01   0.000       0.000       240.0       0.000    
     305  0.2906E-01  0.9311E-04 SHELL         52  -0.0%   8.309       7673.      0.1064E-01   0.000       0.000       240.0       0.000    
     306  0.2916E-01  0.9310E-04 SHELL         52  -0.0%   8.342       7673.      0.1078E-01   0.000       0.000       240.0       0.000    
     307  0.2925E-01  0.9309E-04 SHELL         52  -0.0%   8.375       7673.      0.1098E-01   0.000       0.000       240.0       0.000    
     308  0.2934E-01  0.9307E-04 SHELL         52  -0.0%   8.408       7673.      0.1121E-01   0.000       0.000       240.0       0.000    
     309  0.2944E-01  0.9306E-04 SHELL         52  -0.0%   8.441       7673.      0.1148E-01   0.000       0.000       240.0       0.000    
     310  0.2953E-01  0.9305E-04 SHELL         52  -0.0%   8.474       7673.      0.1178E-01   0.000       0.000       240.0       0.000    
     311  0.2962E-01  0.9304E-04 SHELL         52  -0.0%   8.507       7673.      0.1209E-01   0.000       0.000       240.0       0.000    
     312  0.2972E-01  0.9303E-04 SHELL         52  -0.0%   8.540       7673.      0.1240E-01   0.000       0.000       240.0       0.000    
     313  0.2981E-01  0.9302E-04 SHELL         52  -0.0%   8.573       7673.      0.1270E-01   0.000       0.000       240.0       0.000    
     314  0.2990E-01  0.9300E-04 SHELL         52  -0.0%   8.606       7673.      0.1298E-01   0.000       0.000       240.0       0.000    
     315  0.3000E-01  0.9299E-04 SHELL         52  -0.0%   8.639       7673.      0.1322E-01   0.000       0.000       240.0       0.000    
     316  0.3009E-01  0.9298E-04 SHELL         52  -0.0%   8.672       7672.      0.1342E-01   0.000       0.000       240.0       0.000    
     ANIMATION FILE: BOX1BLA004 WRITTEN
     317  0.3018E-01  0.9297E-04 SHELL         52  -0.0%   8.705       7672.      0.1356E-01   0.000       0.000       240.0       0.000    
     318  0.3027E-01  0.9296E-04 SHELL         52  -0.0%   8.738       7672.      0.1365E-01   0.000       0.000       240.0       0.000    
     319  0.3037E-01  0.9295E-04 SHELL         52  -0.0%   8.772       7672.      0.1368E-01   0.000       0.000       240.0       0.000    
     320  0.3046E-01  0.9294E-04 SHELL         52  -0.0%   8.805       7672.      0.1364E-01   0.000       0.000       240.0       0.000    
     321  0.3055E-01  0.9292E-04 SHELL         52  -0.0%   8.838       7672.      0.1355E-01   0.000       0.000       240.0       0.000    
     322  0.3065E-01  0.9291E-04 SHELL         52  -0.0%   8.872       7672.      0.1341E-01   0.000       0.000       240.0       0.000    
     323  0.3074E-01  0.9290E-04 SHELL         52  -0.0%   8.905       7672.      0.1322E-01   0.000       0.000       240.0       0.000    
     324  0.3083E-01  0.9289E-04 SHELL         52  -0.0%   8.938       7672.      0.1300E-01   0.000       0.000       240.0       0.000    
     325  0.3092E-01  0.9288E-04 SHELL         52  -0.0%   8.972       7672.      0.1276E-01   0.000       0.000       240.0       0.000    
     326  0.3102E-01  0.9287E-04 SHELL         52  -0.0%   9.005       7672.      0.1250E-01   0.000       0.000       240.0       0.000    
     327  0.3111E-01  0.9286E-04 SHELL         52  -0.0%   9.039       7672.      0.1225E-01   0.000       0.000       240.0       0.000    
     328  0.3120E-01  0.9285E-04 SHELL         52  -0.0%   9.072       7672.      0.1200E-01   0.000       0.000       240.0       0.000    
     329  0.3130E-01  0.9283E-04 SHELL         52  -0.0%   9.105       7672.      0.1179E-01   0.000       0.000       240.0       0.000    
   CYCLE    TIME      TIME-STEP  ELEMENT          ERROR  I-ENERGY    K-ENERGY T  K-ENERGY R  EXT-WORK     MAS.ERR     TOTAL MASS  MASS ADDED
     330  0.3139E-01  0.9282E-04 SHELL         52  -0.0%   9.139       7672.      0.1160E-01   0.000       0.000       240.0       0.000    
     331  0.3148E-01  0.9281E-04 SHELL         52  -0.0%   9.172       7672.      0.1145E-01   0.000       0.000       240.0       0.000    
     332  0.3157E-01  0.9280E-04 SHELL         52  -0.0%   9.205       7672.      0.1135E-01   0.000       0.000       240.0       0.000    
     333  0.3167E-01  0.9279E-04 SHELL         52  -0.0%   9.238       7672.      0.1128E-01   0.000       0.000       240.0       0.000    
     334  0.3176E-01  0.9278E-04 SHELL         52  -0.0%   9.271       7672.      0.1126E-01   0.000       0.000       240.0       0.000    
     335  0.3185E-01  0.9277E-04 SHELL         52  -0.0%   9.305       7672.      0.1127E-01   0.000       0.000       240.0       0.000    
     336  0.3195E-01  0.9276E-04 SHELL         52  -0.0%   9.338       7672.      0.1132E-01   0.000       0.000       240.0       0.000    
     337  0.3204E-01  0.9275E-04 SHELL         52  -0.0%   9.371       7672.      0.1139E-01   0.000       0.000       240.0       0.000    
     338  0.3213E-01  0.9274E-04 SHELL         52  -0.0%   9.404       7672.      0.1148E-01   0.000       0.000       240.0       0.000    
     339  0.3222E-01  0.9273E-04 SHELL         52  -0.0%   9.437       7672.      0.1159E-01   0.000       0.000       240.0       0.000    
     340  0.3232E-01  0.9272E-04 SHELL         52  -0.0%   9.470       7672.      0.1169E-01   0.000       0.000       240.0       0.000    
     341  0.3241E-01  0.9271E-04 SHELL         52  -0.0%   9.503       7672.      0.1180E-01   0.000       0.000       240.0       0.000    
     342  0.3250E-01  0.9270E-04 SHELL         52  -0.0%   9.536       7672.      0.1189E-01   0.000       0.000       240.0       0.000    
     343  0.3259E-01  0.9269E-04 SHELL         52  -0.0%   9.570       7672.      0.1197E-01   0.000       0.000       240.0       0.000    
     344  0.3269E-01  0.9268E-04 SHELL         52  -0.0%   9.603       7672.      0.1203E-01   0.000       0.000       240.0       0.000    
     345  0.3278E-01  0.9267E-04 SHELL         52  -0.0%   9.636       7672.      0.1206E-01   0.000       0.000       240.0       0.000    
     346  0.3287E-01  0.9266E-04 SHELL         52  -0.0%   9.670       7671.      0.1208E-01   0.000       0.000       240.0       0.000    
     347  0.3297E-01  0.9265E-04 SHELL         52  -0.0%   9.703       7671.      0.1208E-01   0.000       0.000       240.0       0.000    
     348  0.3306E-01  0.9264E-04 SHELL         52  -0.0%   9.736       7671.      0.1206E-01   0.000       0.000       240.0       0.000    
     349  0.3315E-01  0.9263E-04 SHELL         52  -0.0%   9.770       7671.      0.1202E-01   0.000       0.000       240.0       0.000    
     350  0.3324E-01  0.9262E-04 SHELL         52  -0.0%   9.803       7671.      0.1198E-01   0.000       0.000       240.0       0.000    
     351  0.3334E-01  0.9261E-04 SHELL         52  -0.0%   9.837       7671.      0.1193E-01   0.000       0.000       240.0       0.000    
     352  0.3343E-01  0.9260E-04 SHELL         52  -0.0%   9.870       7671.      0.1189E-01   0.000       0.000       240.0       0.000    
     353  0.3352E-01  0.9259E-04 SHELL         52  -0.0%   9.904       7671.      0.1185E-01   0.000       0.000       240.0       0.000    
     354  0.3361E-01  0.9258E-04 SHELL         52  -0.0%   9.937       7671.      0.1182E-01   0.000       0.000       240.0       0.000    
     355  0.3371E-01  0.9257E-04 SHELL         52  -0.0%   9.971       7671.      0.1181E-01   0.000       0.000       240.0       0.000    
     356  0.3380E-01  0.9256E-04 SHELL         52  -0.0%   10.00       7671.      0.1181E-01   0.000       0.000       240.0       0.000    
     357  0.3389E-01  0.9256E-04 SHELL         52  -0.0%   10.04       7671.      0.1183E-01   0.000       0.000       240.0       0.000    
     358  0.3398E-01  0.9255E-04 SHELL         52  -0.0%   10.07       7671.      0.1187E-01   0.000       0.000       240.0       0.000    
     359  0.3408E-01  0.9254E-04 SHELL         52  -0.0%   10.10       7671.      0.1192E-01   0.000       0.000       240.0       0.000    
     360  0.3417E-01  0.9253E-04 SHELL         52  -0.0%   10.14       7671.      0.1198E-01   0.000       0.000       240.0       0.000    
     361  0.3426E-01  0.9252E-04 SHELL         52  -0.0%   10.17       7671.      0.1205E-01   0.000       0.000       240.0       0.000    
     362  0.3435E-01  0.9251E-04 SHELL         52  -0.0%   10.20       7671.      0.1212E-01   0.000       0.000       240.0       0.000    
     363  0.3445E-01  0.9250E-04 SHELL         52  -0.0%   10.24       7671.      0.1219E-01   0.000       0.000       240.0       0.000    
     364  0.3454E-01  0.9249E-04 SHELL         52  -0.0%   10.27       7671.      0.1226E-01   0.000       0.000       240.0       0.000    
     365  0.3463E-01  0.9248E-04 SHELL         52  -0.0%   10.30       7671.      0.1231E-01   0.000       0.000       240.0       0.000    
     366  0.3472E-01  0.9247E-04 SHELL         12  -0.0%   10.34       7671.      0.1234E-01   0.000       0.000       240.0       0.000    
     367  0.3482E-01  0.9246E-04 SHELL         12  -0.0%   10.37       7671.      0.1235E-01   0.000       0.000       240.0       0.000    
     368  0.3491E-01  0.9245E-04 SHELL         12  -0.0%   10.40       7671.      0.1234E-01   0.000       0.000       240.0       0.000    
     369  0.3500E-01  0.9245E-04 SHELL         12  -0.0%   10.44       7671.      0.1231E-01   0.000       0.000       240.0       0.000    
     370  0.3509E-01  0.9244E-04 SHELL         12  -0.0%   10.47       7671.      0.1226E-01   0.000       0.000       240.0       0.000    
     371  0.3519E-01  0.9243E-04 SHELL         12  -0.0%   10.50       7671.      0.1218E-01   0.000       0.000       240.0       0.000    
     372  0.3528E-01  0.9242E-04 SHELL         12  -0.0%   10.54       7671.      0.1209E-01   0.000       0.000       240.0       0.000    
     373  0.3537E-01  0.9241E-04 SHELL         12  -0.0%   10.57       7671.      0.1198E-01   0.000       0.000       240.0       0.000    
     374  0.3546E-01  0.9240E-04 SHELL         12  -0.0%   10.61       7671.      0.1186E-01   0.000       0.000       240.0       0.000    
     375  0.3556E-01  0.9239E-04 SHELL         12  -0.0%   10.64       7671.      0.1174E-01   0.000       0.000       240.0       0.000    
     376  0.3565E-01  0.9238E-04 SHELL         12  -0.0%   10.67       7670.      0.1162E-01   0.000       0.000       240.0       0.000    
     377  0.3574E-01  0.9237E-04 SHELL         12  -0.0%   10.71       7670.      0.1150E-01   0.000       0.000       240.0       0.000    
     378  0.3583E-01  0.9236E-04 SHELL         12  -0.0%   10.74       7670.      0.1140E-01   0.000       0.000       240.0       0.000    
     379  0.3593E-01  0.9235E-04 SHELL         12  -0.0%   10.77       7670.      0.1131E-01   0.000       0.000       240.0       0.000    
     380  0.3602E-01  0.9234E-04 SHELL         12  -0.0%   10.81       7670.      0.1125E-01   0.000       0.000       240.0       0.000    
     381  0.3611E-01  0.9233E-04 SHELL         12  -0.0%   10.84       7670.      0.1120E-01   0.000       0.000       240.0       0.000    
     382  0.3620E-01  0.9232E-04 SHELL         12  -0.0%   10.87       7670.      0.1118E-01   0.000       0.000       240.0       0.000    
     383  0.3630E-01  0.9231E-04 SHELL         12  -0.0%   10.91       7670.      0.1118E-01   0.000       0.000       240.0       0.000    
     384  0.3639E-01  0.9230E-04 SHELL         12  -0.0%   10.94       7670.      0.1120E-01   0.000       0.000       240.0       0.000    
   CYCLE    TIME      TIME-STEP  ELEMENT          ERROR  I-ENERGY    K-ENERGY T  K-ENERGY R  EXT-WORK     MAS.ERR     TOTAL MASS  MASS ADDED
     385  0.3648E-01  0.9229E-04 SHELL         12  -0.0%   10.97       7670.      0.1124E-01   0.000       0.000       240.0       0.000    
     386  0.3657E-01  0.9228E-04 SHELL         12  -0.0%   11.01       7670.      0.1130E-01   0.000       0.000       240.0       0.000    
     387  0.3666E-01  0.9227E-04 SHELL         12  -0.0%   11.04       7670.      0.1136E-01   0.000       0.000       240.0       0.000    
     388  0.3676E-01  0.9227E-04 SHELL         12  -0.0%   11.07       7670.      0.1143E-01   0.000       0.000       240.0       0.000    
     389  0.3685E-01  0.9226E-04 SHELL         12  -0.0%   11.11       7670.      0.1149E-01   0.000       0.000       240.0       0.000    
     390  0.3694E-01  0.9225E-04 SHELL         12  -0.0%   11.14       7670.      0.1155E-01   0.000       0.000       240.0       0.000    
     391  0.3703E-01  0.9224E-04 SHELL         12  -0.0%   11.17       7670.      0.1160E-01   0.000       0.000       240.0       0.000    
     392  0.3713E-01  0.9223E-04 SHELL         12  -0.0%   11.21       7670.      0.1163E-01   0.000       0.000       240.0       0.000    
     393  0.3722E-01  0.9222E-04 SHELL         12  -0.0%   11.24       7670.      0.1164E-01   0.000       0.000       240.0       0.000    
     394  0.3731E-01  0.9221E-04 SHELL         12  -0.0%   11.28       7670.      0.1162E-01   0.000       0.000       240.0       0.000    
     395  0.3740E-01  0.9220E-04 SHELL         12  -0.0%   11.31       7670.      0.1159E-01   0.000       0.000       240.0       0.000    
     396  0.3749E-01  0.9219E-04 SHELL         12  -0.0%   11.34       7670.      0.1153E-01   0.000       0.000       240.0       0.000    
     397  0.3759E-01  0.9218E-04 SHELL         12  -0.0%   11.38       7670.      0.1145E-01   0.000       0.000       240.0       0.000    
     398  0.3768E-01  0.9217E-04 SHELL         12  -0.0%   11.41       7670.      0.1136E-01   0.000       0.000       240.0       0.000    
     399  0.3777E-01  0.9216E-04 SHELL         12  -0.0%   11.44       7670.      0.1125E-01   0.000       0.000       240.0       0.000    
     400  0.3786E-01  0.9215E-04 SHELL         12  -0.0%   11.48       7670.      0.1113E-01   0.000       0.000       240.0       0.000    
     401  0.3796E-01  0.9214E-04 SHELL         12  -0.0%   11.51       7670.      0.1101E-01   0.000       0.000       240.0       0.000    
     402  0.3805E-01  0.9213E-04 SHELL         12  -0.0%   11.54       7670.      0.1089E-01   0.000       0.000       240.0       0.000    
     403  0.3814E-01  0.9212E-04 SHELL         12  -0.0%   11.58       7670.      0.1078E-01   0.000       0.000       240.0       0.000    
     404  0.3823E-01  0.9211E-04 SHELL         12  -0.0%   11.61       7670.      0.1068E-01   0.000       0.000       240.0       0.000    
     405  0.3832E-01  0.9210E-04 SHELL         12  -0.0%   11.64       7670.      0.1059E-01   0.000       0.000       240.0       0.000    
     406  0.3842E-01  0.9210E-04 SHELL         12  -0.0%   11.68       7669.      0.1053E-01   0.000       0.000       240.0       0.000    
     407  0.3851E-01  0.9209E-04 SHELL         12  -0.0%   11.71       7669.      0.1050E-01   0.000       0.000       240.0       0.000    
     408  0.3860E-01  0.9208E-04 SHELL         12  -0.0%   11.74       7669.      0.1049E-01   0.000       0.000       240.0       0.000    
     409  0.3869E-01  0.9207E-04 SHELL         12  -0.0%   11.78       7669.      0.1050E-01   0.000       0.000       240.0       0.000    
     410  0.3878E-01  0.9206E-04 SHELL         12  -0.0%   11.81       7669.      0.1054E-01   0.000       0.000       240.0       0.000    
     411  0.3888E-01  0.9205E-04 SHELL         12  -0.0%   11.84       7669.      0.1061E-01   0.000       0.000       240.0       0.000    
     412  0.3897E-01  0.9204E-04 SHELL         12  -0.0%   11.88       7669.      0.1069E-01   0.000       0.000       240.0       0.000    
     413  0.3906E-01  0.9203E-04 SHELL         12  -0.0%   11.91       7669.      0.1079E-01   0.000       0.000       240.0       0.000    
     414  0.3915E-01  0.9202E-04 SHELL         12  -0.0%   11.94       7669.      0.1089E-01   0.000       0.000       240.0       0.000    
     415  0.3924E-01  0.9201E-04 SHELL         12  -0.0%   11.98       7669.      0.1100E-01   0.000       0.000       240.0       0.000    
     416  0.3934E-01  0.9200E-04 SHELL         12  -0.0%   12.01       7669.      0.1110E-01   0.000       0.000       240.0       0.000    
     417  0.3943E-01  0.9199E-04 SHELL         12  -0.0%   12.04       7669.      0.1119E-01   0.000       0.000       240.0       0.000    
     418  0.3952E-01  0.9198E-04 SHELL         12  -0.0%   12.08       7669.      0.1127E-01   0.000       0.000       240.0       0.000    
     419  0.3961E-01  0.9197E-04 SHELL         12  -0.0%   12.11       7669.      0.1133E-01   0.000       0.000       240.0       0.000    
     420  0.3970E-01  0.9196E-04 SHELL         12  -0.0%   12.14       7669.      0.1137E-01   0.000       0.000       240.0       0.000    
     421  0.3980E-01  0.9195E-04 SHELL         12  -0.0%   12.18       7669.      0.1138E-01   0.000       0.000       240.0       0.000    
     422  0.3989E-01  0.9195E-04 SHELL         12  -0.0%   12.21       7669.      0.1137E-01   0.000       0.000       240.0       0.000    
     423  0.3998E-01  0.9194E-04 SHELL         12  -0.0%   12.24       7669.      0.1133E-01   0.000       0.000       240.0       0.000    
     424  0.4007E-01  0.9193E-04 SHELL         12  -0.0%   12.28       7669.      0.1126E-01   0.000       0.000       240.0       0.000    
     ANIMATION FILE: BOX1BLA005 WRITTEN
     425  0.4016E-01  0.9192E-04 SHELL         12  -0.0%   12.31       7669.      0.1118E-01   0.000       0.000       240.0       0.000    
     426  0.4026E-01  0.9191E-04 SHELL         12  -0.0%   12.35       7669.      0.1108E-01   0.000       0.000       240.0       0.000    
     427  0.4035E-01  0.9190E-04 SHELL         12  -0.0%   12.38       7669.      0.1096E-01   0.000       0.000       240.0       0.000    
     428  0.4044E-01  0.9189E-04 SHELL         12  -0.0%   12.41       7669.      0.1084E-01   0.000       0.000       240.0       0.000    
     429  0.4053E-01  0.9188E-04 SHELL         12  -0.0%   12.45       7669.      0.1071E-01   0.000       0.000       240.0       0.000    
     430  0.4062E-01  0.9187E-04 SHELL         12  -0.0%   12.48       7669.      0.1059E-01   0.000       0.000       240.0       0.000    
     431  0.4072E-01  0.9186E-04 SHELL         12  -0.0%   12.51       7669.      0.1048E-01   0.000       0.000       240.0       0.000    
     432  0.4081E-01  0.9185E-04 SHELL         12  -0.0%   12.55       7669.      0.1038E-01   0.000       0.000       240.0       0.000    
     433  0.4090E-01  0.9184E-04 SHELL         12  -0.0%   12.58       7669.      0.1029E-01   0.000       0.000       240.0       0.000    
     434  0.4099E-01  0.9183E-04 SHELL         12  -0.0%   12.61       7669.      0.1022E-01   0.000       0.000       240.0       0.000    
     435  0.4108E-01  0.9182E-04 SHELL         12  -0.0%   12.65       7669.      0.1017E-01   0.000       0.000       240.0       0.000    
     436  0.4117E-01  0.9181E-04 SHELL         12  -0.0%   12.68       7668.      0.1013E-01   0.000       0.000       240.0       0.000    
     437  0.4127E-01  0.9180E-04 SHELL         12  -0.0%   12.71       7668.      0.1011E-01   0.000       0.000       240.0       0.000    
     438  0.4136E-01  0.9179E-04 SHELL         12  -0.0%   12.75       7668.      0.1010E-01   0.000       0.000       240.0       0.000    
     439  0.4145E-01  0.9178E-04 SHELL         12  -0.0%   12.78       7668.      0.1010E-01   0.000       0.000       240.0       0.000    
   CYCLE    TIME      TIME-STEP  ELEMENT          ERROR  I-ENERGY    K-ENERGY T  K-ENERGY R  EXT-WORK     MAS.ERR     TOTAL MASS  MASS ADDED
     440  0.4154E-01  0.9177E-04 SHELL         12  -0.0%   12.81       7668.      0.1011E-01   0.000       0.000       240.0       0.000    
     441  0.4163E-01  0.9176E-04 SHELL         12  -0.0%   12.85       7668.      0.1012E-01   0.000       0.000       240.0       0.000    
     442  0.4173E-01  0.9175E-04 SHELL         12  -0.0%   12.88       7668.      0.1012E-01   0.000       0.000       240.0       0.000    
     443  0.4182E-01  0.9174E-04 SHELL         12  -0.0%   12.91       7668.      0.1012E-01   0.000       0.000       240.0       0.000    
     444  0.4191E-01  0.9173E-04 SHELL         12  -0.0%   12.95       7668.      0.1011E-01   0.000       0.000       240.0       0.000    
     445  0.4200E-01  0.9172E-04 SHELL         12  -0.0%   12.98       7668.      0.1009E-01   0.000       0.000       240.0       0.000    
     446  0.4209E-01  0.9171E-04 SHELL         12  -0.0%   13.01       7668.      0.1005E-01   0.000       0.000       240.0       0.000    
     447  0.4218E-01  0.9170E-04 SHELL         12  -0.0%   13.05       7668.      0.1000E-01   0.000       0.000       240.0       0.000    
     448  0.4228E-01  0.9169E-04 SHELL         12  -0.0%   13.08       7668.      0.9934E-02   0.000       0.000       240.0       0.000    
     449  0.4237E-01  0.9168E-04 SHELL         12  -0.0%   13.12       7668.      0.9852E-02   0.000       0.000       240.0       0.000    
     450  0.4246E-01  0.9167E-04 SHELL         12  -0.0%   13.15       7668.      0.9758E-02   0.000       0.000       240.0       0.000    
     451  0.4255E-01  0.9166E-04 SHELL         12  -0.0%   13.18       7668.      0.9657E-02   0.000       0.000       240.0       0.000    
     452  0.4264E-01  0.9165E-04 SHELL         12  -0.0%   13.22       7668.      0.9552E-02   0.000       0.000       240.0       0.000    
     453  0.4273E-01  0.9164E-04 SHELL         12  -0.0%   13.25       7668.      0.9448E-02   0.000       0.000       240.0       0.000    
     454  0.4283E-01  0.9163E-04 SHELL         12  -0.0%   13.28       7668.      0.9352E-02   0.000       0.000       240.0       0.000    
     455  0.4292E-01  0.9162E-04 SHELL         12  -0.0%   13.32       7668.      0.9267E-02   0.000       0.000       240.0       0.000    
     456  0.4301E-01  0.9161E-04 SHELL         12  -0.0%   13.35       7668.      0.9198E-02   0.000       0.000       240.0       0.000    
     457  0.4310E-01  0.9160E-04 SHELL         12  -0.0%   13.38       7668.      0.9151E-02   0.000       0.000       240.0       0.000    
     458  0.4319E-01  0.9159E-04 SHELL         12  -0.0%   13.42       7668.      0.9129E-02   0.000       0.000       240.0       0.000    
     459  0.4328E-01  0.9159E-04 SHELL         12  -0.0%   13.45       7668.      0.9132E-02   0.000       0.000       240.0       0.000    
     460  0.4338E-01  0.9158E-04 SHELL         12  -0.0%   13.48       7668.      0.9161E-02   0.000       0.000       240.0       0.000    
     461  0.4347E-01  0.9157E-04 SHELL         12  -0.0%   13.52       7668.      0.9214E-02   0.000       0.000       240.0       0.000    
     462  0.4356E-01  0.9156E-04 SHELL         12  -0.0%   13.55       7668.      0.9288E-02   0.000       0.000       240.0       0.000    
     463  0.4365E-01  0.9155E-04 SHELL         12  -0.0%   13.59       7668.      0.9381E-02   0.000       0.000       240.0       0.000    
     464  0.4374E-01  0.9154E-04 SHELL         12  -0.0%   13.62       7668.      0.9487E-02   0.000       0.000       240.0       0.000    
     465  0.4383E-01  0.9152E-04 SHELL         12  -0.0%   13.65       7667.      0.9603E-02   0.000       0.000       240.0       0.000    
     466  0.4392E-01  0.9151E-04 SHELL         12  -0.0%   13.69       7667.      0.9722E-02   0.000       0.000       240.0       0.000    
     467  0.4402E-01  0.9150E-04 SHELL         12  -0.0%   13.72       7667.      0.9839E-02   0.000       0.000       240.0       0.000    
     468  0.4411E-01  0.9149E-04 SHELL         12  -0.0%   13.75       7667.      0.9948E-02   0.000       0.000       240.0       0.000    
     469  0.4420E-01  0.9148E-04 SHELL         12  -0.0%   13.79       7667.      0.1004E-01   0.000       0.000       240.0       0.000    
     470  0.4429E-01  0.9147E-04 SHELL         12  -0.0%   13.82       7667.      0.1012E-01   0.000       0.000       240.0       0.000    
     471  0.4438E-01  0.9146E-04 SHELL         12  -0.0%   13.85       7667.      0.1018E-01   0.000       0.000       240.0       0.000    
     472  0.4447E-01  0.9145E-04 SHELL         12  -0.0%   13.89       7667.      0.1022E-01   0.000       0.000       240.0       0.000    
     473  0.4457E-01  0.9144E-04 SHELL         12  -0.0%   13.92       7667.      0.1023E-01   0.000       0.000       240.0       0.000    
     474  0.4466E-01  0.9143E-04 SHELL         12  -0.0%   13.95       7667.      0.1022E-01   0.000       0.000       240.0       0.000    
     475  0.4475E-01  0.9142E-04 SHELL         12  -0.0%   13.99       7667.      0.1019E-01   0.000       0.000       240.0       0.000    
     476  0.4484E-01  0.9141E-04 SHELL         12  -0.0%   14.02       7667.      0.1014E-01   0.000       0.000       240.0       0.000    
     477  0.4493E-01  0.9140E-04 SHELL         12  -0.0%   14.05       7667.      0.1008E-01   0.000       0.000       240.0       0.000    
     478  0.4502E-01  0.9139E-04 SHELL         12  -0.0%   14.09       7667.      0.1001E-01   0.000       0.000       240.0       0.000    
     479  0.4511E-01  0.9138E-04 SHELL         12  -0.0%   14.12       7667.      0.9932E-02   0.000       0.000       240.0       0.000    
     480  0.4520E-01  0.9137E-04 SHELL         12  -0.0%   14.15       7667.      0.9856E-02   0.000       0.000       240.0       0.000    
     481  0.4530E-01  0.9136E-04 SHELL         12  -0.0%   14.19       7667.      0.9786E-02   0.000       0.000       240.0       0.000    
     482  0.4539E-01  0.9135E-04 SHELL         12  -0.0%   14.22       7667.      0.9725E-02   0.000       0.000       240.0       0.000    
     483  0.4548E-01  0.9134E-04 SHELL         12  -0.0%   14.26       7667.      0.9677E-02   0.000       0.000       240.0       0.000    
     484  0.4557E-01  0.9133E-04 SHELL         12  -0.0%   14.29       7667.      0.9644E-02   0.000       0.000       240.0       0.000    
     485  0.4566E-01  0.9132E-04 SHELL         12  -0.0%   14.32       7667.      0.9627E-02   0.000       0.000       240.0       0.000    
     486  0.4575E-01  0.9131E-04 SHELL         12  -0.0%   14.36       7667.      0.9626E-02   0.000       0.000       240.0       0.000    
     487  0.4584E-01  0.9130E-04 SHELL         12  -0.0%   14.39       7667.      0.9640E-02   0.000       0.000       240.0       0.000    
     488  0.4594E-01  0.9129E-04 SHELL         12  -0.0%   14.42       7667.      0.9665E-02   0.000       0.000       240.0       0.000    
     489  0.4603E-01  0.9128E-04 SHELL         12  -0.0%   14.46       7667.      0.9699E-02   0.000       0.000       240.0       0.000    
     490  0.4612E-01  0.9127E-04 SHELL         12  -0.0%   14.49       7667.      0.9736E-02   0.000       0.000       240.0       0.000    
     491  0.4621E-01  0.9126E-04 SHELL         12  -0.0%   14.52       7667.      0.9771E-02   0.000       0.000       240.0       0.000    
     492  0.4630E-01  0.9125E-04 SHELL         12  -0.0%   14.56       7667.      0.9801E-02   0.000       0.000       240.0       0.000    
     493  0.4639E-01  0.9124E-04 SHELL         12  -0.0%   14.59       7667.      0.9818E-02   0.000       0.000       240.0       0.000    
     494  0.4648E-01  0.9123E-04 SHELL         12  -0.0%   14.62       7667.      0.9819E-02   0.000       0.000       240.0       0.000    
   CYCLE    TIME      TIME-STEP  ELEMENT          ERROR  I-ENERGY    K-ENERGY T  K-ENERGY R  EXT-WORK     MAS.ERR     TOTAL MASS  MASS ADDED
     495  0.4657E-01  0.9122E-04 SHELL         12  -0.0%   14.66       7666.      0.9800E-02   0.000       0.000       240.0       0.000    
     496  0.4667E-01  0.9121E-04 SHELL         12  -0.0%   14.69       7666.      0.9761E-02   0.000       0.000       240.0       0.000    
     497  0.4676E-01  0.9120E-04 SHELL         12  -0.0%   14.72       7666.      0.9698E-02   0.000       0.000       240.0       0.000    
     498  0.4685E-01  0.9119E-04 SHELL         12  -0.0%   14.76       7666.      0.9614E-02   0.000       0.000       240.0       0.000    
     499  0.4694E-01  0.9118E-04 SHELL         12  -0.0%   14.79       7666.      0.9508E-02   0.000       0.000       240.0       0.000    
     500  0.4703E-01  0.9117E-04 SHELL         12  -0.0%   14.83       7666.      0.9384E-02   0.000       0.000       240.0       0.000    
     501  0.4712E-01  0.9116E-04 SHELL         12  -0.0%   14.86       7666.      0.9245E-02   0.000       0.000       240.0       0.000    
     502  0.4721E-01  0.9115E-04 SHELL         12  -0.0%   14.89       7666.      0.9096E-02   0.000       0.000       240.0       0.000    
     503  0.4730E-01  0.9114E-04 SHELL         12  -0.0%   14.93       7666.      0.8944E-02   0.000       0.000       240.0       0.000    
     504  0.4739E-01  0.9113E-04 SHELL         12  -0.0%   14.96       7666.      0.8795E-02   0.000       0.000       240.0       0.000    
     505  0.4749E-01  0.9112E-04 SHELL         12  -0.0%   14.99       7666.      0.8655E-02   0.000       0.000       240.0       0.000    
     506  0.4758E-01  0.9111E-04 SHELL         12  -0.0%   15.03       7666.      0.8530E-02   0.000       0.000       240.0       0.000    
     507  0.4767E-01  0.9110E-04 SHELL         12  -0.0%   15.06       7666.      0.8424E-02   0.000       0.000       240.0       0.000    
     508  0.4776E-01  0.9109E-04 SHELL         12  -0.0%   15.09       7666.      0.8341E-02   0.000       0.000       240.0       0.000    
     509  0.4785E-01  0.9108E-04 SHELL         12  -0.0%   15.13       7666.      0.8283E-02   0.000       0.000       240.0       0.000    
     510  0.4794E-01  0.9107E-04 SHELL         12  -0.0%   15.16       7666.      0.8252E-02   0.000       0.000       240.0       0.000    
     511  0.4803E-01  0.9106E-04 SHELL         12  -0.0%   15.19       7666.      0.8245E-02   0.000       0.000       240.0       0.000    
     512  0.4812E-01  0.9105E-04 SHELL         12  -0.0%   15.23       7666.      0.8262E-02   0.000       0.000       240.0       0.000    
     513  0.4821E-01  0.9104E-04 SHELL         12  -0.0%   15.26       7666.      0.8299E-02   0.000       0.000       240.0       0.000    
     514  0.4831E-01  0.9103E-04 SHELL         12  -0.0%   15.29       7666.      0.8353E-02   0.000       0.000       240.0       0.000    
     515  0.4840E-01  0.9102E-04 SHELL         12  -0.0%   15.33       7666.      0.8417E-02   0.000       0.000       240.0       0.000    
     516  0.4849E-01  0.9101E-04 SHELL         12  -0.0%   15.36       7666.      0.8488E-02   0.000       0.000       240.0       0.000    
     517  0.4858E-01  0.9100E-04 SHELL         12  -0.0%   15.39       7666.      0.8559E-02   0.000       0.000       240.0       0.000    
     518  0.4867E-01  0.9099E-04 SHELL         12  -0.0%   15.43       7666.      0.8627E-02   0.000       0.000       240.0       0.000    
     519  0.4876E-01  0.9098E-04 SHELL         12  -0.0%   15.46       7666.      0.8685E-02   0.000       0.000       240.0       0.000    
     520  0.4885E-01  0.9097E-04 SHELL         12  -0.0%   15.50       7666.      0.8732E-02   0.000       0.000       240.0       0.000    
     521  0.4894E-01  0.9095E-04 SHELL         12  -0.0%   15.53       7666.      0.8763E-02   0.000       0.000       240.0       0.000    
     522  0.4903E-01  0.9094E-04 SHELL         12  -0.0%   15.56       7666.      0.8778E-02   0.000       0.000       240.0       0.000    
     523  0.4912E-01  0.9093E-04 SHELL         12  -0.0%   15.60       7666.      0.8777E-02   0.000       0.000       240.0       0.000    
     524  0.4922E-01  0.9092E-04 SHELL         12  -0.0%   15.63       7665.      0.8761E-02   0.000       0.000       240.0       0.000    
     525  0.4931E-01  0.9091E-04 SHELL         12  -0.0%   15.66       7665.      0.8733E-02   0.000       0.000       240.0       0.000    
     526  0.4940E-01  0.9090E-04 SHELL         12  -0.0%   15.70       7665.      0.8697E-02   0.000       0.000       240.0       0.000    
     527  0.4949E-01  0.9089E-04 SHELL         12  -0.0%   15.73       7665.      0.8659E-02   0.000       0.000       240.0       0.000    
     528  0.4958E-01  0.9088E-04 SHELL         12  -0.0%   15.76       7665.      0.8621E-02   0.000       0.000       240.0       0.000    
     529  0.4967E-01  0.9087E-04 SHELL         12  -0.0%   15.80       7665.      0.8590E-02   0.000       0.000       240.0       0.000    
     530  0.4976E-01  0.9086E-04 SHELL         12  -0.0%   15.83       7665.      0.8568E-02   0.000       0.000       240.0       0.000    
     531  0.4985E-01  0.9085E-04 SHELL         12  -0.0%   15.87       7665.      0.8559E-02   0.000       0.000       240.0       0.000    
     532  0.4994E-01  0.9084E-04 SHELL         12  -0.0%   15.90       7665.      0.8566E-02   0.000       0.000       240.0       0.000    
     533  0.5003E-01  0.9083E-04 SHELL         12  -0.0%   15.93       7665.      0.8589E-02   0.000       0.000       240.0       0.000    
     ANIMATION FILE: BOX1BLA006 WRITTEN
     534  0.5012E-01  0.9082E-04 SHELL         12  -0.0%   15.97       7665.      0.8629E-02   0.000       0.000       240.0       0.000    
     535  0.5022E-01  0.9081E-04 SHELL         12  -0.0%   16.00       7665.      0.8685E-02   0.000       0.000       240.0       0.000    
     536  0.5031E-01  0.9080E-04 SHELL         12  -0.0%   16.03       7665.      0.8753E-02   0.000       0.000       240.0       0.000    
     537  0.5040E-01  0.9079E-04 SHELL         12  -0.0%   16.07       7665.      0.8830E-02   0.000       0.000       240.0       0.000    
     538  0.5049E-01  0.9078E-04 SHELL         12  -0.0%   16.10       7665.      0.8911E-02   0.000       0.000       240.0       0.000    
     539  0.5058E-01  0.9077E-04 SHELL         12  -0.0%   16.13       7665.      0.8991E-02   0.000       0.000       240.0       0.000    
     540  0.5067E-01  0.9076E-04 SHELL         12  -0.0%   16.17       7665.      0.9065E-02   0.000       0.000       240.0       0.000    
     541  0.5076E-01  0.9075E-04 SHELL         12  -0.0%   16.20       7665.      0.9127E-02   0.000       0.000       240.0       0.000    
     542  0.5085E-01  0.9074E-04 SHELL         12  -0.0%   16.23       7665.      0.9172E-02   0.000       0.000       240.0       0.000    
     543  0.5094E-01  0.9073E-04 SHELL         12  -0.0%   16.27       7665.      0.9195E-02   0.000       0.000       240.0       0.000    
     544  0.5103E-01  0.9072E-04 SHELL         12  -0.0%   16.30       7665.      0.9194E-02   0.000       0.000       240.0       0.000    
     545  0.5112E-01  0.9071E-04 SHELL         12  -0.0%   16.33       7665.      0.9166E-02   0.000       0.000       240.0       0.000    
     546  0.5121E-01  0.9070E-04 SHELL         12  -0.0%   16.37       7665.      0.9110E-02   0.000       0.000       240.0       0.000    
     547  0.5130E-01  0.9069E-04 SHELL         12  -0.0%   16.40       7665.      0.9026E-02   0.000       0.000       240.0       0.000    
     548  0.5139E-01  0.9068E-04 SHELL         12  -0.0%   16.44       7665.      0.8916E-02   0.000       0.000       240.0       0.000    
     549  0.5149E-01  0.9067E-04 SHELL         12  -0.0%   16.47       7665.      0.8784E-02   0.000       0.000       240.0       0.000    
   CYCLE    TIME      TIME-STEP  ELEMENT          ERROR  I-ENERGY    K-ENERGY T  K-ENERGY R  EXT-WORK     MAS.ERR     TOTAL MASS  MASS ADDED
     550  0.5158E-01  0.9066E-04 SHELL         12  -0.0%   16.50       7665.      0.8633E-02   0.000       0.000       240.0       0.000    
     551  0.5167E-01  0.9065E-04 SHELL         12  -0.0%   16.54       7665.      0.8471E-02   0.000       0.000       240.0       0.000    
     552  0.5176E-01  0.9063E-04 SHELL         12  -0.0%   16.57       7665.      0.8304E-02   0.000       0.000       240.0       0.000    
     553  0.5185E-01  0.9062E-04 SHELL         12  -0.0%   16.60       7665.      0.8139E-02   0.000       0.000       240.0       0.000    
     554  0.5194E-01  0.9061E-04 SHELL         12  -0.0%   16.64       7664.      0.7983E-02   0.000       0.000       240.0       0.000    
     555  0.5203E-01  0.9060E-04 SHELL         12  -0.0%   16.67       7664.      0.7842E-02   0.000       0.000       240.0       0.000    
     556  0.5212E-01  0.9059E-04 SHELL         12  -0.0%   16.70       7664.      0.7719E-02   0.000       0.000       240.0       0.000    
     557  0.5221E-01  0.9058E-04 SHELL         12  -0.0%   16.74       7664.      0.7620E-02   0.000       0.000       240.0       0.000    
     558  0.5230E-01  0.9057E-04 SHELL         12  -0.0%   16.77       7664.      0.7545E-02   0.000       0.000       240.0       0.000    
     559  0.5239E-01  0.9056E-04 SHELL         12  -0.0%   16.81       7664.      0.7497E-02   0.000       0.000       240.0       0.000    
     560  0.5248E-01  0.9055E-04 SHELL         12  -0.0%   16.84       7664.      0.7475E-02   0.000       0.000       240.0       0.000    
     561  0.5257E-01  0.9054E-04 SHELL         12  -0.0%   16.87       7664.      0.7477E-02   0.000       0.000       240.0       0.000    
     562  0.5266E-01  0.9053E-04 SHELL         12  -0.0%   16.91       7664.      0.7499E-02   0.000       0.000       240.0       0.000    
     563  0.5275E-01  0.9052E-04 SHELL         12  -0.0%   16.94       7664.      0.7539E-02   0.000       0.000       240.0       0.000    
     564  0.5284E-01  0.9051E-04 SHELL         12  -0.0%   16.97       7664.      0.7591E-02   0.000       0.000       240.0       0.000    
     565  0.5293E-01  0.9050E-04 SHELL         12  -0.0%   17.01       7664.      0.7650E-02   0.000       0.000       240.0       0.000    
     566  0.5303E-01  0.9049E-04 SHELL         12  -0.0%   17.04       7664.      0.7711E-02   0.000       0.000       240.0       0.000    
     567  0.5312E-01  0.9048E-04 SHELL         12  -0.0%   17.07       7664.      0.7767E-02   0.000       0.000       240.0       0.000    
     568  0.5321E-01  0.9047E-04 SHELL         12  -0.0%   17.11       7664.      0.7815E-02   0.000       0.000       240.0       0.000    
     569  0.5330E-01  0.9046E-04 SHELL         12  -0.0%   17.14       7664.      0.7850E-02   0.000       0.000       240.0       0.000    
     570  0.5339E-01  0.9045E-04 SHELL         12  -0.0%   17.17       7664.      0.7869E-02   0.000       0.000       240.0       0.000    
     571  0.5348E-01  0.9044E-04 SHELL         12  -0.0%   17.21       7664.      0.7870E-02   0.000       0.000       240.0       0.000    
     572  0.5357E-01  0.9043E-04 SHELL         12  -0.0%   17.24       7664.      0.7853E-02   0.000       0.000       240.0       0.000    
     573  0.5366E-01  0.9042E-04 SHELL         12  -0.0%   17.27       7664.      0.7820E-02   0.000       0.000       240.0       0.000    
     574  0.5375E-01  0.9041E-04 SHELL         12  -0.0%   17.31       7664.      0.7771E-02   0.000       0.000       240.0       0.000    
     575  0.5384E-01  0.9040E-04 SHELL         12  -0.0%   17.34       7664.      0.7712E-02   0.000       0.000       240.0       0.000    
     576  0.5393E-01  0.9038E-04 SHELL         12  -0.0%   17.38       7664.      0.7644E-02   0.000       0.000       240.0       0.000    
     577  0.5402E-01  0.9037E-04 SHELL         12  -0.0%   17.41       7664.      0.7574E-02   0.000       0.000       240.0       0.000    
     578  0.5411E-01  0.9036E-04 SHELL         12  -0.0%   17.44       7664.      0.7505E-02   0.000       0.000       240.0       0.000    
     579  0.5420E-01  0.9035E-04 SHELL         12  -0.0%   17.48       7664.      0.7444E-02   0.000       0.000       240.0       0.000    
     580  0.5429E-01  0.9034E-04 SHELL         12  -0.0%   17.51       7664.      0.7394E-02   0.000       0.000       240.0       0.000    
     581  0.5438E-01  0.9033E-04 SHELL         12  -0.0%   17.54       7664.      0.7358E-02   0.000       0.000       240.0       0.000    
     582  0.5447E-01  0.9032E-04 SHELL         12  -0.0%   17.58       7664.      0.7338E-02   0.000       0.000       240.0       0.000    
     583  0.5456E-01  0.9031E-04 SHELL         12  -0.0%   17.61       7663.      0.7335E-02   0.000       0.000       240.0       0.000    
     584  0.5465E-01  0.9030E-04 SHELL         12  -0.0%   17.64       7663.      0.7350E-02   0.000       0.000       240.0       0.000    
     585  0.5474E-01  0.9029E-04 SHELL         12  -0.0%   17.68       7663.      0.7381E-02   0.000       0.000       240.0       0.000    
     586  0.5483E-01  0.9028E-04 SHELL         12  -0.0%   17.71       7663.      0.7426E-02   0.000       0.000       240.0       0.000    
     587  0.5492E-01  0.9027E-04 SHELL         12  -0.0%   17.75       7663.      0.7482E-02   0.000       0.000       240.0       0.000    
     588  0.5501E-01  0.9026E-04 SHELL         12  -0.0%   17.78       7663.      0.7545E-02   0.000       0.000       240.0       0.000    
     589  0.5510E-01  0.9025E-04 SHELL         12  -0.0%   17.81       7663.      0.7611E-02   0.000       0.000       240.0       0.000    
     590  0.5519E-01  0.9024E-04 SHELL         12  -0.0%   17.85       7663.      0.7675E-02   0.000       0.000       240.0       0.000    
     591  0.5528E-01  0.9023E-04 SHELL         12  -0.0%   17.88       7663.      0.7731E-02   0.000       0.000       240.0       0.000    
     592  0.5537E-01  0.9022E-04 SHELL         12  -0.0%   17.91       7663.      0.7775E-02   0.000       0.000       240.0       0.000    
     593  0.5547E-01  0.9020E-04 SHELL         12  -0.0%   17.95       7663.      0.7804E-02   0.000       0.000       240.0       0.000    
     594  0.5556E-01  0.9019E-04 SHELL         12  -0.0%   17.98       7663.      0.7816E-02   0.000       0.000       240.0       0.000    
     595  0.5565E-01  0.9018E-04 SHELL         12  -0.0%   18.01       7663.      0.7807E-02   0.000       0.000       240.0       0.000    
     596  0.5574E-01  0.9017E-04 SHELL         12  -0.0%   18.05       7663.      0.7777E-02   0.000       0.000       240.0       0.000    
     597  0.5583E-01  0.9016E-04 SHELL         12  -0.0%   18.08       7663.      0.7727E-02   0.000       0.000       240.0       0.000    
     598  0.5592E-01  0.9015E-04 SHELL         12  -0.0%   18.11       7663.      0.7658E-02   0.000       0.000       240.0       0.000    
     599  0.5601E-01  0.9014E-04 SHELL         12  -0.0%   18.15       7663.      0.7571E-02   0.000       0.000       240.0       0.000    
     600  0.5610E-01  0.9013E-04 SHELL         12  -0.0%   18.18       7663.      0.7471E-02   0.000       0.000       240.0       0.000    
     601  0.5619E-01  0.9012E-04 SHELL         12  -0.0%   18.22       7663.      0.7361E-02   0.000       0.000       240.0       0.000    
     602  0.5628E-01  0.9011E-04 SHELL         12  -0.0%   18.25       7663.      0.7244E-02   0.000       0.000       240.0       0.000    
     603  0.5637E-01  0.9010E-04 SHELL         12  -0.0%   18.28       7663.      0.7128E-02   0.000       0.000       240.0       0.000    
     604  0.5646E-01  0.9009E-04 SHELL         12  -0.0%   18.32       7663.      0.7020E-02   0.000       0.000       240.0       0.000    
   CYCLE    TIME      TIME-STEP  ELEMENT          ERROR  I-ENERGY    K-ENERGY T  K-ENERGY R  EXT-WORK     MAS.ERR     TOTAL MASS  MASS ADDED
     605  0.5655E-01  0.9008E-04 SHELL         12  -0.0%   18.35       7663.      0.6923E-02   0.000       0.000       240.0       0.000    
     606  0.5664E-01  0.9007E-04 SHELL         12  -0.0%   18.38       7663.      0.6842E-02   0.000       0.000       240.0       0.000    
     607  0.5673E-01  0.9006E-04 SHELL         12  -0.0%   18.42       7663.      0.6780E-02   0.000       0.000       240.0       0.000    
     608  0.5682E-01  0.9005E-04 SHELL         12  -0.0%   18.45       7663.      0.6739E-02   0.000       0.000       240.0       0.000    
     609  0.5691E-01  0.9004E-04 SHELL         12  -0.0%   18.48       7663.      0.6720E-02   0.000       0.000       240.0       0.000    
     610  0.5700E-01  0.9003E-04 SHELL         12  -0.0%   18.52       7663.      0.6726E-02   0.000       0.000       240.0       0.000    
     611  0.5709E-01  0.9002E-04 SHELL         12  -0.0%   18.55       7663.      0.6753E-02   0.000       0.000       240.0       0.000    
     612  0.5718E-01  0.9001E-04 SHELL         12  -0.0%   18.59       7663.      0.6800E-02   0.000       0.000       240.0       0.000    
     613  0.5727E-01  0.8999E-04 SHELL         12  -0.0%   18.62       7662.      0.6864E-02   0.000       0.000       240.0       0.000    
     614  0.5736E-01  0.8998E-04 SHELL         12  -0.0%   18.65       7662.      0.6940E-02   0.000       0.000       240.0       0.000    
     615  0.5745E-01  0.8997E-04 SHELL         12  -0.0%   18.69       7662.      0.7024E-02   0.000       0.000       240.0       0.000    
     616  0.5754E-01  0.8996E-04 SHELL         12  -0.0%   18.72       7662.      0.7111E-02   0.000       0.000       240.0       0.000    
     617  0.5763E-01  0.8995E-04 SHELL         12  -0.0%   18.75       7662.      0.7197E-02   0.000       0.000       240.0       0.000    
     618  0.5772E-01  0.8994E-04 SHELL         12  -0.0%   18.79       7662.      0.7277E-02   0.000       0.000       240.0       0.000    
     619  0.5781E-01  0.8993E-04 SHELL         12  -0.0%   18.82       7662.      0.7347E-02   0.000       0.000       240.0       0.000    
     620  0.5790E-01  0.8992E-04 SHELL         12  -0.0%   18.85       7662.      0.7403E-02   0.000       0.000       240.0       0.000    
     621  0.5799E-01  0.8991E-04 SHELL         12  -0.0%   18.89       7662.      0.7442E-02   0.000       0.000       240.0       0.000    
     622  0.5808E-01  0.8990E-04 SHELL         12  -0.0%   18.92       7662.      0.7464E-02   0.000       0.000       240.0       0.000    
     623  0.5817E-01  0.8989E-04 SHELL         12  -0.0%   18.95       7662.      0.7468E-02   0.000       0.000       240.0       0.000    
     624  0.5826E-01  0.8988E-04 SHELL         12  -0.0%   18.99       7662.      0.7454E-02   0.000       0.000       240.0       0.000    
     625  0.5835E-01  0.8987E-04 SHELL         12  -0.0%   19.02       7662.      0.7424E-02   0.000       0.000       240.0       0.000    
     626  0.5844E-01  0.8986E-04 SHELL         12  -0.0%   19.06       7662.      0.7381E-02   0.000       0.000       240.0       0.000    
     627  0.5853E-01  0.8985E-04 SHELL         12  -0.0%   19.09       7662.      0.7327E-02   0.000       0.000       240.0       0.000    
     628  0.5862E-01  0.8984E-04 SHELL         12  -0.0%   19.12       7662.      0.7265E-02   0.000       0.000       240.0       0.000    
     629  0.5871E-01  0.8983E-04 SHELL         12  -0.0%   19.16       7662.      0.7198E-02   0.000       0.000       240.0       0.000    
     630  0.5880E-01  0.8982E-04 SHELL         12  -0.0%   19.19       7662.      0.7130E-02   0.000       0.000       240.0       0.000    
     631  0.5889E-01  0.8981E-04 SHELL         12  -0.0%   19.22       7662.      0.7066E-02   0.000       0.000       240.0       0.000    
     632  0.5898E-01  0.8980E-04 SHELL         12  -0.0%   19.26       7662.      0.7008E-02   0.000       0.000       240.0       0.000    
     633  0.5907E-01  0.8979E-04 SHELL         12  -0.0%   19.29       7662.      0.6960E-02   0.000       0.000       240.0       0.000    
     634  0.5915E-01  0.8978E-04 SHELL         12  -0.0%   19.33       7662.      0.6925E-02   0.000       0.000       240.0       0.000    
     635  0.5924E-01  0.8977E-04 SHELL         12  -0.0%   19.36       7662.      0.6902E-02   0.000       0.000       240.0       0.000    
     636  0.5933E-01  0.8976E-04 SHELL         12  -0.0%   19.39       7662.      0.6894E-02   0.000       0.000       240.0       0.000    
     637  0.5942E-01  0.8975E-04 SHELL         12  -0.0%   19.43       7662.      0.6900E-02   0.000       0.000       240.0       0.000    
     638  0.5951E-01  0.8974E-04 SHELL         12  -0.0%   19.46       7662.      0.6918E-02   0.000       0.000       240.0       0.000    
     639  0.5960E-01  0.8973E-04 SHELL         12  -0.0%   19.49       7662.      0.6946E-02   0.000       0.000       240.0       0.000    
     640  0.5969E-01  0.8972E-04 SHELL         12  -0.0%   19.53       7662.      0.6981E-02   0.000       0.000       240.0       0.000    
     641  0.5978E-01  0.8971E-04 SHELL         12  -0.0%   19.56       7662.      0.7019E-02   0.000       0.000       240.0       0.000    
     642  0.5987E-01  0.8970E-04 SHELL         12  -0.0%   19.59       7661.      0.7058E-02   0.000       0.000       240.0       0.000    
     643  0.5996E-01  0.8969E-04 SHELL         12  -0.0%   19.63       7661.      0.7092E-02   0.000       0.000       240.0       0.000    
     644  0.6005E-01  0.8968E-04 SHELL         12  -0.0%   19.66       7661.      0.7119E-02   0.000       0.000       240.0       0.000    
     ANIMATION FILE: BOX1BLA007 WRITTEN
     645  0.6014E-01  0.8967E-04 SHELL         12  -0.0%   19.70       7661.      0.7135E-02   0.000       0.000       240.0       0.000    
     646  0.6023E-01  0.8966E-04 SHELL         12  -0.0%   19.73       7661.      0.7138E-02   0.000       0.000       240.0       0.000    
     647  0.6032E-01  0.8965E-04 SHELL         12  -0.0%   19.76       7661.      0.7126E-02   0.000       0.000       240.0       0.000    
     648  0.6041E-01  0.8964E-04 SHELL         12  -0.0%   19.80       7661.      0.7100E-02   0.000       0.000       240.0       0.000    
     649  0.6050E-01  0.8963E-04 SHELL         12  -0.0%   19.83       7661.      0.7058E-02   0.000       0.000       240.0       0.000    
     650  0.6059E-01  0.8962E-04 SHELL         12  -0.0%   19.86       7661.      0.7002E-02   0.000       0.000       240.0       0.000    
     651  0.6068E-01  0.8961E-04 SHELL         12  -0.0%   19.90       7661.      0.6934E-02   0.000       0.000       240.0       0.000    
     652  0.6077E-01  0.8960E-04 SHELL         12  -0.0%   19.93       7661.      0.6855E-02   0.000       0.000       240.0       0.000    
     653  0.6086E-01  0.8959E-04 SHELL         12  -0.0%   19.96       7661.      0.6769E-02   0.000       0.000       240.0       0.000    
     654  0.6095E-01  0.8958E-04 SHELL         12  -0.0%   20.00       7661.      0.6679E-02   0.000       0.000       240.0       0.000    
     655  0.6104E-01  0.8957E-04 SHELL         12  -0.0%   20.03       7661.      0.6587E-02   0.000       0.000       240.0       0.000    
     656  0.6113E-01  0.8956E-04 SHELL         12  -0.0%   20.07       7661.      0.6498E-02   0.000       0.000       240.0       0.000    
     657  0.6122E-01  0.8955E-04 SHELL         12  -0.0%   20.10       7661.      0.6418E-02   0.000       0.000       240.0       0.000    
     658  0.6131E-01  0.8954E-04 SHELL         12  -0.0%   20.13       7661.      0.6349E-02   0.000       0.000       240.0       0.000    
     659  0.6140E-01  0.8953E-04 SHELL         12  -0.0%   20.17       7661.      0.6295E-02   0.000       0.000       240.0       0.000    
   CYCLE    TIME      TIME-STEP  ELEMENT          ERROR  I-ENERGY    K-ENERGY T  K-ENERGY R  EXT-WORK     MAS.ERR     TOTAL MASS  MASS ADDED
     660  0.6149E-01  0.8952E-04 SHELL         12  -0.0%   20.20       7661.      0.6258E-02   0.000       0.000       240.0       0.000    
     661  0.6158E-01  0.8951E-04 SHELL         12  -0.0%   20.23       7661.      0.6238E-02   0.000       0.000       240.0       0.000    
     662  0.6167E-01  0.8950E-04 SHELL         12  -0.0%   20.27       7661.      0.6234E-02   0.000       0.000       240.0       0.000    
     663  0.6175E-01  0.8949E-04 SHELL         12  -0.0%   20.30       7661.      0.6245E-02   0.000       0.000       240.0       0.000    
     664  0.6184E-01  0.8948E-04 SHELL         12  -0.0%   20.34       7661.      0.6271E-02   0.000       0.000       240.0       0.000    
     665  0.6193E-01  0.8947E-04 SHELL         12  -0.0%   20.37       7661.      0.6306E-02   0.000       0.000       240.0       0.000    
     666  0.6202E-01  0.8946E-04 SHELL         12  -0.0%   20.40       7661.      0.6350E-02   0.000       0.000       240.0       0.000    
     667  0.6211E-01  0.8945E-04 SHELL         12  -0.0%   20.44       7661.      0.6397E-02   0.000       0.000       240.0       0.000    
     668  0.6220E-01  0.8944E-04 SHELL         12  -0.0%   20.47       7661.      0.6443E-02   0.000       0.000       240.0       0.000    
     669  0.6229E-01  0.8943E-04 SHELL         12  -0.0%   20.50       7661.      0.6483E-02   0.000       0.000       240.0       0.000    
     670  0.6238E-01  0.8942E-04 SHELL         12  -0.0%   20.54       7661.      0.6516E-02   0.000       0.000       240.0       0.000    
     671  0.6247E-01  0.8941E-04 SHELL         12  -0.0%   20.57       7661.      0.6537E-02   0.000       0.000       240.0       0.000    
     672  0.6256E-01  0.8940E-04 SHELL         12  -0.0%   20.60       7660.      0.6544E-02   0.000       0.000       240.0       0.000    
     673  0.6265E-01  0.8939E-04 SHELL         12  -0.0%   20.64       7660.      0.6536E-02   0.000       0.000       240.0       0.000    
     674  0.6274E-01  0.8938E-04 SHELL         12  -0.0%   20.67       7660.      0.6512E-02   0.000       0.000       240.0       0.000    
     675  0.6283E-01  0.8937E-04 SHELL         12  -0.0%   20.71       7660.      0.6473E-02   0.000       0.000       240.0       0.000    
     676  0.6292E-01  0.8936E-04 SHELL         12  -0.0%   20.74       7660.      0.6420E-02   0.000       0.000       240.0       0.000    
     677  0.6301E-01  0.8935E-04 SHELL         12  -0.0%   20.77       7660.      0.6355E-02   0.000       0.000       240.0       0.000    
     678  0.6310E-01  0.8934E-04 SHELL         12  -0.0%   20.81       7660.      0.6281E-02   0.000       0.000       240.0       0.000    
     679  0.6319E-01  0.8933E-04 SHELL         12  -0.0%   20.84       7660.      0.6202E-02   0.000       0.000       240.0       0.000    
     680  0.6327E-01  0.8932E-04 SHELL         12  -0.0%   20.87       7660.      0.6121E-02   0.000       0.000       240.0       0.000    
     681  0.6336E-01  0.8931E-04 SHELL         12  -0.0%   20.91       7660.      0.6043E-02   0.000       0.000       240.0       0.000    
     682  0.6345E-01  0.8930E-04 SHELL         12  -0.0%   20.94       7660.      0.5972E-02   0.000       0.000       240.0       0.000    
     683  0.6354E-01  0.8929E-04 SHELL         12  -0.0%   20.98       7660.      0.5913E-02   0.000       0.000       240.0       0.000    
     684  0.6363E-01  0.8928E-04 SHELL         12  -0.0%   21.01       7660.      0.5868E-02   0.000       0.000       240.0       0.000    
     685  0.6372E-01  0.8927E-04 SHELL         12  -0.0%   21.04       7660.      0.5839E-02   0.000       0.000       240.0       0.000    
     686  0.6381E-01  0.8926E-04 SHELL         12  -0.0%   21.08       7660.      0.5829E-02   0.000       0.000       240.0       0.000    
     687  0.6390E-01  0.8925E-04 SHELL         12  -0.0%   21.11       7660.      0.5836E-02   0.000       0.000       240.0       0.000    
     688  0.6399E-01  0.8924E-04 SHELL         12  -0.0%   21.14       7660.      0.5860E-02   0.000       0.000       240.0       0.000    
     689  0.6408E-01  0.8923E-04 SHELL         12  -0.0%   21.18       7660.      0.5901E-02   0.000       0.000       240.0       0.000    
     690  0.6417E-01  0.8922E-04 SHELL         12  -0.0%   21.21       7660.      0.5955E-02   0.000       0.000       240.0       0.000    
     691  0.6426E-01  0.8921E-04 SHELL         12  -0.0%   21.24       7660.      0.6020E-02   0.000       0.000       240.0       0.000    
     692  0.6435E-01  0.8920E-04 SHELL         12  -0.0%   21.28       7660.      0.6091E-02   0.000       0.000       240.0       0.000    
     693  0.6443E-01  0.8919E-04 SHELL         12  -0.0%   21.31       7660.      0.6164E-02   0.000       0.000       240.0       0.000    
     694  0.6452E-01  0.8918E-04 SHELL         12  -0.0%   21.34       7660.      0.6236E-02   0.000       0.000       240.0       0.000    
     695  0.6461E-01  0.8917E-04 SHELL         12  -0.0%   21.38       7660.      0.6303E-02   0.000       0.000       240.0       0.000    
     696  0.6470E-01  0.8916E-04 SHELL         12  -0.0%   21.41       7660.      0.6360E-02   0.000       0.000       240.0       0.000    
     697  0.6479E-01  0.8915E-04 SHELL         12  -0.0%   21.45       7660.      0.6405E-02   0.000       0.000       240.0       0.000    
     698  0.6488E-01  0.8914E-04 SHELL         12  -0.0%   21.48       7660.      0.6434E-02   0.000       0.000       240.0       0.000    
     699  0.6497E-01  0.8913E-04 SHELL         12  -0.0%   21.51       7660.      0.6448E-02   0.000       0.000       240.0       0.000    
     700  0.6506E-01  0.8912E-04 SHELL         12  -0.0%   21.55       7660.      0.6444E-02   0.000       0.000       240.0       0.000    
     701  0.6515E-01  0.8911E-04 SHELL         12  -0.0%   21.58       7660.      0.6425E-02   0.000       0.000       240.0       0.000    
     702  0.6524E-01  0.8910E-04 SHELL         12  -0.0%   21.61       7659.      0.6391E-02   0.000       0.000       240.0       0.000    
     703  0.6533E-01  0.8909E-04 SHELL         12  -0.0%   21.65       7659.      0.6345E-02   0.000       0.000       240.0       0.000    
     704  0.6542E-01  0.8908E-04 SHELL         12  -0.0%   21.68       7659.      0.6289E-02   0.000       0.000       240.0       0.000    
     705  0.6550E-01  0.8907E-04 SHELL         12  -0.0%   21.72       7659.      0.6228E-02   0.000       0.000       240.0       0.000    
     706  0.6559E-01  0.8906E-04 SHELL         12  -0.0%   21.75       7659.      0.6164E-02   0.000       0.000       240.0       0.000    
     707  0.6568E-01  0.8905E-04 SHELL         12  -0.0%   21.78       7659.      0.6100E-02   0.000       0.000       240.0       0.000    
     708  0.6577E-01  0.8904E-04 SHELL         12  -0.0%   21.82       7659.      0.6040E-02   0.000       0.000       240.0       0.000    
     709  0.6586E-01  0.8903E-04 SHELL         12  -0.0%   21.85       7659.      0.5990E-02   0.000       0.000       240.0       0.000    
     710  0.6595E-01  0.8902E-04 SHELL         12  -0.0%   21.88       7659.      0.5951E-02   0.000       0.000       240.0       0.000    
     711  0.6604E-01  0.8901E-04 SHELL         12  -0.0%   21.92       7659.      0.5927E-02   0.000       0.000       240.0       0.000    
     712  0.6613E-01  0.8900E-04 SHELL         12  -0.0%   21.95       7659.      0.5917E-02   0.000       0.000       240.0       0.000    
     713  0.6622E-01  0.8899E-04 SHELL         12  -0.0%   21.98       7659.      0.5923E-02   0.000       0.000       240.0       0.000    
     714  0.6631E-01  0.8898E-04 SHELL         12  -0.0%   22.02       7659.      0.5945E-02   0.000       0.000       240.0       0.000    
   CYCLE    TIME      TIME-STEP  ELEMENT          ERROR  I-ENERGY    K-ENERGY T  K-ENERGY R  EXT-WORK     MAS.ERR     TOTAL MASS  MASS ADDED
     715  0.6639E-01  0.8897E-04 SHELL         12  -0.0%   22.05       7659.      0.5979E-02   0.000       0.000       240.0       0.000    
     716  0.6648E-01  0.8895E-04 SHELL         12  -0.0%   22.09       7659.      0.6025E-02   0.000       0.000       240.0       0.000    
     717  0.6657E-01  0.8894E-04 SHELL         12  -0.0%   22.12       7659.      0.6079E-02   0.000       0.000       240.0       0.000    
     718  0.6666E-01  0.8893E-04 SHELL         12  -0.0%   22.15       7659.      0.6138E-02   0.000       0.000       240.0       0.000    
     719  0.6675E-01  0.8892E-04 SHELL         12  -0.0%   22.19       7659.      0.6198E-02   0.000       0.000       240.0       0.000    
     720  0.6684E-01  0.8891E-04 SHELL         12  -0.0%   22.22       7659.      0.6255E-02   0.000       0.000       240.0       0.000    
     721  0.6693E-01  0.8890E-04 SHELL         12  -0.0%   22.25       7659.      0.6306E-02   0.000       0.000       240.0       0.000    
     722  0.6702E-01  0.8889E-04 SHELL         12  -0.0%   22.29       7659.      0.6347E-02   0.000       0.000       240.0       0.000    
     723  0.6711E-01  0.8888E-04 SHELL         12  -0.0%   22.32       7659.      0.6376E-02   0.000       0.000       240.0       0.000    
     724  0.6720E-01  0.8887E-04 SHELL         12  -0.0%   22.35       7659.      0.6392E-02   0.000       0.000       240.0       0.000    
     725  0.6728E-01  0.8886E-04 SHELL         12  -0.0%   22.39       7659.      0.6394E-02   0.000       0.000       240.0       0.000    
     726  0.6737E-01  0.8885E-04 SHELL         12  -0.0%   22.42       7659.      0.6380E-02   0.000       0.000       240.0       0.000    
     727  0.6746E-01  0.8884E-04 SHELL         12  -0.0%   22.45       7659.      0.6352E-02   0.000       0.000       240.0       0.000    
     728  0.6755E-01  0.8883E-04 SHELL         12  -0.0%   22.49       7659.      0.6311E-02   0.000       0.000       240.0       0.000    
     729  0.6764E-01  0.8882E-04 SHELL         12  -0.0%   22.52       7659.      0.6260E-02   0.000       0.000       240.0       0.000    
     730  0.6773E-01  0.8881E-04 SHELL         12  -0.0%   22.56       7659.      0.6202E-02   0.000       0.000       240.0       0.000    
     731  0.6782E-01  0.8880E-04 SHELL         12  -0.0%   22.59       7658.      0.6141E-02   0.000       0.000       240.0       0.000    
     732  0.6791E-01  0.8879E-04 SHELL         12  -0.0%   22.62       7658.      0.6080E-02   0.000       0.000       240.0       0.000    
     733  0.6799E-01  0.8878E-04 SHELL         12  -0.0%   22.66       7658.      0.6022E-02   0.000       0.000       240.0       0.000    
     734  0.6808E-01  0.8877E-04 SHELL         12  -0.0%   22.69       7658.      0.5971E-02   0.000       0.000       240.0       0.000    
     735  0.6817E-01  0.8876E-04 SHELL         12  -0.0%   22.72       7658.      0.5928E-02   0.000       0.000       240.0       0.000    
     736  0.6826E-01  0.8875E-04 SHELL         12  -0.0%   22.76       7658.      0.5897E-02   0.000       0.000       240.0       0.000    
     737  0.6835E-01  0.8874E-04 SHELL         12  -0.0%   22.79       7658.      0.5879E-02   0.000       0.000       240.0       0.000    
     738  0.6844E-01  0.8872E-04 SHELL         12  -0.0%   22.83       7658.      0.5876E-02   0.000       0.000       240.0       0.000    
     739  0.6853E-01  0.8871E-04 SHELL         12  -0.0%   22.86       7658.      0.5887E-02   0.000       0.000       240.0       0.000    
     740  0.6862E-01  0.8870E-04 SHELL         12  -0.0%   22.89       7658.      0.5913E-02   0.000       0.000       240.0       0.000    
     741  0.6870E-01  0.8869E-04 SHELL         12  -0.0%   22.93       7658.      0.5951E-02   0.000       0.000       240.0       0.000    
     742  0.6879E-01  0.8868E-04 SHELL         12  -0.0%   22.96       7658.      0.6000E-02   0.000       0.000       240.0       0.000    
     743  0.6888E-01  0.8867E-04 SHELL         12  -0.0%   22.99       7658.      0.6058E-02   0.000       0.000       240.0       0.000    
     744  0.6897E-01  0.8866E-04 SHELL         12  -0.0%   23.03       7658.      0.6122E-02   0.000       0.000       240.0       0.000    
     745  0.6906E-01  0.8865E-04 SHELL         12  -0.0%   23.06       7658.      0.6188E-02   0.000       0.000       240.0       0.000    
     746  0.6915E-01  0.8864E-04 SHELL         12  -0.0%   23.09       7658.      0.6255E-02   0.000       0.000       240.0       0.000    
     747  0.6924E-01  0.8863E-04 SHELL         12  -0.0%   23.13       7658.      0.6319E-02   0.000       0.000       240.0       0.000    
     748  0.6933E-01  0.8862E-04 SHELL         12  -0.0%   23.16       7658.      0.6378E-02   0.000       0.000       240.0       0.000    
     749  0.6941E-01  0.8861E-04 SHELL         12  -0.0%   23.19       7658.      0.6430E-02   0.000       0.000       240.0       0.000    
     750  0.6950E-01  0.8860E-04 SHELL         12  -0.0%   23.23       7658.      0.6473E-02   0.000       0.000       240.0       0.000    
     751  0.6959E-01  0.8859E-04 SHELL         12  -0.0%   23.26       7658.      0.6507E-02   0.000       0.000       240.0       0.000    
     752  0.6968E-01  0.8858E-04 SHELL         12  -0.0%   23.29       7658.      0.6531E-02   0.000       0.000       240.0       0.000    
     753  0.6977E-01  0.8857E-04 SHELL         12  -0.0%   23.33       7658.      0.6546E-02   0.000       0.000       240.0       0.000    
     754  0.6986E-01  0.8856E-04 SHELL         12  -0.0%   23.36       7658.      0.6553E-02   0.000       0.000       240.0       0.000    
     755  0.6995E-01  0.8855E-04 SHELL         12  -0.0%   23.40       7658.      0.6553E-02   0.000       0.000       240.0       0.000    
     756  0.7003E-01  0.8854E-04 SHELL         12  -0.0%   23.43       7658.      0.6547E-02   0.000       0.000       240.0       0.000    
     ANIMATION FILE: BOX1BLA008 WRITTEN
     757  0.7012E-01  0.8853E-04 SHELL         12  -0.0%   23.46       7658.      0.6538E-02   0.000       0.000       240.0       0.000    
     758  0.7021E-01  0.8852E-04 SHELL         12  -0.0%   23.50       7658.      0.6527E-02   0.000       0.000       240.0       0.000    
     759  0.7030E-01  0.8851E-04 SHELL         12  -0.0%   23.53       7658.      0.6518E-02   0.000       0.000       240.0       0.000    
     760  0.7039E-01  0.8850E-04 SHELL         12  -0.0%   23.56       7658.      0.6512E-02   0.000       0.000       240.0       0.000    
     761  0.7048E-01  0.8849E-04 SHELL         12  -0.0%   23.60       7657.      0.6510E-02   0.000       0.000       240.0       0.000    
     762  0.7056E-01  0.8848E-04 SHELL         12  -0.0%   23.63       7657.      0.6515E-02   0.000       0.000       240.0       0.000    
     763  0.7065E-01  0.8847E-04 SHELL         12  -0.0%   23.66       7657.      0.6528E-02   0.000       0.000       240.0       0.000    
     764  0.7074E-01  0.8846E-04 SHELL         12  -0.0%   23.70       7657.      0.6550E-02   0.000       0.000       240.0       0.000    
     765  0.7083E-01  0.8845E-04 SHELL         12  -0.0%   23.73       7657.      0.6582E-02   0.000       0.000       240.0       0.000    
     766  0.7092E-01  0.8844E-04 SHELL         12  -0.0%   23.76       7657.      0.6623E-02   0.000       0.000       240.0       0.000    
     767  0.7101E-01  0.8843E-04 SHELL         12  -0.0%   23.80       7657.      0.6670E-02   0.000       0.000       240.0       0.000    
     768  0.7110E-01  0.8842E-04 SHELL         12  -0.0%   23.83       7657.      0.6724E-02   0.000       0.000       240.0       0.000    
     769  0.7118E-01  0.8841E-04 SHELL         12  -0.0%   23.87       7657.      0.6782E-02   0.000       0.000       240.0       0.000    
   CYCLE    TIME      TIME-STEP  ELEMENT          ERROR  I-ENERGY    K-ENERGY T  K-ENERGY R  EXT-WORK     MAS.ERR     TOTAL MASS  MASS ADDED
     770  0.7127E-01  0.8840E-04 SHELL         12  -0.0%   23.90       7657.      0.6841E-02   0.000       0.000       240.0       0.000    
     771  0.7136E-01  0.8839E-04 SHELL         12  -0.0%   23.93       7657.      0.6900E-02   0.000       0.000       240.0       0.000    
     772  0.7145E-01  0.8838E-04 SHELL         12  -0.0%   23.97       7657.      0.6956E-02   0.000       0.000       240.0       0.000    
     773  0.7154E-01  0.8837E-04 SHELL         12  -0.0%   24.00       7657.      0.7007E-02   0.000       0.000       240.0       0.000    
     774  0.7163E-01  0.8836E-04 SHELL         12  -0.0%   24.03       7657.      0.7052E-02   0.000       0.000       240.0       0.000    
     775  0.7171E-01  0.8835E-04 SHELL         12  -0.0%   24.07       7657.      0.7089E-02   0.000       0.000       240.0       0.000    
     776  0.7180E-01  0.8834E-04 SHELL         12  -0.0%   24.10       7657.      0.7117E-02   0.000       0.000       240.0       0.000    
     777  0.7189E-01  0.8833E-04 SHELL         12  -0.0%   24.13       7657.      0.7135E-02   0.000       0.000       240.0       0.000    
     778  0.7198E-01  0.8832E-04 SHELL         12  -0.0%   24.17       7657.      0.7143E-02   0.000       0.000       240.0       0.000    
     779  0.7207E-01  0.8831E-04 SHELL         12  -0.0%   24.20       7657.      0.7141E-02   0.000       0.000       240.0       0.000    
     780  0.7216E-01  0.8830E-04 SHELL         12  -0.0%   24.23       7657.      0.7129E-02   0.000       0.000       240.0       0.000    
     781  0.7224E-01  0.8829E-04 SHELL         12  -0.0%   24.27       7657.      0.7110E-02   0.000       0.000       240.0       0.000    
     782  0.7233E-01  0.8828E-04 SHELL         12  -0.0%   24.30       7657.      0.7084E-02   0.000       0.000       240.0       0.000    
     783  0.7242E-01  0.8827E-04 SHELL         12  -0.0%   24.33       7657.      0.7052E-02   0.000       0.000       240.0       0.000    
     784  0.7251E-01  0.8826E-04 SHELL         12  -0.0%   24.37       7657.      0.7017E-02   0.000       0.000       240.0       0.000    
     785  0.7260E-01  0.8825E-04 SHELL         12  -0.0%   24.40       7657.      0.6979E-02   0.000       0.000       240.0       0.000    
     786  0.7269E-01  0.8824E-04 SHELL         12  -0.0%   24.44       7657.      0.6939E-02   0.000       0.000       240.0       0.000    
     787  0.7277E-01  0.8823E-04 SHELL         12  -0.0%   24.47       7657.      0.6900E-02   0.000       0.000       240.0       0.000    
     788  0.7286E-01  0.8822E-04 SHELL         12  -0.0%   24.50       7657.      0.6862E-02   0.000       0.000       240.0       0.000    
     789  0.7295E-01  0.8821E-04 SHELL         12  -0.0%   24.54       7657.      0.6828E-02   0.000       0.000       240.0       0.000    
     790  0.7304E-01  0.8820E-04 SHELL         12  -0.0%   24.57       7656.      0.6800E-02   0.000       0.000       240.0       0.000    
     791  0.7313E-01  0.8819E-04 SHELL         12  -0.0%   24.60       7656.      0.6777E-02   0.000       0.000       240.0       0.000    
     792  0.7321E-01  0.8818E-04 SHELL         12  -0.0%   24.64       7656.      0.6760E-02   0.000       0.000       240.0       0.000    
     793  0.7330E-01  0.8817E-04 SHELL         12  -0.0%   24.67       7656.      0.6749E-02   0.000       0.000       240.0       0.000    
     794  0.7339E-01  0.8815E-04 SHELL         12  -0.0%   24.70       7656.      0.6743E-02   0.000       0.000       240.0       0.000    
     795  0.7348E-01  0.8814E-04 SHELL         12  -0.0%   24.74       7656.      0.6743E-02   0.000       0.000       240.0       0.000    
     796  0.7357E-01  0.8813E-04 SHELL         12  -0.0%   24.77       7656.      0.6748E-02   0.000       0.000       240.0       0.000    
     797  0.7366E-01  0.8812E-04 SHELL         12  -0.0%   24.80       7656.      0.6757E-02   0.000       0.000       240.0       0.000    
     798  0.7374E-01  0.8811E-04 SHELL         12  -0.0%   24.84       7656.      0.6770E-02   0.000       0.000       240.0       0.000    
     799  0.7383E-01  0.8810E-04 SHELL         12  -0.0%   24.87       7656.      0.6786E-02   0.000       0.000       240.0       0.000    
     800  0.7392E-01  0.8809E-04 SHELL         12  -0.0%   24.90       7656.      0.6805E-02   0.000       0.000       240.0       0.000    
     801  0.7401E-01  0.8808E-04 SHELL         12  -0.0%   24.94       7656.      0.6825E-02   0.000       0.000       240.0       0.000    
     802  0.7410E-01  0.8807E-04 SHELL         12  -0.0%   24.97       7656.      0.6847E-02   0.000       0.000       240.0       0.000    
     803  0.7418E-01  0.8806E-04 SHELL         12  -0.0%   25.00       7656.      0.6870E-02   0.000       0.000       240.0       0.000    
     804  0.7427E-01  0.8805E-04 SHELL         12  -0.0%   25.04       7656.      0.6894E-02   0.000       0.000       240.0       0.000    
     805  0.7436E-01  0.8804E-04 SHELL         12  -0.0%   25.07       7656.      0.6919E-02   0.000       0.000       240.0       0.000    
     806  0.7445E-01  0.8803E-04 SHELL         12  -0.0%   25.11       7656.      0.6945E-02   0.000       0.000       240.0       0.000    
     807  0.7454E-01  0.8802E-04 SHELL         12  -0.0%   25.14       7656.      0.6971E-02   0.000       0.000       240.0       0.000    
     808  0.7462E-01  0.8801E-04 SHELL         12  -0.0%   25.17       7656.      0.6998E-02   0.000       0.000       240.0       0.000    
     809  0.7471E-01  0.8800E-04 SHELL         12  -0.0%   25.21       7656.      0.7025E-02   0.000       0.000       240.0       0.000    
     810  0.7480E-01  0.8799E-04 SHELL         12  -0.0%   25.24       7656.      0.7052E-02   0.000       0.000       240.0       0.000    
     811  0.7489E-01  0.8798E-04 SHELL         12  -0.0%   25.27       7656.      0.7079E-02   0.000       0.000       240.0       0.000    
     812  0.7498E-01  0.8797E-04 SHELL         12  -0.0%   25.31       7656.      0.7105E-02   0.000       0.000       240.0       0.000    
     813  0.7506E-01  0.8796E-04 SHELL         12  -0.0%   25.34       7656.      0.7132E-02   0.000       0.000       240.0       0.000    
     814  0.7515E-01  0.8794E-04 SHELL         12  -0.0%   25.37       7656.      0.7161E-02   0.000       0.000       240.0       0.000    
     815  0.7524E-01  0.8793E-04 SHELL         12  -0.0%   25.41       7656.      0.7192E-02   0.000       0.000       240.0       0.000    
     816  0.7533E-01  0.8792E-04 SHELL         12  -0.0%   25.44       7656.      0.7225E-02   0.000       0.000       240.0       0.000    
     817  0.7542E-01  0.8791E-04 SHELL         12  -0.0%   25.47       7656.      0.7258E-02   0.000       0.000       240.0       0.000    
     818  0.7550E-01  0.8790E-04 SHELL         12  -0.0%   25.51       7656.      0.7291E-02   0.000       0.000       240.0       0.000    
     819  0.7559E-01  0.8789E-04 SHELL         12  -0.0%   25.54       7656.      0.7323E-02   0.000       0.000       240.0       0.000    
     820  0.7568E-01  0.8788E-04 SHELL         12  -0.0%   25.57       7655.      0.7354E-02   0.000       0.000       240.0       0.000    
     821  0.7577E-01  0.8787E-04 SHELL         12  -0.0%   25.61       7655.      0.7384E-02   0.000       0.000       240.0       0.000    
     822  0.7586E-01  0.8786E-04 SHELL         12  -0.0%   25.64       7655.      0.7410E-02   0.000       0.000       240.0       0.000    
     823  0.7594E-01  0.8785E-04 SHELL         12  -0.0%   25.67       7655.      0.7434E-02   0.000       0.000       240.0       0.000    
     824  0.7603E-01  0.8784E-04 SHELL         12  -0.0%   25.71       7655.      0.7453E-02   0.000       0.000       240.0       0.000    
   CYCLE    TIME      TIME-STEP  ELEMENT          ERROR  I-ENERGY    K-ENERGY T  K-ENERGY R  EXT-WORK     MAS.ERR     TOTAL MASS  MASS ADDED
     825  0.7612E-01  0.8783E-04 SHELL         12  -0.0%   25.74       7655.      0.7467E-02   0.000       0.000       240.0       0.000    
     826  0.7621E-01  0.8782E-04 SHELL         12  -0.0%   25.77       7655.      0.7477E-02   0.000       0.000       240.0       0.000    
     827  0.7629E-01  0.8781E-04 SHELL         12  -0.0%   25.81       7655.      0.7480E-02   0.000       0.000       240.0       0.000    
     828  0.7638E-01  0.8780E-04 SHELL         12  -0.0%   25.84       7655.      0.7478E-02   0.000       0.000       240.0       0.000    
     829  0.7647E-01  0.8779E-04 SHELL         12  -0.0%   25.87       7655.      0.7469E-02   0.000       0.000       240.0       0.000    
     830  0.7656E-01  0.8778E-04 SHELL         12  -0.0%   25.91       7655.      0.7454E-02   0.000       0.000       240.0       0.000    
     831  0.7665E-01  0.8776E-04 SHELL         12  -0.0%   25.94       7655.      0.7432E-02   0.000       0.000       240.0       0.000    
     832  0.7673E-01  0.8775E-04 SHELL         12  -0.0%   25.97       7655.      0.7403E-02   0.000       0.000       240.0       0.000    
     833  0.7682E-01  0.8774E-04 SHELL         12  -0.0%   26.01       7655.      0.7369E-02   0.000       0.000       240.0       0.000    
     834  0.7691E-01  0.8773E-04 SHELL         12  -0.0%   26.04       7655.      0.7329E-02   0.000       0.000       240.0       0.000    
     835  0.7700E-01  0.8772E-04 SHELL         12  -0.0%   26.07       7655.      0.7283E-02   0.000       0.000       240.0       0.000    
     836  0.7708E-01  0.8771E-04 SHELL         12  -0.0%   26.11       7655.      0.7233E-02   0.000       0.000       240.0       0.000    
     837  0.7717E-01  0.8770E-04 SHELL         12  -0.0%   26.14       7655.      0.7180E-02   0.000       0.000       240.0       0.000    
     838  0.7726E-01  0.8769E-04 SHELL         12  -0.0%   26.18       7655.      0.7123E-02   0.000       0.000       240.0       0.000    
     839  0.7735E-01  0.8768E-04 SHELL         12  -0.0%   26.21       7655.      0.7063E-02   0.000       0.000       240.0       0.000    
     840  0.7744E-01  0.8767E-04 SHELL         12  -0.0%   26.24       7655.      0.7000E-02   0.000       0.000       240.0       0.000    
     841  0.7752E-01  0.8766E-04 SHELL         12  -0.0%   26.28       7655.      0.6938E-02   0.000       0.000       240.0       0.000    
     842  0.7761E-01  0.8765E-04 SHELL         12  -0.0%   26.31       7655.      0.6878E-02   0.000       0.000       240.0       0.000    
     843  0.7770E-01  0.8764E-04 SHELL         12  -0.0%   26.34       7655.      0.6820E-02   0.000       0.000       240.0       0.000    
     844  0.7779E-01  0.8763E-04 SHELL         12  -0.0%   26.38       7655.      0.6766E-02   0.000       0.000       240.0       0.000    
     845  0.7787E-01  0.8762E-04 SHELL         12  -0.0%   26.41       7655.      0.6716E-02   0.000       0.000       240.0       0.000    
     846  0.7796E-01  0.8761E-04 SHELL         12  -0.0%   26.44       7655.      0.6673E-02   0.000       0.000       240.0       0.000    
     847  0.7805E-01  0.8760E-04 SHELL         12  -0.0%   26.48       7655.      0.6636E-02   0.000       0.000       240.0       0.000    
     848  0.7814E-01  0.8759E-04 SHELL         12  -0.0%   26.51       7655.      0.6606E-02   0.000       0.000       240.0       0.000    
     849  0.7822E-01  0.8758E-04 SHELL         12  -0.0%   26.54       7654.      0.6585E-02   0.000       0.000       240.0       0.000    
     850  0.7831E-01  0.8756E-04 SHELL         12  -0.0%   26.58       7654.      0.6571E-02   0.000       0.000       240.0       0.000    
     851  0.7840E-01  0.8755E-04 SHELL         12  -0.0%   26.61       7654.      0.6566E-02   0.000       0.000       240.0       0.000    
     852  0.7849E-01  0.8754E-04 SHELL         12  -0.0%   26.64       7654.      0.6570E-02   0.000       0.000       240.0       0.000    
     853  0.7857E-01  0.8753E-04 SHELL         12  -0.0%   26.68       7654.      0.6582E-02   0.000       0.000       240.0       0.000    
     854  0.7866E-01  0.8752E-04 SHELL         12  -0.0%   26.71       7654.      0.6601E-02   0.000       0.000       240.0       0.000    
     855  0.7875E-01  0.8751E-04 SHELL         12  -0.0%   26.74       7654.      0.6628E-02   0.000       0.000       240.0       0.000    
     856  0.7884E-01  0.8750E-04 SHELL         12  -0.0%   26.78       7654.      0.6662E-02   0.000       0.000       240.0       0.000    
     857  0.7892E-01  0.8749E-04 SHELL         12  -0.0%   26.81       7654.      0.6701E-02   0.000       0.000       240.0       0.000    
     858  0.7901E-01  0.8748E-04 SHELL         12  -0.0%   26.84       7654.      0.6745E-02   0.000       0.000       240.0       0.000    
     859  0.7910E-01  0.8747E-04 SHELL         12  -0.0%   26.88       7654.      0.6793E-02   0.000       0.000       240.0       0.000    
     860  0.7919E-01  0.8746E-04 SHELL         12  -0.0%   26.91       7654.      0.6843E-02   0.000       0.000       240.0       0.000    
     861  0.7927E-01  0.8745E-04 SHELL         12  -0.0%   26.94       7654.      0.6893E-02   0.000       0.000       240.0       0.000    
     862  0.7936E-01  0.8744E-04 SHELL         12  -0.0%   26.98       7654.      0.6943E-02   0.000       0.000       240.0       0.000    
     863  0.7945E-01  0.8743E-04 SHELL         12  -0.0%   27.01       7654.      0.6990E-02   0.000       0.000       240.0       0.000    
     864  0.7954E-01  0.8742E-04 SHELL         12  -0.0%   27.04       7654.      0.7032E-02   0.000       0.000       240.0       0.000    
     865  0.7962E-01  0.8741E-04 SHELL         12  -0.0%   27.08       7654.      0.7068E-02   0.000       0.000       240.0       0.000    
     866  0.7971E-01  0.8740E-04 SHELL         12  -0.0%   27.11       7654.      0.7098E-02   0.000       0.000       240.0       0.000    
     867  0.7980E-01  0.8739E-04 SHELL         12  -0.0%   27.14       7654.      0.7123E-02   0.000       0.000       240.0       0.000    
     868  0.7989E-01  0.8738E-04 SHELL         12  -0.0%   27.18       7654.      0.7144E-02   0.000       0.000       240.0       0.000    
     869  0.7997E-01  0.8737E-04 SHELL         12  -0.0%   27.21       7654.      0.7160E-02   0.000       0.000       240.0       0.000    
     870  0.8006E-01  0.8736E-04 SHELL         12  -0.0%   27.24       7654.      0.7172E-02   0.000       0.000       240.0       0.000    
     ANIMATION FILE: BOX1BLA009 WRITTEN
     871  0.8015E-01  0.8735E-04 SHELL         12  -0.0%   27.28       7654.      0.7179E-02   0.000       0.000       240.0       0.000    
     872  0.8024E-01  0.8734E-04 SHELL         12  -0.0%   27.31       7654.      0.7182E-02   0.000       0.000       240.0       0.000    
     873  0.8032E-01  0.8733E-04 SHELL         12  -0.0%   27.34       7654.      0.7181E-02   0.000       0.000       240.0       0.000    
     874  0.8041E-01  0.8732E-04 SHELL         12  -0.0%   27.38       7654.      0.7176E-02   0.000       0.000       240.0       0.000    
     875  0.8050E-01  0.8731E-04 SHELL         12  -0.0%   27.41       7654.      0.7167E-02   0.000       0.000       240.0       0.000    
     876  0.8059E-01  0.8730E-04 SHELL         12  -0.0%   27.44       7654.      0.7155E-02   0.000       0.000       240.0       0.000    
     877  0.8067E-01  0.8728E-04 SHELL         12  -0.0%   27.48       7654.      0.7139E-02   0.000       0.000       240.0       0.000    
     878  0.8076E-01  0.8727E-04 SHELL         12  -0.0%   27.51       7654.      0.7120E-02   0.000       0.000       240.0       0.000    
     879  0.8085E-01  0.8726E-04 SHELL         12  -0.0%   27.54       7653.      0.7099E-02   0.000       0.000       240.0       0.000    
   CYCLE    TIME      TIME-STEP  ELEMENT          ERROR  I-ENERGY    K-ENERGY T  K-ENERGY R  EXT-WORK     MAS.ERR     TOTAL MASS  MASS ADDED
     880  0.8093E-01  0.8725E-04 SHELL         12  -0.0%   27.58       7653.      0.7075E-02   0.000       0.000       240.0       0.000    
     881  0.8102E-01  0.8724E-04 SHELL         12  -0.0%   27.61       7653.      0.7048E-02   0.000       0.000       240.0       0.000    
     882  0.8111E-01  0.8723E-04 SHELL         12  -0.0%   27.64       7653.      0.7018E-02   0.000       0.000       240.0       0.000    
     883  0.8120E-01  0.8722E-04 SHELL         12  -0.0%   27.68       7653.      0.6986E-02   0.000       0.000       240.0       0.000    
     884  0.8128E-01  0.8721E-04 SHELL         12  -0.0%   27.71       7653.      0.6953E-02   0.000       0.000       240.0       0.000    
     885  0.8137E-01  0.8720E-04 SHELL         12  -0.0%   27.74       7653.      0.6917E-02   0.000       0.000       240.0       0.000    
     886  0.8146E-01  0.8719E-04 SHELL         12  -0.0%   27.78       7653.      0.6880E-02   0.000       0.000       240.0       0.000    
     887  0.8154E-01  0.8718E-04 SHELL         12  -0.0%   27.81       7653.      0.6842E-02   0.000       0.000       240.0       0.000    
     888  0.8163E-01  0.8717E-04 SHELL         12  -0.0%   27.84       7653.      0.6803E-02   0.000       0.000       240.0       0.000    
     889  0.8172E-01  0.8716E-04 SHELL         12  -0.0%   27.88       7653.      0.6764E-02   0.000       0.000       240.0       0.000    
     890  0.8181E-01  0.8715E-04 SHELL         12  -0.0%   27.91       7653.      0.6724E-02   0.000       0.000       240.0       0.000    
     891  0.8189E-01  0.8714E-04 SHELL         12  -0.0%   27.95       7653.      0.6685E-02   0.000       0.000       240.0       0.000    
     892  0.8198E-01  0.8713E-04 SHELL         12  -0.0%   27.98       7653.      0.6646E-02   0.000       0.000       240.0       0.000    
     893  0.8207E-01  0.8712E-04 SHELL         12  -0.0%   28.01       7653.      0.6608E-02   0.000       0.000       240.0       0.000    
     894  0.8215E-01  0.8711E-04 SHELL         12  -0.0%   28.05       7653.      0.6570E-02   0.000       0.000       240.0       0.000    
     895  0.8224E-01  0.8710E-04 SHELL         12  -0.0%   28.08       7653.      0.6536E-02   0.000       0.000       240.0       0.000    
     896  0.8233E-01  0.8709E-04 SHELL         12  -0.0%   28.11       7653.      0.6505E-02   0.000       0.000       240.0       0.000    
     897  0.8242E-01  0.8708E-04 SHELL         12  -0.0%   28.15       7653.      0.6479E-02   0.000       0.000       240.0       0.000    
     898  0.8250E-01  0.8707E-04 SHELL         12  -0.0%   28.18       7653.      0.6457E-02   0.000       0.000       240.0       0.000    
     899  0.8259E-01  0.8706E-04 SHELL         12  -0.0%   28.21       7653.      0.6441E-02   0.000       0.000       240.0       0.000    
     900  0.8268E-01  0.8705E-04 SHELL         12  -0.0%   28.25       7653.      0.6431E-02   0.000       0.000       240.0       0.000    
     901  0.8276E-01  0.8704E-04 SHELL         12  -0.0%   28.28       7653.      0.6427E-02   0.000       0.000       240.0       0.000    
     902  0.8285E-01  0.8703E-04 SHELL         12  -0.0%   28.31       7653.      0.6430E-02   0.000       0.000       240.0       0.000    
     903  0.8294E-01  0.8702E-04 SHELL         12  -0.0%   28.35       7653.      0.6439E-02   0.000       0.000       240.0       0.000    
     904  0.8303E-01  0.8701E-04 SHELL         12  -0.0%   28.38       7653.      0.6455E-02   0.000       0.000       240.0       0.000    
     905  0.8311E-01  0.8700E-04 SHELL         12  -0.0%   28.41       7653.      0.6478E-02   0.000       0.000       240.0       0.000    
     906  0.8320E-01  0.8699E-04 SHELL         12  -0.0%   28.45       7653.      0.6506E-02   0.000       0.000       240.0       0.000    
     907  0.8329E-01  0.8697E-04 SHELL         12  -0.0%   28.48       7653.      0.6540E-02   0.000       0.000       240.0       0.000    
     908  0.8337E-01  0.8696E-04 SHELL         12  -0.0%   28.51       7652.      0.6580E-02   0.000       0.000       240.0       0.000    
     909  0.8346E-01  0.8695E-04 SHELL         12  -0.0%   28.55       7652.      0.6624E-02   0.000       0.000       240.0       0.000    
     910  0.8355E-01  0.8694E-04 SHELL         12  -0.0%   28.58       7652.      0.6672E-02   0.000       0.000       240.0       0.000    
     911  0.8363E-01  0.8693E-04 SHELL         12  -0.0%   28.61       7652.      0.6723E-02   0.000       0.000       240.0       0.000    
     912  0.8372E-01  0.8692E-04 SHELL         12  -0.0%   28.65       7652.      0.6776E-02   0.000       0.000       240.0       0.000    
     913  0.8381E-01  0.8691E-04 SHELL         12  -0.0%   28.68       7652.      0.6831E-02   0.000       0.000       240.0       0.000    
     914  0.8389E-01  0.8690E-04 SHELL         12  -0.0%   28.71       7652.      0.6885E-02   0.000       0.000       240.0       0.000    
     915  0.8398E-01  0.8689E-04 SHELL         12  -0.0%   28.75       7652.      0.6938E-02   0.000       0.000       240.0       0.000    
     916  0.8407E-01  0.8688E-04 SHELL         12  -0.0%   28.78       7652.      0.6988E-02   0.000       0.000       240.0       0.000    
     917  0.8416E-01  0.8687E-04 SHELL         12  -0.0%   28.81       7652.      0.7035E-02   0.000       0.000       240.0       0.000    
     918  0.8424E-01  0.8686E-04 SHELL         12  -0.0%   28.85       7652.      0.7076E-02   0.000       0.000       240.0       0.000    
     919  0.8433E-01  0.8685E-04 SHELL         12  -0.0%   28.88       7652.      0.7111E-02   0.000       0.000       240.0       0.000    
     920  0.8442E-01  0.8684E-04 SHELL         12  -0.0%   28.91       7652.      0.7139E-02   0.000       0.000       240.0       0.000    
     921  0.8450E-01  0.8683E-04 SHELL         12  -0.0%   28.95       7652.      0.7161E-02   0.000       0.000       240.0       0.000    
     922  0.8459E-01  0.8682E-04 SHELL         12  -0.0%   28.98       7652.      0.7177E-02   0.000       0.000       240.0       0.000    
     923  0.8468E-01  0.8681E-04 SHELL         12  -0.0%   29.01       7652.      0.7188E-02   0.000       0.000       240.0       0.000    
     924  0.8476E-01  0.8680E-04 SHELL         12  -0.0%   29.05       7652.      0.7192E-02   0.000       0.000       240.0       0.000    
     925  0.8485E-01  0.8679E-04 SHELL         12  -0.0%   29.08       7652.      0.7191E-02   0.000       0.000       240.0       0.000    
     926  0.8494E-01  0.8678E-04 SHELL         12  -0.0%   29.11       7652.      0.7184E-02   0.000       0.000       240.0       0.000    
     927  0.8502E-01  0.8677E-04 SHELL         12  -0.0%   29.15       7652.      0.7172E-02   0.000       0.000       240.0       0.000    
     928  0.8511E-01  0.8676E-04 SHELL         12  -0.0%   29.18       7652.      0.7156E-02   0.000       0.000       240.0       0.000    
     929  0.8520E-01  0.8675E-04 SHELL         12  -0.0%   29.21       7652.      0.7134E-02   0.000       0.000       240.0       0.000    
     930  0.8528E-01  0.8674E-04 SHELL         12  -0.0%   29.25       7652.      0.7109E-02   0.000       0.000       240.0       0.000    
     931  0.8537E-01  0.8673E-04 SHELL         12  -0.0%   29.28       7652.      0.7081E-02   0.000       0.000       240.0       0.000    
     932  0.8546E-01  0.8672E-04 SHELL         12  -0.0%   29.31       7652.      0.7050E-02   0.000       0.000       240.0       0.000    
     933  0.8554E-01  0.8671E-04 SHELL         12  -0.0%   29.35       7652.      0.7017E-02   0.000       0.000       240.0       0.000    
     934  0.8563E-01  0.8670E-04 SHELL         12  -0.0%   29.38       7652.      0.6982E-02   0.000       0.000       240.0       0.000    
   CYCLE    TIME      TIME-STEP  ELEMENT          ERROR  I-ENERGY    K-ENERGY T  K-ENERGY R  EXT-WORK     MAS.ERR     TOTAL MASS  MASS ADDED
     935  0.8572E-01  0.8669E-04 SHELL         12  -0.0%   29.41       7652.      0.6946E-02   0.000       0.000       240.0       0.000    
     936  0.8580E-01  0.8668E-04 SHELL         12  -0.0%   29.45       7652.      0.6909E-02   0.000       0.000       240.0       0.000    
     937  0.8589E-01  0.8667E-04 SHELL         12  -0.0%   29.48       7652.      0.6871E-02   0.000       0.000       240.0       0.000    
     938  0.8598E-01  0.8666E-04 SHELL         12  -0.0%   29.51       7651.      0.6833E-02   0.000       0.000       240.0       0.000    
     939  0.8606E-01  0.8665E-04 SHELL         12  -0.0%   29.55       7651.      0.6794E-02   0.000       0.000       240.0       0.000    
     940  0.8615E-01  0.8664E-04 SHELL         12  -0.0%   29.58       7651.      0.6755E-02   0.000       0.000       240.0       0.000    
     941  0.8624E-01  0.8663E-04 SHELL         12  -0.0%   29.61       7651.      0.6715E-02   0.000       0.000       240.0       0.000    
     942  0.8632E-01  0.8662E-04 SHELL         12  -0.0%   29.65       7651.      0.6674E-02   0.000       0.000       240.0       0.000    
     943  0.8641E-01  0.8661E-04 SHELL         12  -0.0%   29.68       7651.      0.6634E-02   0.000       0.000       240.0       0.000    
     944  0.8650E-01  0.8660E-04 SHELL         12  -0.0%   29.71       7651.      0.6593E-02   0.000       0.000       240.0       0.000    
     945  0.8658E-01  0.8659E-04 SHELL         12  -0.0%   29.75       7651.      0.6553E-02   0.000       0.000       240.0       0.000    
     946  0.8667E-01  0.8658E-04 SHELL         12  -0.0%   29.78       7651.      0.6515E-02   0.000       0.000       240.0       0.000    
     947  0.8676E-01  0.8657E-04 SHELL         12  -0.0%   29.81       7651.      0.6478E-02   0.000       0.000       240.0       0.000    
     948  0.8684E-01  0.8656E-04 SHELL         12  -0.0%   29.85       7651.      0.6444E-02   0.000       0.000       240.0       0.000    
     949  0.8693E-01  0.8655E-04 SHELL         12  -0.0%   29.88       7651.      0.6414E-02   0.000       0.000       240.0       0.000    
     950  0.8702E-01  0.8654E-04 SHELL         12  -0.0%   29.91       7651.      0.6388E-02   0.000       0.000       240.0       0.000    
     951  0.8710E-01  0.8653E-04 SHELL         12  -0.0%   29.95       7651.      0.6367E-02   0.000       0.000       240.0       0.000    
     952  0.8719E-01  0.8652E-04 SHELL         12  -0.0%   29.98       7651.      0.6351E-02   0.000       0.000       240.0       0.000    
     953  0.8728E-01  0.8651E-04 SHELL         12  -0.0%   30.01       7651.      0.6343E-02   0.000       0.000       240.0       0.000    
     954  0.8736E-01  0.8650E-04 SHELL         12  -0.0%   30.05       7651.      0.6341E-02   0.000       0.000       240.0       0.000    
     955  0.8745E-01  0.8649E-04 SHELL         12  -0.0%   30.08       7651.      0.6348E-02   0.000       0.000       240.0       0.000    
     956  0.8754E-01  0.8648E-04 SHELL         12  -0.0%   30.11       7651.      0.6362E-02   0.000       0.000       240.0       0.000    
     957  0.8762E-01  0.8647E-04 SHELL         12  -0.0%   30.15       7651.      0.6384E-02   0.000       0.000       240.0       0.000    
     958  0.8771E-01  0.8646E-04 SHELL         12  -0.0%   30.18       7651.      0.6415E-02   0.000       0.000       240.0       0.000    
     959  0.8780E-01  0.8645E-04 SHELL         12  -0.0%   30.21       7651.      0.6454E-02   0.000       0.000       240.0       0.000    
     960  0.8788E-01  0.8644E-04 SHELL         12  -0.0%   30.25       7651.      0.6501E-02   0.000       0.000       240.0       0.000    
     961  0.8797E-01  0.8643E-04 SHELL         12  -0.0%   30.28       7651.      0.6554E-02   0.000       0.000       240.0       0.000    
     962  0.8805E-01  0.8642E-04 SHELL         12  -0.0%   30.31       7651.      0.6614E-02   0.000       0.000       240.0       0.000    
     963  0.8814E-01  0.8641E-04 SHELL         12  -0.0%   30.35       7651.      0.6678E-02   0.000       0.000       240.0       0.000    
     964  0.8823E-01  0.8640E-04 SHELL         12  -0.0%   30.38       7651.      0.6747E-02   0.000       0.000       240.0       0.000    
     965  0.8831E-01  0.8639E-04 SHELL         12  -0.0%   30.41       7651.      0.6818E-02   0.000       0.000       240.0       0.000    
     966  0.8840E-01  0.8638E-04 SHELL         12  -0.0%   30.45       7651.      0.6890E-02   0.000       0.000       240.0       0.000    
     967  0.8849E-01  0.8637E-04 SHELL         12  -0.0%   30.48       7651.      0.6962E-02   0.000       0.000       240.0       0.000    
     968  0.8857E-01  0.8636E-04 SHELL         12  -0.0%   30.51       7650.      0.7032E-02   0.000       0.000       240.0       0.000    
     969  0.8866E-01  0.8635E-04 SHELL         12  -0.0%   30.55       7650.      0.7098E-02   0.000       0.000       240.0       0.000    
     970  0.8875E-01  0.8634E-04 SHELL         12  -0.0%   30.58       7650.      0.7160E-02   0.000       0.000       240.0       0.000    
     971  0.8883E-01  0.8633E-04 SHELL         12  -0.0%   30.61       7650.      0.7216E-02   0.000       0.000       240.0       0.000    
     972  0.8892E-01  0.8632E-04 SHELL         12  -0.0%   30.65       7650.      0.7265E-02   0.000       0.000       240.0       0.000    
     973  0.8900E-01  0.8631E-04 SHELL         12  -0.0%   30.68       7650.      0.7306E-02   0.000       0.000       240.0       0.000    
     974  0.8909E-01  0.8630E-04 SHELL         12  -0.0%   30.71       7650.      0.7339E-02   0.000       0.000       240.0       0.000    
     975  0.8918E-01  0.8629E-04 SHELL         12  -0.0%   30.75       7650.      0.7363E-02   0.000       0.000       240.0       0.000    
     976  0.8926E-01  0.8628E-04 SHELL         12  -0.0%   30.78       7650.      0.7378E-02   0.000       0.000       240.0       0.000    
     977  0.8935E-01  0.8627E-04 SHELL         12  -0.0%   30.81       7650.      0.7384E-02   0.000       0.000       240.0       0.000    
     978  0.8944E-01  0.8626E-04 SHELL         12  -0.0%   30.85       7650.      0.7381E-02   0.000       0.000       240.0       0.000    
     979  0.8952E-01  0.8625E-04 SHELL         12  -0.0%   30.88       7650.      0.7370E-02   0.000       0.000       240.0       0.000    
     980  0.8961E-01  0.8624E-04 SHELL         12  -0.0%   30.91       7650.      0.7351E-02   0.000       0.000       240.0       0.000    
     981  0.8970E-01  0.8623E-04 SHELL         12  -0.0%   30.95       7650.      0.7325E-02   0.000       0.000       240.0       0.000    
     982  0.8978E-01  0.8622E-04 SHELL         12  -0.0%   30.98       7650.      0.7293E-02   0.000       0.000       240.0       0.000    
     983  0.8987E-01  0.8621E-04 SHELL         12  -0.0%   31.01       7650.      0.7257E-02   0.000       0.000       240.0       0.000    
     984  0.8995E-01  0.8620E-04 SHELL         12  -0.0%   31.05       7650.      0.7215E-02   0.000       0.000       240.0       0.000    
     985  0.9004E-01  0.8619E-04 SHELL         12  -0.0%   31.08       7650.      0.7171E-02   0.000       0.000       240.0       0.000    
     ANIMATION FILE: BOX1BLA010 WRITTEN
     986  0.9013E-01  0.8618E-04 SHELL         12  -0.0%   31.11       7650.      0.7124E-02   0.000       0.000       240.0       0.000    
     987  0.9021E-01  0.8617E-04 SHELL         12  -0.0%   31.15       7650.      0.7076E-02   0.000       0.000       240.0       0.000    
     988  0.9030E-01  0.8616E-04 SHELL         12  -0.0%   31.18       7650.      0.7027E-02   0.000       0.000       240.0       0.000    
     989  0.9038E-01  0.8614E-04 SHELL         12  -0.0%   31.21       7650.      0.6978E-02   0.000       0.000       240.0       0.000    
   CYCLE    TIME      TIME-STEP  ELEMENT          ERROR  I-ENERGY    K-ENERGY T  K-ENERGY R  EXT-WORK     MAS.ERR     TOTAL MASS  MASS ADDED
     990  0.9047E-01  0.8613E-04 SHELL         12  -0.0%   31.25       7650.      0.6929E-02   0.000       0.000       240.0       0.000    
     991  0.9056E-01  0.8612E-04 SHELL         12  -0.0%   31.28       7650.      0.6880E-02   0.000       0.000       240.0       0.000    
     992  0.9064E-01  0.8611E-04 SHELL         12  -0.0%   31.31       7650.      0.6833E-02   0.000       0.000       240.0       0.000    
     993  0.9073E-01  0.8610E-04 SHELL         12  -0.0%   31.35       7650.      0.6786E-02   0.000       0.000       240.0       0.000    
     994  0.9082E-01  0.8609E-04 SHELL         12  -0.0%   31.38       7650.      0.6740E-02   0.000       0.000       240.0       0.000    
     995  0.9090E-01  0.8608E-04 SHELL         12  -0.0%   31.41       7650.      0.6695E-02   0.000       0.000       240.0       0.000    
     996  0.9099E-01  0.8607E-04 SHELL         12  -0.0%   31.45       7650.      0.6651E-02   0.000       0.000       240.0       0.000    
     997  0.9107E-01  0.8606E-04 SHELL         12  -0.0%   31.48       7649.      0.6608E-02   0.000       0.000       240.0       0.000    
     998  0.9116E-01  0.8605E-04 SHELL         12  -0.0%   31.51       7649.      0.6566E-02   0.000       0.000       240.0       0.000    
     999  0.9125E-01  0.8604E-04 SHELL         12  -0.0%   31.55       7649.      0.6525E-02   0.000       0.000       240.0       0.000    
    1000  0.9133E-01  0.8603E-04 SHELL         12  -0.0%   31.58       7649.      0.6486E-02   0.000       0.000       240.0       0.000    
    1001  0.9142E-01  0.8602E-04 SHELL         12  -0.0%   31.61       7649.      0.6449E-02   0.000       0.000       240.0       0.000    
    1002  0.9150E-01  0.8601E-04 SHELL         12  -0.0%   31.65       7649.      0.6415E-02   0.000       0.000       240.0       0.000    
    1003  0.9159E-01  0.8600E-04 SHELL         12  -0.0%   31.68       7649.      0.6384E-02   0.000       0.000       240.0       0.000    
    1004  0.9168E-01  0.8599E-04 SHELL         12  -0.0%   31.71       7649.      0.6357E-02   0.000       0.000       240.0       0.000    
    1005  0.9176E-01  0.8598E-04 SHELL         12  -0.0%   31.75       7649.      0.6336E-02   0.000       0.000       240.0       0.000    
    1006  0.9185E-01  0.8597E-04 SHELL         12  -0.0%   31.78       7649.      0.6320E-02   0.000       0.000       240.0       0.000    
    1007  0.9193E-01  0.8596E-04 SHELL         12  -0.0%   31.81       7649.      0.6311E-02   0.000       0.000       240.0       0.000    
    1008  0.9202E-01  0.8595E-04 SHELL         12  -0.0%   31.85       7649.      0.6309E-02   0.000       0.000       240.0       0.000    
    1009  0.9211E-01  0.8594E-04 SHELL         12  -0.0%   31.88       7649.      0.6315E-02   0.000       0.000       240.0       0.000    
    1010  0.9219E-01  0.8593E-04 SHELL         12  -0.0%   31.91       7649.      0.6330E-02   0.000       0.000       240.0       0.000    
    1011  0.9228E-01  0.8592E-04 SHELL         12  -0.0%   31.95       7649.      0.6354E-02   0.000       0.000       240.0       0.000    
    1012  0.9236E-01  0.8591E-04 SHELL         12  -0.0%   31.98       7649.      0.6387E-02   0.000       0.000       240.0       0.000    
    1013  0.9245E-01  0.8590E-04 SHELL         12  -0.0%   32.01       7649.      0.6428E-02   0.000       0.000       240.0       0.000    
    1014  0.9254E-01  0.8589E-04 SHELL         12  -0.0%   32.05       7649.      0.6478E-02   0.000       0.000       240.0       0.000    
    1015  0.9262E-01  0.8588E-04 SHELL         12  -0.0%   32.08       7649.      0.6535E-02   0.000       0.000       240.0       0.000    
    1016  0.9271E-01  0.8587E-04 SHELL         12  -0.0%   32.11       7649.      0.6598E-02   0.000       0.000       240.0       0.000    
    1017  0.9279E-01  0.8586E-04 SHELL         12  -0.0%   32.14       7649.      0.6666E-02   0.000       0.000       240.0       0.000    
    1018  0.9288E-01  0.8585E-04 SHELL         12  -0.0%   32.18       7649.      0.6738E-02   0.000       0.000       240.0       0.000    
    1019  0.9296E-01  0.8584E-04 SHELL         12  -0.0%   32.21       7649.      0.6812E-02   0.000       0.000       240.0       0.000    
    1020  0.9305E-01  0.8583E-04 SHELL         12  -0.0%   32.24       7649.      0.6886E-02   0.000       0.000       240.0       0.000    
    1021  0.9314E-01  0.8582E-04 SHELL         12  -0.0%   32.28       7649.      0.6959E-02   0.000       0.000       240.0       0.000    
    1022  0.9322E-01  0.8581E-04 SHELL         12  -0.0%   32.31       7649.      0.7028E-02   0.000       0.000       240.0       0.000    
    1023  0.9331E-01  0.8580E-04 SHELL         12  -0.0%   32.34       7649.      0.7092E-02   0.000       0.000       240.0       0.000    
    1024  0.9339E-01  0.8579E-04 SHELL         12  -0.0%   32.38       7649.      0.7150E-02   0.000       0.000       240.0       0.000    
    1025  0.9348E-01  0.8578E-04 SHELL         12  -0.0%   32.41       7649.      0.7199E-02   0.000       0.000       240.0       0.000    
    1026  0.9357E-01  0.8577E-04 SHELL         12  -0.0%   32.44       7649.      0.7240E-02   0.000       0.000       240.0       0.000    
    1027  0.9365E-01  0.8576E-04 SHELL         12  -0.0%   32.48       7648.      0.7271E-02   0.000       0.000       240.0       0.000    
    1028  0.9374E-01  0.8575E-04 SHELL         12  -0.0%   32.51       7648.      0.7292E-02   0.000       0.000       240.0       0.000    
    1029  0.9382E-01  0.8574E-04 SHELL         12  -0.0%   32.54       7648.      0.7302E-02   0.000       0.000       240.0       0.000    
    1030  0.9391E-01  0.8573E-04 SHELL         12  -0.0%   32.58       7648.      0.7302E-02   0.000       0.000       240.0       0.000    
    1031  0.9399E-01  0.8572E-04 SHELL         12  -0.0%   32.61       7648.      0.7293E-02   0.000       0.000       240.0       0.000    
    1032  0.9408E-01  0.8571E-04 SHELL         12  -0.0%   32.64       7648.      0.7275E-02   0.000       0.000       240.0       0.000    
    1033  0.9417E-01  0.8570E-04 SHELL         12  -0.0%   32.68       7648.      0.7249E-02   0.000       0.000       240.0       0.000    
    1034  0.9425E-01  0.8569E-04 SHELL         12  -0.0%   32.71       7648.      0.7216E-02   0.000       0.000       240.0       0.000    
    1035  0.9434E-01  0.8568E-04 SHELL         12  -0.0%   32.74       7648.      0.7178E-02   0.000       0.000       240.0       0.000    
    1036  0.9442E-01  0.8567E-04 SHELL         12  -0.0%   32.78       7648.      0.7136E-02   0.000       0.000       240.0       0.000    
    1037  0.9451E-01  0.8566E-04 SHELL         12  -0.0%   32.81       7648.      0.7091E-02   0.000       0.000       240.0       0.000    
    1038  0.9459E-01  0.8565E-04 SHELL         12  -0.0%   32.84       7648.      0.7045E-02   0.000       0.000       240.0       0.000    
    1039  0.9468E-01  0.8564E-04 SHELL         12  -0.0%   32.88       7648.      0.6999E-02   0.000       0.000       240.0       0.000    
    1040  0.9477E-01  0.8563E-04 SHELL         12  -0.0%   32.91       7648.      0.6954E-02   0.000       0.000       240.0       0.000    
    1041  0.9485E-01  0.8562E-04 SHELL         12  -0.0%   32.94       7648.      0.6911E-02   0.000       0.000       240.0       0.000    
    1042  0.9494E-01  0.8561E-04 SHELL         12  -0.0%   32.98       7648.      0.6871E-02   0.000       0.000       240.0       0.000    
    1043  0.9502E-01  0.8560E-04 SHELL         12  -0.0%   33.01       7648.      0.6833E-02   0.000       0.000       240.0       0.000    
    1044  0.9511E-01  0.8559E-04 SHELL         12  -0.0%   33.04       7648.      0.6798E-02   0.000       0.000       240.0       0.000    
   CYCLE    TIME      TIME-STEP  ELEMENT          ERROR  I-ENERGY    K-ENERGY T  K-ENERGY R  EXT-WORK     MAS.ERR     TOTAL MASS  MASS ADDED
    1045  0.9519E-01  0.8558E-04 SHELL         12  -0.0%   33.08       7648.      0.6767E-02   0.000       0.000       240.0       0.000    
    1046  0.9528E-01  0.8557E-04 SHELL         12  -0.0%   33.11       7648.      0.6738E-02   0.000       0.000       240.0       0.000    
    1047  0.9536E-01  0.8556E-04 SHELL         12  -0.0%   33.14       7648.      0.6711E-02   0.000       0.000       240.0       0.000    
    1048  0.9545E-01  0.8555E-04 SHELL         12  -0.0%   33.18       7648.      0.6687E-02   0.000       0.000       240.0       0.000    
    1049  0.9554E-01  0.8554E-04 SHELL         12  -0.0%   33.21       7648.      0.6664E-02   0.000       0.000       240.0       0.000    
    1050  0.9562E-01  0.8553E-04 SHELL         12  -0.0%   33.24       7648.      0.6643E-02   0.000       0.000       240.0       0.000    
    1051  0.9571E-01  0.8552E-04 SHELL         12  -0.0%   33.28       7648.      0.6622E-02   0.000       0.000       240.0       0.000    
    1052  0.9579E-01  0.8551E-04 SHELL         12  -0.0%   33.31       7648.      0.6601E-02   0.000       0.000       240.0       0.000    
    1053  0.9588E-01  0.8550E-04 SHELL         12  -0.0%   33.34       7648.      0.6580E-02   0.000       0.000       240.0       0.000    
    1054  0.9596E-01  0.8549E-04 SHELL         12  -0.0%   33.37       7648.      0.6560E-02   0.000       0.000       240.0       0.000    
    1055  0.9605E-01  0.8548E-04 SHELL         12  -0.0%   33.41       7648.      0.6540E-02   0.000       0.000       240.0       0.000    
    1056  0.9613E-01  0.8547E-04 SHELL         12  -0.0%   33.44       7648.      0.6521E-02   0.000       0.000       240.0       0.000    
    1057  0.9622E-01  0.8546E-04 SHELL         12  -0.0%   33.47       7647.      0.6503E-02   0.000       0.000       240.0       0.000    
    1058  0.9631E-01  0.8545E-04 SHELL         12  -0.0%   33.51       7647.      0.6487E-02   0.000       0.000       240.0       0.000    
    1059  0.9639E-01  0.8544E-04 SHELL         12  -0.0%   33.54       7647.      0.6473E-02   0.000       0.000       240.0       0.000    
    1060  0.9648E-01  0.8543E-04 SHELL         12  -0.0%   33.57       7647.      0.6464E-02   0.000       0.000       240.0       0.000    
    1061  0.9656E-01  0.8542E-04 SHELL         12  -0.0%   33.61       7647.      0.6458E-02   0.000       0.000       240.0       0.000    
    1062  0.9665E-01  0.8541E-04 SHELL         12  -0.0%   33.64       7647.      0.6458E-02   0.000       0.000       240.0       0.000    
    1063  0.9673E-01  0.8540E-04 SHELL         12  -0.0%   33.67       7647.      0.6465E-02   0.000       0.000       240.0       0.000    
    1064  0.9682E-01  0.8539E-04 SHELL         12  -0.0%   33.71       7647.      0.6478E-02   0.000       0.000       240.0       0.000    
    1065  0.9690E-01  0.8538E-04 SHELL         12  -0.0%   33.74       7647.      0.6498E-02   0.000       0.000       240.0       0.000    
    1066  0.9699E-01  0.8537E-04 SHELL         12  -0.0%   33.77       7647.      0.6526E-02   0.000       0.000       240.0       0.000    
    1067  0.9707E-01  0.8536E-04 SHELL         12  -0.0%   33.81       7647.      0.6561E-02   0.000       0.000       240.0       0.000    
    1068  0.9716E-01  0.8535E-04 SHELL         12  -0.0%   33.84       7647.      0.6603E-02   0.000       0.000       240.0       0.000    
    1069  0.9724E-01  0.8534E-04 SHELL         12  -0.0%   33.87       7647.      0.6651E-02   0.000       0.000       240.0       0.000    
    1070  0.9733E-01  0.8533E-04 SHELL         12  -0.0%   33.91       7647.      0.6705E-02   0.000       0.000       240.0       0.000    
    1071  0.9742E-01  0.8532E-04 SHELL         12  -0.0%   33.94       7647.      0.6763E-02   0.000       0.000       240.0       0.000    
    1072  0.9750E-01  0.8531E-04 SHELL         12  -0.0%   33.97       7647.      0.6824E-02   0.000       0.000       240.0       0.000    
    1073  0.9759E-01  0.8530E-04 SHELL         12  -0.0%   34.01       7647.      0.6887E-02   0.000       0.000       240.0       0.000    
    1074  0.9767E-01  0.8529E-04 SHELL         12  -0.0%   34.04       7647.      0.6949E-02   0.000       0.000       240.0       0.000    
    1075  0.9776E-01  0.8528E-04 SHELL         12  -0.0%   34.07       7647.      0.7009E-02   0.000       0.000       240.0       0.000    
    1076  0.9784E-01  0.8527E-04 SHELL         12  -0.0%   34.11       7647.      0.7066E-02   0.000       0.000       240.0       0.000    
    1077  0.9793E-01  0.8526E-04 SHELL         12  -0.0%   34.14       7647.      0.7118E-02   0.000       0.000       240.0       0.000    
    1078  0.9801E-01  0.8525E-04 SHELL         12  -0.0%   34.17       7647.      0.7164E-02   0.000       0.000       240.0       0.000    
    1079  0.9810E-01  0.8524E-04 SHELL         12  -0.0%   34.20       7647.      0.7203E-02   0.000       0.000       240.0       0.000    
    1080  0.9818E-01  0.8523E-04 SHELL         12  -0.0%   34.24       7647.      0.7234E-02   0.000       0.000       240.0       0.000    
    1081  0.9827E-01  0.8522E-04 SHELL         12  -0.0%   34.27       7647.      0.7256E-02   0.000       0.000       240.0       0.000    
    1082  0.9835E-01  0.8521E-04 SHELL         12  -0.0%   34.30       7647.      0.7268E-02   0.000       0.000       240.0       0.000    
    1083  0.9844E-01  0.8520E-04 SHELL         12  -0.0%   34.34       7647.      0.7273E-02   0.000       0.000       240.0       0.000    
    1084  0.9852E-01  0.8519E-04 SHELL         12  -0.0%   34.37       7647.      0.7268E-02   0.000       0.000       240.0       0.000    
    1085  0.9861E-01  0.8518E-04 SHELL         12  -0.0%   34.40       7647.      0.7256E-02   0.000       0.000       240.0       0.000    
    1086  0.9869E-01  0.8517E-04 SHELL         12  -0.0%   34.44       7646.      0.7236E-02   0.000       0.000       240.0       0.000    
    1087  0.9878E-01  0.8516E-04 SHELL         12  -0.0%   34.47       7646.      0.7210E-02   0.000       0.000       240.0       0.000    
    1088  0.9886E-01  0.8515E-04 SHELL         12  -0.0%   34.50       7646.      0.7180E-02   0.000       0.000       240.0       0.000    
    1089  0.9895E-01  0.8514E-04 SHELL         12  -0.0%   34.54       7646.      0.7146E-02   0.000       0.000       240.0       0.000    
    1090  0.9903E-01  0.8513E-04 SHELL         12  -0.0%   34.57       7646.      0.7109E-02   0.000       0.000       240.0       0.000    
    1091  0.9912E-01  0.8512E-04 SHELL         12  -0.0%   34.60       7646.      0.7071E-02   0.000       0.000       240.0       0.000    
    1092  0.9920E-01  0.8511E-04 SHELL         12  -0.0%   34.64       7646.      0.7033E-02   0.000       0.000       240.0       0.000    
    1093  0.9929E-01  0.8510E-04 SHELL         12  -0.0%   34.67       7646.      0.6996E-02   0.000       0.000       240.0       0.000    
    1094  0.9938E-01  0.8509E-04 SHELL         12  -0.0%   34.70       7646.      0.6960E-02   0.000       0.000       240.0       0.000    
    1095  0.9946E-01  0.8508E-04 SHELL         12  -0.0%   34.74       7646.      0.6928E-02   0.000       0.000       240.0       0.000    
    1096  0.9955E-01  0.8507E-04 SHELL         12  -0.0%   34.77       7646.      0.6898E-02   0.000       0.000       240.0       0.000    
    1097  0.9963E-01  0.8506E-04 SHELL         12  -0.0%   34.80       7646.      0.6872E-02   0.000       0.000       240.0       0.000    
    1098  0.9972E-01  0.8506E-04 SHELL         12  -0.0%   34.83       7646.      0.6849E-02   0.000       0.000       240.0       0.000    
    1099  0.9980E-01  0.8505E-04 SHELL         12  -0.0%   34.87       7646.      0.6829E-02   0.000       0.000       240.0       0.000    
   CYCLE    TIME      TIME-STEP  ELEMENT          ERROR  I-ENERGY    K-ENERGY T  K-ENERGY R  EXT-WORK     MAS.ERR     TOTAL MASS  MASS ADDED
    1100  0.9989E-01  0.8504E-04 SHELL         12  -0.0%   34.90       7646.      0.6813E-02   0.000       0.000       240.0       0.000    
    1101  0.9997E-01  0.8503E-04 SHELL         12  -0.0%   34.93       7646.      0.6799E-02   0.000       0.000       240.0       0.000    

     RESTART FILES: BOX1BL_0001_[0001-0004].rst WRITTEN
     -------------

    1102  0.1001      0.8502E-04 SHELL         12  -0.0%   34.97       7646.      0.6788E-02   0.000       0.000       240.0       0.000    
     ANIMATION FILE: BOX1BLA011 WRITTEN
  
                           ** CPU USER TIME **
  
  
                        ** SUMMARY **
  
 #PROC  ELEMENT   KINCOND   INTEG     IO        T0        ASM       RESOL    
   1   .1492E+00 .5148E-01 .1795E-01 .2053E+00 .4722E-01 .1043E-01 .6295E+00
   2   .1468E+00 .4880E-01 .1666E-01 .1023E+00 .6663E-01 .1018E-01 .6638E+00
   3   .1380E+00 .5864E-01 .1862E-01 .1245E+00 .5331E-01 .1075E-01 .6569E+00
   4   .1341E+00 .5587E-01 .1691E-01 .1392E+00 .5473E-01 .1036E-01 .6700E+00
  
                 ** SPMD COM. TIME **
  
 #PROC  FORCES    RBYFOR    RBYVEL    VEL       TOT       %        
   1   .1973E-01 .4325E-02 .0000E+00 .5800E-02 .2986E-01 .4743E+01
   2   .2835E-01 .4074E-02 .0000E+00 .5322E-02 .3774E-01 .5685E+01
   3   .1387E+00 .8886E-02 .0000E+00 .5619E-02 .1532E+00 .2332E+02
   4   .1487E+00 .1046E-01 .0000E+00 .5345E-02 .1645E+00 .2455E+02
  
 
                   ** CUMULATIVE CPU TIME SUMMARY **
  
 CONTACT SORTING.............: .0000E+00     0.00 % 
 CONTACT FORCES..............: .7661E-02     0.29 % 
 ELEMENT FORCES..............: .5680E+00    21.68 % 
 KINEMATIC COND..............: .2148E+00     8.20 % 
 INTEGRATION.................: .7014E-01     2.68 % 
 ASSEMBLING..................: .4171E-01     1.59 % 
 OTHERS (including I/O)......: .1718E+01    65.56 % 
 TOTAL.......................: .2620E+01   100.00 % 
  
  
                           ** ELAPSED TIME **
  
  
                        ** SUMMARY **
  
 #PROC  ELEMENT   KINCOND   INTEG     IO        T0        ASM       RESOL    
   1   .8498E-01 .2976E-01 .1034E-01 .1254E+00 .2691E-01 .6013E-02 .3712E+00
   2   .8034E-01 .2731E-01 .9383E-02 .5862E-01 .3685E-01 .5674E-02 .3725E+00
   3   .7752E-01 .3279E-01 .1051E-01 .7129E-01 .2996E-01 .5987E-02 .3717E+00
   4   .7385E-01 .3059E-01 .9310E-02 .7842E-01 .2992E-01 .5659E-02 .3726E+00
  
        ELEMENT   KINCOND   INTEG     IO        T0        ASM       RESOL    
 MIN   .7385E-01 .2731E-01 .9310E-02 .5862E-01 .2691E-01 .5659E-02 .3712E+00
 MAX   .8498E-01 .3279E-01 .1051E-01 .1254E+00 .3685E-01 .6013E-02 .3726E+00
 AVG   .7917E-01 .3011E-01 .9885E-02 .8343E-01 .3091E-01 .5833E-02 .3720E+00
  
                 ** SPMD COM. TIME **
  
 #PROC  FORCES    RBYFOR    RBYVEL    VEL       TOT       %        
   1   .1148E-01 .1750E-02 .0000E+00 .3425E-02 .1665E-01 .4487E+01
   2   .1554E-01 .1598E-02 .0000E+00 .3056E-02 .2019E-01 .5421E+01
   3   .7696E-01 .5036E-02 .0000E+00 .3224E-02 .8522E-01 .2292E+02
   4   .8106E-01 .5780E-02 .0000E+00 .3004E-02 .8984E-01 .2412E+02
  
        FORCES    RBYFOR    RBYVEL    VEL       TOT       %        
 MIN   .1148E-01 .1598E-02 .0000E+00 .3004E-02 .1665E-01 .4487E+01
 MAX   .8106E-01 .5780E-02 .0000E+00 .3425E-02 .8984E-01 .2412E+02
 AVG   .4626E-01 .3541E-02 .0000E+00 .3177E-02 .5298E-01 .1424E+02
  
                   ** MEMORY USAGE STATISTICS **
  
 TOTAL MEMORY USED .........................:      228 MB
 MAXIMUM MEMORY PER PROCESSOR...............:       57 MB
 MINIMUM MEMORY PER PROCESSOR...............:       57 MB
 AVERAGE MEMORY PER PROCESSOR...............:       57 MB
  
                   ** DISK USAGE STATISTICS **
  
 TOTAL DISK SPACE USED .....................:          1 MB
 ANIMATION/H3D/TH/OUTP SIZE ................:          0 MB
 RESTART FILE SIZE .........................:          1 MB
  
                   ** COMPUTE TIME INFORMATION **
                        ** CURRENT ENGINE **
  
 EXECUTION STARTED .........................:      2022/11/23  16:21:04
 EXECUTION COMPLETED .......................:      2022/11/23  16:21:04
  
 ELAPSED TIME     =          0.45 s
                          0:00:00
 ESTIMATED SPEEDUP=          5.80



     NORMAL TERMINATION      



     TOTAL NUMBER OF CYCLES  :    1103

  
                   ** COMPUTE RUNTIME INFORMATION SUMMARY **
  
        STARTER RUNTIME =          0.61s (00:00:00)
 # 001   ENGINE RUNTIME =          0.45s (00:00:00)
 ------------------------------ 
 STARTER+ENGINE RUNTIME =          1.06s (00:00:01)
  
