 DMAFNLIN_0001.out
************************************************************************
**                                                                    **
**                                                                    **
**                         OpenRadioss Engine                         **
**                                                                    **
**            Non-linear Finite Element Analysis Software             **
**                                                                    **
**                                                                    **
**                                                                    **
**                Linux 64 bits, GNU compiler, OpenMPI                **
**                                                                    **
**                                                                    **
**                                                                    **
** CommitID: 440deeba848d606665f88afb8302e85b1ecf72bf                 **
************************************************************************
** OpenRadioss Software                                               **
** COPYRIGHT (C) 1986-2022 Altair Engineering, Inc.                   **
** Licensed under GNU Affero General Public License.                  **
** See License file.                                                  **
************************************************************************
 
 NUMBER OF SPMD DOMAINS           4
 NUMBER OF THREADS PER DOMAIN     2
 NUMBER OF HMPP PROCESSES         8
  
 COMPUTATION HARDWARE DESCRIPTION
  
 CPU#  HOSTNAME     CPU TYPE, FREQUENCY AND MEMORY
   1   fr-shady.europe.altair.com   Intel(R) Xeon(R) CPU           X5680  @ 3.33GHz (x86_64), 1596 MHz,  20012 MB RAM,  49126 MB swap
   2   fr-shady.europe.altair.com   Intel(R) Xeon(R) CPU           X5680  @ 3.33GHz (x86_64), 1596 MHz,  20012 MB RAM,  49126 MB swap
   3   fr-shady.europe.altair.com   Intel(R) Xeon(R) CPU           X5680  @ 3.33GHz (x86_64), 1596 MHz,  20012 MB RAM,  49126 MB swap
   4   fr-shady.europe.altair.com   Intel(R) Xeon(R) CPU           X5680  @ 3.33GHz (x86_64), 1596 MHz,  20012 MB RAM,  49126 MB swap
  
************************************************************************


 DMAFNLIND01Sample model                                                         


 FINAL TIME . . . . . . . . . . . . . . . . . . .  0.2010000E-01

 TIME INTERVAL FOR TIME HISTORY PLOTS . . . . . .  0.5000000E-03

 TIME STEP SCALE FACTOR . . . . . . . . . . . . .  0.5000000    

 MINIMUM TIME STEP  . . . . . . . . . . . . . . .   0.000000    


 BRICK TIME STEP SCALE FACTOR . . . . . . . . . .  0.5000000    
 BRICK MINIMUM TIME STEP. . . . . . . . . . . . .   0.000000    
 MIN. TIME STEP FLAG (1:STOP RUN, 2:DELETE BRICK)     1

 QUAD TIME STEP SCALE FACTOR. . . . . . . . . . .  0.5000000    
 QUAD MINIMUM TIME STEP . . . . . . . . . . . . .   0.000000    
 MIN. TIME STEP FLAG (1:STOP RUN, 2:DELETE QUAD).     1

 SHELL TIME STEP SCALE FACTOR . . . . . . . . . .  0.5000000    
 SHELL MINIMUM TIME STEP. . . . . . . . . . . . .   0.000000    
 MIN. TIME FLAG (1:STOP, 2:DELETE, 3:SMALL STRAIN)    2

 TRUSS TIME STEP SCALE FACTOR . . . . . . . . . .  0.5000000    
 TRUSS MINIMUM TIME STEP. . . . . . . . . . . . .   0.000000    
 MIN. TIME FLAG (1:STOP, 2:DELETE). . . . . . . .     0

 BEAM TIME STEP SCALE FACTOR. . . . . . . . . . .  0.5000000    
 BEAM MINIMUM TIME STEP . . . . . . . . . . . . .   0.000000    
 MIN. TIME FLAG (1:STOP, 2:DELETE). . . . . . . .     0

 SPRING TIME STEP SCALE FACTOR. . . . . . . . . .  0.5000000    
 SPRING MINIMUM TIME STEP . . . . . . . . . . . .   0.000000    
 MIN. TIME FLAG (1:STOP, 2:DELETE). . . . . . . .     0

 AIRBAG TIME STEP SCALE FACTOR. . . . . . . . . .  0.5000000    
 AIRBAG MINIMUM TIME STEP . . . . . . . . . . . .   0.000000    
 MIN. TIME FLAG (1:STOP). . . . . . . . . . . . .     0

 CONTACT TIME STEP SCALE FACTOR . . . . . . . . .  0.5000000    
 CONTACT MINIMUM TIME STEP. . . . . . . . . . . .   0.000000    
 MIN. TIME FLAG(1:STOP, 2:REMOVE NODE FROM INTERF)    0

 PRINTOUT CYCLE FREQUENCY . . . . . . . . . . . .  -100

 RESTART CYCLE FREQUENCY. . . . . . . . . . . . .       1000

 MAXIMUM RESTART WRITE BEFORE OVERWRITE . . . . .     0

 INVERS: INPUT DECK VERSION . . . . . . . . . . .  2019
 ITTYP : FLAG FOR TYPE OF T-FILE. . . . . . . . .     4


 TIME FOR FIRST ANIMATION-FILE PLOT . . . . . . .   0.000000    
 TIME INTERVAL FOR ANIMATION-FILE PLOTS . . . . .  0.5000000E-02
 SENSOR FOR ANIMATION-FILE PLOTS. . . . . . . . .          0
 TIME INTERVAL FOR SENSOR ANIMATION-FILE PLOTS. .   0.000000    

 VARIABLE SAVED ON ANIMATION FILES (1: YES) :
      PLASTIC STRAIN. . . . . .     1
      DENSITY     (SOLID ONLY).     0
      SPECIFIC ENERGY . . . . .     1
      HOURGLASS ENERGY. . . . .     0
      TEMPERATURE (SOLID ONLY).     0
      THICKNESS   (SHELL ONLY).     0
      PRESSURE    (SOLID ONLY).     0
      VON MISES . . . . . . . .     1
      TURBULENT ENERGY (FLUID).     0
      TURBULENT VISCOSITY(FLUID)    0
      VORTICITY (FLUID) . . . .     0
 NODAL VALUES SAVED ON ANIMATION FILES (1: YES) :
      PRESSURE. . . . . . . . .     0
      DENSITY . . . . . . . . .     0
      TEMPERATURE . . . . . . .     0
 VECTOR SAVED ON ANIMATION FILES (1: YES) :
      VELOCITY VECTOR . . . . .     0
      DISPLACEMENT VECTOR . . .     0
      ACCELERATION VECTOR . . .     0
      CONTACT FORCES. . . . . .     0
      INTERNAL FORCES . . . . .     0
      EXTERNAL FORCES . . . . .     0
      SECTION RBY RWALL FORCES.     0
      ROTATIONAL VELOCITY VECTOR    0
      CONTACT PRESSURE (VECTORS)    0
 SHELL TENSOR SAVED ON ANIMATION FILES (1: YES) :
      MEMBRANE STRESS . . . . .     0
      BENDING STRESS(MOMENT/T^2)    0
      UPPER LAYER STRESS. . . .     0
      LOWER LAYER STRESS. . . .     0
      MEMBRANE STRAIN . . . . .     0
      CURVATURE . . . . . . . .     0
      UPPER LAYER STRAIN. . . .     0
      LOWER LAYER STRAIN. . . .     0
 NODAL MASS SAVED ON ANIMATION FILES (1: YES) :    0
 KEEP DELETED ELEMENT (1: YES) :    0


 INITIAL TIME STEP. . . . . . . . . . . . . . . .   0.000000    
 MAXIMUM TIME STEP. . . . . . . . . . . . . . . .  0.1000000E+31

 PARALLEL ARITHMETIC ON
 NUMBER OF INTERFACES TO BE ELIMINATED. . . . . .        0

 NUMBER OF SOLID  ELEMENT BLOCKS TO BE ELIMINATED        0

 NUMBER OF QUAD   ELEMENT BLOCKS TO BE ELIMINATED        0

 NUMBER OF SHELL  ELEMENT BLOCKS TO BE ELIMINATED        0

 NUMBER OF TRUSS  ELEMENT BLOCKS TO BE ELIMINATED        0

 NUMBER OF BEAM   ELEMENT BLOCKS TO BE ELIMINATED        0

 NUMBER OF SPRING ELEMENT BLOCKS TO BE ELIMINATED        0

 NUMBER OF SH_3N  ELEMENT BLOCKS TO BE ELIMINATED        0

 NUMBER OF  SPH PARTICLES BLOCKS TO BE ELIMINATED        0

 NUMBER OF RIGID LINKS. . . . . . . . . . . . . .        0

 NUMBER OF NEW BOUNDARY CONDITIONS. . . . . . . .        0

 23/11/2022
   CYCLE    TIME      TIME-STEP  ELEMENT          ERROR  I-ENERGY    K-ENERGY T  K-ENERGY R  EXT-WORK     MAS.ERR     TOTAL MASS  MASS ADDED
       0   0.000      0.4756E-05 SOLID       8001   0.0%   0.000       0.000       0.000       0.000       0.000      0.3000E-05   0.000    
     ANIMATION FILE: DMAFNLINA001 WRITTEN
     100  0.4739E-03  0.4739E-05 SOLID       9001   0.0%   4747.      0.8759       0.000       4747.       0.000      0.3000E-05   0.000    
     200  0.9478E-03  0.4739E-05 SOLID       9001   0.0%  0.1788E+05  0.8777       0.000      0.1788E+05   0.000      0.3000E-05   0.000    
     300  0.1422E-02  0.4739E-05 SOLID       9001   0.0%  0.3760E+05  0.8796       0.000      0.3760E+05   0.000      0.3000E-05   0.000    
     400  0.1896E-02  0.4735E-05 SOLID      11001   0.0%  0.6215E+05  0.8813       0.000      0.6215E+05   0.000      0.3000E-05   0.000    
     500  0.2368E-02  0.4723E-05 SOLID      11001   0.0%  0.9103E+05  0.8827       0.000      0.9103E+05   0.000      0.3000E-05   0.000    
     600  0.2840E-02  0.4708E-05 SOLID      11001   0.0%  0.1239E+06  0.8838       0.000      0.1239E+06   0.000      0.3000E-05   0.000    
     700  0.3310E-02  0.4691E-05 SOLID      11001   0.0%  0.1604E+06  0.8846       0.000      0.1604E+06   0.000      0.3000E-05   0.000    
     800  0.3778E-02  0.4671E-05 SOLID      11001   0.0%  0.2006E+06  0.8853       0.000      0.2006E+06   0.000      0.3000E-05   0.000    
     900  0.4244E-02  0.4649E-05 SOLID      11001   0.0%  0.2442E+06  0.8858       0.000      0.2442E+06   0.000      0.3000E-05   0.000    

     RESTART FILES: DMAFNLIN_0001_[0001-0004].rst WRITTEN
     -------------

    1000  0.4708E-02  0.4624E-05 SOLID      11001   0.0%  0.2912E+06  0.8861       0.000      0.2912E+06   0.000      0.3000E-05   0.000    
     ANIMATION FILE: DMAFNLINA002 WRITTEN
    1100  0.5169E-02  0.4597E-05 SOLID      11001   0.0%  0.3414E+06  0.8864       0.000      0.3414E+06   0.000      0.3000E-05   0.000    
    1200  0.5627E-02  0.4567E-05 SOLID      11001   0.0%  0.3948E+06  0.8866       0.000      0.3948E+06   0.000      0.3000E-05   0.000    
    1300  0.6082E-02  0.4535E-05 SOLID      11001   0.0%  0.4513E+06  0.8867       0.000      0.4513E+06   0.000      0.3000E-05   0.000    
    1400  0.6534E-02  0.4500E-05 SOLID      11001   0.0%  0.5108E+06  0.8868       0.000      0.5108E+06   0.000      0.3000E-05   0.000    
    1500  0.6982E-02  0.4463E-05 SOLID      11001   0.0%  0.5731E+06  0.8869       0.000      0.5731E+06   0.000      0.3000E-05   0.000    
    1600  0.7427E-02  0.4424E-05 SOLID      11001   0.0%  0.6382E+06  0.8870       0.000      0.6382E+06   0.000      0.3000E-05   0.000    
    1700  0.7867E-02  0.4383E-05 SOLID      11001   0.0%  0.7060E+06  0.8870       0.000      0.7060E+06   0.000      0.3000E-05   0.000    
    1800  0.8303E-02  0.4349E-05 SOLID      11001   0.0%  0.7611E+06  0.1459       0.000      0.7611E+06   0.000      0.3000E-05   0.000    
    1900  0.8738E-02  0.4350E-05 SOLID      11001   0.0%  0.7585E+06  0.2041       0.000      0.7585E+06   0.000      0.3000E-05   0.000    

     RESTART FILES: DMAFNLIN_0001_[0001-0004].rst WRITTEN
     -------------

    2000  0.9175E-02  0.4385E-05 SOLID      11001   0.0%  0.7052E+06  0.8760       0.000      0.7052E+06   0.000      0.3000E-05   0.000    
    2100  0.9615E-02  0.4426E-05 SOLID      11001   0.0%  0.6483E+06  0.8750       0.000      0.6483E+06   0.000      0.3000E-05   0.000    
     ANIMATION FILE: DMAFNLINA003 WRITTEN
    2200  0.1006E-01  0.4465E-05 SOLID      11001   0.0%  0.5971E+06  0.8760       0.000      0.5971E+06   0.000      0.3000E-05   0.000    
    2300  0.1051E-01  0.4502E-05 SOLID      11001   0.0%  0.5506E+06  0.8777       0.000      0.5506E+06   0.000      0.3000E-05   0.000    
    2400  0.1096E-01  0.4536E-05 SOLID      11001   0.0%  0.5083E+06  0.8796       0.000      0.5083E+06   0.000      0.3000E-05   0.000    
    2500  0.1142E-01  0.4568E-05 SOLID      11001   0.0%  0.4700E+06  0.8812       0.000      0.4699E+06   0.000      0.3000E-05   0.000    
    2600  0.1187E-01  0.4598E-05 SOLID      11001   0.0%  0.4353E+06  0.8826       0.000      0.4352E+06   0.000      0.3000E-05   0.000    
    2700  0.1233E-01  0.4625E-05 SOLID      11001   0.0%  0.4041E+06  0.8836       0.000      0.4041E+06   0.000      0.3000E-05   0.000    
    2800  0.1280E-01  0.4650E-05 SOLID      11001   0.0%  0.3766E+06  0.8845       0.000      0.3765E+06   0.000      0.3000E-05   0.000    
    2900  0.1326E-01  0.4672E-05 SOLID      11001   0.0%  0.3525E+06  0.8852       0.000      0.3525E+06   0.000      0.3000E-05   0.000    

     RESTART FILES: DMAFNLIN_0001_[0001-0004].rst WRITTEN
     -------------

    3000  0.1373E-01  0.4692E-05 SOLID      11001   0.0%  0.3319E+06  0.8857       0.000      0.3319E+06   0.000      0.3000E-05   0.000    
    3100  0.1420E-01  0.4709E-05 SOLID      11001   0.0%  0.3149E+06  0.8861       0.000      0.3149E+06   0.000      0.3000E-05   0.000    
    3200  0.1467E-01  0.4724E-05 SOLID      11001   0.0%  0.3014E+06  0.8864       0.000      0.3013E+06   0.000      0.3000E-05   0.000    
     ANIMATION FILE: DMAFNLINA004 WRITTEN
    3300  0.1515E-01  0.4736E-05 SOLID      11001   0.0%  0.2914E+06  0.8865       0.000      0.2914E+06   0.000      0.3000E-05   0.000    
    3400  0.1562E-01  0.4745E-05 SOLID      11001   0.0%  0.2851E+06  0.8867       0.000      0.2851E+06   0.000      0.3000E-05   0.000    
    3500  0.1610E-01  0.4752E-05 SOLID      11001   0.0%  0.2825E+06  0.8869       0.000      0.2825E+06   0.000      0.3000E-05   0.000    
    3600  0.1657E-01  0.4755E-05 SOLID      11001   0.0%  0.2849E+06  0.8869       0.000      0.2848E+06   0.000      0.3000E-05   0.000    
    3700  0.1705E-01  0.4723E-05 SOLID      12001   0.0%  0.2927E+06  0.8060       0.000      0.2926E+06   0.000      0.3000E-05   0.000    
    3800  0.1751E-01  0.4478E-05 SOLID      12001   0.0%  0.3011E+06  0.2235       0.000      0.3011E+06   0.000      0.3000E-05   0.000    
    3900  0.1795E-01  0.4386E-05 SOLID      12001   0.0%  0.3044E+06  0.9104E-02   0.000      0.3044E+06   0.000      0.3000E-05   0.000    

     RESTART FILES: DMAFNLIN_0001_[0001-0004].rst WRITTEN
     -------------

    4000  0.1839E-01  0.4385E-05 SOLID      12001   0.0%  0.3045E+06  0.3773E-02   0.000      0.3045E+06   0.000      0.3000E-05   0.000    
    4100  0.1883E-01  0.4385E-05 SOLID      12001   0.0%  0.3045E+06  0.2095E-02   0.000      0.3045E+06   0.000      0.3000E-05   0.000    
    4200  0.1926E-01  0.4385E-05 SOLID      12001   0.0%  0.3045E+06  0.1163E-02   0.000      0.3045E+06   0.000      0.3000E-05   0.000    
    4300  0.1970E-01  0.4385E-05 SOLID      12001   0.0%  0.3045E+06  0.6460E-03   0.000      0.3045E+06   0.000      0.3000E-05   0.000    
     ANIMATION FILE: DMAFNLINA005 WRITTEN

     RESTART FILES: DMAFNLIN_0001_[0001-0004].rst WRITTEN
     -------------

  
                           ** CPU USER TIME **
  
  
                        ** SUMMARY **
  
 #PROC  ELEMENT   KINCOND   INTEG     IO        T0        ASM       RESOL    
   1   .7006E+00 .1634E+00 .6713E-01 .2821E+00 .2940E+00 .4487E-01 .1852E+01
   2   .6595E-01 .6956E-01 .5664E-01 .1589E+00 .1166E+01 .3197E-01 .1907E+01
   3   .6619E-01 .7189E-01 .6064E-01 .1621E+00 .1129E+01 .3315E-01 .1894E+01
   4   .6539E-01 .7023E-01 .5889E-01 .1557E+00 .1163E+01 .3182E-01 .1903E+01
  
                 ** SPMD COM. TIME **
  
 #PROC  FORCES    RBYFOR    RBYVEL    VEL       TOT       %        
   1   .2141E-01 .0000E+00 .0000E+00 .2035E-01 .4176E-01 .2255E+01
   2   .1795E-01 .0000E+00 .0000E+00 .1966E-01 .3761E-01 .1972E+01
   3   .1892E-01 .0000E+00 .0000E+00 .1899E-01 .3791E-01 .2001E+01
   4   .1784E-01 .0000E+00 .0000E+00 .1918E-01 .3702E-01 .1945E+01
  
 
                   ** CUMULATIVE CPU TIME SUMMARY **
  
 CONTACT SORTING.............: .0000E+00     0.00 % 
 CONTACT FORCES..............: .2749E-01     0.36 % 
 ELEMENT FORCES..............: .8982E+00    11.89 % 
 KINEMATIC COND..............: .3751E+00     4.96 % 
 INTEGRATION.................: .2433E+00     3.22 % 
 ASSEMBLING..................: .1418E+00     1.88 % 
 OTHERS (including I/O)......: .5871E+01    77.69 % 
 TOTAL.......................: .7557E+01   100.00 % 
  
  
                           ** ELAPSED TIME **
  
  
                        ** SUMMARY **
  
 #PROC  ELEMENT   KINCOND   INTEG     IO        T0        ASM       RESOL    
   1   .4160E+00 .9675E-01 .3926E-01 .1777E+00 .1732E+00 .2636E-01 .1099E+01
   2   .3850E-01 .3988E-01 .3271E-01 .9404E-01 .6714E+00 .1869E-01 .1100E+01
   3   .3901E-01 .4217E-01 .3531E-01 .9703E-01 .6541E+00 .1945E-01 .1100E+01
   4   .3803E-01 .4102E-01 .3392E-01 .9293E-01 .6706E+00 .1854E-01 .1100E+01
  
        ELEMENT   KINCOND   INTEG     IO        T0        ASM       RESOL    
 MIN   .3803E-01 .3988E-01 .3271E-01 .9293E-01 .1732E+00 .1854E-01 .1099E+01
 MAX   .4160E+00 .9675E-01 .3926E-01 .1777E+00 .6714E+00 .2636E-01 .1100E+01
 AVG   .1329E+00 .5495E-01 .3530E-01 .1154E+00 .5423E+00 .2076E-01 .1100E+01
  
                 ** SPMD COM. TIME **
  
 #PROC  FORCES    RBYFOR    RBYVEL    VEL       TOT       %        
   1   .1250E-01 .0000E+00 .0000E+00 .1212E-01 .2462E-01 .2240E+01
   2   .1046E-01 .0000E+00 .0000E+00 .1149E-01 .2195E-01 .1995E+01
   3   .1116E-01 .0000E+00 .0000E+00 .1125E-01 .2241E-01 .2038E+01
   4   .1039E-01 .0000E+00 .0000E+00 .1118E-01 .2158E-01 .1961E+01
  
        FORCES    RBYFOR    RBYVEL    VEL       TOT       %        
 MIN   .1039E-01 .0000E+00 .0000E+00 .1118E-01 .2158E-01 .1961E+01
 MAX   .1250E-01 .0000E+00 .0000E+00 .1212E-01 .2462E-01 .2240E+01
 AVG   .1113E-01 .0000E+00 .0000E+00 .1151E-01 .2264E-01 .2059E+01
  
                   ** MEMORY USAGE STATISTICS **
  
 TOTAL MEMORY USED .........................:      229 MB
 MAXIMUM MEMORY PER PROCESSOR...............:       58 MB
 MINIMUM MEMORY PER PROCESSOR...............:       57 MB
 AVERAGE MEMORY PER PROCESSOR...............:       57 MB
  
                   ** DISK USAGE STATISTICS **
  
 TOTAL DISK SPACE USED .....................:          1 MB
 ANIMATION/H3D/TH/OUTP SIZE ................:          0 MB
 RESTART FILE SIZE .........................:          1 MB
  
                   ** COMPUTE TIME INFORMATION **
                        ** CURRENT ENGINE **
  
 EXECUTION STARTED .........................:      2022/11/23  16:21:59
 EXECUTION COMPLETED .......................:      2022/11/23  16:22:00
  
 ELAPSED TIME     =          1.20 s
                          0:00:01
 ESTIMATED SPEEDUP=          6.31



     NORMAL TERMINATION      



     TOTAL NUMBER OF CYCLES  :    4391

  
                   ** COMPUTE RUNTIME INFORMATION SUMMARY **
  
        STARTER RUNTIME =          0.64s (00:00:00)
 # 001   ENGINE RUNTIME =          1.20s (00:00:01)
 ------------------------------ 
 STARTER+ENGINE RUNTIME =          1.84s (00:00:01)
  
