 BOULE1V5_0001.out
************************************************************************
**                                                                    **
**                                                                    **
**                         OpenRadioss Engine                         **
**                                                                    **
**            Non-linear Finite Element Analysis Software             **
**                                                                    **
**                                                                    **
**                                                                    **
**                Linux 64 bits, GNU compiler, OpenMPI                **
**                                                                    **
**                                                                    **
**                                                                    **
** CommitID: 440deeba848d606665f88afb8302e85b1ecf72bf                 **
************************************************************************
** OpenRadioss Software                                               **
** COPYRIGHT (C) 1986-2022 Altair Engineering, Inc.                   **
** Licensed under GNU Affero General Public License.                  **
** See License file.                                                  **
************************************************************************
 
 NUMBER OF SPMD DOMAINS           4
 NUMBER OF THREADS PER DOMAIN     2
 NUMBER OF HMPP PROCESSES         8
  
 COMPUTATION HARDWARE DESCRIPTION
  
 CPU#  HOSTNAME     CPU TYPE, FREQUENCY AND MEMORY
   1   fr-shady.europe.altair.com   Intel(R) Xeon(R) CPU           X5680  @ 3.33GHz (x86_64), 1596 MHz,  20012 MB RAM,  49126 MB swap
   2   fr-shady.europe.altair.com   Intel(R) Xeon(R) CPU           X5680  @ 3.33GHz (x86_64), 1596 MHz,  20012 MB RAM,  49126 MB swap
   3   fr-shady.europe.altair.com   Intel(R) Xeon(R) CPU           X5680  @ 3.33GHz (x86_64), 1596 MHz,  20012 MB RAM,  49126 MB swap
   4   fr-shady.europe.altair.com   Intel(R) Xeon(R) CPU           X5680  @ 3.33GHz (x86_64), 1596 MHz,  20012 MB RAM,  49126 MB swap
  
************************************************************************


 BOULE1V5D01                                                                     


 FINAL TIME . . . . . . . . . . . . . . . . . . .  0.2500000E-02

 TIME INTERVAL FOR TIME HISTORY PLOTS . . . . . .  0.1000000E-02

 TIME STEP SCALE FACTOR . . . . . . . . . . . . .  0.9000000    

 MINIMUM TIME STEP  . . . . . . . . . . . . . . .   0.000000    


 BRICK TIME STEP SCALE FACTOR . . . . . . . . . .  0.9000000    
 BRICK MINIMUM TIME STEP. . . . . . . . . . . . .   0.000000    
 MIN. TIME STEP FLAG (1:STOP RUN, 2:DELETE BRICK)     1

 QUAD TIME STEP SCALE FACTOR. . . . . . . . . . .  0.9000000    
 QUAD MINIMUM TIME STEP . . . . . . . . . . . . .   0.000000    
 MIN. TIME STEP FLAG (1:STOP RUN, 2:DELETE QUAD).     1

 SHELL TIME STEP SCALE FACTOR . . . . . . . . . .  0.9000000    
 SHELL MINIMUM TIME STEP. . . . . . . . . . . . .   0.000000    
 MIN. TIME FLAG (1:STOP, 2:DELETE, 3:SMALL STRAIN)    2

 TRUSS TIME STEP SCALE FACTOR . . . . . . . . . .  0.9000000    
 TRUSS MINIMUM TIME STEP. . . . . . . . . . . . .   0.000000    
 MIN. TIME FLAG (1:STOP, 2:DELETE). . . . . . . .     0

 BEAM TIME STEP SCALE FACTOR. . . . . . . . . . .  0.9000000    
 BEAM MINIMUM TIME STEP . . . . . . . . . . . . .   0.000000    
 MIN. TIME FLAG (1:STOP, 2:DELETE). . . . . . . .     0

 SPRING TIME STEP SCALE FACTOR. . . . . . . . . .  0.9000000    
 SPRING MINIMUM TIME STEP . . . . . . . . . . . .   0.000000    
 MIN. TIME FLAG (1:STOP, 2:DELETE). . . . . . . .     0

 AIRBAG TIME STEP SCALE FACTOR. . . . . . . . . .  0.9000000    
 AIRBAG MINIMUM TIME STEP . . . . . . . . . . . .   0.000000    
 MIN. TIME FLAG (1:STOP). . . . . . . . . . . . .     0

 CONTACT TIME STEP SCALE FACTOR . . . . . . . . .  0.6700000    
 CONTACT MINIMUM TIME STEP. . . . . . . . . . . .  0.6000000E-04
 MIN. TIME FLAG(1:STOP, 2:REMOVE NODE FROM INTERF)    2

 PRINTOUT CYCLE FREQUENCY . . . . . . . . . . . .    -1

 RESTART CYCLE FREQUENCY. . . . . . . . . . . . .   10000000

 MAXIMUM RESTART WRITE BEFORE OVERWRITE . . . . .     0

 INVERS: INPUT DECK VERSION . . . . . . . . . . .   101
 ITTYP : FLAG FOR TYPE OF T-FILE. . . . . . . . .     4


 TIME FOR FIRST ANIMATION-FILE PLOT . . . . . . .   0.000000    
 TIME INTERVAL FOR ANIMATION-FILE PLOTS . . . . .  0.5000000E-01
 SENSOR FOR ANIMATION-FILE PLOTS. . . . . . . . .          0
 TIME INTERVAL FOR SENSOR ANIMATION-FILE PLOTS. .   0.000000    

 VARIABLE SAVED ON ANIMATION FILES (1: YES) :
      PLASTIC STRAIN. . . . . .     0
      DENSITY     (SOLID ONLY).     0
      SPECIFIC ENERGY . . . . .     0
      HOURGLASS ENERGY. . . . .     0
      TEMPERATURE (SOLID ONLY).     0
      THICKNESS   (SHELL ONLY).     0
      PRESSURE    (SOLID ONLY).     0
      VON MISES . . . . . . . .     0
      TURBULENT ENERGY (FLUID).     0
      TURBULENT VISCOSITY(FLUID)    0
      VORTICITY (FLUID) . . . .     0
 NODAL VALUES SAVED ON ANIMATION FILES (1: YES) :
      PRESSURE. . . . . . . . .     0
      DENSITY . . . . . . . . .     0
      TEMPERATURE . . . . . . .     0
 VECTOR SAVED ON ANIMATION FILES (1: YES) :
      VELOCITY VECTOR . . . . .     0
      DISPLACEMENT VECTOR . . .     0
      ACCELERATION VECTOR . . .     0
      CONTACT FORCES. . . . . .     0
      INTERNAL FORCES . . . . .     0
      EXTERNAL FORCES . . . . .     0
      SECTION RBY RWALL FORCES.     0
      ROTATIONAL VELOCITY VECTOR    0
      CONTACT PRESSURE (VECTORS)    0
 SHELL TENSOR SAVED ON ANIMATION FILES (1: YES) :
      MEMBRANE STRESS . . . . .     0
      BENDING STRESS(MOMENT/T^2)    0
      UPPER LAYER STRESS. . . .     0
      LOWER LAYER STRESS. . . .     0
      MEMBRANE STRAIN . . . . .     0
      CURVATURE . . . . . . . .     0
      UPPER LAYER STRAIN. . . .     0
      LOWER LAYER STRAIN. . . .     0
 NODAL MASS SAVED ON ANIMATION FILES (1: YES) :    0
 KEEP DELETED ELEMENT (1: YES) :    0


 INITIAL TIME STEP. . . . . . . . . . . . . . . .   0.000000    
 MAXIMUM TIME STEP. . . . . . . . . . . . . . . .  0.1000000E+31

 PARALLEL ARITHMETIC ON
 NUMBER OF INTERFACES TO BE ELIMINATED. . . . . .        0

 NUMBER OF SOLID  ELEMENT BLOCKS TO BE ELIMINATED        0

 NUMBER OF QUAD   ELEMENT BLOCKS TO BE ELIMINATED        0

 NUMBER OF SHELL  ELEMENT BLOCKS TO BE ELIMINATED        0

 NUMBER OF TRUSS  ELEMENT BLOCKS TO BE ELIMINATED        0

 NUMBER OF BEAM   ELEMENT BLOCKS TO BE ELIMINATED        0

 NUMBER OF SPRING ELEMENT BLOCKS TO BE ELIMINATED        0

 NUMBER OF SH_3N  ELEMENT BLOCKS TO BE ELIMINATED        0

 NUMBER OF  SPH PARTICLES BLOCKS TO BE ELIMINATED        0

 NUMBER OF RIGID LINKS. . . . . . . . . . . . . .        0

 NUMBER OF NEW BOUNDARY CONDITIONS. . . . . . . .        0

 23/11/2022
   CYCLE    TIME      TIME-STEP  ELEMENT          ERROR  I-ENERGY    K-ENERGY T  K-ENERGY R  EXT-WORK     MAS.ERR     TOTAL MASS  MASS ADDED
       0   0.000      0.6330E-04 SHELL      10026   0.0%   0.000      0.4131E+05   0.000       0.000       0.000      0.4885       0.000    
     ANIMATION FILE: BOULE1V5A001 WRITTEN
       1  0.6330E-04  0.6330E-04 SHELL      10026   0.0%   0.000      0.4131E+05   0.000       0.000       0.000      0.4885       0.000    
       2  0.1266E-03  0.6330E-04 SHELL      10026   0.0%   0.000      0.4131E+05   0.000       0.000       0.000      0.4885       0.000    
       3  0.1899E-03  0.6330E-04 SHELL      10026   0.0%   0.000      0.4131E+05   0.000       0.000       0.000      0.4885       0.000    
       4  0.2532E-03  0.6330E-04 SHELL      10026   0.0%   0.000      0.4131E+05   0.000       0.000       0.000      0.4885       0.000    
       5  0.3165E-03  0.6330E-04 SHELL      10026   0.0%   0.000      0.4131E+05   0.000       0.000       0.000      0.4885       0.000    
       6  0.3798E-03  0.6330E-04 SHELL      10026   0.0%   0.000      0.4131E+05   0.000       0.000       0.000      0.4885       0.000    
       7  0.4431E-03  0.6330E-04 SHELL      10026   0.0%   0.000      0.4131E+05   0.000       0.000       0.000      0.4885       0.000    
       8  0.5064E-03  0.6330E-04 SHELL      10026   0.0%   0.000      0.4131E+05   0.000       0.000       0.000      0.4885       0.000    
       9  0.5697E-03  0.6330E-04 SHELL      10026   0.0%   0.000      0.4131E+05   0.000       0.000       0.000      0.4885       0.000    
      10  0.6330E-03  0.6330E-04 SHELL      10026   0.0%   0.000      0.4131E+05   0.000       0.000       0.000      0.4885       0.000    
      11  0.6963E-03  0.6330E-04 SHELL      10026   0.0%   0.000      0.4131E+05   0.000       0.000       0.000      0.4885       0.000    
      12  0.7596E-03  0.6330E-04 SHELL      10026   0.0%   0.000      0.4131E+05   0.000       0.000       0.000      0.4885       0.000    
      13  0.8229E-03  0.6330E-04 SHELL      10026   0.0%   0.000      0.4131E+05   0.000       0.000       0.000      0.4885       0.000    
      14  0.8862E-03  0.6330E-04 SHELL      10026   0.0%   0.000      0.4131E+05   0.000       0.000       0.000      0.4885       0.000    
      15  0.9495E-03  0.6330E-04 SHELL      10026   0.0%   0.000      0.4131E+05   0.000       0.000       0.000      0.4885       0.000    
      16  0.1013E-02  0.6330E-04 SHELL      10026   0.0%   0.000      0.4131E+05   0.000       0.000       0.000      0.4885       0.000    
      17  0.1076E-02  0.6330E-04 SHELL      10026   0.0%   0.000      0.4131E+05   0.000       0.000       0.000      0.4885       0.000    
      18  0.1139E-02  0.6330E-04 SHELL      10026   0.0%   0.000      0.4131E+05   0.000       0.000       0.000      0.4885       0.000    
      19  0.1203E-02  0.6330E-04 SHELL      10026   0.0%   0.000      0.4131E+05   0.000       0.000       0.000      0.4885       0.000    
      20  0.1266E-02  0.6330E-04 SHELL      10026   0.0%   0.000      0.4131E+05   0.000       0.000       0.000      0.4885       0.000    
      21  0.1329E-02  0.6330E-04 SHELL      10026   0.0%   0.000      0.4131E+05   0.000       0.000       0.000      0.4885       0.000    
      22  0.1393E-02  0.6330E-04 SHELL      10026   0.0%   0.000      0.4131E+05   0.000       0.000       0.000      0.4885       0.000    
      23  0.1456E-02  0.6330E-04 SHELL      10026   0.0%   0.000      0.4131E+05   0.000       0.000       0.000      0.4885       0.000    
      24  0.1519E-02  0.6330E-04 SHELL      10026   0.0%   0.000      0.4131E+05   0.000       0.000       0.000      0.4885       0.000    
      25  0.1583E-02  0.6330E-04 SHELL      10026   0.0%   0.000      0.4131E+05   0.000       0.000       0.000      0.4885       0.000    
      26  0.1646E-02  0.6330E-04 SHELL      10026   0.0%   0.000      0.4131E+05   0.000       0.000       0.000      0.4885       0.000    
      27  0.1709E-02  0.6330E-04 SHELL      10026   0.0%   0.000      0.4131E+05   0.000       0.000       0.000      0.4885       0.000    
      28  0.1772E-02  0.6330E-04 SHELL      10026   0.0%   0.000      0.4131E+05   0.000       0.000       0.000      0.4885       0.000    
      29  0.1836E-02  0.6330E-04 SHELL      10026   0.0%   0.000      0.4131E+05   0.000       0.000       0.000      0.4885       0.000    
      30  0.1899E-02  0.6330E-04 SHELL      10026   0.0%   0.000      0.4131E+05   0.000       0.000       0.000      0.4885       0.000    
      31  0.1962E-02  0.6330E-04 SHELL      10026   0.0%   0.000      0.4131E+05   0.000       0.000       0.000      0.4885       0.000    
      32  0.2026E-02  0.6330E-04 SHELL      10026   0.0%   0.000      0.4131E+05   0.000       0.000       0.000      0.4885       0.000    
      33  0.2089E-02  0.6330E-04 SHELL      10026   0.0%   0.000      0.4131E+05   0.000       0.000       0.000      0.4885       0.000    
      34  0.2152E-02  0.6330E-04 SHELL      10026  -0.2%   0.000      0.4123E+05   0.000       0.000       0.000      0.4885       0.000    
      35  0.2216E-02  0.6330E-04 SHELL      10026  -0.8%   3.052      0.4098E+05  0.3861E-01   0.000       0.000      0.4885       0.000    
 **WARNING MINIMUM TIME STEP   0.3750E-04 IN INTERFACE          1(DTMIN=  0.6000E-04)
   REMOVE SECONDARY NODE       1017 FROM INTERFACE          1
      36  0.2279E-02  0.6000E-04 INTER          1  -1.5%   32.81      0.4067E+05   1.060       0.000       0.000      0.4885       0.000    
      37  0.2339E-02  0.6330E-04 SHELL      10026  -1.7%   122.6      0.4049E+05   7.975       0.000       0.000      0.4885       0.000    
 **WARNING MINIMUM TIME STEP   0.4834E-04 IN INTERFACE          1(DTMIN=  0.6000E-04)
   REMOVE SECONDARY NODE       1016 FROM INTERFACE          1
      38  0.2402E-02  0.6000E-04 INTER          1  -1.5%   230.0      0.4042E+05   33.34       0.000       0.000      0.4885       0.000    
 **WARNING MINIMUM TIME STEP   0.3751E-04 IN INTERFACE          1(DTMIN=  0.6000E-04)
   REMOVE SECONDARY NODE       1009 FROM INTERFACE          1
 **WARNING MINIMUM TIME STEP   0.3751E-04 IN INTERFACE          1(DTMIN=  0.6000E-04)
   REMOVE SECONDARY NODE       1025 FROM INTERFACE          1
      39  0.2462E-02  0.6000E-04 INTER          1  -1.7%   289.2      0.4023E+05   82.81       0.000       0.000      0.4885       0.000    

     RESTART FILES: BOULE1V5_0001_[0001-0004].rst WRITTEN
     -------------

  
                           ** CPU USER TIME **
  
  
                        ** SUMMARY **
  
 #PROC  CONTSORT  CONTFOR   ELEMENT   KINCOND   INTEG     IO        T0        ASM       RESOL    
   1   .7750E-02 .9270E-03 .3480E-02 .1927E-02 .8500E-03 .1017E-01 .3188E-02 .8490E-03 .5124E-01
   2   .1231E-01 .6020E-03 .2716E-02 .3345E-02 .6500E-03 .7191E-02 .3970E-02 .4349E-03 .5836E-01
   3   .1082E-01 .2040E-02 .3493E-02 .2159E-02 .8980E-03 .7382E-02 .4403E-02 .5670E-03 .5327E-01
   4   .9170E-02 .7490E-03 .2564E-02 .2963E-02 .6570E-03 .6844E-02 .3700E-02 .4080E-03 .5138E-01
  
                 ** SPMD COM. TIME **
  
 #PROC  FORCES    RBYFOR    RBYVEL    VEL       TOT       %        
   1   .3201E-02 .0000E+00 .0000E+00 .6300E-03 .3831E-02 .7477E+01
   2   .5312E-02 .0000E+00 .0000E+00 .3560E-03 .5668E-02 .9711E+01
   3   .2460E-02 .0000E+00 .0000E+00 .1520E-02 .3980E-02 .7472E+01
   4   .4653E-02 .0000E+00 .0000E+00 .2708E-02 .7361E-02 .1433E+02
  
 
                   ** CUMULATIVE CPU TIME SUMMARY **
  
 CONTACT SORTING.............: .4005E-01    18.69 % 
 CONTACT FORCES..............: .4318E-02     2.02 % 
 ELEMENT FORCES..............: .1225E-01     5.72 % 
 KINEMATIC COND..............: .1039E-01     4.85 % 
 INTEGRATION.................: .3055E-02     1.43 % 
 ASSEMBLING..................: .2259E-02     1.05 % 
 OTHERS (including I/O)......: .1419E+00    66.24 % 
 TOTAL.......................: .2142E+00   100.00 % 
  
  
                           ** ELAPSED TIME **
  
  
                        ** SUMMARY **
  
 #PROC  CONTSORT  CONTFOR   ELEMENT   KINCOND   INTEG     IO        T0        ASM       RESOL    
   1   .4493E-02 .6108E-03 .2289E-02 .1253E-02 .5219E-03 .7228E-02 .2048E-02 .6488E-03 .3830E-01
   2   .7076E-02 .3883E-03 .1841E-02 .1985E-02 .4090E-03 .4594E-02 .2481E-02 .2675E-03 .3946E-01
   3   .6310E-02 .1319E-02 .2060E-02 .1341E-02 .5476E-03 .4595E-02 .2631E-02 .3265E-03 .3973E-01
   4   .5618E-02 .4813E-03 .1846E-02 .1985E-02 .4386E-03 .4601E-02 .2435E-02 .2643E-03 .3815E-01
  
        CONTSORT  CONTFOR   ELEMENT   KINCOND   INTEG     IO        T0        ASM       RESOL    
 MIN   .4493E-02 .3883E-03 .1841E-02 .1253E-02 .4090E-03 .4594E-02 .2048E-02 .2643E-03 .3815E-01
 MAX   .7076E-02 .1319E-02 .2289E-02 .1985E-02 .5476E-03 .7228E-02 .2631E-02 .6488E-03 .3973E-01
 AVG   .5874E-02 .6999E-03 .2009E-02 .1641E-02 .4793E-03 .5255E-02 .2399E-02 .3768E-03 .3891E-01
  
                 ** SPMD COM. TIME **
  
 #PROC  FORCES    RBYFOR    RBYVEL    VEL       TOT       %        
   1   .2007E-02 .0000E+00 .0000E+00 .3920E-03 .2399E-02 .6263E+01
   2   .3006E-02 .0000E+00 .0000E+00 .2194E-03 .3225E-02 .8175E+01
   3   .1465E-02 .0000E+00 .0000E+00 .9840E-03 .2448E-02 .6163E+01
   4   .2895E-02 .0000E+00 .0000E+00 .1753E-02 .4647E-02 .1218E+02
  
        FORCES    RBYFOR    RBYVEL    VEL       TOT       %        
 MIN   .1465E-02 .0000E+00 .0000E+00 .2194E-03 .2399E-02 .6163E+01
 MAX   .3006E-02 .0000E+00 .0000E+00 .1753E-02 .4647E-02 .1218E+02
 AVG   .2343E-02 .0000E+00 .0000E+00 .8370E-03 .3180E-02 .8196E+01
  
                   ** MEMORY USAGE STATISTICS **
  
 TOTAL MEMORY USED .........................:      230 MB
 MAXIMUM MEMORY PER PROCESSOR...............:       58 MB
 MINIMUM MEMORY PER PROCESSOR...............:       57 MB
 AVERAGE MEMORY PER PROCESSOR...............:       57 MB
  
                   ** DISK USAGE STATISTICS **
  
 TOTAL DISK SPACE USED .....................:          1 MB
 ANIMATION/H3D/TH/OUTP SIZE ................:          0 MB
 RESTART FILE SIZE .........................:          1 MB
  
                   ** COMPUTE TIME INFORMATION **
                        ** CURRENT ENGINE **
  
 EXECUTION STARTED .........................:      2022/11/23  16:25:09
 EXECUTION COMPLETED .......................:      2022/11/23  16:25:09
  
 ELAPSED TIME     =          0.14 s
                          0:00:00
 ESTIMATED SPEEDUP=          1.52



     NORMAL TERMINATION      



     TOTAL NUMBER OF CYCLES  :      40

  
                   ** COMPUTE RUNTIME INFORMATION SUMMARY **
  
        STARTER RUNTIME =          0.66s (00:00:00)
 # 001   ENGINE RUNTIME =          0.14s (00:00:00)
 ------------------------------ 
 STARTER+ENGINE RUNTIME =          0.80s (00:00:00)
  
