 BOULE1V5_0001.out
************************************************************************
**                                                                    **
**                                                                    **
**                         OpenRadioss Engine                         **
**                                                                    **
**            Non-linear Finite Element Analysis Software             **
**                                                                    **
**                                                                    **
**                                                                    **
**                Linux 64 bits, GNU compiler, OpenMPI                **
**                                                                    **
**                                                                    **
**                                                                    **
** CommitID: 440deeba848d606665f88afb8302e85b1ecf72bf                 **
************************************************************************
** OpenRadioss Software                                               **
** COPYRIGHT (C) 1986-2022 Altair Engineering, Inc.                   **
** Licensed under GNU Affero General Public License.                  **
** See License file.                                                  **
************************************************************************
 
 NUMBER OF SPMD DOMAINS           4
 NUMBER OF THREADS PER DOMAIN     2
 NUMBER OF HMPP PROCESSES         8
  
 COMPUTATION HARDWARE DESCRIPTION
  
 CPU#  HOSTNAME     CPU TYPE, FREQUENCY AND MEMORY
   1   fr-shady.europe.altair.com   Intel(R) Xeon(R) CPU           X5680  @ 3.33GHz (x86_64), 1596 MHz,  20012 MB RAM,  49126 MB swap
   2   fr-shady.europe.altair.com   Intel(R) Xeon(R) CPU           X5680  @ 3.33GHz (x86_64), 1596 MHz,  20012 MB RAM,  49126 MB swap
   3   fr-shady.europe.altair.com   Intel(R) Xeon(R) CPU           X5680  @ 3.33GHz (x86_64), 1596 MHz,  20012 MB RAM,  49126 MB swap
   4   fr-shady.europe.altair.com   Intel(R) Xeon(R) CPU           X5680  @ 3.33GHz (x86_64), 1596 MHz,  20012 MB RAM,  49126 MB swap
  
************************************************************************


 BOULE1V5D01                                                                     


 FINAL TIME . . . . . . . . . . . . . . . . . . .  0.5010000    

 TIME INTERVAL FOR TIME HISTORY PLOTS . . . . . .  0.1000000E-02

 TIME STEP SCALE FACTOR . . . . . . . . . . . . .  0.9000000    

 MINIMUM TIME STEP  . . . . . . . . . . . . . . .   0.000000    


 BRICK TIME STEP SCALE FACTOR . . . . . . . . . .  0.9000000    
 BRICK MINIMUM TIME STEP. . . . . . . . . . . . .   0.000000    
 MIN. TIME STEP FLAG (1:STOP RUN, 2:DELETE BRICK)     1

 QUAD TIME STEP SCALE FACTOR. . . . . . . . . . .  0.9000000    
 QUAD MINIMUM TIME STEP . . . . . . . . . . . . .   0.000000    
 MIN. TIME STEP FLAG (1:STOP RUN, 2:DELETE QUAD).     1

 SHELL TIME STEP SCALE FACTOR . . . . . . . . . .  0.9000000    
 SHELL MINIMUM TIME STEP. . . . . . . . . . . . .   0.000000    
 MIN. TIME FLAG (1:STOP, 2:DELETE, 3:SMALL STRAIN)    2

 TRUSS TIME STEP SCALE FACTOR . . . . . . . . . .  0.9000000    
 TRUSS MINIMUM TIME STEP. . . . . . . . . . . . .   0.000000    
 MIN. TIME FLAG (1:STOP, 2:DELETE). . . . . . . .     0

 BEAM TIME STEP SCALE FACTOR. . . . . . . . . . .  0.9000000    
 BEAM MINIMUM TIME STEP . . . . . . . . . . . . .   0.000000    
 MIN. TIME FLAG (1:STOP, 2:DELETE). . . . . . . .     0

 SPRING TIME STEP SCALE FACTOR. . . . . . . . . .  0.9000000    
 SPRING MINIMUM TIME STEP . . . . . . . . . . . .   0.000000    
 MIN. TIME FLAG (1:STOP, 2:DELETE). . . . . . . .     0

 AIRBAG TIME STEP SCALE FACTOR. . . . . . . . . .  0.9000000    
 AIRBAG MINIMUM TIME STEP . . . . . . . . . . . .   0.000000    
 MIN. TIME FLAG (1:STOP). . . . . . . . . . . . .     0

 CONTACT TIME STEP SCALE FACTOR . . . . . . . . .  0.9000000    
 CONTACT MINIMUM TIME STEP. . . . . . . . . . . .   0.000000    
 MIN. TIME FLAG(1:STOP, 2:REMOVE NODE FROM INTERF)    0

 PRINTOUT CYCLE FREQUENCY . . . . . . . . . . . .  -100

 RESTART CYCLE FREQUENCY. . . . . . . . . . . . .   10000000

 MAXIMUM RESTART WRITE BEFORE OVERWRITE . . . . .     0

 INVERS: INPUT DECK VERSION . . . . . . . . . . .  2019
 ITTYP : FLAG FOR TYPE OF T-FILE. . . . . . . . .     4


 TIME FOR FIRST ANIMATION-FILE PLOT . . . . . . .   0.000000    
 TIME INTERVAL FOR ANIMATION-FILE PLOTS . . . . .  0.5000000E-01
 SENSOR FOR ANIMATION-FILE PLOTS. . . . . . . . .          0
 TIME INTERVAL FOR SENSOR ANIMATION-FILE PLOTS. .   0.000000    

 VARIABLE SAVED ON ANIMATION FILES (1: YES) :
      PLASTIC STRAIN. . . . . .     0
      DENSITY     (SOLID ONLY).     0
      SPECIFIC ENERGY . . . . .     0
      HOURGLASS ENERGY. . . . .     0
      TEMPERATURE (SOLID ONLY).     0
      THICKNESS   (SHELL ONLY).     0
      PRESSURE    (SOLID ONLY).     0
      VON MISES . . . . . . . .     0
      TURBULENT ENERGY (FLUID).     0
      TURBULENT VISCOSITY(FLUID)    0
      VORTICITY (FLUID) . . . .     0
 NODAL VALUES SAVED ON ANIMATION FILES (1: YES) :
      PRESSURE. . . . . . . . .     0
      DENSITY . . . . . . . . .     0
      TEMPERATURE . . . . . . .     0
 VECTOR SAVED ON ANIMATION FILES (1: YES) :
      VELOCITY VECTOR . . . . .     0
      DISPLACEMENT VECTOR . . .     0
      ACCELERATION VECTOR . . .     0
      CONTACT FORCES. . . . . .     0
      INTERNAL FORCES . . . . .     0
      EXTERNAL FORCES . . . . .     0
      SECTION RBY RWALL FORCES.     0
      ROTATIONAL VELOCITY VECTOR    0
      CONTACT PRESSURE (VECTORS)    0
 SHELL TENSOR SAVED ON ANIMATION FILES (1: YES) :
      MEMBRANE STRESS . . . . .     0
      BENDING STRESS(MOMENT/T^2)    0
      UPPER LAYER STRESS. . . .     0
      LOWER LAYER STRESS. . . .     0
      MEMBRANE STRAIN . . . . .     0
      CURVATURE . . . . . . . .     0
      UPPER LAYER STRAIN. . . .     0
      LOWER LAYER STRAIN. . . .     0
 NODAL MASS SAVED ON ANIMATION FILES (1: YES) :    0
 KEEP DELETED ELEMENT (1: YES) :    0


 INITIAL TIME STEP. . . . . . . . . . . . . . . .   0.000000    
 MAXIMUM TIME STEP. . . . . . . . . . . . . . . .  0.1000000E+31

 PARALLEL ARITHMETIC ON
 NUMBER OF INTERFACES TO BE ELIMINATED. . . . . .        0

 NUMBER OF SOLID  ELEMENT BLOCKS TO BE ELIMINATED        0

 NUMBER OF QUAD   ELEMENT BLOCKS TO BE ELIMINATED        0

 NUMBER OF SHELL  ELEMENT BLOCKS TO BE ELIMINATED        0

 NUMBER OF TRUSS  ELEMENT BLOCKS TO BE ELIMINATED        0

 NUMBER OF BEAM   ELEMENT BLOCKS TO BE ELIMINATED        0

 NUMBER OF SPRING ELEMENT BLOCKS TO BE ELIMINATED        0

 NUMBER OF SH_3N  ELEMENT BLOCKS TO BE ELIMINATED        0

 NUMBER OF  SPH PARTICLES BLOCKS TO BE ELIMINATED        0

 NUMBER OF RIGID LINKS. . . . . . . . . . . . . .        0

 NUMBER OF NEW BOUNDARY CONDITIONS. . . . . . . .        0

 23/11/2022
   CYCLE    TIME      TIME-STEP  ELEMENT          ERROR  I-ENERGY    K-ENERGY T  K-ENERGY R  EXT-WORK     MAS.ERR     TOTAL MASS  MASS ADDED
       0   0.000      0.6330E-04 SHELL      10002   0.0%   0.000       4.131       0.000       0.000       0.000      0.4885       0.000    
     ANIMATION FILE: BOULE1V5A001 WRITTEN
     100  0.6330E-02  0.6330E-04 SHELL      10002  -0.4%   0.000       4.131       0.000      0.1548E-01   0.000      0.4885       0.000    
     200  0.1266E-01  0.6330E-04 SHELL      10002  -2.9%   0.000       4.132       0.000      0.1229       0.000      0.4885       0.000    
     300  0.1899E-01  0.6330E-04 SHELL      10002  -9.1%   0.000       4.132       0.000      0.4138       0.000      0.4885       0.000    
     400  0.2532E-01  0.6330E-04 SHELL      10002 -19.1%   0.000       4.133       0.000      0.9796       0.000      0.4885       0.000    
     500  0.3165E-01  0.6330E-04 SHELL      10002 -31.6%   0.000       4.134       0.000       1.912       0.000      0.4885       0.000    
     600  0.3798E-01  0.6330E-04 SHELL      10002 -44.4%   0.000       4.135       0.000       3.302       0.000      0.4885       0.000    
     700  0.4431E-01  0.6330E-04 SHELL      10002 -55.9%   0.000       4.137       0.000       5.241       0.000      0.4885       0.000    
     ANIMATION FILE: BOULE1V5A002 WRITTEN
     800  0.5064E-01  0.6330E-04 SHELL      10002 -65.4%   0.000       4.139       0.000       7.822       0.000      0.4885       0.000    
     900  0.5697E-01  0.6330E-04 SHELL      10002 -72.9%   0.000       4.141       0.000       11.13       0.000      0.4885       0.000    
    1000  0.6330E-01  0.6330E-04 SHELL      10002 -78.6%   0.000       4.143       0.000       15.27       0.000      0.4885       0.000    
    1100  0.6963E-01  0.6330E-04 SHELL      10002 -83.0%   0.000       4.145       0.000       20.32       0.000      0.4885       0.000    
    1200  0.7596E-01  0.6330E-04 SHELL      10002 -86.4%   0.000       4.148       0.000       26.38       0.000      0.4885       0.000    
    1300  0.8229E-01  0.6330E-04 SHELL      10002 -89.0%   0.000       4.151       0.000       33.54       0.000      0.4885       0.000    
    1400  0.8862E-01  0.6330E-04 SHELL      10002 -91.0%   0.000       4.154       0.000       41.89       0.000      0.4885       0.000    
    1500  0.9495E-01  0.6330E-04 SHELL      10002 -92.5%   0.000       4.157       0.000       51.51       0.000      0.4885       0.000    
     ANIMATION FILE: BOULE1V5A003 WRITTEN
    1600  0.1013      0.6330E-04 SHELL      10002 -93.8%   0.000       4.161       0.000       62.52       0.000      0.4885       0.000    
    1700  0.1076      0.6330E-04 SHELL      10002 -94.7%   0.000       4.164       0.000       74.98       0.000      0.4885       0.000    
    1800  0.1139      0.6330E-04 SHELL      10002 -95.5%   0.000       4.168       0.000       89.00       0.000      0.4885       0.000    
    1900  0.1203      0.6330E-04 SHELL      10002 -96.2%   0.000       4.173       0.000       104.7       0.000      0.4885       0.000    
    2000  0.1266      0.6330E-04 SHELL      10002 -96.7%   0.000       4.177       0.000       122.1       0.000      0.4885       0.000    
    2100  0.1329      0.6330E-04 SHELL      10002 -97.1%   0.000       4.182       0.000       141.3       0.000      0.4885       0.000    
    2200  0.1393      0.6330E-04 SHELL      10002 -97.5%   0.000       4.187       0.000       162.5       0.000      0.4885       0.000    
    2300  0.1456      0.6330E-04 SHELL      10002 -97.8%   0.000       4.192       0.000       185.6       0.000      0.4885       0.000    
     ANIMATION FILE: BOULE1V5A004 WRITTEN
    2400  0.1519      0.6330E-04 SHELL      10002 -98.0%   0.000       4.197       0.000       210.9       0.000      0.4885       0.000    
    2500  0.1583      0.6330E-04 SHELL      10002 -98.3%   0.000       4.203       0.000       238.4       0.000      0.4885       0.000    
    2600  0.1646      0.6330E-04 SHELL      10002 -98.5%   0.000       4.209       0.000       268.2       0.000      0.4885       0.000    
    2700  0.1709      0.6330E-04 SHELL      10002 -98.6%   0.000       4.215       0.000       300.3       0.000      0.4885       0.000    
    2800  0.1772      0.6330E-04 SHELL      10002 -98.8%   0.000       4.221       0.000       334.9       0.000      0.4885       0.000    
    2900  0.1836      0.6330E-04 SHELL      10002 -98.9%   0.000       4.228       0.000       372.1       0.000      0.4885       0.000    
    3000  0.1899      0.6330E-04 SHELL      10002 -99.0%   0.000       4.234       0.000       411.9       0.000      0.4885       0.000    
    3100  0.1962      0.6330E-04 SHELL      10002 -99.1%   0.000       4.241       0.000       454.5       0.000      0.4885       0.000    
     ANIMATION FILE: BOULE1V5A005 WRITTEN
    3200  0.2026      0.6330E-04 SHELL      10002 -99.2%   0.000       4.248       0.000       499.9       0.000      0.4885       0.000    
    3300  0.2089      0.6330E-04 SHELL      10002 -99.2%   0.000       4.256       0.000       548.2       0.000      0.4885       0.000    
    3400  0.2152      0.6330E-04 SHELL      10002 -99.3%   0.000       4.264       0.000       599.6       0.000      0.4885       0.000    
    3500  0.2216      0.6330E-04 SHELL      10002 -99.4%   0.000       4.271       0.000       654.1       0.000      0.4885       0.000    
    3600  0.2279      0.6330E-04 SHELL      10002 -99.4%   0.000       4.280       0.000       711.7       0.000      0.4885       0.000    
    3700  0.2342      0.6330E-04 SHELL      10002 -99.4%   0.000       4.288       0.000       772.7       0.000      0.4885       0.000    
    3800  0.2405      0.6330E-04 SHELL      10002 -99.5%   0.000       4.296       0.000       837.0       0.000      0.4885       0.000    
    3900  0.2469      0.6330E-04 SHELL      10002 -99.5%   0.000       4.305       0.000       904.9       0.000      0.4885       0.000    
     ANIMATION FILE: BOULE1V5A006 WRITTEN
    4000  0.2532      0.6330E-04 SHELL      10002 -99.6%   0.000       4.314       0.000       976.3       0.000      0.4885       0.000    
    4100  0.2595      0.6330E-04 SHELL      10002 -99.6%   0.000       4.324       0.000       1051.       0.000      0.4885       0.000    
    4200  0.2659      0.6330E-04 SHELL      10002 -99.6%   0.000       4.333       0.000       1130.       0.000      0.4885       0.000    
    4300  0.2722      0.6330E-04 SHELL      10002 -99.6%   0.000       4.343       0.000       1213.       0.000      0.4885       0.000    
    4400  0.2785      0.6330E-04 SHELL      10002 -99.7%   0.000       4.353       0.000       1299.       0.000      0.4885       0.000    
    4500  0.2849      0.6330E-04 SHELL      10002 -99.7%   0.000       4.363       0.000       1390.       0.000      0.4885       0.000    
    4600  0.2912      0.6330E-04 SHELL      10002 -99.7%   0.000       4.373       0.000       1485.       0.000      0.4885       0.000    
    4700  0.2975      0.6330E-04 SHELL      10002 -99.7%   0.000       4.384       0.000       1584.       0.000      0.4885       0.000    
     ANIMATION FILE: BOULE1V5A007 WRITTEN
    4800  0.3039      0.6330E-04 SHELL      10002 -99.7%   0.000       4.395       0.000       1687.       0.000      0.4885       0.000    
    4900  0.3102      0.6330E-04 SHELL      10002 -99.8%   0.000       4.406       0.000       1795.       0.000      0.4885       0.000    
    5000  0.3165      0.6330E-04 SHELL      10002 -99.8%   0.000       4.417       0.000       1907.       0.000      0.4885       0.000    
    5100  0.3228      0.6330E-04 SHELL      10002 -99.8%   0.000       4.429       0.000       2023.       0.000      0.4885       0.000    
    5200  0.3292      0.6330E-04 SHELL      10002 -99.8%   0.000       4.441       0.000       2145.       0.000      0.4885       0.000    
    5300  0.3355      0.6330E-04 SHELL      10002 -99.8%   0.000       4.453       0.000       2271.       0.000      0.4885       0.000    
    5400  0.3418      0.6330E-04 SHELL      10002 -99.8%   0.000       4.465       0.000       2402.       0.000      0.4885       0.000    
   CYCLE    TIME      TIME-STEP  ELEMENT          ERROR  I-ENERGY    K-ENERGY T  K-ENERGY R  EXT-WORK     MAS.ERR     TOTAL MASS  MASS ADDED
    5500  0.3482      0.6330E-04 SHELL      10002 -99.8%   0.000       4.477       0.000       2538.       0.000      0.4885       0.000    
     ANIMATION FILE: BOULE1V5A008 WRITTEN
    5600  0.3545      0.6330E-04 SHELL      10002 -99.8%   0.000       4.490       0.000       2679.       0.000      0.4885       0.000    
    5700  0.3608      0.6330E-04 SHELL      10002 -99.8%   0.000       4.503       0.000       2825.       0.000      0.4885       0.000    
    5800  0.3672      0.6330E-04 SHELL      10002 -99.9%  0.4334       3.226      0.9496E-01   2976.       0.000      0.4885       0.000    
    5900  0.3735      0.6330E-04 SHELL      10002 -99.8%  0.1683       5.776      0.1065       3132.       0.000      0.4885       0.000    
    6000  0.3798      0.6330E-04 SHELL      10002 -99.8%  0.1992       5.424      0.2934E-01   3294.       0.000      0.4885       0.000    
    6100  0.3861      0.6330E-04 SHELL      10002 -99.8%  0.1746       5.288      0.4589E-01   3462.       0.000      0.4885       0.000    
    6200  0.3925      0.6330E-04 SHELL      10002 -99.8%  0.1589       5.623      0.9325E-01   3635.       0.000      0.4885       0.000    
    6300  0.3988      0.6330E-04 SHELL      10002 -99.8%  0.1577       5.881      0.1333       3814.       0.000      0.4885       0.000    
     ANIMATION FILE: BOULE1V5A009 WRITTEN
    6400  0.4051      0.6330E-04 SHELL      10002 -99.8%  0.1540       5.898      0.1455       3998.       0.000      0.4885       0.000    
    6500  0.4115      0.6330E-04 SHELL      10002 -99.9%  0.1640       5.736      0.1014       4189.       0.000      0.4885       0.000    
    6600  0.4178      0.6330E-04 SHELL      10002 -99.9%  0.1917       5.426      0.2768E-01   4385.       0.000      0.4885       0.000    
    6700  0.4241      0.6330E-04 SHELL      10002 -99.9%  0.1842       5.393      0.3147E-01   4587.       0.000      0.4885       0.000    
    6800  0.4305      0.6330E-04 SHELL      10002 -99.9%  0.1338       5.733      0.1196       4796.       0.000      0.4885       0.000    
    6900  0.4368      0.6330E-04 SHELL      10002 -99.9%  0.1535       5.970      0.1433       5010.       0.000      0.4885       0.000    
    7000  0.4431      0.6330E-04 SHELL      10002 -99.9%  0.1914       5.952      0.1003       5231.       0.000      0.4885       0.000    
    7100  0.4494      0.6330E-04 SHELL      10002 -99.9%  0.1744       5.740      0.7143E-01   5459.       0.000      0.4885       0.000    
     ANIMATION FILE: BOULE1V5A010 WRITTEN
    7200  0.4558      0.6330E-04 SHELL      10002 -99.9%  0.1622       5.475      0.4756E-01   5693.       0.000      0.4885       0.000    
    7300  0.4621      0.6330E-04 SHELL      10002 -99.9%  0.1624       5.519      0.5250E-01   5933.       0.000      0.4885       0.000    
    7400  0.4684      0.6330E-04 SHELL      10002 -99.9%  0.1488       5.860      0.1121       6180.       0.000      0.4885       0.000    
    7500  0.4748      0.6330E-04 SHELL      10002 -99.9%  0.1444       6.086      0.1409       6434.       0.000      0.4885       0.000    
    7600  0.4811      0.6330E-04 SHELL      10002 -99.9%  0.1755       6.010      0.1022       6695.       0.000      0.4885       0.000    
    7700  0.4874      0.6330E-04 SHELL      10002 -99.9%  0.1908       5.760      0.4347E-01   6963.       0.000      0.4885       0.000    
    7800  0.4938      0.6330E-04 SHELL      10002 -99.9%  0.1458       5.549      0.5647E-01   7238.       0.000      0.4885       0.000    
     ANIMATION FILE: BOULE1V5A011 WRITTEN
    7900  0.5001      0.6330E-04 SHELL      10002 -99.9%  0.1342       5.669      0.7814E-01   7519.       0.000      0.4885       0.000    

     RESTART FILES: BOULE1V5_0001_[0001-0004].rst WRITTEN
     -------------

  
                           ** CPU USER TIME **
  
  
                        ** SUMMARY **
  
 #PROC  CONTSORT  CONTFOR   ELEMENT   KINCOND   INTEG     IO        T0        ASM       RESOL    
   1   .4433E+00 .7690E-01 .3949E+00 .3524E+00 .1089E+00 .2770E+00 .5092E+00 .6399E-01 .3165E+01
   2   .5242E+00 .7548E-01 .3903E+00 .2983E+00 .1055E+00 .2703E+00 .5140E+00 .6269E-01 .3152E+01
   3   .5015E+00 .8206E-01 .3874E+00 .3095E+00 .1094E+00 .2707E+00 .5156E+00 .6329E-01 .3129E+01
   4   .5058E+00 .7450E-01 .3785E+00 .3306E+00 .1052E+00 .2586E+00 .5248E+00 .6070E-01 .3143E+01
  
                 ** SPMD COM. TIME **
  
 #PROC  FORCES    RBYFOR    RBYVEL    VEL       TOT       %        
   1   .2170E+00 .0000E+00 .0000E+00 .3828E-01 .2553E+00 .8068E+01
   2   .2360E+00 .0000E+00 .0000E+00 .4013E-01 .2762E+00 .8761E+01
   3   .2129E+00 .0000E+00 .0000E+00 .3909E-01 .2520E+00 .8051E+01
   4   .2408E+00 .0000E+00 .0000E+00 .3906E-01 .2799E+00 .8906E+01
  
 
                   ** CUMULATIVE CPU TIME SUMMARY **
  
 CONTACT SORTING.............: .1975E+01    15.69 % 
 CONTACT FORCES..............: .3089E+00     2.45 % 
 ELEMENT FORCES..............: .1551E+01    12.32 % 
 KINEMATIC COND..............: .1291E+01    10.25 % 
 INTEGRATION.................: .4290E+00     3.41 % 
 ASSEMBLING..................: .2507E+00     1.99 % 
 OTHERS (including I/O)......: .6784E+01    53.89 % 
 TOTAL.......................: .1259E+02   100.00 % 
  
  
                           ** ELAPSED TIME **
  
  
                        ** SUMMARY **
  
 #PROC  CONTSORT  CONTFOR   ELEMENT   KINCOND   INTEG     IO        T0        ASM       RESOL    
   1   .2691E+00 .4622E-01 .2413E+00 .2133E+00 .6542E-01 .1740E+00 .3058E+00 .3853E-01 .1912E+01
   2   .3191E+00 .4573E-01 .2399E+00 .1830E+00 .6409E-01 .1656E+00 .3129E+00 .3785E-01 .1914E+01
   3   .3075E+00 .5013E-01 .2387E+00 .1910E+00 .6735E-01 .1677E+00 .3148E+00 .3852E-01 .1912E+01
   4   .3077E+00 .4544E-01 .2343E+00 .2022E+00 .6462E-01 .1604E+00 .3202E+00 .3706E-01 .1914E+01
  
        CONTSORT  CONTFOR   ELEMENT   KINCOND   INTEG     IO        T0        ASM       RESOL    
 MIN   .2691E+00 .4544E-01 .2343E+00 .1830E+00 .6409E-01 .1604E+00 .3058E+00 .3706E-01 .1912E+01
 MAX   .3191E+00 .5013E-01 .2413E+00 .2133E+00 .6735E-01 .1740E+00 .3202E+00 .3853E-01 .1914E+01
 AVG   .3009E+00 .4688E-01 .2386E+00 .1974E+00 .6537E-01 .1669E+00 .3134E+00 .3799E-01 .1913E+01
  
                 ** SPMD COM. TIME **
  
 #PROC  FORCES    RBYFOR    RBYVEL    VEL       TOT       %        
   1   .1332E+00 .0000E+00 .0000E+00 .2356E-01 .1568E+00 .8202E+01
   2   .1455E+00 .0000E+00 .0000E+00 .2484E-01 .1703E+00 .8897E+01
   3   .1309E+00 .0000E+00 .0000E+00 .2453E-01 .1555E+00 .8130E+01
   4   .1468E+00 .0000E+00 .0000E+00 .2432E-01 .1711E+00 .8939E+01
  
        FORCES    RBYFOR    RBYVEL    VEL       TOT       %        
 MIN   .1309E+00 .0000E+00 .0000E+00 .2356E-01 .1555E+00 .8130E+01
 MAX   .1468E+00 .0000E+00 .0000E+00 .2484E-01 .1711E+00 .8939E+01
 AVG   .1391E+00 .0000E+00 .0000E+00 .2431E-01 .1634E+00 .8542E+01
  
                   ** MEMORY USAGE STATISTICS **
  
 TOTAL MEMORY USED .........................:      229 MB
 MAXIMUM MEMORY PER PROCESSOR...............:       58 MB
 MINIMUM MEMORY PER PROCESSOR...............:       57 MB
 AVERAGE MEMORY PER PROCESSOR...............:       57 MB
  
                   ** DISK USAGE STATISTICS **
  
 TOTAL DISK SPACE USED .....................:          1 MB
 ANIMATION/H3D/TH/OUTP SIZE ................:          0 MB
 RESTART FILE SIZE .........................:          1 MB
  
                   ** COMPUTE TIME INFORMATION **
                        ** CURRENT ENGINE **
  
 EXECUTION STARTED .........................:      2022/11/23  16:23:39
 EXECUTION COMPLETED .......................:      2022/11/23  16:23:41
  
 ELAPSED TIME     =          2.01 s
                          0:00:02
 ESTIMATED SPEEDUP=          6.27



     NORMAL TERMINATION      



     TOTAL NUMBER OF CYCLES  :    7915

  
                   ** COMPUTE RUNTIME INFORMATION SUMMARY **
  
        STARTER RUNTIME =          0.65s (00:00:00)
 # 001   ENGINE RUNTIME =          2.01s (00:00:02)
 ------------------------------ 
 STARTER+ENGINE RUNTIME =          2.66s (00:00:02)
  
