 BOULE1V5_0001.out
************************************************************************
**                                                                    **
**                                                                    **
**                      RADIOSS ENGINE MAINLINE                       **
**                                                                    **
**            Non-linear Finite Element Analysis Software             **
**                   from Altair Engineering, Inc.                    **
**                                                                    **
**                                                                    **
**              Linux 64 bits, Intel compiler, Intel MPI              **
**                                                                    **
**                                                                    **
**                                                                    **
** Build tag: 0742056_087sesevot__2070_0032401_10                     **
************************************************************************
**  COPYRIGHT (C) 1986-2014                 Altair Engineering, Inc.  **
** All Rights Reserved.  Copyright notice does not imply publication. **
** Contains trade secrets of Altair Engineering Inc.                  **
** Decompilation or disassembly of this software strictly prohibited. **
************************************************************************
 
 NUMBER OF SPMD DOMAINS           4
 NUMBER OF THREADS PER DOMAIN     1
 NUMBER OF HMPP PROCESSES         4
  
 COMPUTATION HARDWARE DESCRIPTION
  
 CPU#  HOSTNAME     CPU TYPE, FREQUENCY AND MEMORY
   1   fradf-mariner1.europe.altair.com   Intel(R) Xeon(R) CPU E5-4640 0 @ 2.40GHz (x86_64), 2400 MHz,  16080 MB RAM,  16383 MB swap
   2   fradf-mariner1.europe.altair.com   Intel(R) Xeon(R) CPU E5-4640 0 @ 2.40GHz (x86_64), 2400 MHz,  16080 MB RAM,  16383 MB swap
   3   fradf-mariner1.europe.altair.com   Intel(R) Xeon(R) CPU E5-4640 0 @ 2.40GHz (x86_64), 2400 MHz,  16080 MB RAM,  16383 MB swap
   4   fradf-mariner1.europe.altair.com   Intel(R) Xeon(R) CPU E5-4640 0 @ 2.40GHz (x86_64), 2400 MHz,  16080 MB RAM,  16383 MB swap
  
************************************************************************


 BOULE1V5D01                                                                     


 FINAL TIME . . . . . . . . . . . . . . . . . . .  0.5010000    

 TIME INTERVAL FOR TIME HISTORY PLOTS . . . . . .  0.1000000E-02

 TIME STEP SCALE FACTOR . . . . . . . . . . . . .  0.9000000    

 MINIMUM TIME STEP  . . . . . . . . . . . . . . .   0.000000    


 BRICK TIME STEP SCALE FACTOR . . . . . . . . . .  0.9000000    
 BRICK MINIMUM TIME STEP. . . . . . . . . . . . .   0.000000    
 MIN. TIME STEP FLAG (1:STOP RUN, 2:DELETE BRICK)     1

 QUAD TIME STEP SCALE FACTOR. . . . . . . . . . .  0.9000000    
 QUAD MINIMUM TIME STEP . . . . . . . . . . . . .   0.000000    
 MIN. TIME STEP FLAG (1:STOP RUN, 2:DELETE QUAD).     1

 SHELL TIME STEP SCALE FACTOR . . . . . . . . . .  0.9000000    
 SHELL MINIMUM TIME STEP. . . . . . . . . . . . .   0.000000    
 MIN. TIME FLAG (1:STOP, 2:DELETE, 3:SMALL STRAIN)    2

 TRUSS TIME STEP SCALE FACTOR . . . . . . . . . .  0.9000000    
 TRUSS MINIMUM TIME STEP. . . . . . . . . . . . .   0.000000    
 MIN. TIME FLAG (1:STOP, 2:DELETE). . . . . . . .     0

 BEAM TIME STEP SCALE FACTOR. . . . . . . . . . .  0.9000000    
 BEAM MINIMUM TIME STEP . . . . . . . . . . . . .   0.000000    
 MIN. TIME FLAG (1:STOP, 2:DELETE). . . . . . . .     0

 SPRING TIME STEP SCALE FACTOR. . . . . . . . . .  0.9000000    
 SPRING MINIMUM TIME STEP . . . . . . . . . . . .   0.000000    
 MIN. TIME FLAG (1:STOP, 2:DELETE). . . . . . . .     0

 AIRBAG TIME STEP SCALE FACTOR. . . . . . . . . .  0.9000000    
 AIRBAG MINIMUM TIME STEP . . . . . . . . . . . .   0.000000    
 MIN. TIME FLAG (1:STOP). . . . . . . . . . . . .     0

 INTERFACE TYPE 7 TIME STEP SCALE FACTOR. . . . .  0.9000000    
 INTERFACE TYPE 7 MINIMUM TIME STEP . . . . . . .   0.000000    
 MIN. TIME FLAG(1:STOP, 2:REMOVE NODE FROM INTERF)    0

 FVMBAG TIME STEP SCALE FACTOR. . . . . . . . . .  0.9000000    
 FVMBAG MINIMUM TIME STEP . . . . . . . . . . . .   0.000000    

 PRINTOUT CYCLE FREQUENCY . . . . . . . . . . . .  -100

 RESTART CYCLE FREQUENCY. . . . . . . . . . . . .       5000

 MAXIMUM RESTART WRITE BEFORE OVERWRITE . . . . .     0

 INVERS: INPUT DECK VERSION . . . . . . . . . . .    52
 ITTYP : FLAG FOR TYPE OF T-FILE. . . . . . . . .     4

 TIME FOR FIRST ANIMATION-FILE PLOT . . . . . . .   0.000000    
 TIME INTERVAL FOR ANIMATION-FILE PLOTS . . . . .  0.5000000E-01
 SENSOR FOR ANIMATION-FILE PLOTS. . . . . . . . .          0
 TIME INTERVAL FOR SENSOR ANIMATION-FILE PLOTS. .   0.000000    

 VARIABLE SAVED ON ANIMATION FILES (1: YES) :
      PLASTIC STRAIN. . . . . .     0
      DENSITY     (SOLID ONLY).     0
      SPECIFIC ENERGY . . . . .     0
      HOURGLASS ENERGY. . . . .     0
      TEMPERATURE (SOLID ONLY).     0
      THICKNESS   (SHELL ONLY).     0
      PRESSURE    (SOLID ONLY).     0
      VON MISES . . . . . . . .     0
      TURBULENT ENERGY (FLUID).     0
      TURBULENT VISCOSITY(FLUID)    0
      VORTICITY (FLUID) . . . .     0
 VECTOR SAVED ON ANIMATION FILES (1: YES) :
      VELOCITY VECTOR . . . . .     0
      DISPLACEMENT VECTOR . . .     0
      ACCELERATION VECTOR . . .     0
      CONTACT FORCES. . . . . .     0
      INTERNAL FORCES . . . . .     0
      EXTERNAL FORCES . . . . .     0
      SECTION RBY RWALL FORCES.     0
      ROTATIONAL VELOCITY VECTOR    0
      CONTACT PRESSURE (VECTORS)    0
 SHELL TENSOR SAVED ON ANIMATION FILES (1: YES) :
      MEMBRANE STRESS . . . . .     0
      BENDING STRESS(MOMENT/T^2)    0
      UPPER LAYER STRESS. . . .     0
      LOWER LAYER STRESS. . . .     0
      MEMBRANE STRAIN . . . . .     0
      CURVATURE . . . . . . . .     0
      UPPER LAYER STRAIN. . . .     0
      LOWER LAYER STRAIN. . . .     0
 NODAL MASS SAVED ON ANIMATION FILES (1: YES) :    0
 KEEP DELETED ELEMENT (1: YES) :    0


 INITIAL TIME STEP. . . . . . . . . . . . . . . .   0.000000    
 MAXIMUM TIME STEP. . . . . . . . . . . . . . . .  0.1000000E+31

 PARALLEL ARITHMETIC ON

 ALE GRID FORMULATION                    
 --------------------                    
 NUMBER OF INTERFACES TO BE ELIMINATED. . . . . .        0

 NUMBER OF SOLID  ELEMENT BLOCKS TO BE ELIMINATED        0

 NUMBER OF QUAD   ELEMENT BLOCKS TO BE ELIMINATED        0

 NUMBER OF SHELL  ELEMENT BLOCKS TO BE ELIMINATED        0

 NUMBER OF TRUSS  ELEMENT BLOCKS TO BE ELIMINATED        0

 NUMBER OF BEAM   ELEMENT BLOCKS TO BE ELIMINATED        0

 NUMBER OF SPRING ELEMENT BLOCKS TO BE ELIMINATED        0

 NUMBER OF SH_3N  ELEMENT BLOCKS TO BE ELIMINATED        0

 NUMBER OF  SPH PARTICLES BLOCKS TO BE ELIMINATED        0

 NUMBER OF RIGID LINKS. . . . . . . . . . . . . .        0

 NUMBER OF ALE LINKS. . . . . . . . . . . . . . .        0

 NUMBER OF NEW BOUNDARY CONDITIONS. . . . . . . .        0

 19/11/2014
 CYCLE    TIME      TIME-STEP  ELEMENT          ERROR  I-ENERGY    K-ENERGY T  K-ENERGY R  EXT-WORK MAS.ERR
     0   0.000      0.6330E-04 SHELL      10002   0.0%   0.000       4.131       0.000       0.000       0.000    
     ANIMATION FILE: BOULE1V5A001 WRITTEN
   100  0.6330E-02  0.6330E-04 SHELL      10002  -0.4%   0.000       4.131       0.000      0.1548E-01   0.000    
   200  0.1266E-01  0.6330E-04 SHELL      10002  -2.9%   0.000       4.132       0.000      0.1229       0.000    
   300  0.1899E-01  0.6330E-04 SHELL      10002  -9.1%   0.000       4.132       0.000      0.4138       0.000    
   400  0.2532E-01  0.6330E-04 SHELL      10002 -19.1%   0.000       4.133       0.000      0.9796       0.000    
   500  0.3165E-01  0.6330E-04 SHELL      10002 -31.6%   0.000       4.134       0.000       1.912       0.000    
   600  0.3798E-01  0.6330E-04 SHELL      10002 -44.4%   0.000       4.135       0.000       3.302       0.000    
   700  0.4431E-01  0.6330E-04 SHELL      10002 -55.9%   0.000       4.137       0.000       5.241       0.000    
     ANIMATION FILE: BOULE1V5A002 WRITTEN
   800  0.5064E-01  0.6330E-04 SHELL      10002 -65.4%   0.000       4.139       0.000       7.822       0.000    
   900  0.5697E-01  0.6330E-04 SHELL      10002 -72.9%   0.000       4.141       0.000       11.13       0.000    
  1000  0.6330E-01  0.6330E-04 SHELL      10002 -78.6%   0.000       4.143       0.000       15.27       0.000    
  1100  0.6963E-01  0.6330E-04 SHELL      10002 -83.0%   0.000       4.145       0.000       20.32       0.000    
  1200  0.7596E-01  0.6330E-04 SHELL      10002 -86.4%   0.000       4.148       0.000       26.38       0.000    
  1300  0.8229E-01  0.6330E-04 SHELL      10002 -89.0%   0.000       4.151       0.000       33.54       0.000    
  1400  0.8862E-01  0.6330E-04 SHELL      10002 -91.0%   0.000       4.154       0.000       41.89       0.000    
  1500  0.9495E-01  0.6330E-04 SHELL      10002 -92.5%   0.000       4.157       0.000       51.51       0.000    
     ANIMATION FILE: BOULE1V5A003 WRITTEN
  1600  0.1013      0.6330E-04 SHELL      10002 -93.8%   0.000       4.161       0.000       62.52       0.000    
  1700  0.1076      0.6330E-04 SHELL      10002 -94.7%   0.000       4.164       0.000       74.98       0.000    
  1800  0.1139      0.6330E-04 SHELL      10002 -95.5%   0.000       4.168       0.000       89.00       0.000    
  1900  0.1203      0.6330E-04 SHELL      10002 -96.2%   0.000       4.173       0.000       104.7       0.000    
  2000  0.1266      0.6330E-04 SHELL      10002 -96.7%   0.000       4.177       0.000       122.1       0.000    
  2100  0.1329      0.6330E-04 SHELL      10002 -97.1%   0.000       4.182       0.000       141.3       0.000    
  2200  0.1393      0.6330E-04 SHELL      10002 -97.5%   0.000       4.187       0.000       162.5       0.000    
  2300  0.1456      0.6330E-04 SHELL      10002 -97.8%   0.000       4.192       0.000       185.6       0.000    
     ANIMATION FILE: BOULE1V5A004 WRITTEN
  2400  0.1519      0.6330E-04 SHELL      10002 -98.0%   0.000       4.197       0.000       210.9       0.000    
  2500  0.1583      0.6330E-04 SHELL      10002 -98.3%   0.000       4.203       0.000       238.4       0.000    
  2600  0.1646      0.6330E-04 SHELL      10002 -98.5%   0.000       4.209       0.000       268.2       0.000    
  2700  0.1709      0.6330E-04 SHELL      10002 -98.6%   0.000       4.215       0.000       300.3       0.000    
  2800  0.1772      0.6330E-04 SHELL      10002 -98.8%   0.000       4.221       0.000       334.9       0.000    
  2900  0.1836      0.6330E-04 SHELL      10002 -98.9%   0.000       4.228       0.000       372.1       0.000    
  3000  0.1899      0.6330E-04 SHELL      10002 -99.0%   0.000       4.234       0.000       411.9       0.000    
  3100  0.1962      0.6330E-04 SHELL      10002 -99.1%   0.000       4.241       0.000       454.5       0.000    
     ANIMATION FILE: BOULE1V5A005 WRITTEN
  3200  0.2026      0.6330E-04 SHELL      10002 -99.2%   0.000       4.248       0.000       499.9       0.000    
  3300  0.2089      0.6330E-04 SHELL      10002 -99.2%   0.000       4.256       0.000       548.2       0.000    
  3400  0.2152      0.6330E-04 SHELL      10002 -99.3%   0.000       4.264       0.000       599.6       0.000    
  3500  0.2216      0.6330E-04 SHELL      10002 -99.4%   0.000       4.271       0.000       654.1       0.000    
  3600  0.2279      0.6330E-04 SHELL      10002 -99.4%   0.000       4.280       0.000       711.7       0.000    
  3700  0.2342      0.6330E-04 SHELL      10002 -99.4%   0.000       4.288       0.000       772.7       0.000    
  3800  0.2405      0.6330E-04 SHELL      10002 -99.5%   0.000       4.296       0.000       837.0       0.000    
  3900  0.2469      0.6330E-04 SHELL      10002 -99.5%   0.000       4.305       0.000       904.9       0.000    
     ANIMATION FILE: BOULE1V5A006 WRITTEN
  4000  0.2532      0.6330E-04 SHELL      10002 -99.6%   0.000       4.314       0.000       976.3       0.000    
  4100  0.2595      0.6330E-04 SHELL      10002 -99.6%   0.000       4.324       0.000       1051.       0.000    
  4200  0.2659      0.6330E-04 SHELL      10002 -99.6%   0.000       4.333       0.000       1130.       0.000    
  4300  0.2722      0.6330E-04 SHELL      10002 -99.6%   0.000       4.343       0.000       1213.       0.000    
  4400  0.2785      0.6330E-04 SHELL      10002 -99.7%   0.000       4.353       0.000       1299.       0.000    
  4500  0.2849      0.6330E-04 SHELL      10002 -99.7%   0.000       4.363       0.000       1390.       0.000    
  4600  0.2912      0.6330E-04 SHELL      10002 -99.7%   0.000       4.373       0.000       1485.       0.000    
  4700  0.2975      0.6330E-04 SHELL      10002 -99.7%   0.000       4.384       0.000       1584.       0.000    
     ANIMATION FILE: BOULE1V5A007 WRITTEN
  4800  0.3039      0.6330E-04 SHELL      10002 -99.7%   0.000       4.395       0.000       1687.       0.000    
  4900  0.3102      0.6330E-04 SHELL      10002 -99.8%   0.000       4.406       0.000       1795.       0.000    

     RESTART FILES: BOULE1V5_0001_[0001-0004].rst WRITTEN
     -------------

  5000  0.3165      0.6330E-04 SHELL      10002 -99.8%   0.000       4.417       0.000       1907.       0.000    
  5100  0.3228      0.6330E-04 SHELL      10002 -99.8%   0.000       4.429       0.000       2023.       0.000    
  5200  0.3292      0.6330E-04 SHELL      10002 -99.8%   0.000       4.441       0.000       2145.       0.000    
  5300  0.3355      0.6330E-04 SHELL      10002 -99.8%   0.000       4.453       0.000       2271.       0.000    
  5400  0.3418      0.6330E-04 SHELL      10002 -99.8%   0.000       4.465       0.000       2402.       0.000    
 CYCLE    TIME      TIME-STEP  ELEMENT          ERROR  I-ENERGY    K-ENERGY T  K-ENERGY R  EXT-WORK MAS.ERR
  5500  0.3482      0.6330E-04 SHELL      10002 -99.8%   0.000       4.477       0.000       2538.       0.000    
     ANIMATION FILE: BOULE1V5A008 WRITTEN
  5600  0.3545      0.6330E-04 SHELL      10002 -99.8%   0.000       4.490       0.000       2679.       0.000    
  5700  0.3608      0.6330E-04 SHELL      10002 -99.8%   0.000       4.503       0.000       2825.       0.000    
  5800  0.3672      0.6330E-04 SHELL      10002 -99.9%  0.3950       3.252      0.9438E-01   2976.       0.000    
  5900  0.3735      0.6330E-04 SHELL      10002 -99.8%  0.1349       5.806      0.1056       3132.       0.000    
  6000  0.3798      0.6330E-04 SHELL      10002 -99.8%  0.1652       5.448      0.2910E-01   3294.       0.000    
  6100  0.3861      0.6330E-04 SHELL      10002 -99.8%  0.1394       5.311      0.4628E-01   3462.       0.000    
  6200  0.3925      0.6330E-04 SHELL      10002 -99.8%  0.1252       5.651      0.9183E-01   3635.       0.000    
  6300  0.3988      0.6330E-04 SHELL      10002 -99.8%  0.1253       5.904      0.1318       3814.       0.000    
     ANIMATION FILE: BOULE1V5A009 WRITTEN
  6400  0.4051      0.6330E-04 SHELL      10002 -99.8%  0.1176       5.922      0.1469       3998.       0.000    
  6500  0.4115      0.6330E-04 SHELL      10002 -99.9%  0.1315       5.762      0.9860E-01   4189.       0.000    
  6600  0.4178      0.6330E-04 SHELL      10002 -99.9%  0.1605       5.448      0.2448E-01   4385.       0.000    
  6700  0.4241      0.6330E-04 SHELL      10002 -99.9%  0.1490       5.416      0.3186E-01   4587.       0.000    
  6800  0.4305      0.6330E-04 SHELL      10002 -99.9%  0.1021       5.758      0.1171       4796.       0.000    
  6900  0.4368      0.6330E-04 SHELL      10002 -99.9%  0.1200       5.994      0.1422       5010.       0.000    
  7000  0.4431      0.6330E-04 SHELL      10002 -99.9%  0.1568       5.976      0.9969E-01   5231.       0.000    
  7100  0.4494      0.6330E-04 SHELL      10002 -99.9%  0.1392       5.763      0.7247E-01   5459.       0.000    
     ANIMATION FILE: BOULE1V5A010 WRITTEN
  7200  0.4558      0.6330E-04 SHELL      10002 -99.9%  0.1287       5.496      0.4620E-01   5693.       0.000    
  7300  0.4621      0.6330E-04 SHELL      10002 -99.9%  0.1290       5.541      0.5124E-01   5933.       0.000    
  7400  0.4684      0.6330E-04 SHELL      10002 -99.9%  0.1138       5.887      0.1127       6180.       0.000    
  7500  0.4748      0.6330E-04 SHELL      10002 -99.9%  0.1112       6.111      0.1394       6434.       0.000    
  7600  0.4811      0.6330E-04 SHELL      10002 -99.9%  0.1430       6.035      0.1004       6695.       0.000    
  7700  0.4874      0.6330E-04 SHELL      10002 -99.9%  0.1560       5.784      0.4288E-01   6963.       0.000    
  7800  0.4938      0.6330E-04 SHELL      10002 -99.9%  0.1134       5.572      0.5393E-01   7238.       0.000    
     ANIMATION FILE: BOULE1V5A011 WRITTEN
  7900  0.5001      0.6330E-04 SHELL      10002 -99.9%  0.1006       5.693      0.7726E-01   7519.       0.000    

     RESTART FILES: BOULE1V5_0001_[0001-0004].rst WRITTEN
     -------------

  
                           ** CPU USER TIME **
  
 #PROC  CONT.SORT  CONT. F   ELEMENT  KIN.COND.  INTEGR.    I/O     TASK0     ASSEMB.   RESOL  
   1   .4599E-01 .6998E-02 .1300E+00 .1770E+00 .5000E-02 .1800E-01 .9078E+00 .4000E-02 .1462E+01
   2   .4479E+00 .5000E-02 .3999E-01 .1010E+00 .6000E-02 .5299E-01 .3859E+00 .2000E-02 .1586E+01
   3   .9468E+00 .9991E-03 .1300E-01 .7999E-02 .7998E-02 .2899E-01 .2800E+00 .0000E+00 .1526E+01
   4   .7558E+00 .9999E-03 .3600E-01 .1899E-01 .6998E-02 .3800E-01 .2370E+00 .2000E-02 .1514E+01
  
                          ** SPMD COMM. TIME **
  
 #PROC  FORCES    RBY.FOR.  RBY.VEL.  VELOCITIES   TOTAL   % CPU
   1   .1030E+00 .0000E+00 .0000E+00 .4999E-02 .1080E+00    7.39
   2   .3179E+00 .0000E+00 .0000E+00 .1000E-02 .3189E+00   20.11
   3   .8599E-01 .0000E+00 .0000E+00 .0000E+00 .8599E-01    5.64
   4   .1430E+00 .0000E+00 .0000E+00 .4000E-02 .1470E+00    9.71
  
                   ** CUMULATIVE CPU TIME SUMMARY **
  
 CONTACT SORTING.............: .2197E+01    36.09 % 
 CONTACT FORCES..............: .1400E-01     0.23 % 
 ELEMENT FORCES..............: .2190E+00     3.60 % 
 KINEMATIC COND..............: .3050E+00     5.01 % 
 INTEGRATION.................: .2600E-01     0.43 % 
 ASSEMBLING..................: .8000E-02     0.13 % 
 OTHERS (including I/O)......: .3319E+01    54.52 % 
 TOTAL.......................: .6087E+01   100.00 % 
  
  
                   ** MEMORY USAGE STATISTICS **
  
 TOTAL MEMORY USED .........................:      560 MB
 MAXIMUM MEMORY PER PROCESSOR...............:      140 MB
 MINIMUM MEMORY PER PROCESSOR...............:      140 MB
 AVERAGE MEMORY PER PROCESSOR...............:      140 MB
  
                   ** DISK USAGE STATISTICS **
  
 TOTAL DISK SPACE USED .....................:      633 KB
 ANIMATION/TH/OUTP SIZE ....................:      120 KB
 RESTART FILE SIZE .........................:      513 KB
  
 ELAPSED TIME     =          2.16 s
                          0:00:02
 ESTIMATED SPEEDUP=          2.82
  



     NORMAL TERMINATION      



     TOTAL NUMBER OF CYCLES  :    7915

