 BOULE1V4_0001.out
************************************************************************
**                                                                    **
**                                                                    **
**                         OpenRadioss Engine                         **
**                                                                    **
**            Non-linear Finite Element Analysis Software             **
**                                                                    **
**                                                                    **
**                                                                    **
**                Linux 64 bits, GNU compiler, OpenMPI                **
**                                                                    **
**                                                                    **
**                                                                    **
** CommitID: 440deeba848d606665f88afb8302e85b1ecf72bf                 **
************************************************************************
** OpenRadioss Software                                               **
** COPYRIGHT (C) 1986-2022 Altair Engineering, Inc.                   **
** Licensed under GNU Affero General Public License.                  **
** See License file.                                                  **
************************************************************************
 
 NUMBER OF SPMD DOMAINS           4
 NUMBER OF THREADS PER DOMAIN     2
 NUMBER OF HMPP PROCESSES         8
  
 COMPUTATION HARDWARE DESCRIPTION
  
 CPU#  HOSTNAME     CPU TYPE, FREQUENCY AND MEMORY
   1   fr-shady.europe.altair.com   Intel(R) Xeon(R) CPU           X5680  @ 3.33GHz (x86_64), 1596 MHz,  20012 MB RAM,  49126 MB swap
   2   fr-shady.europe.altair.com   Intel(R) Xeon(R) CPU           X5680  @ 3.33GHz (x86_64), 1596 MHz,  20012 MB RAM,  49126 MB swap
   3   fr-shady.europe.altair.com   Intel(R) Xeon(R) CPU           X5680  @ 3.33GHz (x86_64), 1596 MHz,  20012 MB RAM,  49126 MB swap
   4   fr-shady.europe.altair.com   Intel(R) Xeon(R) CPU           X5680  @ 3.33GHz (x86_64), 1596 MHz,  20012 MB RAM,  49126 MB swap
  
************************************************************************


 BOULE1V4D01                                                                     


 FINAL TIME . . . . . . . . . . . . . . . . . . .  0.1300000    

 TIME INTERVAL FOR TIME HISTORY PLOTS . . . . . .  0.1000000E-02

 TIME STEP SCALE FACTOR . . . . . . . . . . . . .  0.9000000    

 MINIMUM TIME STEP  . . . . . . . . . . . . . . .   0.000000    


 BRICK TIME STEP SCALE FACTOR . . . . . . . . . .  0.9000000    
 BRICK MINIMUM TIME STEP. . . . . . . . . . . . .   0.000000    
 MIN. TIME STEP FLAG (1:STOP RUN, 2:DELETE BRICK)     1

 QUAD TIME STEP SCALE FACTOR. . . . . . . . . . .  0.9000000    
 QUAD MINIMUM TIME STEP . . . . . . . . . . . . .   0.000000    
 MIN. TIME STEP FLAG (1:STOP RUN, 2:DELETE QUAD).     1

 SHELL TIME STEP SCALE FACTOR . . . . . . . . . .  0.9000000    
 SHELL MINIMUM TIME STEP. . . . . . . . . . . . .   0.000000    
 MIN. TIME FLAG (1:STOP, 2:DELETE, 3:SMALL STRAIN)    2

 TRUSS TIME STEP SCALE FACTOR . . . . . . . . . .  0.9000000    
 TRUSS MINIMUM TIME STEP. . . . . . . . . . . . .   0.000000    
 MIN. TIME FLAG (1:STOP, 2:DELETE). . . . . . . .     0

 BEAM TIME STEP SCALE FACTOR. . . . . . . . . . .  0.9000000    
 BEAM MINIMUM TIME STEP . . . . . . . . . . . . .   0.000000    
 MIN. TIME FLAG (1:STOP, 2:DELETE). . . . . . . .     0

 SPRING TIME STEP SCALE FACTOR. . . . . . . . . .  0.9000000    
 SPRING MINIMUM TIME STEP . . . . . . . . . . . .   0.000000    
 MIN. TIME FLAG (1:STOP, 2:DELETE). . . . . . . .     0

 AIRBAG TIME STEP SCALE FACTOR. . . . . . . . . .  0.9000000    
 AIRBAG MINIMUM TIME STEP . . . . . . . . . . . .   0.000000    
 MIN. TIME FLAG (1:STOP). . . . . . . . . . . . .     0

 CONTACT TIME STEP SCALE FACTOR . . . . . . . . .  0.9000000    
 CONTACT MINIMUM TIME STEP. . . . . . . . . . . .   0.000000    
 MIN. TIME FLAG(1:STOP, 2:REMOVE NODE FROM INTERF)    0

 PRINTOUT CYCLE FREQUENCY . . . . . . . . . . . .  -100

 RESTART CYCLE FREQUENCY. . . . . . . . . . . . .   10000000

 MAXIMUM RESTART WRITE BEFORE OVERWRITE . . . . .     0

 INVERS: INPUT DECK VERSION . . . . . . . . . . .  2019
 ITTYP : FLAG FOR TYPE OF T-FILE. . . . . . . . .     4


 TIME FOR FIRST ANIMATION-FILE PLOT . . . . . . .   0.000000    
 TIME INTERVAL FOR ANIMATION-FILE PLOTS . . . . .  0.2000000E-01
 SENSOR FOR ANIMATION-FILE PLOTS. . . . . . . . .          0
 TIME INTERVAL FOR SENSOR ANIMATION-FILE PLOTS. .   0.000000    

 VARIABLE SAVED ON ANIMATION FILES (1: YES) :
      PLASTIC STRAIN. . . . . .     0
      DENSITY     (SOLID ONLY).     0
      SPECIFIC ENERGY . . . . .     0
      HOURGLASS ENERGY. . . . .     0
      TEMPERATURE (SOLID ONLY).     0
      THICKNESS   (SHELL ONLY).     0
      PRESSURE    (SOLID ONLY).     0
      VON MISES . . . . . . . .     0
      TURBULENT ENERGY (FLUID).     0
      TURBULENT VISCOSITY(FLUID)    0
      VORTICITY (FLUID) . . . .     0
 NODAL VALUES SAVED ON ANIMATION FILES (1: YES) :
      PRESSURE. . . . . . . . .     0
      DENSITY . . . . . . . . .     0
      TEMPERATURE . . . . . . .     0
 VECTOR SAVED ON ANIMATION FILES (1: YES) :
      VELOCITY VECTOR . . . . .     0
      DISPLACEMENT VECTOR . . .     0
      ACCELERATION VECTOR . . .     0
      CONTACT FORCES. . . . . .     0
      INTERNAL FORCES . . . . .     0
      EXTERNAL FORCES . . . . .     0
      SECTION RBY RWALL FORCES.     0
      ROTATIONAL VELOCITY VECTOR    0
      CONTACT PRESSURE (VECTORS)    0
 SHELL TENSOR SAVED ON ANIMATION FILES (1: YES) :
      MEMBRANE STRESS . . . . .     0
      BENDING STRESS(MOMENT/T^2)    0
      UPPER LAYER STRESS. . . .     0
      LOWER LAYER STRESS. . . .     0
      MEMBRANE STRAIN . . . . .     0
      CURVATURE . . . . . . . .     0
      UPPER LAYER STRAIN. . . .     0
      LOWER LAYER STRAIN. . . .     0
 NODAL MASS SAVED ON ANIMATION FILES (1: YES) :    0
 KEEP DELETED ELEMENT (1: YES) :    0


 INITIAL TIME STEP. . . . . . . . . . . . . . . .   0.000000    
 MAXIMUM TIME STEP. . . . . . . . . . . . . . . .  0.1000000E+31

 PARALLEL ARITHMETIC ON
 NUMBER OF INTERFACES TO BE ELIMINATED. . . . . .        0

 NUMBER OF SOLID  ELEMENT BLOCKS TO BE ELIMINATED        0

 NUMBER OF QUAD   ELEMENT BLOCKS TO BE ELIMINATED        0

 NUMBER OF SHELL  ELEMENT BLOCKS TO BE ELIMINATED        0

 NUMBER OF TRUSS  ELEMENT BLOCKS TO BE ELIMINATED        0

 NUMBER OF BEAM   ELEMENT BLOCKS TO BE ELIMINATED        0

 NUMBER OF SPRING ELEMENT BLOCKS TO BE ELIMINATED        0

 NUMBER OF SH_3N  ELEMENT BLOCKS TO BE ELIMINATED        0

 NUMBER OF  SPH PARTICLES BLOCKS TO BE ELIMINATED        0

 NUMBER OF RIGID LINKS. . . . . . . . . . . . . .        0

 NUMBER OF NEW BOUNDARY CONDITIONS. . . . . . . .        0

 23/11/2022
   CYCLE    TIME      TIME-STEP  ELEMENT          ERROR  I-ENERGY    K-ENERGY T  K-ENERGY R  EXT-WORK     MAS.ERR     TOTAL MASS  MASS ADDED
       0   0.000      0.6330E-04 SHELL      10002   0.0%   0.000       0.000       0.000       0.000       0.000      0.7316       0.000    
     ANIMATION FILE: BOULE1V4A001 WRITTEN
     100  0.6330E-02  0.6330E-04 SHELL      10002 -99.9%   3.512       20.08      0.2716     -0.3154       0.000      0.7316       0.000    
     200  0.1266E-01  0.6330E-04 SHELL      10002 -99.9%   30.62       14.71       1.586     -0.3606       0.000      0.7316       0.000    
     300  0.1899E-01  0.6330E-04 SHELL      10002 -99.9%   56.12       40.93       5.280     -0.3606       0.000      0.7316       0.000    
     ANIMATION FILE: BOULE1V4A002 WRITTEN
     400  0.2532E-01  0.6330E-04 SHELL      10002 -99.9%   128.1       4.268       10.50     -0.3606       0.000      0.7316       0.000    
     500  0.3165E-01  0.6330E-04 SHELL      10002 -99.9%   187.6       2.175       15.83     -0.3606       0.000      0.7316       0.000    
     600  0.3798E-01  0.6330E-04 SHELL      10002 -99.9%   248.2       1.623       19.68     -0.3606       0.000      0.7316       0.000    
     ANIMATION FILE: BOULE1V4A003 WRITTEN
     700  0.4431E-01  0.6330E-04 SHELL      10002 -99.9%   312.9       2.517       21.89     -0.4627       0.000      0.7316       0.000    
     800  0.5064E-01  0.6330E-04 SHELL      10002 -99.9%   384.5       4.831       23.30     -0.5639       0.000      0.7316       0.000    
     900  0.5697E-01  0.6330E-04 SHELL      10002 -99.9%   462.2       2.964       21.88     -0.7703       0.000      0.7316       0.000    
     ANIMATION FILE: BOULE1V4A004 WRITTEN
    1000  0.6330E-01  0.6330E-04 SHELL      10002 -99.9%   545.5       4.245       17.38     -0.9763       0.000      0.7316       0.000    
    1100  0.6963E-01  0.6330E-04 SHELL      10002 -99.9%   633.8       4.604       12.94     -0.9763       0.000      0.7316       0.000    
    1200  0.7596E-01  0.6330E-04 SHELL      10002 -99.9%   729.3       6.194       9.004     -0.9763       0.000      0.7316       0.000    
     ANIMATION FILE: BOULE1V4A005 WRITTEN
    1300  0.8229E-01  0.6330E-04 SHELL      10002 -99.9%   849.7       4.871       7.648      -1.120       0.000      0.7316       0.000    
    1400  0.8862E-01  0.6330E-04 SHELL      10002 -99.9%   993.5       3.285       8.731      -1.253       0.000      0.7316       0.000    
    1500  0.9495E-01  0.6330E-04 SHELL      10002 -99.9%   1130.       3.726       13.79      -1.254       0.000      0.7316       0.000    
     ANIMATION FILE: BOULE1V4A006 WRITTEN
    1600  0.1013      0.6330E-04 SHELL      10002 -99.9%   1264.       3.444       20.34      -1.258       0.000      0.7316       0.000    
    1700  0.1076      0.6070E-04 NODE        1038 -99.9%   1415.       4.935       33.02      -1.411       0.000      0.7316       0.000    
    1800  0.1136      0.6062E-04 NODE        1001 -99.9%   1578.       4.978       24.16      -1.451       0.000      0.7316       0.000    
    1900  0.1190      0.5349E-04 NODE        1004 -99.9%   1732.       5.204       22.16      -1.451       0.000      0.7316       0.000    
     ANIMATION FILE: BOULE1V4A007 WRITTEN
    2000  0.1246      0.4930E-04 NODE        1003 -99.9%   1943.       34.91       22.18      -3.014       0.000      0.7316       0.000    

     RESTART FILES: BOULE1V4_0001_[0001-0004].rst WRITTEN
     -------------

     ANIMATION FILE: BOULE1V4A008 WRITTEN
  
                           ** CPU USER TIME **
  
  
                        ** SUMMARY **
  
 #PROC  CONTSORT  CONTFOR   ELEMENT   KINCOND   INTEG     IO        T0        ASM       RESOL    
   1   .1324E+00 .5530E-01 .1409E+00 .8831E-01 .3061E-01 .8656E-01 .1308E+00 .2997E-01 .1013E+01
   2   .1544E+00 .6096E-01 .1381E+00 .7977E-01 .2936E-01 .8570E-01 .1377E+00 .2847E-01 .1022E+01
   3   .1521E+00 .4798E-01 .1338E+00 .7691E-01 .3128E-01 .8848E-01 .1382E+00 .2768E-01 .1007E+01
   4   .1500E+00 .4312E-01 .1338E+00 .8975E-01 .2943E-01 .8343E-01 .1389E+00 .2713E-01 .1023E+01
  
                 ** SPMD COM. TIME **
  
 #PROC  FORCES    RBYFOR    RBYVEL    VEL       TOT       %        
   1   .9001E-01 .0000E+00 .0000E+00 .2407E-01 .1141E+00 .1126E+02
   2   .9136E-01 .0000E+00 .0000E+00 .2396E-01 .1153E+00 .1129E+02
   3   .9752E-01 .0000E+00 .0000E+00 .1628E-01 .1138E+00 .1130E+02
   4   .1156E+00 .0000E+00 .0000E+00 .2369E-01 .1392E+00 .1361E+02
  
 
                   ** CUMULATIVE CPU TIME SUMMARY **
  
 CONTACT SORTING.............: .5889E+00    14.49 % 
 CONTACT FORCES..............: .2074E+00     5.10 % 
 ELEMENT FORCES..............: .5466E+00    13.45 % 
 KINEMATIC COND..............: .3347E+00     8.23 % 
 INTEGRATION.................: .1207E+00     2.97 % 
 ASSEMBLING..................: .1133E+00     2.79 % 
 OTHERS (including I/O)......: .2153E+01    52.98 % 
 TOTAL.......................: .4065E+01   100.00 % 
  
  
                           ** ELAPSED TIME **
  
  
                        ** SUMMARY **
  
 #PROC  CONTSORT  CONTFOR   ELEMENT   KINCOND   INTEG     IO        T0        ASM       RESOL    
   1   .7929E-01 .3298E-01 .8500E-01 .5359E-01 .1841E-01 .5364E-01 .7784E-01 .1788E-01 .6098E+00
   2   .9237E-01 .3621E-01 .8258E-01 .4884E-01 .1763E-01 .5090E-01 .8264E-01 .1695E-01 .6099E+00
   3   .9231E-01 .2902E-01 .8149E-01 .4751E-01 .1915E-01 .5272E-01 .8421E-01 .1670E-01 .6098E+00
   4   .8960E-01 .2569E-01 .8022E-01 .5381E-01 .1768E-01 .4925E-01 .8279E-01 .1624E-01 .6103E+00
  
        CONTSORT  CONTFOR   ELEMENT   KINCOND   INTEG     IO        T0        ASM       RESOL    
 MIN   .7929E-01 .2569E-01 .8022E-01 .4751E-01 .1763E-01 .4925E-01 .7784E-01 .1624E-01 .6098E+00
 MAX   .9237E-01 .3621E-01 .8500E-01 .5381E-01 .1915E-01 .5364E-01 .8421E-01 .1788E-01 .6103E+00
 AVG   .8839E-01 .3097E-01 .8232E-01 .5094E-01 .1822E-01 .5163E-01 .8187E-01 .1694E-01 .6100E+00
  
                 ** SPMD COM. TIME **
  
 #PROC  FORCES    RBYFOR    RBYVEL    VEL       TOT       %        
   1   .5416E-01 .0000E+00 .0000E+00 .1472E-01 .6887E-01 .1129E+02
   2   .5457E-01 .0000E+00 .0000E+00 .1479E-01 .6936E-01 .1137E+02
   3   .5913E-01 .0000E+00 .0000E+00 .1012E-01 .6925E-01 .1136E+02
   4   .6837E-01 .0000E+00 .0000E+00 .1450E-01 .8287E-01 .1358E+02
  
        FORCES    RBYFOR    RBYVEL    VEL       TOT       %        
 MIN   .5416E-01 .0000E+00 .0000E+00 .1012E-01 .6887E-01 .1129E+02
 MAX   .6837E-01 .0000E+00 .0000E+00 .1479E-01 .8287E-01 .1358E+02
 AVG   .5906E-01 .0000E+00 .0000E+00 .1353E-01 .7259E-01 .1190E+02
  
                   ** MEMORY USAGE STATISTICS **
  
 TOTAL MEMORY USED .........................:      229 MB
 MAXIMUM MEMORY PER PROCESSOR...............:       58 MB
 MINIMUM MEMORY PER PROCESSOR...............:       57 MB
 AVERAGE MEMORY PER PROCESSOR...............:       57 MB
  
                   ** DISK USAGE STATISTICS **
  
 TOTAL DISK SPACE USED .....................:          1 MB
 ANIMATION/H3D/TH/OUTP SIZE ................:          0 MB
 RESTART FILE SIZE .........................:          1 MB
  
                   ** COMPUTE TIME INFORMATION **
                        ** CURRENT ENGINE **
  
 EXECUTION STARTED .........................:      2022/11/23  16:21:17
 EXECUTION COMPLETED .......................:      2022/11/23  16:21:18
  
 ELAPSED TIME     =          0.69 s
                          0:00:00
 ESTIMATED SPEEDUP=          5.85



     NORMAL TERMINATION      



     TOTAL NUMBER OF CYCLES  :    2098

  
                   ** COMPUTE RUNTIME INFORMATION SUMMARY **
  
        STARTER RUNTIME =          0.65s (00:00:00)
 # 001   ENGINE RUNTIME =          0.69s (00:00:00)
 ------------------------------ 
 STARTER+ENGINE RUNTIME =          1.35s (00:00:01)
  
