 SPECT_SUB_0001.out
************************************************************************
**                                                                    **
**                                                                    **
**                         OpenRadioss Engine                         **
**                                                                    **
**            Non-linear Finite Element Analysis Software             **
**                                                                    **
**                                                                    **
**                                                                    **
**                Linux 64 bits, GNU compiler, OpenMPI                **
**                                                                    **
**                                                                    **
**                                                                    **
** CommitID: 440deeba848d606665f88afb8302e85b1ecf72bf                 **
************************************************************************
** OpenRadioss Software                                               **
** COPYRIGHT (C) 1986-2022 Altair Engineering, Inc.                   **
** Licensed under GNU Affero General Public License.                  **
** See License file.                                                  **
************************************************************************
 
 NUMBER OF SPMD DOMAINS           4
 NUMBER OF THREADS PER DOMAIN     2
 NUMBER OF HMPP PROCESSES         8
  
 COMPUTATION HARDWARE DESCRIPTION
  
 CPU#  HOSTNAME     CPU TYPE, FREQUENCY AND MEMORY
   1   fr-shady.europe.altair.com   Intel(R) Xeon(R) CPU           X5680  @ 3.33GHz (x86_64), 1596 MHz,  20012 MB RAM,  49126 MB swap
   2   fr-shady.europe.altair.com   Intel(R) Xeon(R) CPU           X5680  @ 3.33GHz (x86_64), 1596 MHz,  20012 MB RAM,  49126 MB swap
   3   fr-shady.europe.altair.com   Intel(R) Xeon(R) CPU           X5680  @ 3.33GHz (x86_64), 1596 MHz,  20012 MB RAM,  49126 MB swap
   4   fr-shady.europe.altair.com   Intel(R) Xeon(R) CPU           X5680  @ 3.33GHz (x86_64), 1596 MHz,  20012 MB RAM,  49126 MB swap
  
************************************************************************


 SPECT_SUBD01Sample                                                              


 FINAL TIME . . . . . . . . . . . . . . . . . . .   1.001000    

 TIME INTERVAL FOR TIME HISTORY PLOTS . . . . . .  0.1000000    

 TIME STEP SCALE FACTOR . . . . . . . . . . . . .  0.9000000    

 MINIMUM TIME STEP  . . . . . . . . . . . . . . .   0.000000    


 NODAL TIME STEP SCALE FACTOR,  . . . . . . . . .  0.9000000    
 NODAL MINIMUM TIME STEP. . . . . . . . . . . . .  0.2000000E-03
 MIN. TIME FLAG . . . . . . . . . . . . . . . . .     3
    1:STOP. . . . . . . . . . . . . . . . . . . . 
    3:INCREASE MASS, ORIGINAL FORMULATION . . . . 
    8:INCREASE MASS, IMPROVED FORMULATION . . . . 


 BRICK TIME STEP SCALE FACTOR . . . . . . . . . .  0.9000000    
 BRICK MINIMUM TIME STEP. . . . . . . . . . . . .   0.000000    
 MIN. TIME STEP FLAG (1:STOP RUN, 2:DELETE BRICK)     0

 QUAD TIME STEP SCALE FACTOR. . . . . . . . . . .  0.9000000    
 QUAD MINIMUM TIME STEP . . . . . . . . . . . . .   0.000000    
 MIN. TIME STEP FLAG (1:STOP RUN, 2:DELETE QUAD).     0

 SHELL TIME STEP SCALE FACTOR . . . . . . . . . .  0.9000000    
 SHELL MINIMUM TIME STEP. . . . . . . . . . . . .   0.000000    
 MIN. TIME FLAG (1:STOP, 2:DELETE, 3:SMALL STRAIN)    0

 TRUSS TIME STEP SCALE FACTOR . . . . . . . . . .  0.9000000    
 TRUSS MINIMUM TIME STEP. . . . . . . . . . . . .   0.000000    
 MIN. TIME FLAG (1:STOP, 2:DELETE). . . . . . . .     0

 BEAM TIME STEP SCALE FACTOR. . . . . . . . . . .  0.9000000    
 BEAM MINIMUM TIME STEP . . . . . . . . . . . . .   0.000000    
 MIN. TIME FLAG (1:STOP, 2:DELETE). . . . . . . .     0

 SPRING TIME STEP SCALE FACTOR. . . . . . . . . .  0.9000000    
 SPRING MINIMUM TIME STEP . . . . . . . . . . . .   0.000000    
 MIN. TIME FLAG (1:STOP, 2:DELETE). . . . . . . .     0

 AIRBAG TIME STEP SCALE FACTOR. . . . . . . . . .  0.9000000    
 AIRBAG MINIMUM TIME STEP . . . . . . . . . . . .   0.000000    
 MIN. TIME FLAG (1:STOP). . . . . . . . . . . . .     0

 CONTACT TIME STEP SCALE FACTOR . . . . . . . . .  0.9000000    
 CONTACT MINIMUM TIME STEP. . . . . . . . . . . .   0.000000    
 MIN. TIME FLAG(1:STOP, 2:REMOVE NODE FROM INTERF)    0

 PRINTOUT CYCLE FREQUENCY . . . . . . . . . . . .    -1

 RESTART CYCLE FREQUENCY. . . . . . . . . . . . .   10000000

 MAXIMUM RESTART WRITE BEFORE OVERWRITE . . . . .     0

 INVERS: INPUT DECK VERSION . . . . . . . . . . .   100
 ITTYP : FLAG FOR TYPE OF T-FILE. . . . . . . . .     4


 TIME FOR FIRST ANIMATION-FILE PLOT . . . . . . .   0.000000    
 TIME INTERVAL FOR ANIMATION-FILE PLOTS . . . . .  0.2000000    
 SENSOR FOR ANIMATION-FILE PLOTS. . . . . . . . .          0
 TIME INTERVAL FOR SENSOR ANIMATION-FILE PLOTS. .   0.000000    

 VARIABLE SAVED ON ANIMATION FILES (1: YES) :
      PLASTIC STRAIN. . . . . .     1
      DENSITY     (SOLID ONLY).     0
      SPECIFIC ENERGY . . . . .     1
      HOURGLASS ENERGY. . . . .     1
      TEMPERATURE (SOLID ONLY).     0
      THICKNESS   (SHELL ONLY).     0
      PRESSURE    (SOLID ONLY).     0
      VON MISES . . . . . . . .     1
      TURBULENT ENERGY (FLUID).     0
      TURBULENT VISCOSITY(FLUID)    0
      VORTICITY (FLUID) . . . .     0
 NODAL VALUES SAVED ON ANIMATION FILES (1: YES) :
      PRESSURE. . . . . . . . .     0
      DENSITY . . . . . . . . .     0
      TEMPERATURE . . . . . . .     0
 VECTOR SAVED ON ANIMATION FILES (1: YES) :
      VELOCITY VECTOR . . . . .     1
      DISPLACEMENT VECTOR . . .     0
      ACCELERATION VECTOR . . .     0
      CONTACT FORCES. . . . . .     1
      INTERNAL FORCES . . . . .     0
      EXTERNAL FORCES . . . . .     0
      SECTION RBY RWALL FORCES.     1
      ROTATIONAL VELOCITY VECTOR    0
      CONTACT PRESSURE (VECTORS)    0
 SHELL TENSOR SAVED ON ANIMATION FILES (1: YES) :
      MEMBRANE STRESS . . . . .     0
      BENDING STRESS(MOMENT/T^2)    0
      UPPER LAYER STRESS. . . .     0
      LOWER LAYER STRESS. . . .     0
      MEMBRANE STRAIN . . . . .     0
      CURVATURE . . . . . . . .     0
      UPPER LAYER STRAIN. . . .     0
      LOWER LAYER STRAIN. . . .     0
 NODAL MASS SAVED ON ANIMATION FILES (1: YES) :    1
 KEEP DELETED ELEMENT (1: YES) :    0


 INITIAL TIME STEP. . . . . . . . . . . . . . . .   0.000000    
 MAXIMUM TIME STEP. . . . . . . . . . . . . . . .  0.1000000E+31

 PARALLEL ARITHMETIC ON
 NUMBER OF INTERFACES TO BE ELIMINATED. . . . . .        0

 NUMBER OF SOLID  ELEMENT BLOCKS TO BE ELIMINATED        0

 NUMBER OF QUAD   ELEMENT BLOCKS TO BE ELIMINATED        0

 NUMBER OF SHELL  ELEMENT BLOCKS TO BE ELIMINATED        0

 NUMBER OF TRUSS  ELEMENT BLOCKS TO BE ELIMINATED        0

 NUMBER OF BEAM   ELEMENT BLOCKS TO BE ELIMINATED        0

 NUMBER OF SPRING ELEMENT BLOCKS TO BE ELIMINATED        0

 NUMBER OF SH_3N  ELEMENT BLOCKS TO BE ELIMINATED        0

 NUMBER OF  SPH PARTICLES BLOCKS TO BE ELIMINATED        0

 NUMBER OF RIGID LINKS. . . . . . . . . . . . . .        0

 NUMBER OF NEW BOUNDARY CONDITIONS. . . . . . . .        0

 23/11/2022
   CYCLE    TIME      TIME-STEP  ELEMENT          ERROR  I-ENERGY    K-ENERGY T  K-ENERGY R  EXT-WORK     MAS.ERR     TOTAL MASS  MASS ADDED
       0   0.000      0.1192E-03 NODE      102508   0.0%   0.000       0.000       0.000       0.000       1.818      0.3945E-01  0.2545E-01
     ANIMATION FILE: SPECT_SUBA001 WRITTEN
     OUTPUT FILE: SPECT_SUB_0001.sty WRITTEN
       1  0.1192E-03  0.1311E-03 NODE      102508   0.0%  0.2828E-04  0.9865E-02   0.000      0.9890E-02   1.818      0.3945E-01  0.2545E-01
       2  0.2502E-03  0.1442E-03 NODE      102508   0.0%  0.1121E-03  0.9868E-02   0.000      0.9977E-02   1.818      0.3946E-01  0.2546E-01
       3  0.3944E-03  0.1586E-03 NODE      102508   0.0%  0.2768E-03  0.9864E-02   0.000      0.1014E-01   1.818      0.3946E-01  0.2546E-01
       4  0.5530E-03  0.1744E-03 NODE      102508   0.1%  0.5495E-03  0.9868E-02   0.000      0.1041E-01   1.818      0.3946E-01  0.2546E-01
       5  0.7274E-03  0.1919E-03 NODE      102508   0.4%  0.9727E-03  0.9867E-02   0.000      0.1080E-01   1.818      0.3946E-01  0.2546E-01
       6  0.9193E-03  0.2000E-03 NODE      102508   4.1%  0.1819E-02  0.1004E-01   0.000      0.1139E-01   1.818      0.3946E-01  0.2546E-01
       7  0.1119E-02  0.2000E-03 NODE      102508  66.8%  0.7201E-02  0.1275E-01   0.000      0.1196E-01   1.819      0.3946E-01  0.2546E-01
       8  0.1319E-02  0.2000E-03 NODE      102508  99.9%  0.9114E-01  0.6444E-01   0.000      0.1349E-01   1.819      0.3946E-01  0.2546E-01
       9  0.1519E-02  0.1998E-03 NODE      102508  99.9%   1.580      0.9779       0.000      0.1168E-01   1.826      0.3956E-01  0.2556E-01
      10  0.1719E-02  0.2000E-03 NODE      102508  99.9%   27.10       15.75       0.000      0.2460E-01   1.826      0.3956E-01  0.2556E-01
      11  0.1919E-02  0.1960E-03 NODE      102508  99.9%   42.59       13.26       0.000      0.1843E-01   1.943      0.4120E-01  0.2720E-01
      12  0.2115E-02  0.1943E-03 NODE      102508 -99.9%   16.04      0.2392E-01   0.000     -0.2297E-02   2.032      0.4245E-01  0.2845E-01
      13  0.2309E-02  0.1992E-03 NODE      102508 -99.9%   35.62       10.29       0.000     -0.2197E-01   2.056      0.4278E-01  0.2878E-01
      14  0.2508E-02  0.2006E-03 NODE      102508 -99.9%   52.64       5.171       0.000     -0.2055E-01   2.056      0.4278E-01  0.2878E-01
      15  0.2709E-02  0.2053E-03 NODE      102508 -99.9%   50.07       3.014       0.000     -0.1260E-01   2.056      0.4278E-01  0.2878E-01
      16  0.2914E-02  0.2039E-03 NODE      102508 -99.9%   58.19       1.361       0.000     -0.1823E-02   2.056      0.4278E-01  0.2878E-01
      17  0.3118E-02  0.2080E-03 NODE      102508  99.9%   56.72      0.6266       0.000      0.6263E-02   2.056      0.4278E-01  0.2878E-01
      18  0.3326E-02  0.2058E-03 NODE      102508  99.9%   61.05      0.1381       0.000      0.1361E-01   2.056      0.4278E-01  0.2878E-01
      19  0.3532E-02  0.2093E-03 NODE      102508  99.9%   61.25      0.2871E-01   0.000      0.1824E-01   2.056      0.4278E-01  0.2878E-01
      20  0.3741E-02  0.2064E-03 NODE      102508  99.9%   63.09      0.4664E-01   0.000      0.2182E-01   2.056      0.4278E-01  0.2878E-01
      21  0.3948E-02  0.2095E-03 NODE      102508  99.9%   64.68      0.1069       0.000      0.2354E-01   2.056      0.4278E-01  0.2878E-01
      22  0.4157E-02  0.2061E-03 NODE      102508  99.9%   65.04      0.3396       0.000      0.2450E-01   2.056      0.4278E-01  0.2878E-01
      23  0.4364E-02  0.2090E-03 NODE      102508  99.9%   67.76      0.4018       0.000      0.2414E-01   2.056      0.4278E-01  0.2878E-01
      24  0.4573E-02  0.2053E-03 NODE      102508  99.9%   67.16      0.7381       0.000      0.2330E-01   2.056      0.4278E-01  0.2878E-01
      25  0.4778E-02  0.2080E-03 NODE      102508  99.9%   70.80      0.7463       0.000      0.2148E-01   2.056      0.4278E-01  0.2878E-01
      26  0.4986E-02  0.2040E-03 NODE      102508  99.9%   69.52       1.143       0.000      0.1939E-01   2.056      0.4278E-01  0.2878E-01
      27  0.5190E-02  0.2062E-03 NODE      102508  99.9%   73.92       1.085       0.000      0.1654E-01   2.056      0.4278E-01  0.2878E-01
      28  0.5396E-02  0.2024E-03 NODE      102508  99.9%   72.11       1.522       0.000      0.1352E-01   2.056      0.4278E-01  0.2878E-01
      29  0.5599E-02  0.2038E-03 NODE      102508  99.9%   77.18       1.393       0.000      0.9859E-02   2.056      0.4278E-01  0.2878E-01
      30  0.5802E-02  0.2005E-03 NODE      102508  99.9%   74.91       1.855       0.000      0.6087E-02   2.056      0.4278E-01  0.2878E-01
      31  0.6003E-02  0.2010E-03 NODE      102508  99.9%   80.61       1.655       0.000      0.1739E-02   2.056      0.4278E-01  0.2878E-01
      32  0.6204E-02  0.1984E-03 NODE      102508 -99.9%   77.94       2.139       0.000     -0.2622E-02   2.056      0.4278E-01  0.2878E-01
      33  0.6402E-02  0.1979E-03 NODE      102508 -99.9%   84.21       2.468       0.000     -0.7501E-02   2.121      0.4370E-01  0.2970E-01
      34  0.6600E-02  0.1976E-03 NODE      102508 -99.9%   80.70       2.831       0.000     -0.1337E-01   2.127      0.4378E-01  0.2978E-01
      35  0.6798E-02  0.1964E-03 NODE      102508 -99.9%   88.41       3.484       0.000     -0.2004E-01   2.242      0.4539E-01  0.3139E-01
      36  0.6994E-02  0.1970E-03 NODE      102508 -99.9%   83.91       3.576       0.000     -0.2799E-01   2.259      0.4563E-01  0.3163E-01
      37  0.7191E-02  0.1962E-03 NODE      102508 -99.9%   93.23       4.115       0.000     -0.3678E-01   2.388      0.4743E-01  0.3343E-01
      38  0.7387E-02  0.1966E-03 NODE      102508 -99.9%   88.06       4.019       0.000     -0.4624E-01   2.411      0.4775E-01  0.3375E-01
      39  0.7584E-02  0.1960E-03 NODE      102508 -99.9%   98.40       4.481       0.000     -0.5632E-01   2.551      0.4971E-01  0.3571E-01
      40  0.7780E-02  0.1963E-03 NODE      102508 -99.9%   92.82       4.279       0.000     -0.6665E-01   2.577      0.5008E-01  0.3608E-01
      41  0.7976E-02  0.1959E-03 NODE      102508 -99.9%   103.8       4.715       0.000     -0.7747E-01   2.727      0.5218E-01  0.3818E-01
      42  0.8172E-02  0.1962E-03 NODE      102508 -99.9%   97.92       4.459       0.000     -0.8832E-01   2.756      0.5258E-01  0.3858E-01
      43  0.8368E-02  0.1959E-03 NODE      102508 -99.9%   109.3       4.900       0.000     -0.9957E-01   2.915      0.5481E-01  0.4081E-01
      44  0.8564E-02  0.1960E-03 NODE      102508 -99.9%   103.2       4.613       0.000     -0.1108       2.947      0.5526E-01  0.4126E-01
      45  0.8760E-02  0.1958E-03 NODE      102508 -99.9%   114.9       5.077       0.000     -0.1223       3.116      0.5763E-01  0.4363E-01
      46  0.8956E-02  0.1959E-03 NODE      102508 -99.9%   108.6       4.763       0.000     -0.1338       3.150      0.5810E-01  0.4410E-01
      47  0.9152E-02  0.1958E-03 NODE      102508 -99.9%   120.7       5.254       0.000     -0.1456       3.331      0.6063E-01  0.4663E-01
      48  0.9348E-02  0.1957E-03 NODE      102508 -99.9%   114.2       4.916       0.000     -0.1574       3.367      0.6114E-01  0.4714E-01
      49  0.9543E-02  0.1957E-03 NODE      102508 -99.9%   126.5       5.434       0.000     -0.1694       3.560      0.6384E-01  0.4984E-01
      50  0.9739E-02  0.1955E-03 NODE      102508 -99.9%   119.8       5.070       0.000     -0.1815       3.599      0.6439E-01  0.5039E-01
      51  0.9935E-02  0.1957E-03 NODE      102508 -99.9%   132.5       5.614       0.000     -0.1938       3.804      0.6725E-01  0.5325E-01
      52  0.1013E-01  0.1954E-03 NODE      102508 -99.9%   125.5       5.224       0.000     -0.2061       3.846      0.6784E-01  0.5384E-01
      53  0.1033E-01  0.1956E-03 NODE      102508 -99.9%   138.5       5.793       0.000     -0.2186       4.064      0.7089E-01  0.5689E-01
      54  0.1052E-01  0.1952E-03 NODE      102508 -99.9%   131.4       5.376       0.000     -0.2312       4.109      0.7153E-01  0.5753E-01
   CYCLE    TIME      TIME-STEP  ELEMENT          ERROR  I-ENERGY    K-ENERGY T  K-ENERGY R  EXT-WORK     MAS.ERR     TOTAL MASS  MASS ADDED
      55  0.1072E-01  0.1956E-03 NODE      102508 -99.9%   144.7       5.970       0.000     -0.2440       4.341      0.7478E-01  0.6078E-01
      56  0.1091E-01  0.1950E-03 NODE      102508 -99.9%   137.3       5.527       0.000     -0.2568       4.390      0.7546E-01  0.6146E-01
      57  0.1111E-01  0.1956E-03 NODE      102508 -99.9%   150.9       6.144       0.000     -0.2698       4.637      0.7892E-01  0.6492E-01
      58  0.1130E-01  0.1948E-03 NODE      102508 -99.9%   143.4       5.676       0.000     -0.2829       4.690      0.7965E-01  0.6565E-01
      59  0.1150E-01  0.1955E-03 NODE      102508 -99.9%   157.3       6.317       0.000     -0.2962       4.953      0.8334E-01  0.6934E-01
      60  0.1169E-01  0.1946E-03 NODE      102508 -99.9%   149.6       5.824       0.000     -0.3094       5.009      0.8412E-01  0.7012E-01
      61  0.1189E-01  0.1955E-03 NODE      102508 -99.9%   163.7       6.488       0.000     -0.3230       5.289      0.8805E-01  0.7405E-01
      62  0.1208E-01  0.1944E-03 NODE      102508 -99.9%   155.8       5.970       0.000     -0.3365       5.349      0.8889E-01  0.7489E-01
      63  0.1228E-01  0.1955E-03 NODE      102508 -99.9%   170.3       6.657       0.000     -0.3502       5.648      0.9307E-01  0.7907E-01
      64  0.1247E-01  0.1942E-03 NODE      102508 -99.9%   162.2       6.115       0.000     -0.3640       5.711      0.9396E-01  0.7996E-01
      65  0.1267E-01  0.1954E-03 NODE      102508 -99.9%   177.0       6.825       0.000     -0.3779       6.030      0.9841E-01  0.8441E-01
      66  0.1286E-01  0.1940E-03 NODE      102508 -99.9%   168.7       6.259       0.000     -0.3919       6.098      0.9937E-01  0.8537E-01
      67  0.1306E-01  0.1954E-03 NODE      102508 -99.9%   183.7       6.992       0.000     -0.4061       6.437      0.1041      0.9011E-01
      68  0.1325E-01  0.1938E-03 NODE      102508 -99.9%   175.3       6.403       0.000     -0.4203       6.509      0.1051      0.9113E-01
      69  0.1345E-01  0.1954E-03 NODE      102508 -99.9%   190.6       7.158       0.000     -0.4347       6.870      0.1102      0.9618E-01
      70  0.1364E-01  0.1936E-03 NODE      102508 -99.9%   182.0       6.545       0.000     -0.4491       6.948      0.1113      0.9727E-01
      71  0.1384E-01  0.1953E-03 NODE      102508 -99.9%   197.5       7.323       0.000     -0.4637       7.332      0.1167      0.1027    
      72  0.1403E-01  0.1934E-03 NODE      102508 -99.9%   188.7       6.687       0.000     -0.4783       7.415      0.1178      0.1038    
      73  0.1422E-01  0.1953E-03 NODE      102508 -99.9%   204.6       7.486       0.000     -0.4931       7.824      0.1235      0.1095    
      74  0.1442E-01  0.1932E-03 NODE      102508 -99.9%   195.6       6.828       0.000     -0.5080       7.912      0.1248      0.1108    
      75  0.1461E-01  0.1953E-03 NODE      102508 -99.9%   211.7       7.649       0.000     -0.5229       8.349      0.1309      0.1169    
      76  0.1481E-01  0.1930E-03 NODE      102508 -99.9%   202.5       6.969       0.000     -0.5380       8.442      0.1322      0.1182    
      77  0.1500E-01  0.1953E-03 NODE      102508 -99.9%   218.9       7.811       0.000     -0.5532       8.907      0.1387      0.1247    
      78  0.1520E-01  0.1927E-03 NODE      102508 -99.9%   209.6       7.109       0.000     -0.5685       9.007      0.1401      0.1261    
      79  0.1539E-01  0.1952E-03 NODE      102508 -99.9%   226.2       7.972       0.000     -0.5838       9.502      0.1470      0.1330    
      80  0.1558E-01  0.1925E-03 NODE      102508 -99.9%   216.7       7.248       0.000     -0.5993       9.608      0.1485      0.1345    
 FAILURE (JC) OF SHELL ELEMENT    1000000 ,GAUSS PT 1 ,LAYER  1 ,INTEGRATION PT  1
 FAILURE (JC) OF SHELL ELEMENT    1000000 ,GAUSS PT 1 ,LAYER  1 ,INTEGRATION PT  2
 FAILURE (JC) OF SHELL ELEMENT    1000000 ,GAUSS PT 1 ,LAYER  1 ,INTEGRATION PT  3
 -- RUPTURE OF SHELL ELEMENT NUMBER    1000000
      81  0.1578E-01  0.2118E-03 NODE      102508 -99.9%  -47.21       170.0       0.000     -0.5804       9.608      0.1485      0.1345    
      82  0.1599E-01  0.2329E-03 NODE      102508 -99.9%  -47.21       170.0       0.000     -0.5804       9.608      0.1485      0.1345    
      83  0.1622E-01  0.2562E-03 NODE      102508 -99.9%  -47.21       170.0       0.000     -0.5804       9.608      0.1485      0.1345    
      84  0.1648E-01  0.2819E-03 NODE      102508 -99.9%  -47.21       170.0       0.000     -0.5804       9.608      0.1485      0.1345    
      85  0.1676E-01  0.3101E-03 NODE      102508 -99.9%  -47.21       170.0       0.000     -0.5804       9.608      0.1485      0.1345    
      86  0.1707E-01  0.3411E-03 NODE      102508 -99.9%  -47.21       170.0       0.000     -0.5804       9.608      0.1485      0.1345    
      87  0.1741E-01  0.3752E-03 NODE      102508 -99.9%  -47.21       170.0       0.000     -0.5804       9.608      0.1485      0.1345    
      88  0.1779E-01  0.4127E-03 NODE      102508 -99.9%  -47.21       170.0       0.000     -0.5804       9.608      0.1485      0.1345    
      89  0.1820E-01  0.4540E-03 NODE      102508 -99.9%  -47.21       170.0       0.000     -0.5804       9.608      0.1485      0.1345    
      90  0.1865E-01  0.4993E-03 NODE      102508 -99.9%  -47.21       170.0       0.000     -0.5804       9.608      0.1485      0.1345    
      91  0.1915E-01  0.5493E-03 NODE      102508 -99.9%  -47.21       170.0       0.000     -0.5804       9.608      0.1485      0.1345    
      92  0.1970E-01  0.6042E-03 NODE      102508 -99.9%  -47.21       170.0       0.000     -0.5804       9.608      0.1485      0.1345    
      93  0.2030E-01  0.6646E-03 NODE      102508 -99.9%  -47.21       170.0       0.000     -0.5804       9.608      0.1485      0.1345    
      94  0.2097E-01  0.7311E-03 NODE      102508 -99.9%  -47.21       170.0       0.000     -0.5804       9.608      0.1485      0.1345    
      95  0.2170E-01  0.8042E-03 NODE      102508 -99.9%  -47.21       170.0       0.000     -0.5804       9.608      0.1485      0.1345    
      96  0.2250E-01  0.8846E-03 NODE      102508 -99.9%  -47.21       170.0       0.000     -0.5804       9.608      0.1485      0.1345    
      97  0.2339E-01  0.9731E-03 NODE      102508 -99.9%  -47.21       170.0       0.000     -0.5804       9.608      0.1485      0.1345    
      98  0.2436E-01  0.1070E-02 NODE      102508 -99.9%  -47.21       170.0       0.000     -0.5804       9.608      0.1485      0.1345    
      99  0.2543E-01  0.1177E-02 NODE      102508 -99.9%  -47.21       170.0       0.000     -0.5804       9.608      0.1485      0.1345    
     100  0.2661E-01  0.1295E-02 NODE      102508 -99.9%  -47.21       170.0       0.000     -0.5804       9.608      0.1485      0.1345    
     101  0.2791E-01  0.1425E-02 NODE      102508 -99.9%  -47.21       170.0       0.000     -0.5804       9.608      0.1485      0.1345    
     102  0.2933E-01  0.1567E-02 NODE      102508 -99.9%  -47.21       170.0       0.000     -0.5804       9.608      0.1485      0.1345    
     103  0.3090E-01  0.1724E-02 NODE      102508 -99.9%  -47.21       170.0       0.000     -0.5804       9.608      0.1485      0.1345    
     104  0.3262E-01  0.1896E-02 NODE      102508 -99.9%  -47.21       170.0       0.000     -0.5804       9.608      0.1485      0.1345    
     105  0.3452E-01  0.2086E-02 NODE      102508 -99.9%  -47.21       170.0       0.000     -0.5804       9.608      0.1485      0.1345    
     106  0.3660E-01  0.2294E-02 NODE      102508 -99.9%  -47.21       170.0       0.000     -0.5804       9.608      0.1485      0.1345    
     107  0.3890E-01  0.2524E-02 NODE      102508 -99.9%  -47.21       170.0       0.000     -0.5804       9.608      0.1485      0.1345    
     108  0.4142E-01  0.2776E-02 NODE      102508 -99.9%  -47.21       170.0       0.000     -0.5804       9.608      0.1485      0.1345    
     109  0.4420E-01  0.3054E-02 NODE      102508 -99.9%  -47.21       170.0       0.000     -0.5804       9.608      0.1485      0.1345    
   CYCLE    TIME      TIME-STEP  ELEMENT          ERROR  I-ENERGY    K-ENERGY T  K-ENERGY R  EXT-WORK     MAS.ERR     TOTAL MASS  MASS ADDED
     110  0.4725E-01  0.3359E-02 NODE      102508 -99.9%  -47.21       170.0       0.000     -0.5804       9.608      0.1485      0.1345    
     111  0.5061E-01  0.3695E-02 NODE      102508 -99.9%  -47.21       170.0       0.000     -0.5804       9.608      0.1485      0.1345    
     112  0.5431E-01  0.4065E-02 NODE      102508 -99.9%  -47.21       170.0       0.000     -0.5804       9.608      0.1485      0.1345    
     113  0.5837E-01  0.4471E-02 NODE      102508 -99.9%  -47.21       170.0       0.000     -0.5804       9.608      0.1485      0.1345    
     114  0.6284E-01  0.4918E-02 NODE      102508 -99.9%  -47.21       170.0       0.000     -0.5804       9.608      0.1485      0.1345    
     115  0.6776E-01  0.5410E-02 NODE      102508 -99.9%  -47.21       170.0       0.000     -0.5804       9.608      0.1485      0.1345    
     116  0.7317E-01  0.5951E-02 NODE      102508 -99.9%  -47.21       170.0       0.000     -0.5804       9.608      0.1485      0.1345    
     117  0.7912E-01  0.6546E-02 NODE      102508 -99.9%  -47.21       170.0       0.000     -0.5804       9.608      0.1485      0.1345    
     118  0.8567E-01  0.7201E-02 NODE      102508 -99.9%  -47.21       170.0       0.000     -0.5804       9.608      0.1485      0.1345    
     119  0.9287E-01  0.7921E-02 NODE      102508 -99.9%  -47.21       170.0       0.000     -0.5804       9.608      0.1485      0.1345    
     120  0.1008      0.8713E-02 NODE      102508 -99.9%  -47.21       170.0       0.000     -0.5804       9.608      0.1485      0.1345    
     121  0.1095      0.9585E-02 NODE      102508 -99.9%  -47.21       170.0       0.000     -0.5804       9.608      0.1485      0.1345    
     122  0.1191      0.1054E-01 NODE      102508 -99.9%  -47.21       170.0       0.000     -0.5804       9.608      0.1485      0.1345    
     123  0.1296      0.1160E-01 NODE      102508 -99.9%  -47.21       170.0       0.000     -0.5804       9.608      0.1485      0.1345    
     124  0.1412      0.1276E-01 NODE      102508 -99.9%  -47.21       170.0       0.000     -0.5804       9.608      0.1485      0.1345    
     125  0.1540      0.1403E-01 NODE      102508 -99.9%  -47.21       170.0       0.000     -0.5804       9.608      0.1485      0.1345    
     126  0.1680      0.1544E-01 NODE      102508 -99.9%  -47.21       170.0       0.000     -0.5804       9.608      0.1485      0.1345    
     127  0.1835      0.1698E-01 NODE      102508 -99.9%  -47.21       170.0       0.000     -0.5804       9.608      0.1485      0.1345    
     128  0.2004      0.1868E-01 NODE      102508 -99.9%  -47.21       170.0       0.000     -0.5804       9.608      0.1485      0.1345    
     ANIMATION FILE: SPECT_SUBA002 WRITTEN
     OUTPUT FILE: SPECT_SUB_0002.sty WRITTEN
     129  0.2191      0.2055E-01 NODE      102508 -99.9%  -47.21       170.0       0.000     -0.5804       9.608      0.1485      0.1345    
     130  0.2397      0.2260E-01 NODE      102508 -99.9%  -47.21       170.0       0.000     -0.5804       9.608      0.1485      0.1345    
     131  0.2623      0.2486E-01 NODE      102508 -99.9%  -47.21       170.0       0.000     -0.5804       9.608      0.1485      0.1345    
     132  0.2871      0.2735E-01 NODE      102508 -99.9%  -47.21       170.0       0.000     -0.5804       9.608      0.1485      0.1345    
     133  0.3145      0.3008E-01 NODE      102508 -99.9%  -47.21       170.0       0.000     -0.5804       9.608      0.1485      0.1345    
     134  0.3445      0.3309E-01 NODE      102508 -99.9%  -47.21       170.0       0.000     -0.5804       9.608      0.1485      0.1345    
     135  0.3776      0.3640E-01 NODE      102508 -99.9%  -47.21       170.0       0.000     -0.5804       9.608      0.1485      0.1345    
     136  0.4140      0.4004E-01 NODE      102508 -99.9%  -47.21       170.0       0.000     -0.5804       9.608      0.1485      0.1345    
     ANIMATION FILE: SPECT_SUBA003 WRITTEN
     OUTPUT FILE: SPECT_SUB_0003.sty WRITTEN
     137  0.4541      0.4404E-01 NODE      102508 -99.9%  -47.21       170.0       0.000     -0.5804       9.608      0.1485      0.1345    
     138  0.4981      0.4845E-01 NODE      102508 -99.9%  -47.21       170.0       0.000     -0.5804       9.608      0.1485      0.1345    
     139  0.5466      0.5329E-01 NODE      102508 -99.9%  -47.21       170.0       0.000     -0.5804       9.608      0.1485      0.1345    
     140  0.5998      0.5862E-01 NODE      102508 -99.9%  -47.21       170.0       0.000     -0.5804       9.608      0.1485      0.1345    
     141  0.6585      0.6448E-01 NODE      102508 -99.9%  -47.21       170.0       0.000     -0.5804       9.608      0.1485      0.1345    
     ANIMATION FILE: SPECT_SUBA004 WRITTEN
     OUTPUT FILE: SPECT_SUB_0004.sty WRITTEN
     142  0.7229      0.7093E-01 NODE      102508 -99.9%  -47.21       170.0       0.000     -0.5804       9.608      0.1485      0.1345    
     143  0.7939      0.7802E-01 NODE      102508 -99.9%  -47.21       170.0       0.000     -0.5804       9.608      0.1485      0.1345    
     144  0.8719      0.8582E-01 NODE      102508 -99.9%  -47.21       170.0       0.000     -0.5804       9.608      0.1485      0.1345    
     ANIMATION FILE: SPECT_SUBA005 WRITTEN
     OUTPUT FILE: SPECT_SUB_0005.sty WRITTEN
     145  0.9577      0.9441E-01 NODE      102508 -99.9%  -47.21       170.0       0.000     -0.5804       9.608      0.1485      0.1345    

     RESTART FILES: SPECT_SUB_0001_[0001-0004].rst WRITTEN
     -------------

  
                           ** CPU USER TIME **
  
  
                        ** SUMMARY **
  
 #PROC  ELEMENT   KINCOND   INTEG     IO        T0        ASM       RESOL    
   1   .8898E-02 .4520E-02 .3401E-02 .5693E-01 .8584E-02 .1526E-02 .1108E+00
   2   .2214E-02 .2307E-02 .2370E-02 .5661E-01 .4129E-01 .1037E-02 .1323E+00
   3   .3114E-02 .3562E-02 .3486E-02 .5336E-01 .3064E-01 .1531E-02 .1252E+00
   4   .2147E-02 .2379E-02 .2306E-02 .5689E-01 .4242E-01 .1014E-02 .1349E+00
  
                 ** SPMD COM. TIME **
  
 #PROC  FORCES    RBYFOR    RBYVEL    VEL       TOT       %        
   1   .9660E-03 .0000E+00 .0000E+00 .1057E-02 .2023E-02 .1825E+01
   2   .6370E-03 .0000E+00 .0000E+00 .6771E-03 .1314E-02 .9934E+00
   3   .9601E-03 .0000E+00 .0000E+00 .1049E-02 .2009E-02 .1605E+01
   4   .6320E-03 .0000E+00 .0000E+00 .7010E-03 .1333E-02 .9883E+00
  
 
                   ** CUMULATIVE CPU TIME SUMMARY **
  
 CONTACT SORTING.............: .0000E+00     0.00 % 
 CONTACT FORCES..............: .1156E-02     0.23 % 
 ELEMENT FORCES..............: .1637E-01     3.25 % 
 KINEMATIC COND..............: .1277E-01     2.54 % 
 INTEGRATION.................: .1156E-01     2.30 % 
 ASSEMBLING..................: .5108E-02     1.02 % 
 OTHERS (including I/O)......: .4562E+00    90.67 % 
 TOTAL.......................: .5032E+00   100.00 % 
  
  
                           ** ELAPSED TIME **
  
  
                        ** SUMMARY **
  
 #PROC  ELEMENT   KINCOND   INTEG     IO        T0        ASM       RESOL    
   1   .5838E-02 .2941E-02 .2164E-02 .4944E-01 .5488E-02 .9803E-03 .8835E-01
   2   .1302E-02 .1315E-02 .1324E-02 .4305E-01 .2333E-01 .6053E-03 .9306E-01
   3   .1995E-02 .2270E-02 .2181E-02 .4000E-01 .1896E-01 .9726E-03 .8836E-01
   4   .1247E-02 .1326E-02 .1267E-02 .4309E-01 .2349E-01 .5819E-03 .9310E-01
  
        ELEMENT   KINCOND   INTEG     IO        T0        ASM       RESOL    
 MIN   .1247E-02 .1315E-02 .1267E-02 .4000E-01 .5488E-02 .5819E-03 .8835E-01
 MAX   .5838E-02 .2941E-02 .2181E-02 .4944E-01 .2349E-01 .9803E-03 .9310E-01
 AVG   .2596E-02 .1963E-02 .1734E-02 .4389E-01 .1782E-01 .7850E-03 .9072E-01
  
                 ** SPMD COM. TIME **
  
 #PROC  FORCES    RBYFOR    RBYVEL    VEL       TOT       %        
   1   .6172E-03 .0000E+00 .0000E+00 .6813E-03 .1299E-02 .1470E+01
   2   .3684E-03 .0000E+00 .0000E+00 .3923E-03 .7606E-03 .8174E+00
   3   .6067E-03 .0000E+00 .0000E+00 .6710E-03 .1278E-02 .1446E+01
   4   .3465E-03 .0000E+00 .0000E+00 .3936E-03 .7401E-03 .7950E+00
  
        FORCES    RBYFOR    RBYVEL    VEL       TOT       %        
 MIN   .3465E-03 .0000E+00 .0000E+00 .3923E-03 .7401E-03 .7950E+00
 MAX   .6172E-03 .0000E+00 .0000E+00 .6813E-03 .1299E-02 .1470E+01
 AVG   .4847E-03 .0000E+00 .0000E+00 .5345E-03 .1019E-02 .1132E+01
  
                   ** MEMORY USAGE STATISTICS **
  
 TOTAL MEMORY USED .........................:      228 MB
 MAXIMUM MEMORY PER PROCESSOR...............:       57 MB
 MINIMUM MEMORY PER PROCESSOR...............:       57 MB
 AVERAGE MEMORY PER PROCESSOR...............:       57 MB
  
                   ** DISK USAGE STATISTICS **
  
 TOTAL DISK SPACE USED .....................:          1 MB
 ANIMATION/H3D/TH/OUTP SIZE ................:          0 MB
 RESTART FILE SIZE .........................:          1 MB
  
                   ** COMPUTE TIME INFORMATION **
                        ** CURRENT ENGINE **
  
 EXECUTION STARTED .........................:      2022/11/23  16:23:49
 EXECUTION COMPLETED .......................:      2022/11/23  16:23:49
  
 ELAPSED TIME     =          0.18 s
                          0:00:00
 ESTIMATED SPEEDUP=          2.86



     NORMAL TERMINATION      



     TOTAL NUMBER OF CYCLES  :     146

  
                   ** COMPUTE RUNTIME INFORMATION SUMMARY **
  
        STARTER RUNTIME =          0.61s (00:00:00)
 # 001   ENGINE RUNTIME =          0.18s (00:00:00)
 ------------------------------ 
 STARTER+ENGINE RUNTIME =          0.79s (00:00:00)
  
