 TWISBEAM_0001.out
************************************************************************
**                                                                    **
**                                                                    **
**                         OpenRadioss Engine                         **
**                                                                    **
**            Non-linear Finite Element Analysis Software             **
**                                                                    **
**                                                                    **
**                                                                    **
**                Linux 64 bits, GNU compiler, OpenMPI                **
**                                                                    **
**                                                                    **
**                                                                    **
** CommitID: 440deeba848d606665f88afb8302e85b1ecf72bf                 **
************************************************************************
** OpenRadioss Software                                               **
** COPYRIGHT (C) 1986-2022 Altair Engineering, Inc.                   **
** Licensed under GNU Affero General Public License.                  **
** See License file.                                                  **
************************************************************************
 
 NUMBER OF SPMD DOMAINS           4
 NUMBER OF THREADS PER DOMAIN     2
 NUMBER OF HMPP PROCESSES         8
  
 COMPUTATION HARDWARE DESCRIPTION
  
 CPU#  HOSTNAME     CPU TYPE, FREQUENCY AND MEMORY
   1   fr-shady.europe.altair.com   Intel(R) Xeon(R) CPU           X5680  @ 3.33GHz (x86_64), 1596 MHz,  20012 MB RAM,  49126 MB swap
   2   fr-shady.europe.altair.com   Intel(R) Xeon(R) CPU           X5680  @ 3.33GHz (x86_64), 1596 MHz,  20012 MB RAM,  49126 MB swap
   3   fr-shady.europe.altair.com   Intel(R) Xeon(R) CPU           X5680  @ 3.33GHz (x86_64), 1596 MHz,  20012 MB RAM,  49126 MB swap
   4   fr-shady.europe.altair.com   Intel(R) Xeon(R) CPU           X5680  @ 3.33GHz (x86_64), 1596 MHz,  20012 MB RAM,  49126 MB swap
  
************************************************************************


 TWISBEAMD01                                                                     


 FINAL TIME . . . . . . . . . . . . . . . . . . .  0.2001000E-01

 TIME INTERVAL FOR TIME HISTORY PLOTS . . . . . .  0.1000000E-03

 TIME STEP SCALE FACTOR . . . . . . . . . . . . .  0.9000000    

 MINIMUM TIME STEP  . . . . . . . . . . . . . . .   0.000000    


 BRICK TIME STEP SCALE FACTOR . . . . . . . . . .  0.9000000    
 BRICK MINIMUM TIME STEP. . . . . . . . . . . . .   0.000000    
 MIN. TIME STEP FLAG (1:STOP RUN, 2:DELETE BRICK)     1

 QUAD TIME STEP SCALE FACTOR. . . . . . . . . . .  0.9000000    
 QUAD MINIMUM TIME STEP . . . . . . . . . . . . .   0.000000    
 MIN. TIME STEP FLAG (1:STOP RUN, 2:DELETE QUAD).     1

 SHELL TIME STEP SCALE FACTOR . . . . . . . . . .  0.9000000    
 SHELL MINIMUM TIME STEP. . . . . . . . . . . . .   0.000000    
 MIN. TIME FLAG (1:STOP, 2:DELETE, 3:SMALL STRAIN)    2

 TRUSS TIME STEP SCALE FACTOR . . . . . . . . . .  0.9000000    
 TRUSS MINIMUM TIME STEP. . . . . . . . . . . . .   0.000000    
 MIN. TIME FLAG (1:STOP, 2:DELETE). . . . . . . .     0

 BEAM TIME STEP SCALE FACTOR. . . . . . . . . . .  0.9000000    
 BEAM MINIMUM TIME STEP . . . . . . . . . . . . .   0.000000    
 MIN. TIME FLAG (1:STOP, 2:DELETE). . . . . . . .     0

 SPRING TIME STEP SCALE FACTOR. . . . . . . . . .  0.9000000    
 SPRING MINIMUM TIME STEP . . . . . . . . . . . .   0.000000    
 MIN. TIME FLAG (1:STOP, 2:DELETE). . . . . . . .     0

 AIRBAG TIME STEP SCALE FACTOR. . . . . . . . . .  0.9000000    
 AIRBAG MINIMUM TIME STEP . . . . . . . . . . . .   0.000000    
 MIN. TIME FLAG (1:STOP). . . . . . . . . . . . .     0

 CONTACT TIME STEP SCALE FACTOR . . . . . . . . .  0.9000000    
 CONTACT MINIMUM TIME STEP. . . . . . . . . . . .   0.000000    
 MIN. TIME FLAG(1:STOP, 2:REMOVE NODE FROM INTERF)    0

 PRINTOUT CYCLE FREQUENCY . . . . . . . . . . . .   -50

 RESTART CYCLE FREQUENCY. . . . . . . . . . . . .       1000

 MAXIMUM RESTART WRITE BEFORE OVERWRITE . . . . .     0

 INVERS: INPUT DECK VERSION . . . . . . . . . . .  2019
 ITTYP : FLAG FOR TYPE OF T-FILE. . . . . . . . .     4


 TIME FOR FIRST ANIMATION-FILE PLOT . . . . . . .   0.000000    
 TIME INTERVAL FOR ANIMATION-FILE PLOTS . . . . .  0.1000000E-01
 SENSOR FOR ANIMATION-FILE PLOTS. . . . . . . . .          0
 TIME INTERVAL FOR SENSOR ANIMATION-FILE PLOTS. .   0.000000    

 VARIABLE SAVED ON ANIMATION FILES (1: YES) :
      PLASTIC STRAIN. . . . . .     0
      DENSITY     (SOLID ONLY).     0
      SPECIFIC ENERGY . . . . .     0
      HOURGLASS ENERGY. . . . .     0
      TEMPERATURE (SOLID ONLY).     0
      THICKNESS   (SHELL ONLY).     0
      PRESSURE    (SOLID ONLY).     0
      VON MISES . . . . . . . .     0
      TURBULENT ENERGY (FLUID).     0
      TURBULENT VISCOSITY(FLUID)    0
      VORTICITY (FLUID) . . . .     0
 NODAL VALUES SAVED ON ANIMATION FILES (1: YES) :
      PRESSURE. . . . . . . . .     0
      DENSITY . . . . . . . . .     0
      TEMPERATURE . . . . . . .     0
 VECTOR SAVED ON ANIMATION FILES (1: YES) :
      VELOCITY VECTOR . . . . .     0
      DISPLACEMENT VECTOR . . .     0
      ACCELERATION VECTOR . . .     0
      CONTACT FORCES. . . . . .     0
      INTERNAL FORCES . . . . .     0
      EXTERNAL FORCES . . . . .     0
      SECTION RBY RWALL FORCES.     0
      ROTATIONAL VELOCITY VECTOR    0
      CONTACT PRESSURE (VECTORS)    0
 SHELL TENSOR SAVED ON ANIMATION FILES (1: YES) :
      MEMBRANE STRESS . . . . .     0
      BENDING STRESS(MOMENT/T^2)    0
      UPPER LAYER STRESS. . . .     0
      LOWER LAYER STRESS. . . .     0
      MEMBRANE STRAIN . . . . .     0
      CURVATURE . . . . . . . .     0
      UPPER LAYER STRAIN. . . .     0
      LOWER LAYER STRAIN. . . .     0
 NODAL MASS SAVED ON ANIMATION FILES (1: YES) :    0
 KEEP DELETED ELEMENT (1: YES) :    0


 INITIAL TIME STEP. . . . . . . . . . . . . . . .   0.000000    
 MAXIMUM TIME STEP. . . . . . . . . . . . . . . .  0.1000000E+31

 PARALLEL ARITHMETIC ON
 NUMBER OF INTERFACES TO BE ELIMINATED. . . . . .        0

 NUMBER OF SOLID  ELEMENT BLOCKS TO BE ELIMINATED        0

 NUMBER OF QUAD   ELEMENT BLOCKS TO BE ELIMINATED        0

 NUMBER OF SHELL  ELEMENT BLOCKS TO BE ELIMINATED        0

 NUMBER OF TRUSS  ELEMENT BLOCKS TO BE ELIMINATED        0

 NUMBER OF BEAM   ELEMENT BLOCKS TO BE ELIMINATED        0

 NUMBER OF SPRING ELEMENT BLOCKS TO BE ELIMINATED        0

 NUMBER OF SH_3N  ELEMENT BLOCKS TO BE ELIMINATED        0

 NUMBER OF  SPH PARTICLES BLOCKS TO BE ELIMINATED        0

 NUMBER OF RIGID LINKS. . . . . . . . . . . . . .        0

 NUMBER OF NEW BOUNDARY CONDITIONS. . . . . . . .        0

 23/11/2022
   CYCLE    TIME      TIME-STEP  ELEMENT          ERROR  I-ENERGY    K-ENERGY T  K-ENERGY R  EXT-WORK     MAS.ERR     TOTAL MASS  MASS ADDED
       0   0.000      0.1191E-05 SHELL         62   0.0%   0.000       0.000       0.000       0.000       0.000      0.9214E-02   0.000    
     ANIMATION FILE: TWISBEAMA001 WRITTEN
      50  0.5957E-04  0.1191E-05 SHELL        137  -0.0%  0.5998E-05  0.2011E-04  0.8603E-06  0.2698E-04   0.000      0.9214E-02   0.000    
     100  0.1191E-03  0.1191E-05 SHELL         62  -0.0%  0.2031E-04  0.6192E-04  0.1659E-05  0.8390E-04   0.000      0.9214E-02   0.000    
     150  0.1787E-03  0.1191E-05 SHELL         62  -0.0%  0.4102E-04  0.1175E-03  0.2463E-05  0.1610E-03   0.000      0.9214E-02   0.000    
     200  0.2383E-03  0.1191E-05 SHELL         62  -0.0%  0.6804E-04  0.1831E-03  0.3142E-05  0.2543E-03   0.000      0.9214E-02   0.000    
     250  0.2979E-03  0.1191E-05 SHELL         62  -0.0%  0.9632E-04  0.2609E-03  0.3996E-05  0.3612E-03   0.000      0.9214E-02   0.000    
     300  0.3574E-03  0.1191E-05 SHELL         62  -0.0%  0.1352E-03  0.3405E-03  0.4327E-05  0.4800E-03   0.000      0.9214E-02   0.000    
     350  0.4170E-03  0.1191E-05 SHELL         65  -0.0%  0.1876E-03  0.4180E-03  0.4894E-05  0.6105E-03   0.000      0.9214E-02   0.000    
     400  0.4766E-03  0.1191E-05 SHELL         65  -0.0%  0.2305E-03  0.5090E-03  0.5602E-05  0.7452E-03   0.000      0.9214E-02   0.000    
     450  0.5361E-03  0.1191E-05 SHELL         62  -0.0%  0.2745E-03  0.6136E-03  0.6409E-05  0.8946E-03   0.000      0.9214E-02   0.000    
     500  0.5957E-03  0.1191E-05 SHELL         62  -0.0%  0.3203E-03  0.7318E-03  0.7462E-05  0.1060E-02   0.000      0.9214E-02   0.000    
     550  0.6553E-03  0.1191E-05 SHELL         62  -0.0%  0.3631E-03  0.8526E-03  0.7504E-05  0.1223E-02   0.000      0.9214E-02   0.000    
     600  0.7149E-03  0.1191E-05 SHELL         62  -0.0%  0.3921E-03  0.9793E-03  0.7717E-05  0.1379E-02   0.000      0.9214E-02   0.000    
     650  0.7744E-03  0.1191E-05 SHELL         65  -0.0%  0.4227E-03  0.1102E-02  0.8448E-05  0.1533E-02   0.000      0.9214E-02   0.000    
     700  0.8340E-03  0.1191E-05 SHELL         65  -0.0%  0.4684E-03  0.1214E-02  0.8832E-05  0.1692E-02   0.000      0.9214E-02   0.000    
     750  0.8936E-03  0.1191E-05 SHELL         65  -0.0%  0.5445E-03  0.1313E-02  0.9557E-05  0.1867E-02   0.000      0.9214E-02   0.000    
     800  0.9531E-03  0.1191E-05 SHELL         65  -0.0%  0.6460E-03  0.1403E-02  0.9777E-05  0.2058E-02   0.000      0.9214E-02   0.000    
     850  0.1013E-02  0.1191E-05 SHELL         65  -0.0%  0.7634E-03  0.1488E-02  0.9982E-05  0.2262E-02   0.000      0.9214E-02   0.000    
     900  0.1072E-02  0.1191E-05 SHELL         65  -0.0%  0.9071E-03  0.1563E-02  0.1023E-04  0.2480E-02   0.000      0.9214E-02   0.000    
     950  0.1132E-02  0.1191E-05 SHELL         65  -0.0%  0.1069E-02  0.1638E-02  0.1025E-04  0.2718E-02   0.000      0.9214E-02   0.000    

     RESTART FILES: TWISBEAM_0001_[0001-0004].rst WRITTEN
     -------------

    1000  0.1191E-02  0.1191E-05 SHELL         65  -0.0%  0.1238E-02  0.1709E-02  0.9822E-05  0.2957E-02   0.000      0.9214E-02   0.000    
    1050  0.1251E-02  0.1191E-05 SHELL         65  -0.0%  0.1422E-02  0.1765E-02  0.1007E-04  0.3197E-02   0.000      0.9214E-02   0.000    
    1100  0.1311E-02  0.1191E-05 SHELL         65  -0.0%  0.1636E-02  0.1795E-02  0.9901E-05  0.3440E-02   0.000      0.9214E-02   0.000    
    1150  0.1370E-02  0.1191E-05 SHELL         65  -0.0%  0.1875E-02  0.1803E-02  0.1031E-04  0.3688E-02   0.000      0.9214E-02   0.000    
    1200  0.1430E-02  0.1191E-05 SHELL         65  -0.0%  0.2148E-02  0.1789E-02  0.1071E-04  0.3948E-02   0.000      0.9214E-02   0.000    
    1250  0.1489E-02  0.1191E-05 SHELL         65  -0.0%  0.2444E-02  0.1750E-02  0.1009E-04  0.4204E-02   0.000      0.9214E-02   0.000    
    1300  0.1549E-02  0.1191E-05 SHELL         65  -0.0%  0.2735E-02  0.1698E-02  0.9565E-05  0.4443E-02   0.000      0.9214E-02   0.000    
    1350  0.1608E-02  0.1191E-05 SHELL         65  -0.0%  0.3017E-02  0.1644E-02  0.9628E-05  0.4671E-02   0.000      0.9214E-02   0.000    
    1400  0.1668E-02  0.1191E-05 SHELL         65  -0.0%  0.3284E-02  0.1598E-02  0.9487E-05  0.4892E-02   0.000      0.9214E-02   0.000    
    1450  0.1728E-02  0.1191E-05 SHELL         65  -0.0%  0.3543E-02  0.1543E-02  0.9535E-05  0.5096E-02   0.000      0.9214E-02   0.000    
    1500  0.1787E-02  0.1191E-05 SHELL         65  -0.0%  0.3795E-02  0.1484E-02  0.9758E-05  0.5289E-02   0.000      0.9214E-02   0.000    
    1550  0.1847E-02  0.1191E-05 SHELL         65  -0.0%  0.4040E-02  0.1420E-02  0.9886E-05  0.5470E-02   0.000      0.9214E-02   0.000    
    1600  0.1906E-02  0.1191E-05 SHELL         65  -0.0%  0.4290E-02  0.1350E-02  0.9516E-05  0.5649E-02   0.000      0.9214E-02   0.000    
    1650  0.1966E-02  0.1191E-05 SHELL         65  -0.0%  0.4554E-02  0.1265E-02  0.8690E-05  0.5828E-02   0.000      0.9214E-02   0.000    
    1700  0.2025E-02  0.1191E-05 SHELL         65  -0.0%  0.4812E-02  0.1173E-02  0.7813E-05  0.5993E-02   0.000      0.9214E-02   0.000    
    1750  0.2085E-02  0.1191E-05 SHELL         65  -0.0%  0.5042E-02  0.1093E-02  0.7639E-05  0.6143E-02   0.000      0.9214E-02   0.000    
    1800  0.2145E-02  0.1191E-05 SHELL         65  -0.0%  0.5263E-02  0.1021E-02  0.7688E-05  0.6292E-02   0.000      0.9214E-02   0.000    
    1850  0.2204E-02  0.1191E-05 SHELL         65  -0.0%  0.5476E-02  0.9596E-03  0.7601E-05  0.6444E-02   0.000      0.9214E-02   0.000    
    1900  0.2264E-02  0.1191E-05 SHELL         65  -0.0%  0.5679E-02  0.9076E-03  0.7367E-05  0.6594E-02   0.000      0.9214E-02   0.000    
    1950  0.2323E-02  0.1191E-05 SHELL         65  -0.0%  0.5858E-02  0.8751E-03  0.6849E-05  0.6740E-02   0.000      0.9214E-02   0.000    

     RESTART FILES: TWISBEAM_0001_[0001-0004].rst WRITTEN
     -------------

    2000  0.2383E-02  0.1191E-05 SHELL         65  -0.0%  0.6021E-02  0.8485E-03  0.5795E-05  0.6875E-02   0.000      0.9214E-02   0.000    
    2050  0.2442E-02  0.1191E-05 SHELL         65  -0.0%  0.6167E-02  0.8230E-03  0.5482E-05  0.6995E-02   0.000      0.9214E-02   0.000    
    2100  0.2502E-02  0.1191E-05 SHELL         65  -0.0%  0.6289E-02  0.8053E-03  0.4981E-05  0.7100E-02   0.000      0.9214E-02   0.000    
    2150  0.2562E-02  0.1191E-05 SHELL         65  -0.0%  0.6369E-02  0.8000E-03  0.4601E-05  0.7174E-02   0.000      0.9214E-02   0.000    
    2200  0.2621E-02  0.1191E-05 SHELL         65  -0.0%  0.6402E-02  0.8113E-03  0.4292E-05  0.7218E-02   0.000      0.9214E-02   0.000    
    2250  0.2681E-02  0.1191E-05 SHELL         65  -0.0%  0.6398E-02  0.8398E-03  0.4134E-05  0.7242E-02   0.000      0.9214E-02   0.000    
    2300  0.2740E-02  0.1191E-05 SHELL         65  -0.0%  0.6351E-02  0.8962E-03  0.4737E-05  0.7252E-02   0.000      0.9214E-02   0.000    
    2350  0.2800E-02  0.1191E-05 SHELL         65  -0.0%  0.6261E-02  0.9721E-03  0.5820E-05  0.7239E-02   0.000      0.9214E-02   0.000    
    2400  0.2859E-02  0.1191E-05 SHELL         65  -0.0%  0.6133E-02  0.1060E-02  0.7082E-05  0.7201E-02   0.000      0.9214E-02   0.000    
    2450  0.2919E-02  0.1191E-05 SHELL         65  -0.0%  0.5970E-02  0.1151E-02  0.8667E-05  0.7130E-02   0.000      0.9214E-02   0.000    
    2500  0.2979E-02  0.1191E-05 SHELL         65  -0.0%  0.5785E-02  0.1245E-02  0.9194E-05  0.7039E-02   0.000      0.9214E-02   0.000    
    2550  0.3038E-02  0.1191E-05 SHELL         65  -0.0%  0.5597E-02  0.1335E-02  0.9472E-05  0.6941E-02   0.000      0.9214E-02   0.000    
    2600  0.3098E-02  0.1191E-05 SHELL         65  -0.0%  0.5404E-02  0.1416E-02  0.1013E-04  0.6830E-02   0.000      0.9214E-02   0.000    
    2650  0.3157E-02  0.1191E-05 SHELL         65  -0.0%  0.5202E-02  0.1505E-02  0.1024E-04  0.6718E-02   0.000      0.9214E-02   0.000    
    2700  0.3217E-02  0.1191E-05 SHELL         65  -0.0%  0.5001E-02  0.1604E-02  0.1035E-04  0.6616E-02   0.000      0.9214E-02   0.000    
   CYCLE    TIME      TIME-STEP  ELEMENT          ERROR  I-ENERGY    K-ENERGY T  K-ENERGY R  EXT-WORK     MAS.ERR     TOTAL MASS  MASS ADDED
    2750  0.3276E-02  0.1191E-05 SHELL         65  -0.0%  0.4802E-02  0.1711E-02  0.1073E-04  0.6524E-02   0.000      0.9214E-02   0.000    
    2800  0.3336E-02  0.1191E-05 SHELL         65  -0.0%  0.4606E-02  0.1815E-02  0.1102E-04  0.6432E-02   0.000      0.9214E-02   0.000    
    2850  0.3396E-02  0.1191E-05 SHELL         65  -0.0%  0.4396E-02  0.1921E-02  0.1173E-04  0.6328E-02   0.000      0.9214E-02   0.000    
    2900  0.3455E-02  0.1191E-05 SHELL         65  -0.0%  0.4180E-02  0.2020E-02  0.1150E-04  0.6211E-02   0.000      0.9214E-02   0.000    
    2950  0.3515E-02  0.1191E-05 SHELL         65  -0.0%  0.3980E-02  0.2100E-02  0.1119E-04  0.6092E-02   0.000      0.9214E-02   0.000    

     RESTART FILES: TWISBEAM_0001_[0001-0004].rst WRITTEN
     -------------

    3000  0.3574E-02  0.1191E-05 SHELL         65  -0.0%  0.3803E-02  0.2159E-02  0.1161E-04  0.5974E-02   0.000      0.9214E-02   0.000    
    3050  0.3634E-02  0.1191E-05 SHELL         65  -0.0%  0.3633E-02  0.2205E-02  0.1179E-04  0.5850E-02   0.000      0.9214E-02   0.000    
    3100  0.3693E-02  0.1191E-05 SHELL         65  -0.0%  0.3463E-02  0.2245E-02  0.1172E-04  0.5719E-02   0.000      0.9214E-02   0.000    
    3150  0.3753E-02  0.1191E-05 SHELL         65  -0.0%  0.3304E-02  0.2268E-02  0.1176E-04  0.5583E-02   0.000      0.9214E-02   0.000    
    3200  0.3813E-02  0.1191E-05 SHELL         65  -0.0%  0.3143E-02  0.2282E-02  0.1162E-04  0.5437E-02   0.000      0.9214E-02   0.000    
    3250  0.3872E-02  0.1191E-05 SHELL         65  -0.0%  0.2976E-02  0.2286E-02  0.1171E-04  0.5275E-02   0.000      0.9214E-02   0.000    
    3300  0.3932E-02  0.1191E-05 SHELL         65  -0.0%  0.2801E-02  0.2282E-02  0.1197E-04  0.5095E-02   0.000      0.9214E-02   0.000    
    3350  0.3991E-02  0.1191E-05 SHELL         65  -0.0%  0.2642E-02  0.2252E-02  0.1110E-04  0.4906E-02   0.000      0.9214E-02   0.000    
    3400  0.4051E-02  0.1191E-05 SHELL         65  -0.0%  0.2516E-02  0.2197E-02  0.1073E-04  0.4723E-02   0.000      0.9214E-02   0.000    
    3450  0.4110E-02  0.1191E-05 SHELL         65  -0.0%  0.2425E-02  0.2124E-02  0.1025E-04  0.4559E-02   0.000      0.9214E-02   0.000    
    3500  0.4170E-02  0.1191E-05 SHELL         65  -0.0%  0.2358E-02  0.2035E-02  0.9740E-05  0.4403E-02   0.000      0.9214E-02   0.000    
    3550  0.4230E-02  0.1191E-05 SHELL         65  -0.0%  0.2312E-02  0.1933E-02  0.9769E-05  0.4255E-02   0.000      0.9214E-02   0.000    
    3600  0.4289E-02  0.1191E-05 SHELL         65  -0.0%  0.2279E-02  0.1827E-02  0.9534E-05  0.4116E-02   0.000      0.9214E-02   0.000    
    3650  0.4349E-02  0.1191E-05 SHELL         65  -0.0%  0.2246E-02  0.1730E-02  0.9829E-05  0.3986E-02   0.000      0.9214E-02   0.000    
    3700  0.4408E-02  0.1191E-05 SHELL         65  -0.0%  0.2225E-02  0.1634E-02  0.1023E-04  0.3869E-02   0.000      0.9214E-02   0.000    
    3750  0.4468E-02  0.1191E-05 SHELL         65  -0.0%  0.2212E-02  0.1535E-02  0.1056E-04  0.3759E-02   0.000      0.9214E-02   0.000    
    3800  0.4527E-02  0.1191E-05 SHELL         65  -0.0%  0.2218E-02  0.1431E-02  0.1040E-04  0.3660E-02   0.000      0.9214E-02   0.000    
    3850  0.4587E-02  0.1191E-05 SHELL         65  -0.0%  0.2255E-02  0.1320E-02  0.9795E-05  0.3585E-02   0.000      0.9214E-02   0.000    
    3900  0.4647E-02  0.1191E-05 SHELL         65  -0.0%  0.2319E-02  0.1199E-02  0.9405E-05  0.3528E-02   0.000      0.9214E-02   0.000    
    3950  0.4706E-02  0.1191E-05 SHELL         62  -0.0%  0.2390E-02  0.1073E-02  0.9931E-05  0.3474E-02   0.000      0.9214E-02   0.000    

     RESTART FILES: TWISBEAM_0001_[0001-0004].rst WRITTEN
     -------------

    4000  0.4766E-02  0.1191E-05 SHELL         62  -0.0%  0.2448E-02  0.9584E-03  0.1014E-04  0.3417E-02   0.000      0.9214E-02   0.000    
    4050  0.4825E-02  0.1191E-05 SHELL         62  -0.0%  0.2495E-02  0.8557E-03  0.1008E-04  0.3361E-02   0.000      0.9214E-02   0.000    
    4100  0.4885E-02  0.1191E-05 SHELL         62  -0.0%  0.2534E-02  0.7689E-03  0.1069E-04  0.3314E-02   0.000      0.9214E-02   0.000    
    4150  0.4944E-02  0.1191E-05 SHELL         62  -0.0%  0.2566E-02  0.6966E-03  0.1166E-04  0.3274E-02   0.000      0.9214E-02   0.000    
    4200  0.5004E-02  0.1191E-05 SHELL         65  -0.0%  0.2585E-02  0.6437E-03  0.1200E-04  0.3241E-02   0.000      0.9214E-02   0.000    
    4250  0.5064E-02  0.1191E-05 SHELL         62  -0.0%  0.2608E-02  0.6007E-03  0.1119E-04  0.3220E-02   0.000      0.9214E-02   0.000    
    4300  0.5123E-02  0.1191E-05 SHELL         62  -0.0%  0.2647E-02  0.5602E-03  0.1095E-04  0.3219E-02   0.000      0.9214E-02   0.000    
    4350  0.5183E-02  0.1191E-05 SHELL         62  -0.0%  0.2695E-02  0.5281E-03  0.1154E-04  0.3235E-02   0.000      0.9214E-02   0.000    
    4400  0.5242E-02  0.1191E-05 SHELL        134  -0.0%  0.2739E-02  0.5107E-03  0.1209E-04  0.3263E-02   0.000      0.9214E-02   0.000    
    4450  0.5302E-02  0.1191E-05 SHELL        134  -0.0%  0.2785E-02  0.5077E-03  0.1264E-04  0.3306E-02   0.000      0.9214E-02   0.000    
    4500  0.5361E-02  0.1191E-05 SHELL        134  -0.0%  0.2847E-02  0.5148E-03  0.1387E-04  0.3376E-02   0.000      0.9214E-02   0.000    
    4550  0.5421E-02  0.1191E-05 SHELL        134  -0.0%  0.2912E-02  0.5458E-03  0.1617E-04  0.3475E-02   0.000      0.9214E-02   0.000    
    4600  0.5481E-02  0.1191E-05 SHELL        134  -0.0%  0.2989E-02  0.5972E-03  0.1741E-04  0.3604E-02   0.000      0.9214E-02   0.000    
    4650  0.5540E-02  0.1191E-05 SHELL        134  -0.0%  0.3074E-02  0.6582E-03  0.1806E-04  0.3751E-02   0.000      0.9214E-02   0.000    
    4700  0.5600E-02  0.1191E-05 SHELL        134  -0.0%  0.3176E-02  0.7162E-03  0.1968E-04  0.3912E-02   0.000      0.9214E-02   0.000    
    4750  0.5659E-02  0.1191E-05 SHELL         62  -0.0%  0.3288E-02  0.7756E-03  0.2153E-04  0.4086E-02   0.000      0.9214E-02   0.000    
    4800  0.5719E-02  0.1191E-05 SHELL         62  -0.0%  0.3414E-02  0.8337E-03  0.2246E-04  0.4270E-02   0.000      0.9214E-02   0.000    
    4850  0.5778E-02  0.1191E-05 SHELL         62  -0.0%  0.3545E-02  0.8869E-03  0.2207E-04  0.4454E-02   0.000      0.9214E-02   0.000    
    4900  0.5838E-02  0.1191E-05 SHELL         62  -0.0%  0.3676E-02  0.9411E-03  0.2225E-04  0.4640E-02   0.000      0.9214E-02   0.000    
    4950  0.5898E-02  0.1191E-05 SHELL         65  -0.0%  0.3800E-02  0.1003E-02  0.2330E-04  0.4826E-02   0.000      0.9214E-02   0.000    

     RESTART FILES: TWISBEAM_0001_[0001-0004].rst WRITTEN
     -------------

    5000  0.5957E-02  0.1191E-05 SHELL         65  -0.0%  0.3915E-02  0.1077E-02  0.2395E-04  0.5017E-02   0.000      0.9214E-02   0.000    
    5050  0.6017E-02  0.1191E-05 SHELL         65  -0.0%  0.4024E-02  0.1155E-02  0.2371E-04  0.5203E-02   0.000      0.9214E-02   0.000    
    5100  0.6076E-02  0.1191E-05 SHELL         65  -0.0%  0.4124E-02  0.1228E-02  0.2378E-04  0.5376E-02   0.000      0.9214E-02   0.000    
    5150  0.6136E-02  0.1191E-05 SHELL         65  -0.0%  0.4223E-02  0.1292E-02  0.2329E-04  0.5539E-02   0.000      0.9214E-02   0.000    
    5200  0.6195E-02  0.1191E-05 SHELL         65  -0.0%  0.4341E-02  0.1341E-02  0.2229E-04  0.5704E-02   0.000      0.9214E-02   0.000    
    5250  0.6255E-02  0.1191E-05 SHELL         65  -0.0%  0.4488E-02  0.1369E-02  0.2197E-04  0.5880E-02   0.000      0.9214E-02   0.000    
    5300  0.6315E-02  0.1191E-05 SHELL         65  -0.0%  0.4660E-02  0.1381E-02  0.2203E-04  0.6063E-02   0.000      0.9214E-02   0.000    
    5350  0.6374E-02  0.1191E-05 SHELL         65  -0.0%  0.4846E-02  0.1385E-02  0.2216E-04  0.6254E-02   0.000      0.9214E-02   0.000    
    5400  0.6434E-02  0.1191E-05 SHELL         65  -0.0%  0.5056E-02  0.1380E-02  0.2229E-04  0.6459E-02   0.000      0.9214E-02   0.000    
    5450  0.6493E-02  0.1191E-05 SHELL         65  -0.0%  0.5279E-02  0.1370E-02  0.2240E-04  0.6672E-02   0.000      0.9214E-02   0.000    
   CYCLE    TIME      TIME-STEP  ELEMENT          ERROR  I-ENERGY    K-ENERGY T  K-ENERGY R  EXT-WORK     MAS.ERR     TOTAL MASS  MASS ADDED
    5500  0.6553E-02  0.1191E-05 SHELL         65  -0.0%  0.5509E-02  0.1355E-02  0.2242E-04  0.6888E-02   0.000      0.9214E-02   0.000    
    5550  0.6612E-02  0.1191E-05 SHELL         65  -0.0%  0.5740E-02  0.1334E-02  0.2151E-04  0.7096E-02   0.000      0.9214E-02   0.000    
    5600  0.6672E-02  0.1191E-05 SHELL         65  -0.0%  0.5985E-02  0.1296E-02  0.2108E-04  0.7302E-02   0.000      0.9214E-02   0.000    
    5650  0.6732E-02  0.1191E-05 SHELL         65  -0.0%  0.6250E-02  0.1242E-02  0.2184E-04  0.7514E-02   0.000      0.9214E-02   0.000    
    5700  0.6791E-02  0.1191E-05 SHELL         65  -0.0%  0.6529E-02  0.1178E-02  0.2208E-04  0.7730E-02   0.000      0.9214E-02   0.000    
    5750  0.6851E-02  0.1191E-05 SHELL         65  -0.0%  0.6809E-02  0.1104E-02  0.2063E-04  0.7934E-02   0.000      0.9214E-02   0.000    
    5800  0.6910E-02  0.1191E-05 SHELL         65  -0.0%  0.7082E-02  0.1023E-02  0.2007E-04  0.8126E-02   0.000      0.9214E-02   0.000    
    5850  0.6970E-02  0.1191E-05 SHELL         65  -0.0%  0.7332E-02  0.9434E-03  0.2092E-04  0.8297E-02   0.000      0.9214E-02   0.000    
    5900  0.7029E-02  0.1191E-05 SHELL         65  -0.0%  0.7548E-02  0.8754E-03  0.2163E-04  0.8446E-02   0.000      0.9214E-02   0.000    
    5950  0.7089E-02  0.1191E-05 SHELL         65  -0.0%  0.7741E-02  0.8130E-03  0.2112E-04  0.8576E-02   0.000      0.9214E-02   0.000    

     RESTART FILES: TWISBEAM_0001_[0001-0004].rst WRITTEN
     -------------

    6000  0.7148E-02  0.1191E-05 SHELL         65  -0.0%  0.7910E-02  0.7502E-03  0.2131E-04  0.8682E-02   0.000      0.9214E-02   0.000    
    6050  0.7208E-02  0.1191E-05 SHELL         65  -0.0%  0.8068E-02  0.6841E-03  0.2282E-04  0.8776E-02   0.000      0.9214E-02   0.000    
    6100  0.7268E-02  0.1191E-05 SHELL         65  -0.0%  0.8225E-02  0.6174E-03  0.2382E-04  0.8866E-02   0.000      0.9214E-02   0.000    
    6150  0.7327E-02  0.1191E-05 SHELL         65  -0.0%  0.8383E-02  0.5466E-03  0.2310E-04  0.8953E-02   0.000      0.9214E-02   0.000    
    6200  0.7387E-02  0.1191E-05 SHELL         65  -0.0%  0.8530E-02  0.4719E-03  0.2289E-04  0.9026E-02   0.000      0.9214E-02   0.000    
    6250  0.7446E-02  0.1191E-05 SHELL         65  -0.0%  0.8647E-02  0.4084E-03  0.2392E-04  0.9080E-02   0.000      0.9214E-02   0.000    
    6300  0.7506E-02  0.1191E-05 SHELL         65  -0.0%  0.8727E-02  0.3654E-03  0.2511E-04  0.9118E-02   0.000      0.9214E-02   0.000    
    6350  0.7565E-02  0.1191E-05 SHELL         65  -0.0%  0.8779E-02  0.3432E-03  0.2577E-04  0.9148E-02   0.000      0.9214E-02   0.000    
    6400  0.7625E-02  0.1191E-05 SHELL         65  -0.0%  0.8808E-02  0.3368E-03  0.2715E-04  0.9173E-02   0.000      0.9214E-02   0.000    
    6450  0.7685E-02  0.1191E-05 SHELL         65  -0.0%  0.8809E-02  0.3482E-03  0.2891E-04  0.9187E-02   0.000      0.9214E-02   0.000    
    6500  0.7744E-02  0.1191E-05 SHELL         65  -0.0%  0.8790E-02  0.3712E-03  0.3005E-04  0.9191E-02   0.000      0.9214E-02   0.000    
    6550  0.7804E-02  0.1191E-05 SHELL         65  -0.0%  0.8763E-02  0.3978E-03  0.3062E-04  0.9192E-02   0.000      0.9214E-02   0.000    
    6600  0.7863E-02  0.1191E-05 SHELL         65  -0.0%  0.8715E-02  0.4280E-03  0.3146E-04  0.9175E-02   0.000      0.9214E-02   0.000    
    6650  0.7923E-02  0.1191E-05 SHELL         65  -0.0%  0.8630E-02  0.4660E-03  0.3273E-04  0.9129E-02   0.000      0.9214E-02   0.000    
    6700  0.7982E-02  0.1191E-05 SHELL         65  -0.0%  0.8502E-02  0.5165E-03  0.3351E-04  0.9053E-02   0.000      0.9214E-02   0.000    
    6750  0.8042E-02  0.1191E-05 SHELL         65  -0.0%  0.8337E-02  0.5785E-03  0.3492E-04  0.8951E-02   0.000      0.9214E-02   0.000    
    6800  0.8102E-02  0.1191E-05 SHELL         65  -0.0%  0.8137E-02  0.6552E-03  0.3719E-04  0.8830E-02   0.000      0.9214E-02   0.000    
    6850  0.8161E-02  0.1191E-05 SHELL         65  -0.0%  0.7912E-02  0.7451E-03  0.3948E-04  0.8697E-02   0.000      0.9214E-02   0.000    
    6900  0.8221E-02  0.1191E-05 SHELL         65  -0.0%  0.7654E-02  0.8412E-03  0.4148E-04  0.8538E-02   0.000      0.9214E-02   0.000    
    6950  0.8280E-02  0.1191E-05 SHELL         65  -0.0%  0.7383E-02  0.9376E-03  0.4377E-04  0.8365E-02   0.000      0.9214E-02   0.000    

     RESTART FILES: TWISBEAM_0001_[0001-0004].rst WRITTEN
     -------------

    7000  0.8340E-02  0.1191E-05 SHELL         65  -0.0%  0.7100E-02  0.1031E-02  0.4627E-04  0.8178E-02   0.000      0.9214E-02   0.000    
    7050  0.8399E-02  0.1191E-05 SHELL         65  -0.0%  0.6809E-02  0.1123E-02  0.4747E-04  0.7980E-02   0.000      0.9214E-02   0.000    
    7100  0.8459E-02  0.1191E-05 SHELL         65  -0.0%  0.6515E-02  0.1208E-02  0.4717E-04  0.7770E-02   0.000      0.9214E-02   0.000    
    7150  0.8519E-02  0.1191E-05 SHELL         65  -0.0%  0.6217E-02  0.1293E-02  0.4766E-04  0.7558E-02   0.000      0.9214E-02   0.000    
    7200  0.8578E-02  0.1191E-05 SHELL         65  -0.0%  0.5913E-02  0.1384E-02  0.4931E-04  0.7347E-02   0.000      0.9214E-02   0.000    
    7250  0.8638E-02  0.1191E-05 SHELL         65  -0.0%  0.5617E-02  0.1483E-02  0.4894E-04  0.7150E-02   0.000      0.9214E-02   0.000    
    7300  0.8697E-02  0.1191E-05 SHELL         65  -0.0%  0.5331E-02  0.1581E-02  0.4823E-04  0.6961E-02   0.000      0.9214E-02   0.000    
    7350  0.8757E-02  0.1191E-05 SHELL         65  -0.0%  0.5047E-02  0.1673E-02  0.4951E-04  0.6770E-02   0.000      0.9214E-02   0.000    
    7400  0.8816E-02  0.1191E-05 SHELL         65  -0.0%  0.4770E-02  0.1755E-02  0.5126E-04  0.6576E-02   0.000      0.9214E-02   0.000    
    7450  0.8876E-02  0.1191E-05 SHELL         65  -0.0%  0.4513E-02  0.1817E-02  0.5113E-04  0.6382E-02   0.000      0.9214E-02   0.000    
    7500  0.8936E-02  0.1191E-05 SHELL         65  -0.0%  0.4276E-02  0.1857E-02  0.4920E-04  0.6183E-02   0.000      0.9214E-02   0.000    
    7550  0.8995E-02  0.1191E-05 SHELL         65  -0.0%  0.4052E-02  0.1879E-02  0.4870E-04  0.5980E-02   0.000      0.9214E-02   0.000    
    7600  0.9055E-02  0.1191E-05 SHELL         65  -0.0%  0.3825E-02  0.1893E-02  0.4919E-04  0.5767E-02   0.000      0.9214E-02   0.000    
    7650  0.9114E-02  0.1191E-05 SHELL         65  -0.0%  0.3593E-02  0.1903E-02  0.4798E-04  0.5544E-02   0.000      0.9214E-02   0.000    
    7700  0.9174E-02  0.1191E-05 SHELL         65  -0.0%  0.3363E-02  0.1907E-02  0.4723E-04  0.5318E-02   0.000      0.9214E-02   0.000    
    7750  0.9233E-02  0.1191E-05 SHELL         65  -0.0%  0.3127E-02  0.1907E-02  0.4915E-04  0.5084E-02   0.000      0.9214E-02   0.000    
    7800  0.9293E-02  0.1191E-05 SHELL         65  -0.0%  0.2877E-02  0.1904E-02  0.5113E-04  0.4833E-02   0.000      0.9214E-02   0.000    
    7850  0.9353E-02  0.1191E-05 SHELL         65  -0.0%  0.2637E-02  0.1892E-02  0.4987E-04  0.4579E-02   0.000      0.9214E-02   0.000    
    7900  0.9412E-02  0.1191E-05 SHELL         65  -0.0%  0.2421E-02  0.1862E-02  0.4836E-04  0.4333E-02   0.000      0.9214E-02   0.000    
    7950  0.9472E-02  0.1191E-05 SHELL         65  -0.0%  0.2227E-02  0.1820E-02  0.4801E-04  0.4096E-02   0.000      0.9214E-02   0.000    

     RESTART FILES: TWISBEAM_0001_[0001-0004].rst WRITTEN
     -------------

    8000  0.9531E-02  0.1191E-05 SHELL         65  -0.0%  0.2054E-02  0.1771E-02  0.4781E-04  0.3874E-02   0.000      0.9214E-02   0.000    
    8050  0.9591E-02  0.1191E-05 SHELL         65  -0.0%  0.1898E-02  0.1717E-02  0.4638E-04  0.3662E-02   0.000      0.9214E-02   0.000    
    8100  0.9650E-02  0.1191E-05 SHELL         65  -0.0%  0.1755E-02  0.1662E-02  0.4570E-04  0.3463E-02   0.000      0.9214E-02   0.000    
    8150  0.9710E-02  0.1191E-05 SHELL         65  -0.0%  0.1626E-02  0.1612E-02  0.4590E-04  0.3284E-02   0.000      0.9214E-02   0.000    
    8200  0.9770E-02  0.1191E-05 SHELL         65  -0.0%  0.1505E-02  0.1566E-02  0.4634E-04  0.3119E-02   0.000      0.9214E-02   0.000    
   CYCLE    TIME      TIME-STEP  ELEMENT          ERROR  I-ENERGY    K-ENERGY T  K-ENERGY R  EXT-WORK     MAS.ERR     TOTAL MASS  MASS ADDED
    8250  0.9829E-02  0.1191E-05 SHELL         65  -0.0%  0.1398E-02  0.1519E-02  0.4593E-04  0.2964E-02   0.000      0.9214E-02   0.000    
    8300  0.9889E-02  0.1191E-05 SHELL         65  -0.0%  0.1316E-02  0.1470E-02  0.4638E-04  0.2833E-02   0.000      0.9214E-02   0.000    
    8350  0.9948E-02  0.1191E-05 SHELL         65  -0.0%  0.1256E-02  0.1416E-02  0.4685E-04  0.2720E-02   0.000      0.9214E-02   0.000    
     ANIMATION FILE: TWISBEAMA002 WRITTEN
    8400  0.1001E-01  0.1191E-05 SHELL         65  -0.0%  0.1219E-02  0.1358E-02  0.4514E-04  0.2623E-02   0.000      0.9214E-02   0.000    
    8450  0.1007E-01  0.1191E-05 SHELL         65  -0.0%  0.1194E-02  0.1298E-02  0.4375E-04  0.2536E-02   0.000      0.9214E-02   0.000    
    8500  0.1013E-01  0.1191E-05 SHELL         62  -0.0%  0.1157E-02  0.1245E-02  0.4458E-04  0.2448E-02   0.000      0.9214E-02   0.000    
    8550  0.1019E-01  0.1191E-05 SHELL         62  -0.0%  0.1106E-02  0.1209E-02  0.4487E-04  0.2361E-02   0.000      0.9214E-02   0.000    
    8600  0.1025E-01  0.1191E-05 SHELL         62  -0.0%  0.1050E-02  0.1190E-02  0.4409E-04  0.2285E-02   0.000      0.9214E-02   0.000    
    8650  0.1031E-01  0.1191E-05 SHELL         65  -0.0%  0.9850E-03  0.1186E-02  0.4456E-04  0.2216E-02   0.000      0.9214E-02   0.000    
    8700  0.1037E-01  0.1191E-05 SHELL         62  -0.0%  0.9175E-03  0.1194E-02  0.4669E-04  0.2158E-02   0.000      0.9214E-02   0.000    
    8750  0.1042E-01  0.1191E-05 SHELL         62  -0.0%  0.8603E-03  0.1208E-02  0.4797E-04  0.2117E-02   0.000      0.9214E-02   0.000    
    8800  0.1048E-01  0.1191E-05 SHELL         62  -0.0%  0.8254E-03  0.1219E-02  0.4656E-04  0.2091E-02   0.000      0.9214E-02   0.000    
    8850  0.1054E-01  0.1191E-05 SHELL        134  -0.0%  0.8084E-03  0.1224E-02  0.4580E-04  0.2079E-02   0.000      0.9214E-02   0.000    
    8900  0.1060E-01  0.1191E-05 SHELL        134  -0.0%  0.8009E-03  0.1233E-02  0.4720E-04  0.2081E-02   0.000      0.9214E-02   0.000    
    8950  0.1066E-01  0.1191E-05 SHELL        134  -0.0%  0.7922E-03  0.1249E-02  0.4696E-04  0.2089E-02   0.000      0.9214E-02   0.000    

     RESTART FILES: TWISBEAM_0001_[0001-0004].rst WRITTEN
     -------------

    9000  0.1072E-01  0.1191E-05 SHELL        134  -0.0%  0.7976E-03  0.1271E-02  0.4531E-04  0.2114E-02   0.000      0.9214E-02   0.000    
    9050  0.1078E-01  0.1191E-05 SHELL        134  -0.0%  0.8211E-03  0.1301E-02  0.4639E-04  0.2170E-02   0.000      0.9214E-02   0.000    
    9100  0.1084E-01  0.1191E-05 SHELL        134  -0.0%  0.8520E-03  0.1346E-02  0.4938E-04  0.2248E-02   0.000      0.9214E-02   0.000    
    9150  0.1090E-01  0.1191E-05 SHELL        134  -0.0%  0.8988E-03  0.1393E-02  0.5131E-04  0.2344E-02   0.000      0.9214E-02   0.000    
    9200  0.1096E-01  0.1191E-05 SHELL        134  -0.0%  0.9683E-03  0.1438E-02  0.5110E-04  0.2458E-02   0.000      0.9214E-02   0.000    
    9250  0.1102E-01  0.1191E-05 SHELL         62  -0.0%  0.1047E-02  0.1479E-02  0.5191E-04  0.2578E-02   0.000      0.9214E-02   0.000    
    9300  0.1108E-01  0.1191E-05 SHELL         62  -0.0%  0.1135E-02  0.1515E-02  0.5383E-04  0.2705E-02   0.000      0.9214E-02   0.000    
    9350  0.1114E-01  0.1191E-05 SHELL         65  -0.0%  0.1226E-02  0.1548E-02  0.5333E-04  0.2829E-02   0.000      0.9214E-02   0.000    
    9400  0.1120E-01  0.1191E-05 SHELL         65  -0.0%  0.1313E-02  0.1578E-02  0.5206E-04  0.2944E-02   0.000      0.9214E-02   0.000    
    9450  0.1126E-01  0.1191E-05 SHELL         65  -0.0%  0.1401E-02  0.1610E-02  0.5250E-04  0.3064E-02   0.000      0.9214E-02   0.000    
    9500  0.1132E-01  0.1191E-05 SHELL         65  -0.0%  0.1489E-02  0.1646E-02  0.5302E-04  0.3189E-02   0.000      0.9214E-02   0.000    
    9550  0.1138E-01  0.1191E-05 SHELL         65  -0.0%  0.1573E-02  0.1682E-02  0.5310E-04  0.3309E-02   0.000      0.9214E-02   0.000    
    9600  0.1144E-01  0.1191E-05 SHELL         65  -0.0%  0.1659E-02  0.1711E-02  0.5320E-04  0.3425E-02   0.000      0.9214E-02   0.000    
    9650  0.1150E-01  0.1191E-05 SHELL         65  -0.0%  0.1748E-02  0.1730E-02  0.5453E-04  0.3533E-02   0.000      0.9214E-02   0.000    
    9700  0.1156E-01  0.1191E-05 SHELL         65  -0.0%  0.1849E-02  0.1731E-02  0.5521E-04  0.3636E-02   0.000      0.9214E-02   0.000    
    9750  0.1162E-01  0.1191E-05 SHELL         65  -0.0%  0.1973E-02  0.1715E-02  0.5380E-04  0.3742E-02   0.000      0.9214E-02   0.000    
    9800  0.1168E-01  0.1191E-05 SHELL         65  -0.0%  0.2117E-02  0.1682E-02  0.5314E-04  0.3854E-02   0.000      0.9214E-02   0.000    
    9850  0.1174E-01  0.1191E-05 SHELL         65  -0.0%  0.2272E-02  0.1644E-02  0.5391E-04  0.3971E-02   0.000      0.9214E-02   0.000    
    9900  0.1180E-01  0.1191E-05 SHELL         65  -0.0%  0.2443E-02  0.1606E-02  0.5398E-04  0.4104E-02   0.000      0.9214E-02   0.000    
    9950  0.1185E-01  0.1191E-05 SHELL         65  -0.0%  0.2631E-02  0.1567E-02  0.5359E-04  0.4252E-02   0.000      0.9214E-02   0.000    

     RESTART FILES: TWISBEAM_0001_[0001-0004].rst WRITTEN
     -------------

   10000  0.1191E-01  0.1191E-05 SHELL         65  -0.0%  0.2816E-02  0.1533E-02  0.5566E-04  0.4405E-02   0.000      0.9214E-02   0.000    
   10050  0.1197E-01  0.1191E-05 SHELL         65  -0.0%  0.3004E-02  0.1498E-02  0.5864E-04  0.4562E-02   0.000      0.9214E-02   0.000    
   10100  0.1203E-01  0.1191E-05 SHELL         65  -0.0%  0.3198E-02  0.1454E-02  0.5925E-04  0.4713E-02   0.000      0.9214E-02   0.000    
   10150  0.1209E-01  0.1191E-05 SHELL         65  -0.0%  0.3405E-02  0.1395E-02  0.5883E-04  0.4859E-02   0.000      0.9214E-02   0.000    
   10200  0.1215E-01  0.1191E-05 SHELL         65  -0.0%  0.3617E-02  0.1327E-02  0.6030E-04  0.5006E-02   0.000      0.9214E-02   0.000    
   10250  0.1221E-01  0.1191E-05 SHELL         65  -0.0%  0.3828E-02  0.1253E-02  0.6158E-04  0.5143E-02   0.000      0.9214E-02   0.000    
   10300  0.1227E-01  0.1191E-05 SHELL         65  -0.0%  0.4027E-02  0.1173E-02  0.6056E-04  0.5261E-02   0.000      0.9214E-02   0.000    
   10350  0.1233E-01  0.1191E-05 SHELL         65  -0.0%  0.4212E-02  0.1095E-02  0.5959E-04  0.5368E-02   0.000      0.9214E-02   0.000    
   10400  0.1239E-01  0.1191E-05 SHELL         65  -0.0%  0.4369E-02  0.1022E-02  0.6170E-04  0.5454E-02   0.000      0.9214E-02   0.000    
   10450  0.1245E-01  0.1191E-05 SHELL         65  -0.0%  0.4496E-02  0.9580E-03  0.6432E-04  0.5519E-02   0.000      0.9214E-02   0.000    
   10500  0.1251E-01  0.1191E-05 SHELL         65  -0.0%  0.4608E-02  0.8928E-03  0.6383E-04  0.5566E-02   0.000      0.9214E-02   0.000    
   10550  0.1257E-01  0.1191E-05 SHELL         65  -0.0%  0.4701E-02  0.8271E-03  0.6380E-04  0.5593E-02   0.000      0.9214E-02   0.000    
   10600  0.1263E-01  0.1191E-05 SHELL         65  -0.0%  0.4784E-02  0.7593E-03  0.6634E-04  0.5611E-02   0.000      0.9214E-02   0.000    
   10650  0.1269E-01  0.1191E-05 SHELL         65  -0.0%  0.4864E-02  0.6925E-03  0.6815E-04  0.5626E-02   0.000      0.9214E-02   0.000    
   10700  0.1275E-01  0.1191E-05 SHELL         65  -0.0%  0.4935E-02  0.6257E-03  0.6704E-04  0.5628E-02   0.000      0.9214E-02   0.000    
   10750  0.1281E-01  0.1191E-05 SHELL         65  -0.0%  0.4988E-02  0.5657E-03  0.6579E-04  0.5620E-02   0.000      0.9214E-02   0.000    
   10800  0.1287E-01  0.1191E-05 SHELL         65  -0.0%  0.5018E-02  0.5230E-03  0.6718E-04  0.5609E-02   0.000      0.9214E-02   0.000    
   10850  0.1293E-01  0.1191E-05 SHELL         65  -0.0%  0.5027E-02  0.4946E-03  0.6807E-04  0.5590E-02   0.000      0.9214E-02   0.000    
   10900  0.1299E-01  0.1191E-05 SHELL         65  -0.0%  0.5019E-02  0.4814E-03  0.6771E-04  0.5569E-02   0.000      0.9214E-02   0.000    
   10950  0.1305E-01  0.1191E-05 SHELL         65  -0.0%  0.4998E-02  0.4763E-03  0.6892E-04  0.5544E-02   0.000      0.9214E-02   0.000    

     RESTART FILES: TWISBEAM_0001_[0001-0004].rst WRITTEN
     -------------

   CYCLE    TIME      TIME-STEP  ELEMENT          ERROR  I-ENERGY    K-ENERGY T  K-ENERGY R  EXT-WORK     MAS.ERR     TOTAL MASS  MASS ADDED
   11000  0.1311E-01  0.1191E-05 SHELL         65  -0.0%  0.4961E-02  0.4783E-03  0.7184E-04  0.5512E-02   0.000      0.9214E-02   0.000    
   11050  0.1317E-01  0.1191E-05 SHELL         65  -0.0%  0.4923E-02  0.4757E-03  0.7219E-04  0.5472E-02   0.000      0.9214E-02   0.000    
   11100  0.1322E-01  0.1191E-05 SHELL         65  -0.0%  0.4882E-02  0.4702E-03  0.7069E-04  0.5424E-02   0.000      0.9214E-02   0.000    
   11150  0.1328E-01  0.1191E-05 SHELL         65  -0.0%  0.4818E-02  0.4656E-03  0.7083E-04  0.5356E-02   0.000      0.9214E-02   0.000    
   11200  0.1334E-01  0.1191E-05 SHELL         65  -0.0%  0.4729E-02  0.4674E-03  0.7143E-04  0.5269E-02   0.000      0.9214E-02   0.000    
   11250  0.1340E-01  0.1191E-05 SHELL         65  -0.0%  0.4615E-02  0.4808E-03  0.7055E-04  0.5168E-02   0.000      0.9214E-02   0.000    
   11300  0.1346E-01  0.1191E-05 SHELL         65  -0.0%  0.4476E-02  0.5071E-03  0.6963E-04  0.5053E-02   0.000      0.9214E-02   0.000    
   11350  0.1352E-01  0.1191E-05 SHELL         65  -0.0%  0.4308E-02  0.5507E-03  0.7146E-04  0.4931E-02   0.000      0.9214E-02   0.000    
   11400  0.1358E-01  0.1191E-05 SHELL         65  -0.0%  0.4126E-02  0.5993E-03  0.7329E-04  0.4800E-02   0.000      0.9214E-02   0.000    
   11450  0.1364E-01  0.1191E-05 SHELL         65  -0.0%  0.3928E-02  0.6504E-03  0.7263E-04  0.4652E-02   0.000      0.9214E-02   0.000    
   11500  0.1370E-01  0.1191E-05 SHELL         65  -0.0%  0.3728E-02  0.6965E-03  0.7286E-04  0.4498E-02   0.000      0.9214E-02   0.000    
   11550  0.1376E-01  0.1191E-05 SHELL         65  -0.0%  0.3519E-02  0.7430E-03  0.7519E-04  0.4338E-02   0.000      0.9214E-02   0.000    
   11600  0.1382E-01  0.1191E-05 SHELL         65  -0.0%  0.3309E-02  0.7871E-03  0.7519E-04  0.4173E-02   0.000      0.9214E-02   0.000    
   11650  0.1388E-01  0.1191E-05 SHELL         65  -0.0%  0.3105E-02  0.8299E-03  0.7273E-04  0.4009E-02   0.000      0.9214E-02   0.000    
   11700  0.1394E-01  0.1191E-05 SHELL         65  -0.0%  0.2905E-02  0.8791E-03  0.7174E-04  0.3857E-02   0.000      0.9214E-02   0.000    
   11750  0.1400E-01  0.1191E-05 SHELL         65  -0.0%  0.2708E-02  0.9337E-03  0.7308E-04  0.3715E-02   0.000      0.9214E-02   0.000    
   11800  0.1406E-01  0.1191E-05 SHELL         65  -0.0%  0.2523E-02  0.9911E-03  0.7313E-04  0.3588E-02   0.000      0.9214E-02   0.000    
   11850  0.1412E-01  0.1191E-05 SHELL         65  -0.0%  0.2349E-02  0.1042E-02  0.7086E-04  0.3463E-02   0.000      0.9214E-02   0.000    
   11900  0.1418E-01  0.1191E-05 SHELL         65  -0.0%  0.2174E-02  0.1091E-02  0.7109E-04  0.3337E-02   0.000      0.9214E-02   0.000    
   11950  0.1424E-01  0.1191E-05 SHELL         65  -0.0%  0.2011E-02  0.1128E-02  0.7311E-04  0.3212E-02   0.000      0.9214E-02   0.000    

     RESTART FILES: TWISBEAM_0001_[0001-0004].rst WRITTEN
     -------------

   12000  0.1430E-01  0.1191E-05 SHELL         65  -0.0%  0.1860E-02  0.1152E-02  0.7250E-04  0.3086E-02   0.000      0.9214E-02   0.000    
   12050  0.1436E-01  0.1191E-05 SHELL         65  -0.0%  0.1719E-02  0.1166E-02  0.7044E-04  0.2956E-02   0.000      0.9214E-02   0.000    
   12100  0.1442E-01  0.1191E-05 SHELL         65  -0.0%  0.1578E-02  0.1178E-02  0.7023E-04  0.2828E-02   0.000      0.9214E-02   0.000    
   12150  0.1448E-01  0.1191E-05 SHELL         65  -0.0%  0.1430E-02  0.1195E-02  0.7145E-04  0.2698E-02   0.000      0.9214E-02   0.000    
   12200  0.1454E-01  0.1191E-05 SHELL         65  -0.0%  0.1280E-02  0.1213E-02  0.7073E-04  0.2565E-02   0.000      0.9214E-02   0.000    
   12250  0.1459E-01  0.1191E-05 SHELL         65  -0.0%  0.1118E-02  0.1237E-02  0.7019E-04  0.2426E-02   0.000      0.9214E-02   0.000    
   12300  0.1465E-01  0.1191E-05 SHELL         65  -0.0%  0.9473E-03  0.1258E-02  0.7273E-04  0.2279E-02   0.000      0.9214E-02   0.000    
   12350  0.1471E-01  0.1191E-05 SHELL         65  -0.0%  0.7748E-03  0.1275E-02  0.7523E-04  0.2126E-02   0.000      0.9214E-02   0.000    
   12400  0.1477E-01  0.1191E-05 SHELL         65  -0.1%  0.6292E-03  0.1274E-02  0.7469E-04  0.1979E-02   0.000      0.9214E-02   0.000    
   12450  0.1483E-01  0.1191E-05 SHELL         65  -0.1%  0.5080E-03  0.1262E-02  0.7374E-04  0.1845E-02   0.000      0.9214E-02   0.000    
   12500  0.1489E-01  0.1191E-05 SHELL         65  -0.1%  0.4113E-03  0.1242E-02  0.7469E-04  0.1729E-02   0.000      0.9214E-02   0.000    
   12550  0.1495E-01  0.1191E-05 SHELL         65  -0.1%  0.3423E-03  0.1216E-02  0.7558E-04  0.1635E-02   0.000      0.9214E-02   0.000    
   12600  0.1501E-01  0.1191E-05 SHELL         65  -0.1%  0.2946E-03  0.1192E-02  0.7449E-04  0.1562E-02   0.000      0.9214E-02   0.000    
   12650  0.1507E-01  0.1191E-05 SHELL         65  -0.1%  0.2597E-03  0.1173E-02  0.7480E-04  0.1508E-02   0.000      0.9214E-02   0.000    
   12700  0.1513E-01  0.1191E-05 SHELL         65  -0.1%  0.2345E-03  0.1163E-02  0.7710E-04  0.1476E-02   0.000      0.9214E-02   0.000    
   12750  0.1519E-01  0.1191E-05 SHELL         65  -0.1%  0.2301E-03  0.1150E-02  0.7766E-04  0.1459E-02   0.000      0.9214E-02   0.000    
   12800  0.1525E-01  0.1191E-05 SHELL         65  -0.1%  0.2410E-03  0.1137E-02  0.7688E-04  0.1456E-02   0.000      0.9214E-02   0.000    
   12850  0.1531E-01  0.1191E-05 SHELL         65  -0.1%  0.2767E-03  0.1119E-02  0.7780E-04  0.1475E-02   0.000      0.9214E-02   0.000    
   12900  0.1537E-01  0.1191E-05 SHELL         65  -0.1%  0.3275E-03  0.1100E-02  0.7975E-04  0.1508E-02   0.000      0.9214E-02   0.000    
   12950  0.1543E-01  0.1191E-05 SHELL         62  -0.1%  0.3966E-03  0.1078E-02  0.7945E-04  0.1555E-02   0.000      0.9214E-02   0.000    

     RESTART FILES: TWISBEAM_0001_[0001-0004].rst WRITTEN
     -------------

   13000  0.1549E-01  0.1191E-05 SHELL         65  -0.1%  0.4670E-03  0.1059E-02  0.7762E-04  0.1605E-02   0.000      0.9214E-02   0.000    
   13050  0.1555E-01  0.1191E-05 SHELL         62  -0.1%  0.5264E-03  0.1053E-02  0.7818E-04  0.1658E-02   0.000      0.9214E-02   0.000    
   13100  0.1561E-01  0.1191E-05 SHELL         62  -0.1%  0.5790E-03  0.1054E-02  0.7991E-04  0.1714E-02   0.000      0.9214E-02   0.000    
   13150  0.1567E-01  0.1191E-05 SHELL         62  -0.1%  0.6290E-03  0.1065E-02  0.7935E-04  0.1774E-02   0.000      0.9214E-02   0.000    
   13200  0.1573E-01  0.1191E-05 SHELL         62  -0.1%  0.6791E-03  0.1079E-02  0.7880E-04  0.1838E-02   0.000      0.9214E-02   0.000    
   13250  0.1579E-01  0.1191E-05 SHELL         62  -0.1%  0.7291E-03  0.1099E-02  0.8135E-04  0.1910E-02   0.000      0.9214E-02   0.000    
   13300  0.1585E-01  0.1191E-05 SHELL         62  -0.1%  0.7976E-03  0.1113E-02  0.8316E-04  0.1995E-02   0.000      0.9214E-02   0.000    
   13350  0.1591E-01  0.1191E-05 SHELL         62  -0.1%  0.8869E-03  0.1123E-02  0.8166E-04  0.2093E-02   0.000      0.9214E-02   0.000    
   13400  0.1596E-01  0.1191E-05 SHELL        134  -0.0%  0.9862E-03  0.1133E-02  0.8037E-04  0.2200E-02   0.000      0.9214E-02   0.000    
   13450  0.1602E-01  0.1191E-05 SHELL        134  -0.0%  0.1088E-02  0.1150E-02  0.8175E-04  0.2320E-02   0.000      0.9214E-02   0.000    
   13500  0.1608E-01  0.1191E-05 SHELL        134  -0.0%  0.1193E-02  0.1178E-02  0.8242E-04  0.2454E-02   0.000      0.9214E-02   0.000    
   13550  0.1614E-01  0.1191E-05 SHELL        134  -0.0%  0.1306E-02  0.1216E-02  0.8065E-04  0.2604E-02   0.000      0.9214E-02   0.000    
   13600  0.1620E-01  0.1191E-05 SHELL        134  -0.0%  0.1415E-02  0.1272E-02  0.8087E-04  0.2770E-02   0.000      0.9214E-02   0.000    
   13650  0.1626E-01  0.1191E-05 SHELL        137  -0.0%  0.1532E-02  0.1334E-02  0.8368E-04  0.2951E-02   0.000      0.9214E-02   0.000    
   13700  0.1632E-01  0.1191E-05 SHELL         62  -0.0%  0.1656E-02  0.1397E-02  0.8454E-04  0.3138E-02   0.000      0.9214E-02   0.000    
   CYCLE    TIME      TIME-STEP  ELEMENT          ERROR  I-ENERGY    K-ENERGY T  K-ENERGY R  EXT-WORK     MAS.ERR     TOTAL MASS  MASS ADDED
   13750  0.1638E-01  0.1191E-05 SHELL         62  -0.0%  0.1799E-02  0.1452E-02  0.8258E-04  0.3335E-02   0.000      0.9214E-02   0.000    
   13800  0.1644E-01  0.1191E-05 SHELL         65  -0.0%  0.1942E-02  0.1504E-02  0.8316E-04  0.3531E-02   0.000      0.9214E-02   0.000    
   13850  0.1650E-01  0.1191E-05 SHELL         65  -0.0%  0.2092E-02  0.1551E-02  0.8519E-04  0.3729E-02   0.000      0.9214E-02   0.000    
   13900  0.1656E-01  0.1191E-05 SHELL         65  -0.0%  0.2245E-02  0.1595E-02  0.8492E-04  0.3926E-02   0.000      0.9214E-02   0.000    
   13950  0.1662E-01  0.1191E-05 SHELL         65  -0.0%  0.2390E-02  0.1645E-02  0.8364E-04  0.4120E-02   0.000      0.9214E-02   0.000    

     RESTART FILES: TWISBEAM_0001_[0001-0004].rst WRITTEN
     -------------

   14000  0.1668E-01  0.1191E-05 SHELL         65  -0.0%  0.2527E-02  0.1698E-02  0.8466E-04  0.4310E-02   0.000      0.9214E-02   0.000    
   14050  0.1674E-01  0.1191E-05 SHELL         65  -0.0%  0.2656E-02  0.1756E-02  0.8674E-04  0.4500E-02   0.000      0.9214E-02   0.000    
   14100  0.1680E-01  0.1191E-05 SHELL         65  -0.0%  0.2786E-02  0.1808E-02  0.8587E-04  0.4681E-02   0.000      0.9214E-02   0.000    
   14150  0.1686E-01  0.1191E-05 SHELL         65  -0.0%  0.2910E-02  0.1857E-02  0.8471E-04  0.4853E-02   0.000      0.9214E-02   0.000    
   14200  0.1692E-01  0.1191E-05 SHELL         65  -0.0%  0.3037E-02  0.1896E-02  0.8620E-04  0.5020E-02   0.000      0.9214E-02   0.000    
   14250  0.1698E-01  0.1191E-05 SHELL         65  -0.0%  0.3175E-02  0.1924E-02  0.8793E-04  0.5188E-02   0.000      0.9214E-02   0.000    
   14300  0.1704E-01  0.1191E-05 SHELL         65  -0.0%  0.3333E-02  0.1940E-02  0.8704E-04  0.5362E-02   0.000      0.9214E-02   0.000    
   14350  0.1710E-01  0.1191E-05 SHELL         65  -0.0%  0.3503E-02  0.1952E-02  0.8752E-04  0.5544E-02   0.000      0.9214E-02   0.000    
   14400  0.1716E-01  0.1191E-05 SHELL         65  -0.0%  0.3676E-02  0.1965E-02  0.9085E-04  0.5733E-02   0.000      0.9214E-02   0.000    
   14450  0.1722E-01  0.1191E-05 SHELL         65  -0.0%  0.3863E-02  0.1974E-02  0.9231E-04  0.5930E-02   0.000      0.9214E-02   0.000    
   14500  0.1728E-01  0.1191E-05 SHELL         65  -0.0%  0.4054E-02  0.1983E-02  0.9137E-04  0.6130E-02   0.000      0.9214E-02   0.000    
   14550  0.1734E-01  0.1191E-05 SHELL         65  -0.0%  0.4246E-02  0.1987E-02  0.9176E-04  0.6327E-02   0.000      0.9214E-02   0.000    
   14600  0.1739E-01  0.1191E-05 SHELL         65  -0.0%  0.4439E-02  0.1983E-02  0.9515E-04  0.6518E-02   0.000      0.9214E-02   0.000    
   14650  0.1745E-01  0.1191E-05 SHELL         65  -0.0%  0.4654E-02  0.1956E-02  0.9657E-04  0.6707E-02   0.000      0.9214E-02   0.000    
   14700  0.1751E-01  0.1191E-05 SHELL         65  -0.0%  0.4878E-02  0.1914E-02  0.9596E-04  0.6889E-02   0.000      0.9214E-02   0.000    
   14750  0.1757E-01  0.1191E-05 SHELL         65  -0.0%  0.5104E-02  0.1860E-02  0.9759E-04  0.7063E-02   0.000      0.9214E-02   0.000    
   14800  0.1763E-01  0.1191E-05 SHELL         65  -0.0%  0.5323E-02  0.1799E-02  0.1003E-03  0.7224E-02   0.000      0.9214E-02   0.000    
   14850  0.1769E-01  0.1191E-05 SHELL         65  -0.0%  0.5523E-02  0.1737E-02  0.1001E-03  0.7362E-02   0.000      0.9214E-02   0.000    
   14900  0.1775E-01  0.1191E-05 SHELL         65  -0.0%  0.5694E-02  0.1679E-02  0.9912E-04  0.7474E-02   0.000      0.9214E-02   0.000    
   14950  0.1781E-01  0.1191E-05 SHELL         65  -0.0%  0.5830E-02  0.1629E-02  0.1011E-03  0.7561E-02   0.000      0.9214E-02   0.000    

     RESTART FILES: TWISBEAM_0001_[0001-0004].rst WRITTEN
     -------------

   15000  0.1787E-01  0.1191E-05 SHELL         65  -0.0%  0.5945E-02  0.1575E-02  0.1036E-03  0.7625E-02   0.000      0.9214E-02   0.000    
   15050  0.1793E-01  0.1191E-05 SHELL         65  -0.0%  0.6050E-02  0.1517E-02  0.1036E-03  0.7672E-02   0.000      0.9214E-02   0.000    
   15100  0.1799E-01  0.1191E-05 SHELL         65  -0.0%  0.6155E-02  0.1451E-02  0.1024E-03  0.7710E-02   0.000      0.9214E-02   0.000    
   15150  0.1805E-01  0.1191E-05 SHELL         65  -0.0%  0.6253E-02  0.1380E-02  0.1042E-03  0.7739E-02   0.000      0.9214E-02   0.000    
   15200  0.1811E-01  0.1191E-05 SHELL         65  -0.0%  0.6358E-02  0.1303E-02  0.1058E-03  0.7767E-02   0.000      0.9214E-02   0.000    
   15250  0.1817E-01  0.1191E-05 SHELL         65  -0.0%  0.6459E-02  0.1224E-02  0.1044E-03  0.7789E-02   0.000      0.9214E-02   0.000    
   15300  0.1823E-01  0.1191E-05 SHELL         65  -0.0%  0.6541E-02  0.1156E-02  0.1040E-03  0.7802E-02   0.000      0.9214E-02   0.000    
   15350  0.1829E-01  0.1191E-05 SHELL         65  -0.0%  0.6608E-02  0.1095E-02  0.1054E-03  0.7810E-02   0.000      0.9214E-02   0.000    
   15400  0.1835E-01  0.1191E-05 SHELL         65  -0.0%  0.6667E-02  0.1044E-02  0.1060E-03  0.7817E-02   0.000      0.9214E-02   0.000    
   15450  0.1841E-01  0.1191E-05 SHELL         65  -0.0%  0.6723E-02  0.9937E-03  0.1042E-03  0.7822E-02   0.000      0.9214E-02   0.000    
   15500  0.1847E-01  0.1191E-05 SHELL         65  -0.0%  0.6768E-02  0.9531E-03  0.1040E-03  0.7826E-02   0.000      0.9214E-02   0.000    
   15550  0.1853E-01  0.1191E-05 SHELL         65  -0.0%  0.6811E-02  0.9096E-03  0.1061E-03  0.7828E-02   0.000      0.9214E-02   0.000    
   15600  0.1859E-01  0.1191E-05 SHELL         65  -0.0%  0.6847E-02  0.8664E-03  0.1065E-03  0.7821E-02   0.000      0.9214E-02   0.000    
   15650  0.1865E-01  0.1191E-05 SHELL         65  -0.0%  0.6868E-02  0.8275E-03  0.1049E-03  0.7801E-02   0.000      0.9214E-02   0.000    
   15700  0.1871E-01  0.1191E-05 SHELL         65  -0.0%  0.6861E-02  0.7991E-03  0.1052E-03  0.7766E-02   0.000      0.9214E-02   0.000    
   15750  0.1876E-01  0.1191E-05 SHELL         65  -0.0%  0.6817E-02  0.7846E-03  0.1071E-03  0.7710E-02   0.000      0.9214E-02   0.000    
   15800  0.1882E-01  0.1191E-05 SHELL         65  -0.0%  0.6752E-02  0.7823E-03  0.1065E-03  0.7642E-02   0.000      0.9214E-02   0.000    
   15850  0.1888E-01  0.1191E-05 SHELL         65  -0.0%  0.6657E-02  0.7994E-03  0.1053E-03  0.7563E-02   0.000      0.9214E-02   0.000    
   15900  0.1894E-01  0.1191E-05 SHELL         65  -0.0%  0.6542E-02  0.8249E-03  0.1064E-03  0.7474E-02   0.000      0.9214E-02   0.000    
   15950  0.1900E-01  0.1191E-05 SHELL         65  -0.0%  0.6414E-02  0.8547E-03  0.1084E-03  0.7379E-02   0.000      0.9214E-02   0.000    

     RESTART FILES: TWISBEAM_0001_[0001-0004].rst WRITTEN
     -------------

   16000  0.1906E-01  0.1191E-05 SHELL         65  -0.0%  0.6291E-02  0.8769E-03  0.1080E-03  0.7277E-02   0.000      0.9214E-02   0.000    
   16050  0.1912E-01  0.1191E-05 SHELL         65  -0.0%  0.6159E-02  0.8980E-03  0.1071E-03  0.7165E-02   0.000      0.9214E-02   0.000    
   16100  0.1918E-01  0.1191E-05 SHELL         65  -0.0%  0.6027E-02  0.9171E-03  0.1087E-03  0.7054E-02   0.000      0.9214E-02   0.000    
   16150  0.1924E-01  0.1191E-05 SHELL         65  -0.0%  0.5895E-02  0.9361E-03  0.1102E-03  0.6942E-02   0.000      0.9214E-02   0.000    
   16200  0.1930E-01  0.1191E-05 SHELL         65  -0.0%  0.5758E-02  0.9629E-03  0.1093E-03  0.6831E-02   0.000      0.9214E-02   0.000    
   16250  0.1936E-01  0.1191E-05 SHELL         65  -0.0%  0.5618E-02  0.1000E-02  0.1091E-03  0.6729E-02   0.000      0.9214E-02   0.000    
   16300  0.1942E-01  0.1191E-05 SHELL         65  -0.0%  0.5471E-02  0.1048E-02  0.1113E-03  0.6632E-02   0.000      0.9214E-02   0.000    
   16350  0.1948E-01  0.1191E-05 SHELL         65  -0.0%  0.5333E-02  0.1093E-02  0.1122E-03  0.6540E-02   0.000      0.9214E-02   0.000    
   16400  0.1954E-01  0.1191E-05 SHELL         65  -0.0%  0.5200E-02  0.1138E-02  0.1109E-03  0.6450E-02   0.000      0.9214E-02   0.000    
   16450  0.1960E-01  0.1191E-05 SHELL         65  -0.0%  0.5069E-02  0.1175E-02  0.1111E-03  0.6356E-02   0.000      0.9214E-02   0.000    
   CYCLE    TIME      TIME-STEP  ELEMENT          ERROR  I-ENERGY    K-ENERGY T  K-ENERGY R  EXT-WORK     MAS.ERR     TOTAL MASS  MASS ADDED
   16500  0.1966E-01  0.1191E-05 SHELL         65  -0.0%  0.4942E-02  0.1202E-02  0.1137E-03  0.6259E-02   0.000      0.9214E-02   0.000    
   16550  0.1972E-01  0.1191E-05 SHELL         65  -0.0%  0.4831E-02  0.1218E-02  0.1147E-03  0.6165E-02   0.000      0.9214E-02   0.000    
   16600  0.1978E-01  0.1191E-05 SHELL         65  -0.0%  0.4721E-02  0.1230E-02  0.1143E-03  0.6067E-02   0.000      0.9214E-02   0.000    
   16650  0.1984E-01  0.1191E-05 SHELL         65  -0.0%  0.4602E-02  0.1242E-02  0.1161E-03  0.5961E-02   0.000      0.9214E-02   0.000    
   16700  0.1990E-01  0.1191E-05 SHELL         65  -0.0%  0.4483E-02  0.1248E-02  0.1191E-03  0.5852E-02   0.000      0.9214E-02   0.000    
   16750  0.1996E-01  0.1191E-05 SHELL         65  -0.0%  0.4362E-02  0.1253E-02  0.1198E-03  0.5736E-02   0.000      0.9214E-02   0.000    
     ANIMATION FILE: TWISBEAMA003 WRITTEN

     RESTART FILES: TWISBEAM_0001_[0001-0004].rst WRITTEN
     -------------

  
                           ** CPU USER TIME **
  
  
                        ** SUMMARY **
  
 #PROC  ELEMENT   KINCOND   INTEG     IO        T0        ASM       RESOL    
   1   .3367E+01 .2962E+00 .2372E+00 .5522E+00 .6407E+00 .1396E+00 .6743E+01
   2   .2924E+01 .2973E+00 .2363E+00 .5392E+00 .7117E+00 .1393E+00 .6645E+01
   3   .3383E+01 .2576E+00 .2349E+00 .5274E+00 .7145E+00 .1387E+00 .6741E+01
   4   .3360E+01 .2612E+00 .2370E+00 .5334E+00 .6065E+00 .1347E+00 .6741E+01
  
                 ** SPMD COM. TIME **
  
 #PROC  FORCES    RBYFOR    RBYVEL    VEL       TOT       %        
   1   .3077E+00 .0000E+00 .0000E+00 .7200E-01 .3797E+00 .5632E+01
   2   .5722E+00 .0000E+00 .0000E+00 .7315E-01 .6454E+00 .9712E+01
   3   .2598E+00 .0000E+00 .0000E+00 .7433E-01 .3341E+00 .4957E+01
   4   .3687E+00 .0000E+00 .0000E+00 .7264E-01 .4414E+00 .6548E+01
  
 
                   ** CUMULATIVE CPU TIME SUMMARY **
  
 CONTACT SORTING.............: .0000E+00     0.00 % 
 CONTACT FORCES..............: .1024E+00     0.38 % 
 ELEMENT FORCES..............: .1303E+02    48.50 % 
 KINEMATIC COND..............: .1112E+01     4.14 % 
 INTEGRATION.................: .9455E+00     3.52 % 
 ASSEMBLING..................: .5523E+00     2.06 % 
 OTHERS (including I/O)......: .1112E+02    41.40 % 
 TOTAL.......................: .2687E+02   100.00 % 
  
  
                           ** ELAPSED TIME **
  
  
                        ** SUMMARY **
  
 #PROC  ELEMENT   KINCOND   INTEG     IO        T0        ASM       RESOL    
   1   .1918E+01 .1707E+00 .1358E+00 .3251E+00 .3675E+00 .8015E-01 .3847E+01
   2   .1703E+01 .1731E+00 .1374E+00 .3222E+00 .4179E+00 .8067E-01 .3847E+01
   3   .1927E+01 .1479E+00 .1343E+00 .3121E+00 .4092E+00 .7948E-01 .3847E+01
   4   .1912E+01 .1495E+00 .1354E+00 .3132E+00 .3488E+00 .7701E-01 .3847E+01
  
        ELEMENT   KINCOND   INTEG     IO        T0        ASM       RESOL    
 MIN   .1703E+01 .1479E+00 .1343E+00 .3121E+00 .3488E+00 .7701E-01 .3847E+01
 MAX   .1927E+01 .1731E+00 .1374E+00 .3251E+00 .4179E+00 .8067E-01 .3847E+01
 AVG   .1865E+01 .1603E+00 .1357E+00 .3181E+00 .3858E+00 .7933E-01 .3847E+01
  
                 ** SPMD COM. TIME **
  
 #PROC  FORCES    RBYFOR    RBYVEL    VEL       TOT       %        
   1   .1772E+00 .0000E+00 .0000E+00 .4194E-01 .2191E+00 .5696E+01
   2   .3312E+00 .0000E+00 .0000E+00 .4335E-01 .3745E+00 .9735E+01
   3   .1507E+00 .0000E+00 .0000E+00 .4369E-01 .1944E+00 .5054E+01
   4   .2157E+00 .0000E+00 .0000E+00 .4204E-01 .2578E+00 .6700E+01
  
        FORCES    RBYFOR    RBYVEL    VEL       TOT       %        
 MIN   .1507E+00 .0000E+00 .0000E+00 .4194E-01 .1944E+00 .5054E+01
 MAX   .3312E+00 .0000E+00 .0000E+00 .4369E-01 .3745E+00 .9735E+01
 AVG   .2187E+00 .0000E+00 .0000E+00 .4276E-01 .2615E+00 .6796E+01
  
                   ** MEMORY USAGE STATISTICS **
  
 TOTAL MEMORY USED .........................:      228 MB
 MAXIMUM MEMORY PER PROCESSOR...............:       57 MB
 MINIMUM MEMORY PER PROCESSOR...............:       57 MB
 AVERAGE MEMORY PER PROCESSOR...............:       57 MB
  
                   ** DISK USAGE STATISTICS **
  
 TOTAL DISK SPACE USED .....................:          1 MB
 ANIMATION/H3D/TH/OUTP SIZE ................:          0 MB
 RESTART FILE SIZE .........................:          1 MB
  
                   ** COMPUTE TIME INFORMATION **
                        ** CURRENT ENGINE **
  
 EXECUTION STARTED .........................:      2022/11/23  16:25:30
 EXECUTION COMPLETED .......................:      2022/11/23  16:25:34
  
 ELAPSED TIME     =          3.93 s
                          0:00:03
 ESTIMATED SPEEDUP=          6.83



     NORMAL TERMINATION      



     TOTAL NUMBER OF CYCLES  :   16796

  
                   ** COMPUTE RUNTIME INFORMATION SUMMARY **
  
        STARTER RUNTIME =          0.63s (00:00:00)
 # 001   ENGINE RUNTIME =          3.93s (00:00:03)
 ------------------------------ 
 STARTER+ENGINE RUNTIME =          4.56s (00:00:04)
  
