 TWISBEAM_0001.out
************************************************************************
**                                                                    **
**                                                                    **
**                         OpenRadioss Engine                         **
**                                                                    **
**            Non-linear Finite Element Analysis Software             **
**                                                                    **
**                                                                    **
**                                                                    **
**                Linux 64 bits, GNU compiler, OpenMPI                **
**                      Double Precision Version                      **
**                                                                    **
**                                                                    **
**                                                                    **
************************************************************************
** OpenRadioss Software                                               **
** COPYRIGHT (C) 1986-2025 Altair Engineering, Inc.                   **
** Licensed under GNU Affero General Public License.                  **
** See License file.                                                  **
************************************************************************
 
 NUMBER OF SPMD DOMAINS           4
 NUMBER OF THREADS PER DOMAIN     2
 NUMBER OF HMPP PROCESSES         8
  
 COMPUTATION HARDWARE DESCRIPTION
  
 CPU#  HOSTNAME     CPU TYPE, FREQUENCY AND MEMORY
   1   FR-LAP482   13th Gen Intel(R) Core(TM) i9-13900H (x86_64), 2995 MHz,  31886 MB RAM,   8192 MB swap
   2   FR-LAP482   13th Gen Intel(R) Core(TM) i9-13900H (x86_64), 2995 MHz,  31886 MB RAM,   8192 MB swap
   3   FR-LAP482   13th Gen Intel(R) Core(TM) i9-13900H (x86_64), 2995 MHz,  31886 MB RAM,   8192 MB swap
   4   FR-LAP482   13th Gen Intel(R) Core(TM) i9-13900H (x86_64), 2995 MHz,  31886 MB RAM,   8192 MB swap
  
 STACKSIZE  . . . . . . . . . . . . . . . . . . . . 8 MB
 THREAD STACKSIZE . . . . . . . . . . . . . . . . . 400 mB
 
************************************************************************


 TWISBEAMD01                                                                     


 FINAL TIME . . . . . . . . . . . . . . . . . . .  0.2001000E-01

 TIME INTERVAL FOR TIME HISTORY PLOTS . . . . . .  0.1000000E-03

 TIME STEP SCALE FACTOR . . . . . . . . . . . . .  0.9000000    

 MINIMUM TIME STEP  . . . . . . . . . . . . . . .   0.000000    


 BRICK TIME STEP SCALE FACTOR . . . . . . . . . .  0.9000000    
 BRICK MINIMUM TIME STEP. . . . . . . . . . . . .   0.000000    
 MIN. TIME STEP FLAG (1:STOP RUN, 2:DELETE BRICK)     1

 QUAD TIME STEP SCALE FACTOR. . . . . . . . . . .  0.9000000    
 QUAD MINIMUM TIME STEP . . . . . . . . . . . . .   0.000000    
 MIN. TIME STEP FLAG (1:STOP RUN, 2:DELETE QUAD).     1

 SHELL TIME STEP SCALE FACTOR . . . . . . . . . .  0.9000000    
 SHELL MINIMUM TIME STEP. . . . . . . . . . . . .   0.000000    
 MIN. TIME FLAG (1:STOP, 2:DELETE, 3:SMALL STRAIN)    2

 TRUSS TIME STEP SCALE FACTOR . . . . . . . . . .  0.9000000    
 TRUSS MINIMUM TIME STEP. . . . . . . . . . . . .   0.000000    
 MIN. TIME FLAG (1:STOP, 2:DELETE). . . . . . . .     0

 BEAM TIME STEP SCALE FACTOR. . . . . . . . . . .  0.9000000    
 BEAM MINIMUM TIME STEP . . . . . . . . . . . . .   0.000000    
 MIN. TIME FLAG (1:STOP, 2:DELETE). . . . . . . .     0

 SPRING TIME STEP SCALE FACTOR. . . . . . . . . .  0.9000000    
 SPRING MINIMUM TIME STEP . . . . . . . . . . . .   0.000000    
 MIN. TIME FLAG (1:STOP, 2:DELETE). . . . . . . .     0

 AIRBAG TIME STEP SCALE FACTOR. . . . . . . . . .  0.9000000    
 AIRBAG MINIMUM TIME STEP . . . . . . . . . . . .   0.000000    
 MIN. TIME FLAG (1:STOP). . . . . . . . . . . . .     0

 CONTACT TIME STEP SCALE FACTOR . . . . . . . . .  0.9000000    
 CONTACT MINIMUM TIME STEP. . . . . . . . . . . .   0.000000    
 MIN. TIME FLAG(1:STOP, 2:REMOVE NODE FROM INTERF)    0

 PRINTOUT CYCLE FREQUENCY . . . . . . . . . . . .   -50

 RESTART CYCLE FREQUENCY. . . . . . . . . . . . .       1000

 MAXIMUM RESTART WRITE BEFORE OVERWRITE . . . . .     0

 INVERS: INPUT DECK VERSION . . . . . . . . . . .  2019
 ITTYP : FLAG FOR TYPE OF T-FILE. . . . . . . . .     4


 TIME FOR FIRST ANIMATION-FILE PLOT . . . . . . .   0.000000    
 TIME INTERVAL FOR ANIMATION-FILE PLOTS . . . . .  0.1000000E-01
 TIME TO STOP ANIMATION-FILE PLOTS. . . . . . . .  0.1000000E+21
 SENSOR FOR ANIMATION-FILE PLOTS. . . . . . . . .          0
 TIME INTERVAL FOR SENSOR ANIMATION-FILE PLOTS. .   0.000000    

 VARIABLE SAVED ON ANIMATION FILES (1: YES) :
      PLASTIC STRAIN. . . . . .     0
      DENSITY     (SOLID ONLY).     0
      SPECIFIC ENERGY . . . . .     0
      HOURGLASS ENERGY. . . . .     0
      TEMPERATURE (SOLID ONLY).     0
      THICKNESS   (SHELL ONLY).     0
      PRESSURE    (SOLID ONLY).     0
      VON MISES . . . . . . . .     0
      TURBULENT ENERGY (FLUID).     0
      TURBULENT VISCOSITY(FLUID)    0
      VORTICITY (FLUID) . . . .     0
 NODAL VALUES SAVED ON ANIMATION FILES (1: YES) :
      PRESSURE. . . . . . . . .     0
      DENSITY . . . . . . . . .     0
      TEMPERATURE . . . . . . .     0
 VECTOR SAVED ON ANIMATION FILES (1: YES) :
      VELOCITY VECTOR . . . . .     0
      DISPLACEMENT VECTOR . . .     0
      ACCELERATION VECTOR . . .     0
      CONTACT FORCES. . . . . .     0
      INTERNAL FORCES . . . . .     0
      EXTERNAL FORCES . . . . .     0
      SECTION RBY RWALL FORCES.     0
      ROTATIONAL VELOCITY VECTOR    0
      CONTACT PRESSURE (VECTORS)    0
 SHELL TENSOR SAVED ON ANIMATION FILES (1: YES) :
      MEMBRANE STRESS . . . . .     0
      BENDING STRESS(MOMENT/T^2)    0
      UPPER LAYER STRESS. . . .     0
      LOWER LAYER STRESS. . . .     0
      MEMBRANE STRAIN . . . . .     0
      CURVATURE . . . . . . . .     0
      UPPER LAYER STRAIN. . . .     0
      LOWER LAYER STRAIN. . . .     0
 NODAL MASS SAVED ON ANIMATION FILES (1: YES) :    0
 KEEP DELETED ELEMENT (1: YES) :    0


 INITIAL TIME STEP. . . . . . . . . . . . . . . .   0.000000    
 MAXIMUM TIME STEP. . . . . . . . . . . . . . . .  0.1000000E+31

 PARALLEL ARITHMETIC ON
 NUMBER OF INTERFACES TO BE ELIMINATED. . . . . .        0

 NUMBER OF SOLID  ELEMENT BLOCKS TO BE ELIMINATED        0

 NUMBER OF QUAD   ELEMENT BLOCKS TO BE ELIMINATED        0

 NUMBER OF SHELL  ELEMENT BLOCKS TO BE ELIMINATED        0

 NUMBER OF TRUSS  ELEMENT BLOCKS TO BE ELIMINATED        0

 NUMBER OF BEAM   ELEMENT BLOCKS TO BE ELIMINATED        0

 NUMBER OF SPRING ELEMENT BLOCKS TO BE ELIMINATED        0

 NUMBER OF SH_3N  ELEMENT BLOCKS TO BE ELIMINATED        0

 NUMBER OF  SPH PARTICLES BLOCKS TO BE ELIMINATED        0

 NUMBER OF RIGID LINKS. . . . . . . . . . . . . .        0

 NUMBER OF NEW BOUNDARY CONDITIONS. . . . . . . .        0

 19/03/2025
   CYCLE    TIME      TIME-STEP  ELEMENT          ERROR  I-ENERGY    K-ENERGY T  K-ENERGY R  EXT-WORK     MAS.ERR     TOTAL MASS  MASS ADDED
       0   0.000      0.1191E-05 SHELL         62   0.0%   0.000       0.000       0.000       0.000       0.000      0.9214E-02   0.000    
     ANIMATION FILE: TWISBEAMA001 WRITTEN
      50  0.5957E-04  0.1191E-05 SHELL        137  -0.0%  0.5998E-05  0.2011E-04  0.8603E-06  0.2698E-04   0.000      0.9214E-02   0.000    
     100  0.1191E-03  0.1191E-05 SHELL         62  -0.0%  0.2031E-04  0.6192E-04  0.1659E-05  0.8391E-04   0.000      0.9214E-02   0.000    
     150  0.1787E-03  0.1191E-05 SHELL         62  -0.0%  0.4101E-04  0.1175E-03  0.2462E-05  0.1610E-03   0.000      0.9214E-02   0.000    
     200  0.2383E-03  0.1191E-05 SHELL         62  -0.0%  0.6804E-04  0.1832E-03  0.3142E-05  0.2544E-03   0.000      0.9214E-02   0.000    
     250  0.2979E-03  0.1191E-05 SHELL         62  -0.0%  0.9632E-04  0.2609E-03  0.3998E-05  0.3613E-03   0.000      0.9214E-02   0.000    
     300  0.3574E-03  0.1191E-05 SHELL         62  -0.0%  0.1352E-03  0.3405E-03  0.4330E-05  0.4801E-03   0.000      0.9214E-02   0.000    
     350  0.4170E-03  0.1191E-05 SHELL         65  -0.0%  0.1876E-03  0.4180E-03  0.4894E-05  0.6106E-03   0.000      0.9214E-02   0.000    
     400  0.4766E-03  0.1191E-05 SHELL         65  -0.0%  0.2306E-03  0.5090E-03  0.5599E-05  0.7452E-03   0.000      0.9214E-02   0.000    
     450  0.5361E-03  0.1191E-05 SHELL         62  -0.0%  0.2745E-03  0.6137E-03  0.6401E-05  0.8947E-03   0.000      0.9214E-02   0.000    
     500  0.5957E-03  0.1191E-05 SHELL         62  -0.0%  0.3203E-03  0.7319E-03  0.7450E-05  0.1060E-02   0.000      0.9214E-02   0.000    
     550  0.6553E-03  0.1191E-05 SHELL         62  -0.0%  0.3631E-03  0.8527E-03  0.7495E-05  0.1223E-02   0.000      0.9214E-02   0.000    
     600  0.7149E-03  0.1191E-05 SHELL         62  -0.0%  0.3920E-03  0.9794E-03  0.7711E-05  0.1379E-02   0.000      0.9214E-02   0.000    
     650  0.7744E-03  0.1191E-05 SHELL         65  -0.0%  0.4225E-03  0.1103E-02  0.8439E-05  0.1534E-02   0.000      0.9214E-02   0.000    
     700  0.8340E-03  0.1191E-05 SHELL         65  -0.0%  0.4682E-03  0.1215E-02  0.8816E-05  0.1692E-02   0.000      0.9214E-02   0.000    
     750  0.8936E-03  0.1191E-05 SHELL         65  -0.0%  0.5441E-03  0.1313E-02  0.9541E-05  0.1867E-02   0.000      0.9214E-02   0.000    
     800  0.9531E-03  0.1191E-05 SHELL         65  -0.0%  0.6454E-03  0.1403E-02  0.9766E-05  0.2058E-02   0.000      0.9214E-02   0.000    
     850  0.1013E-02  0.1191E-05 SHELL         65  -0.0%  0.7627E-03  0.1489E-02  0.9978E-05  0.2262E-02   0.000      0.9214E-02   0.000    
     900  0.1072E-02  0.1191E-05 SHELL         65  -0.0%  0.9062E-03  0.1564E-02  0.1023E-04  0.2480E-02   0.000      0.9214E-02   0.000    
     950  0.1132E-02  0.1191E-05 SHELL         65  -0.0%  0.1068E-02  0.1640E-02  0.1024E-04  0.2718E-02   0.000      0.9214E-02   0.000    

     RESTART FILES: TWISBEAM_0001_[0001-0004].rst WRITTEN
     -------------

    1000  0.1191E-02  0.1191E-05 SHELL         65  -0.0%  0.1237E-02  0.1711E-02  0.9806E-05  0.2957E-02   0.000      0.9214E-02   0.000    
    1050  0.1251E-02  0.1191E-05 SHELL         65  -0.0%  0.1421E-02  0.1767E-02  0.1006E-04  0.3198E-02   0.000      0.9214E-02   0.000    
    1100  0.1311E-02  0.1191E-05 SHELL         65  -0.0%  0.1634E-02  0.1797E-02  0.9891E-05  0.3441E-02   0.000      0.9214E-02   0.000    
    1150  0.1370E-02  0.1191E-05 SHELL         65  -0.0%  0.1873E-02  0.1805E-02  0.1031E-04  0.3689E-02   0.000      0.9214E-02   0.000    
    1200  0.1430E-02  0.1191E-05 SHELL         65  -0.0%  0.2146E-02  0.1792E-02  0.1071E-04  0.3949E-02   0.000      0.9214E-02   0.000    
    1250  0.1489E-02  0.1191E-05 SHELL         65  -0.0%  0.2442E-02  0.1753E-02  0.1009E-04  0.4205E-02   0.000      0.9214E-02   0.000    
    1300  0.1549E-02  0.1191E-05 SHELL         65  -0.0%  0.2733E-02  0.1701E-02  0.9555E-05  0.4444E-02   0.000      0.9214E-02   0.000    
    1350  0.1608E-02  0.1191E-05 SHELL         65  -0.0%  0.3015E-02  0.1648E-02  0.9614E-05  0.4673E-02   0.000      0.9214E-02   0.000    
    1400  0.1668E-02  0.1191E-05 SHELL         65  -0.0%  0.3282E-02  0.1602E-02  0.9485E-05  0.4894E-02   0.000      0.9214E-02   0.000    
    1450  0.1728E-02  0.1191E-05 SHELL         65  -0.0%  0.3541E-02  0.1547E-02  0.9548E-05  0.5098E-02   0.000      0.9214E-02   0.000    
    1500  0.1787E-02  0.1191E-05 SHELL         65  -0.0%  0.3793E-02  0.1487E-02  0.9777E-05  0.5291E-02   0.000      0.9214E-02   0.000    
    1550  0.1847E-02  0.1191E-05 SHELL         65  -0.0%  0.4039E-02  0.1423E-02  0.9912E-05  0.5473E-02   0.000      0.9214E-02   0.000    
    1600  0.1906E-02  0.1191E-05 SHELL         65  -0.0%  0.4289E-02  0.1353E-02  0.9557E-05  0.5652E-02   0.000      0.9214E-02   0.000    
    1650  0.1966E-02  0.1191E-05 SHELL         65  -0.0%  0.4553E-02  0.1268E-02  0.8737E-05  0.5831E-02   0.000      0.9214E-02   0.000    
    1700  0.2025E-02  0.1191E-05 SHELL         65  -0.0%  0.4812E-02  0.1176E-02  0.7853E-05  0.5997E-02   0.000      0.9214E-02   0.000    
    1750  0.2085E-02  0.1191E-05 SHELL         65  -0.0%  0.5043E-02  0.1096E-02  0.7673E-05  0.6147E-02   0.000      0.9214E-02   0.000    
    1800  0.2145E-02  0.1191E-05 SHELL         65  -0.0%  0.5265E-02  0.1024E-02  0.7716E-05  0.6297E-02   0.000      0.9214E-02   0.000    
    1850  0.2204E-02  0.1191E-05 SHELL         65  -0.0%  0.5479E-02  0.9620E-03  0.7630E-05  0.6448E-02   0.000      0.9214E-02   0.000    
    1900  0.2264E-02  0.1191E-05 SHELL         65  -0.0%  0.5682E-02  0.9096E-03  0.7405E-05  0.6599E-02   0.000      0.9214E-02   0.000    
    1950  0.2323E-02  0.1191E-05 SHELL         65  -0.0%  0.5862E-02  0.8766E-03  0.6900E-05  0.6746E-02   0.000      0.9214E-02   0.000    

     RESTART FILES: TWISBEAM_0001_[0001-0004].rst WRITTEN
     -------------

    2000  0.2383E-02  0.1191E-05 SHELL         65  -0.0%  0.6026E-02  0.8495E-03  0.5840E-05  0.6881E-02   0.000      0.9214E-02   0.000    
    2050  0.2442E-02  0.1191E-05 SHELL         65  -0.0%  0.6173E-02  0.8235E-03  0.5514E-05  0.7002E-02   0.000      0.9214E-02   0.000    
    2100  0.2502E-02  0.1191E-05 SHELL         65  -0.0%  0.6296E-02  0.8055E-03  0.4998E-05  0.7107E-02   0.000      0.9214E-02   0.000    
    2150  0.2562E-02  0.1191E-05 SHELL         65  -0.0%  0.6377E-02  0.7996E-03  0.4617E-05  0.7182E-02   0.000      0.9214E-02   0.000    
    2200  0.2621E-02  0.1191E-05 SHELL         65  -0.0%  0.6411E-02  0.8104E-03  0.4308E-05  0.7226E-02   0.000      0.9214E-02   0.000    
    2250  0.2681E-02  0.1191E-05 SHELL         65  -0.0%  0.6409E-02  0.8383E-03  0.4135E-05  0.7251E-02   0.000      0.9214E-02   0.000    
    2300  0.2740E-02  0.1191E-05 SHELL         65  -0.0%  0.6363E-02  0.8941E-03  0.4703E-05  0.7262E-02   0.000      0.9214E-02   0.000    
    2350  0.2800E-02  0.1191E-05 SHELL         65  -0.0%  0.6274E-02  0.9696E-03  0.5759E-05  0.7250E-02   0.000      0.9214E-02   0.000    
    2400  0.2859E-02  0.1191E-05 SHELL         65  -0.0%  0.6147E-02  0.1058E-02  0.7016E-05  0.7212E-02   0.000      0.9214E-02   0.000    
    2450  0.2919E-02  0.1191E-05 SHELL         65  -0.0%  0.5985E-02  0.1148E-02  0.8608E-05  0.7142E-02   0.000      0.9214E-02   0.000    
    2500  0.2979E-02  0.1191E-05 SHELL         65  -0.0%  0.5801E-02  0.1242E-02  0.9155E-05  0.7052E-02   0.000      0.9214E-02   0.000    
    2550  0.3038E-02  0.1191E-05 SHELL         65  -0.0%  0.5612E-02  0.1332E-02  0.9459E-05  0.6954E-02   0.000      0.9214E-02   0.000    
    2600  0.3098E-02  0.1191E-05 SHELL         65  -0.0%  0.5420E-02  0.1413E-02  0.1010E-04  0.6843E-02   0.000      0.9214E-02   0.000    
    2650  0.3157E-02  0.1191E-05 SHELL         65  -0.0%  0.5218E-02  0.1502E-02  0.1021E-04  0.6731E-02   0.000      0.9214E-02   0.000    
    2700  0.3217E-02  0.1191E-05 SHELL         65  -0.0%  0.5017E-02  0.1601E-02  0.1033E-04  0.6629E-02   0.000      0.9214E-02   0.000    
   CYCLE    TIME      TIME-STEP  ELEMENT          ERROR  I-ENERGY    K-ENERGY T  K-ENERGY R  EXT-WORK     MAS.ERR     TOTAL MASS  MASS ADDED
    2750  0.3276E-02  0.1191E-05 SHELL         65  -0.0%  0.4818E-02  0.1708E-02  0.1071E-04  0.6537E-02   0.000      0.9214E-02   0.000    
    2800  0.3336E-02  0.1191E-05 SHELL         65  -0.0%  0.4622E-02  0.1812E-02  0.1099E-04  0.6445E-02   0.000      0.9214E-02   0.000    
    2850  0.3396E-02  0.1191E-05 SHELL         65  -0.0%  0.4411E-02  0.1919E-02  0.1171E-04  0.6342E-02   0.000      0.9214E-02   0.000    
    2900  0.3455E-02  0.1191E-05 SHELL         65  -0.0%  0.4195E-02  0.2018E-02  0.1149E-04  0.6225E-02   0.000      0.9214E-02   0.000    
    2950  0.3515E-02  0.1191E-05 SHELL         65  -0.0%  0.3995E-02  0.2099E-02  0.1117E-04  0.6106E-02   0.000      0.9214E-02   0.000    

     RESTART FILES: TWISBEAM_0001_[0001-0004].rst WRITTEN
     -------------

    3000  0.3574E-02  0.1191E-05 SHELL         65  -0.0%  0.3818E-02  0.2159E-02  0.1159E-04  0.5988E-02   0.000      0.9214E-02   0.000    
    3050  0.3634E-02  0.1191E-05 SHELL         65  -0.0%  0.3647E-02  0.2205E-02  0.1179E-04  0.5864E-02   0.000      0.9214E-02   0.000    
    3100  0.3693E-02  0.1191E-05 SHELL         65  -0.0%  0.3476E-02  0.2246E-02  0.1173E-04  0.5733E-02   0.000      0.9214E-02   0.000    
    3150  0.3753E-02  0.1191E-05 SHELL         65  -0.0%  0.3316E-02  0.2270E-02  0.1176E-04  0.5597E-02   0.000      0.9214E-02   0.000    
    3200  0.3813E-02  0.1191E-05 SHELL         65  -0.0%  0.3155E-02  0.2284E-02  0.1165E-04  0.5451E-02   0.000      0.9214E-02   0.000    
    3250  0.3872E-02  0.1191E-05 SHELL         65  -0.0%  0.2987E-02  0.2289E-02  0.1176E-04  0.5288E-02   0.000      0.9214E-02   0.000    
    3300  0.3932E-02  0.1191E-05 SHELL         65  -0.0%  0.2811E-02  0.2286E-02  0.1200E-04  0.5109E-02   0.000      0.9214E-02   0.000    
    3350  0.3991E-02  0.1191E-05 SHELL         65  -0.0%  0.2651E-02  0.2257E-02  0.1113E-04  0.4919E-02   0.000      0.9214E-02   0.000    
    3400  0.4051E-02  0.1191E-05 SHELL         65  -0.0%  0.2523E-02  0.2202E-02  0.1074E-04  0.4736E-02   0.000      0.9214E-02   0.000    
    3450  0.4110E-02  0.1191E-05 SHELL         65  -0.0%  0.2431E-02  0.2130E-02  0.1027E-04  0.4572E-02   0.000      0.9214E-02   0.000    
    3500  0.4170E-02  0.1191E-05 SHELL         65  -0.0%  0.2364E-02  0.2041E-02  0.9762E-05  0.4415E-02   0.000      0.9214E-02   0.000    
    3550  0.4230E-02  0.1191E-05 SHELL         65  -0.0%  0.2317E-02  0.1939E-02  0.9803E-05  0.4267E-02   0.000      0.9214E-02   0.000    
    3600  0.4289E-02  0.1191E-05 SHELL         65  -0.0%  0.2283E-02  0.1834E-02  0.9553E-05  0.4126E-02   0.000      0.9214E-02   0.000    
    3650  0.4349E-02  0.1191E-05 SHELL         65  -0.0%  0.2250E-02  0.1737E-02  0.9814E-05  0.3997E-02   0.000      0.9214E-02   0.000    
    3700  0.4408E-02  0.1191E-05 SHELL         65  -0.0%  0.2228E-02  0.1640E-02  0.1021E-04  0.3879E-02   0.000      0.9214E-02   0.000    
    3750  0.4468E-02  0.1191E-05 SHELL         65  -0.0%  0.2215E-02  0.1541E-02  0.1057E-04  0.3768E-02   0.000      0.9214E-02   0.000    
    3800  0.4527E-02  0.1191E-05 SHELL         65  -0.0%  0.2220E-02  0.1437E-02  0.1043E-04  0.3668E-02   0.000      0.9214E-02   0.000    
    3850  0.4587E-02  0.1191E-05 SHELL         65  -0.0%  0.2256E-02  0.1325E-02  0.9841E-05  0.3592E-02   0.000      0.9214E-02   0.000    
    3900  0.4647E-02  0.1191E-05 SHELL         65  -0.0%  0.2320E-02  0.1204E-02  0.9444E-05  0.3534E-02   0.000      0.9214E-02   0.000    
    3950  0.4706E-02  0.1191E-05 SHELL         62  -0.0%  0.2391E-02  0.1078E-02  0.9944E-05  0.3479E-02   0.000      0.9214E-02   0.000    

     RESTART FILES: TWISBEAM_0001_[0001-0004].rst WRITTEN
     -------------

    4000  0.4766E-02  0.1191E-05 SHELL         62  -0.0%  0.2449E-02  0.9621E-03  0.1014E-04  0.3422E-02   0.000      0.9214E-02   0.000    
    4050  0.4825E-02  0.1191E-05 SHELL         62  -0.0%  0.2496E-02  0.8585E-03  0.1007E-04  0.3365E-02   0.000      0.9214E-02   0.000    
    4100  0.4885E-02  0.1191E-05 SHELL         62  -0.0%  0.2534E-02  0.7708E-03  0.1069E-04  0.3316E-02   0.000      0.9214E-02   0.000    
    4150  0.4944E-02  0.1191E-05 SHELL         62  -0.0%  0.2566E-02  0.6975E-03  0.1165E-04  0.3276E-02   0.000      0.9214E-02   0.000    
    4200  0.5004E-02  0.1191E-05 SHELL         65  -0.0%  0.2586E-02  0.6437E-03  0.1199E-04  0.3242E-02   0.000      0.9214E-02   0.000    
    4250  0.5064E-02  0.1191E-05 SHELL         62  -0.0%  0.2608E-02  0.5999E-03  0.1119E-04  0.3220E-02   0.000      0.9214E-02   0.000    
    4300  0.5123E-02  0.1191E-05 SHELL         62  -0.0%  0.2647E-02  0.5585E-03  0.1092E-04  0.3217E-02   0.000      0.9214E-02   0.000    
    4350  0.5183E-02  0.1191E-05 SHELL         62  -0.0%  0.2695E-02  0.5254E-03  0.1151E-04  0.3233E-02   0.000      0.9214E-02   0.000    
    4400  0.5242E-02  0.1191E-05 SHELL        134  -0.0%  0.2739E-02  0.5072E-03  0.1203E-04  0.3259E-02   0.000      0.9214E-02   0.000    
    4450  0.5302E-02  0.1191E-05 SHELL        134  -0.0%  0.2785E-02  0.5037E-03  0.1254E-04  0.3301E-02   0.000      0.9214E-02   0.000    
    4500  0.5361E-02  0.1191E-05 SHELL        134  -0.0%  0.2845E-02  0.5102E-03  0.1374E-04  0.3370E-02   0.000      0.9214E-02   0.000    
    4550  0.5421E-02  0.1191E-05 SHELL        134  -0.0%  0.2910E-02  0.5405E-03  0.1603E-04  0.3467E-02   0.000      0.9214E-02   0.000    
    4600  0.5481E-02  0.1191E-05 SHELL        134  -0.0%  0.2986E-02  0.5914E-03  0.1727E-04  0.3595E-02   0.000      0.9214E-02   0.000    
    4650  0.5540E-02  0.1191E-05 SHELL        134  -0.0%  0.3071E-02  0.6522E-03  0.1791E-04  0.3741E-02   0.000      0.9214E-02   0.000    
    4700  0.5600E-02  0.1191E-05 SHELL        134  -0.0%  0.3171E-02  0.7104E-03  0.1953E-04  0.3902E-02   0.000      0.9214E-02   0.000    
    4750  0.5659E-02  0.1191E-05 SHELL         62  -0.0%  0.3283E-02  0.7700E-03  0.2135E-04  0.4075E-02   0.000      0.9214E-02   0.000    
    4800  0.5719E-02  0.1191E-05 SHELL         62  -0.0%  0.3407E-02  0.8285E-03  0.2232E-04  0.4258E-02   0.000      0.9214E-02   0.000    
    4850  0.5778E-02  0.1191E-05 SHELL         62  -0.0%  0.3538E-02  0.8823E-03  0.2204E-04  0.4442E-02   0.000      0.9214E-02   0.000    
    4900  0.5838E-02  0.1191E-05 SHELL         62  -0.0%  0.3668E-02  0.9369E-03  0.2224E-04  0.4628E-02   0.000      0.9214E-02   0.000    
    4950  0.5898E-02  0.1191E-05 SHELL         65  -0.0%  0.3791E-02  0.9988E-03  0.2328E-04  0.4814E-02   0.000      0.9214E-02   0.000    

     RESTART FILES: TWISBEAM_0001_[0001-0004].rst WRITTEN
     -------------

    5000  0.5957E-02  0.1191E-05 SHELL         65  -0.0%  0.3906E-02  0.1074E-02  0.2393E-04  0.5004E-02   0.000      0.9214E-02   0.000    
    5050  0.6017E-02  0.1191E-05 SHELL         65  -0.0%  0.4015E-02  0.1152E-02  0.2369E-04  0.5191E-02   0.000      0.9214E-02   0.000    
    5100  0.6076E-02  0.1191E-05 SHELL         65  -0.0%  0.4114E-02  0.1226E-02  0.2379E-04  0.5364E-02   0.000      0.9214E-02   0.000    
    5150  0.6136E-02  0.1191E-05 SHELL         65  -0.0%  0.4212E-02  0.1292E-02  0.2336E-04  0.5527E-02   0.000      0.9214E-02   0.000    
    5200  0.6195E-02  0.1191E-05 SHELL         65  -0.0%  0.4327E-02  0.1342E-02  0.2239E-04  0.5692E-02   0.000      0.9214E-02   0.000    
    5250  0.6255E-02  0.1191E-05 SHELL         65  -0.0%  0.4473E-02  0.1372E-02  0.2205E-04  0.5867E-02   0.000      0.9214E-02   0.000    
    5300  0.6315E-02  0.1191E-05 SHELL         65  -0.0%  0.4644E-02  0.1384E-02  0.2207E-04  0.6050E-02   0.000      0.9214E-02   0.000    
    5350  0.6374E-02  0.1191E-05 SHELL         65  -0.0%  0.4830E-02  0.1389E-02  0.2221E-04  0.6241E-02   0.000      0.9214E-02   0.000    
    5400  0.6434E-02  0.1191E-05 SHELL         65  -0.0%  0.5039E-02  0.1385E-02  0.2237E-04  0.6446E-02   0.000      0.9214E-02   0.000    
    5450  0.6493E-02  0.1191E-05 SHELL         65  -0.0%  0.5261E-02  0.1376E-02  0.2250E-04  0.6660E-02   0.000      0.9214E-02   0.000    
   CYCLE    TIME      TIME-STEP  ELEMENT          ERROR  I-ENERGY    K-ENERGY T  K-ENERGY R  EXT-WORK     MAS.ERR     TOTAL MASS  MASS ADDED
    5500  0.6553E-02  0.1191E-05 SHELL         65  -0.0%  0.5491E-02  0.1362E-02  0.2258E-04  0.6876E-02   0.000      0.9214E-02   0.000    
    5550  0.6612E-02  0.1191E-05 SHELL         65  -0.0%  0.5722E-02  0.1342E-02  0.2164E-04  0.7086E-02   0.000      0.9214E-02   0.000    
    5600  0.6672E-02  0.1191E-05 SHELL         65  -0.0%  0.5967E-02  0.1304E-02  0.2117E-04  0.7292E-02   0.000      0.9214E-02   0.000    
    5650  0.6732E-02  0.1191E-05 SHELL         65  -0.0%  0.6233E-02  0.1250E-02  0.2189E-04  0.7505E-02   0.000      0.9214E-02   0.000    
    5700  0.6791E-02  0.1191E-05 SHELL         65  -0.0%  0.6512E-02  0.1186E-02  0.2212E-04  0.7721E-02   0.000      0.9214E-02   0.000    
    5750  0.6851E-02  0.1191E-05 SHELL         65  -0.0%  0.6793E-02  0.1113E-02  0.2066E-04  0.7927E-02   0.000      0.9214E-02   0.000    
    5800  0.6910E-02  0.1191E-05 SHELL         65  -0.0%  0.7067E-02  0.1032E-02  0.2009E-04  0.8119E-02   0.000      0.9214E-02   0.000    
    5850  0.6970E-02  0.1191E-05 SHELL         65  -0.0%  0.7319E-02  0.9516E-03  0.2094E-04  0.8292E-02   0.000      0.9214E-02   0.000    
    5900  0.7029E-02  0.1191E-05 SHELL         65  -0.0%  0.7538E-02  0.8828E-03  0.2164E-04  0.8442E-02   0.000      0.9214E-02   0.000    
    5950  0.7089E-02  0.1191E-05 SHELL         65  -0.0%  0.7732E-02  0.8198E-03  0.2112E-04  0.8574E-02   0.000      0.9214E-02   0.000    

     RESTART FILES: TWISBEAM_0001_[0001-0004].rst WRITTEN
     -------------

    6000  0.7148E-02  0.1191E-05 SHELL         65  -0.0%  0.7903E-02  0.7563E-03  0.2128E-04  0.8681E-02   0.000      0.9214E-02   0.000    
    6050  0.7208E-02  0.1191E-05 SHELL         65  -0.0%  0.8063E-02  0.6894E-03  0.2275E-04  0.8776E-02   0.000      0.9214E-02   0.000    
    6100  0.7268E-02  0.1191E-05 SHELL         65  -0.0%  0.8221E-02  0.6220E-03  0.2376E-04  0.8868E-02   0.000      0.9214E-02   0.000    
    6150  0.7327E-02  0.1191E-05 SHELL         65  -0.0%  0.8382E-02  0.5505E-03  0.2308E-04  0.8956E-02   0.000      0.9214E-02   0.000    
    6200  0.7387E-02  0.1191E-05 SHELL         65  -0.0%  0.8531E-02  0.4748E-03  0.2288E-04  0.9029E-02   0.000      0.9214E-02   0.000    
    6250  0.7446E-02  0.1191E-05 SHELL         65  -0.0%  0.8652E-02  0.4098E-03  0.2387E-04  0.9086E-02   0.000      0.9214E-02   0.000    
    6300  0.7506E-02  0.1191E-05 SHELL         65  -0.0%  0.8735E-02  0.3652E-03  0.2502E-04  0.9126E-02   0.000      0.9214E-02   0.000    
    6350  0.7565E-02  0.1191E-05 SHELL         65  -0.0%  0.8789E-02  0.3415E-03  0.2564E-04  0.9157E-02   0.000      0.9214E-02   0.000    
    6400  0.7625E-02  0.1191E-05 SHELL         65  -0.0%  0.8822E-02  0.3339E-03  0.2700E-04  0.9183E-02   0.000      0.9214E-02   0.000    
    6450  0.7685E-02  0.1191E-05 SHELL         65  -0.0%  0.8825E-02  0.3443E-03  0.2878E-04  0.9199E-02   0.000      0.9214E-02   0.000    
    6500  0.7744E-02  0.1191E-05 SHELL         65  -0.0%  0.8807E-02  0.3665E-03  0.2997E-04  0.9204E-02   0.000      0.9214E-02   0.000    
    6550  0.7804E-02  0.1191E-05 SHELL         65  -0.0%  0.8782E-02  0.3925E-03  0.3052E-04  0.9206E-02   0.000      0.9214E-02   0.000    
    6600  0.7863E-02  0.1191E-05 SHELL         65  -0.0%  0.8736E-02  0.4221E-03  0.3132E-04  0.9190E-02   0.000      0.9214E-02   0.000    
    6650  0.7923E-02  0.1191E-05 SHELL         65  -0.0%  0.8654E-02  0.4596E-03  0.3254E-04  0.9146E-02   0.000      0.9214E-02   0.000    
    6700  0.7982E-02  0.1191E-05 SHELL         65  -0.0%  0.8528E-02  0.5097E-03  0.3331E-04  0.9072E-02   0.000      0.9214E-02   0.000    
    6750  0.8042E-02  0.1191E-05 SHELL         65  -0.0%  0.8364E-02  0.5715E-03  0.3474E-04  0.8971E-02   0.000      0.9214E-02   0.000    
    6800  0.8102E-02  0.1191E-05 SHELL         65  -0.0%  0.8166E-02  0.6481E-03  0.3704E-04  0.8851E-02   0.000      0.9214E-02   0.000    
    6850  0.8161E-02  0.1191E-05 SHELL         65  -0.0%  0.7941E-02  0.7382E-03  0.3932E-04  0.8719E-02   0.000      0.9214E-02   0.000    
    6900  0.8221E-02  0.1191E-05 SHELL         65  -0.0%  0.7685E-02  0.8348E-03  0.4128E-04  0.8561E-02   0.000      0.9214E-02   0.000    
    6950  0.8280E-02  0.1191E-05 SHELL         65  -0.0%  0.7413E-02  0.9317E-03  0.4351E-04  0.8389E-02   0.000      0.9214E-02   0.000    

     RESTART FILES: TWISBEAM_0001_[0001-0004].rst WRITTEN
     -------------

    7000  0.8340E-02  0.1191E-05 SHELL         65  -0.0%  0.7132E-02  0.1026E-02  0.4606E-04  0.8204E-02   0.000      0.9214E-02   0.000    
    7050  0.8399E-02  0.1191E-05 SHELL         65  -0.0%  0.6840E-02  0.1118E-02  0.4730E-04  0.8006E-02   0.000      0.9214E-02   0.000    
    7100  0.8459E-02  0.1191E-05 SHELL         65  -0.0%  0.6545E-02  0.1205E-02  0.4711E-04  0.7797E-02   0.000      0.9214E-02   0.000    
    7150  0.8519E-02  0.1191E-05 SHELL         65  -0.0%  0.6246E-02  0.1290E-02  0.4771E-04  0.7585E-02   0.000      0.9214E-02   0.000    
    7200  0.8578E-02  0.1191E-05 SHELL         65  -0.0%  0.5941E-02  0.1382E-02  0.4941E-04  0.7374E-02   0.000      0.9214E-02   0.000    
    7250  0.8638E-02  0.1191E-05 SHELL         65  -0.0%  0.5644E-02  0.1483E-02  0.4907E-04  0.7176E-02   0.000      0.9214E-02   0.000    
    7300  0.8697E-02  0.1191E-05 SHELL         65  -0.0%  0.5357E-02  0.1582E-02  0.4837E-04  0.6987E-02   0.000      0.9214E-02   0.000    
    7350  0.8757E-02  0.1191E-05 SHELL         65  -0.0%  0.5071E-02  0.1674E-02  0.4962E-04  0.6795E-02   0.000      0.9214E-02   0.000    
    7400  0.8816E-02  0.1191E-05 SHELL         65  -0.0%  0.4792E-02  0.1758E-02  0.5140E-04  0.6601E-02   0.000      0.9214E-02   0.000    
    7450  0.8876E-02  0.1191E-05 SHELL         65  -0.0%  0.4533E-02  0.1822E-02  0.5134E-04  0.6407E-02   0.000      0.9214E-02   0.000    
    7500  0.8936E-02  0.1191E-05 SHELL         65  -0.0%  0.4294E-02  0.1863E-02  0.4946E-04  0.6207E-02   0.000      0.9214E-02   0.000    
    7550  0.8995E-02  0.1191E-05 SHELL         65  -0.0%  0.4068E-02  0.1886E-02  0.4893E-04  0.6004E-02   0.000      0.9214E-02   0.000    
    7600  0.9055E-02  0.1191E-05 SHELL         65  -0.0%  0.3840E-02  0.1900E-02  0.4942E-04  0.5791E-02   0.000      0.9214E-02   0.000    
    7650  0.9114E-02  0.1191E-05 SHELL         65  -0.0%  0.3608E-02  0.1911E-02  0.4824E-04  0.5568E-02   0.000      0.9214E-02   0.000    
    7700  0.9174E-02  0.1191E-05 SHELL         65  -0.0%  0.3377E-02  0.1915E-02  0.4748E-04  0.5341E-02   0.000      0.9214E-02   0.000    
    7750  0.9233E-02  0.1191E-05 SHELL         65  -0.0%  0.3140E-02  0.1916E-02  0.4937E-04  0.5106E-02   0.000      0.9214E-02   0.000    
    7800  0.9293E-02  0.1191E-05 SHELL         65  -0.0%  0.2889E-02  0.1913E-02  0.5144E-04  0.4854E-02   0.000      0.9214E-02   0.000    
    7850  0.9353E-02  0.1191E-05 SHELL         65  -0.0%  0.2648E-02  0.1900E-02  0.5019E-04  0.4599E-02   0.000      0.9214E-02   0.000    
    7900  0.9412E-02  0.1191E-05 SHELL         65  -0.0%  0.2431E-02  0.1871E-02  0.4861E-04  0.4351E-02   0.000      0.9214E-02   0.000    
    7950  0.9472E-02  0.1191E-05 SHELL         65  -0.0%  0.2235E-02  0.1829E-02  0.4815E-04  0.4112E-02   0.000      0.9214E-02   0.000    

     RESTART FILES: TWISBEAM_0001_[0001-0004].rst WRITTEN
     -------------

    8000  0.9531E-02  0.1191E-05 SHELL         65  -0.0%  0.2061E-02  0.1779E-02  0.4792E-04  0.3889E-02   0.000      0.9214E-02   0.000    
    8050  0.9591E-02  0.1191E-05 SHELL         65  -0.0%  0.1904E-02  0.1724E-02  0.4654E-04  0.3675E-02   0.000      0.9214E-02   0.000    
    8100  0.9650E-02  0.1191E-05 SHELL         65  -0.0%  0.1760E-02  0.1668E-02  0.4589E-04  0.3474E-02   0.000      0.9214E-02   0.000    
    8150  0.9710E-02  0.1191E-05 SHELL         65  -0.0%  0.1630E-02  0.1617E-02  0.4608E-04  0.3293E-02   0.000      0.9214E-02   0.000    
    8200  0.9770E-02  0.1191E-05 SHELL         65  -0.0%  0.1509E-02  0.1570E-02  0.4647E-04  0.3126E-02   0.000      0.9214E-02   0.000    
   CYCLE    TIME      TIME-STEP  ELEMENT          ERROR  I-ENERGY    K-ENERGY T  K-ENERGY R  EXT-WORK     MAS.ERR     TOTAL MASS  MASS ADDED
    8250  0.9829E-02  0.1191E-05 SHELL         65  -0.0%  0.1401E-02  0.1521E-02  0.4605E-04  0.2969E-02   0.000      0.9214E-02   0.000    
    8300  0.9889E-02  0.1191E-05 SHELL         65  -0.0%  0.1318E-02  0.1472E-02  0.4647E-04  0.2837E-02   0.000      0.9214E-02   0.000    
    8350  0.9948E-02  0.1191E-05 SHELL         65  -0.0%  0.1257E-02  0.1417E-02  0.4695E-04  0.2721E-02   0.000      0.9214E-02   0.000    
     ANIMATION FILE: TWISBEAMA002 WRITTEN
    8400  0.1001E-01  0.1191E-05 SHELL         65  -0.0%  0.1219E-02  0.1358E-02  0.4527E-04  0.2623E-02   0.000      0.9214E-02   0.000    
    8450  0.1007E-01  0.1191E-05 SHELL         65  -0.0%  0.1193E-02  0.1296E-02  0.4384E-04  0.2534E-02   0.000      0.9214E-02   0.000    
    8500  0.1013E-01  0.1191E-05 SHELL         62  -0.0%  0.1157E-02  0.1243E-02  0.4462E-04  0.2444E-02   0.000      0.9214E-02   0.000    
    8550  0.1019E-01  0.1191E-05 SHELL         62  -0.0%  0.1106E-02  0.1205E-02  0.4492E-04  0.2356E-02   0.000      0.9214E-02   0.000    
    8600  0.1025E-01  0.1191E-05 SHELL         62  -0.0%  0.1049E-02  0.1184E-02  0.4412E-04  0.2278E-02   0.000      0.9214E-02   0.000    
    8650  0.1031E-01  0.1191E-05 SHELL         65  -0.0%  0.9832E-03  0.1179E-02  0.4454E-04  0.2207E-02   0.000      0.9214E-02   0.000    
    8700  0.1037E-01  0.1191E-05 SHELL         62  -0.0%  0.9144E-03  0.1186E-02  0.4662E-04  0.2148E-02   0.000      0.9214E-02   0.000    
    8750  0.1042E-01  0.1191E-05 SHELL         62  -0.0%  0.8553E-03  0.1201E-02  0.4798E-04  0.2105E-02   0.000      0.9214E-02   0.000    
    8800  0.1048E-01  0.1191E-05 SHELL         62  -0.0%  0.8184E-03  0.1212E-02  0.4662E-04  0.2077E-02   0.000      0.9214E-02   0.000    
    8850  0.1054E-01  0.1191E-05 SHELL        134  -0.0%  0.7997E-03  0.1218E-02  0.4579E-04  0.2064E-02   0.000      0.9214E-02   0.000    
    8900  0.1060E-01  0.1191E-05 SHELL        134  -0.0%  0.7912E-03  0.1226E-02  0.4721E-04  0.2065E-02   0.000      0.9214E-02   0.000    
    8950  0.1066E-01  0.1191E-05 SHELL        134  -0.0%  0.7814E-03  0.1242E-02  0.4698E-04  0.2071E-02   0.000      0.9214E-02   0.000    

     RESTART FILES: TWISBEAM_0001_[0001-0004].rst WRITTEN
     -------------

    9000  0.1072E-01  0.1191E-05 SHELL        134  -0.0%  0.7849E-03  0.1265E-02  0.4525E-04  0.2096E-02   0.000      0.9214E-02   0.000    
    9050  0.1078E-01  0.1191E-05 SHELL        134  -0.0%  0.8063E-03  0.1296E-02  0.4623E-04  0.2149E-02   0.000      0.9214E-02   0.000    
    9100  0.1084E-01  0.1191E-05 SHELL        134  -0.0%  0.8351E-03  0.1341E-02  0.4927E-04  0.2226E-02   0.000      0.9214E-02   0.000    
    9150  0.1090E-01  0.1191E-05 SHELL        134  -0.0%  0.8796E-03  0.1390E-02  0.5124E-04  0.2321E-02   0.000      0.9214E-02   0.000    
    9200  0.1096E-01  0.1191E-05 SHELL        134  -0.0%  0.9469E-03  0.1436E-02  0.5103E-04  0.2435E-02   0.000      0.9214E-02   0.000    
    9250  0.1102E-01  0.1191E-05 SHELL         62  -0.0%  0.1024E-02  0.1477E-02  0.5177E-04  0.2554E-02   0.000      0.9214E-02   0.000    
    9300  0.1108E-01  0.1191E-05 SHELL         62  -0.0%  0.1111E-02  0.1515E-02  0.5371E-04  0.2681E-02   0.000      0.9214E-02   0.000    
    9350  0.1114E-01  0.1191E-05 SHELL         65  -0.0%  0.1202E-02  0.1549E-02  0.5322E-04  0.2805E-02   0.000      0.9214E-02   0.000    
    9400  0.1120E-01  0.1191E-05 SHELL         62  -0.0%  0.1287E-02  0.1580E-02  0.5206E-04  0.2920E-02   0.000      0.9214E-02   0.000    
    9450  0.1126E-01  0.1191E-05 SHELL         65  -0.0%  0.1374E-02  0.1613E-02  0.5262E-04  0.3040E-02   0.000      0.9214E-02   0.000    
    9500  0.1132E-01  0.1191E-05 SHELL         65  -0.0%  0.1462E-02  0.1650E-02  0.5314E-04  0.3166E-02   0.000      0.9214E-02   0.000    
    9550  0.1138E-01  0.1191E-05 SHELL         65  -0.0%  0.1546E-02  0.1687E-02  0.5322E-04  0.3287E-02   0.000      0.9214E-02   0.000    
    9600  0.1144E-01  0.1191E-05 SHELL         65  -0.0%  0.1632E-02  0.1717E-02  0.5333E-04  0.3403E-02   0.000      0.9214E-02   0.000    
    9650  0.1150E-01  0.1191E-05 SHELL         65  -0.0%  0.1721E-02  0.1737E-02  0.5465E-04  0.3513E-02   0.000      0.9214E-02   0.000    
    9700  0.1156E-01  0.1191E-05 SHELL         65  -0.0%  0.1822E-02  0.1739E-02  0.5533E-04  0.3617E-02   0.000      0.9214E-02   0.000    
    9750  0.1162E-01  0.1191E-05 SHELL         65  -0.0%  0.1946E-02  0.1724E-02  0.5392E-04  0.3725E-02   0.000      0.9214E-02   0.000    
    9800  0.1168E-01  0.1191E-05 SHELL         65  -0.0%  0.2091E-02  0.1692E-02  0.5324E-04  0.3837E-02   0.000      0.9214E-02   0.000    
    9850  0.1174E-01  0.1191E-05 SHELL         65  -0.0%  0.2246E-02  0.1653E-02  0.5395E-04  0.3954E-02   0.000      0.9214E-02   0.000    
    9900  0.1180E-01  0.1191E-05 SHELL         65  -0.0%  0.2419E-02  0.1615E-02  0.5399E-04  0.4088E-02   0.000      0.9214E-02   0.000    
    9950  0.1185E-01  0.1191E-05 SHELL         65  -0.0%  0.2608E-02  0.1575E-02  0.5355E-04  0.4237E-02   0.000      0.9214E-02   0.000    

     RESTART FILES: TWISBEAM_0001_[0001-0004].rst WRITTEN
     -------------

   10000  0.1191E-01  0.1191E-05 SHELL         65  -0.0%  0.2795E-02  0.1540E-02  0.5555E-04  0.4392E-02   0.000      0.9214E-02   0.000    
   10050  0.1197E-01  0.1191E-05 SHELL         65  -0.0%  0.2986E-02  0.1504E-02  0.5855E-04  0.4549E-02   0.000      0.9214E-02   0.000    
   10100  0.1203E-01  0.1191E-05 SHELL         65  -0.0%  0.3182E-02  0.1460E-02  0.5919E-04  0.4703E-02   0.000      0.9214E-02   0.000    
   10150  0.1209E-01  0.1191E-05 SHELL         65  -0.0%  0.3391E-02  0.1400E-02  0.5868E-04  0.4851E-02   0.000      0.9214E-02   0.000    
   10200  0.1215E-01  0.1191E-05 SHELL         65  -0.0%  0.3607E-02  0.1332E-02  0.6010E-04  0.5000E-02   0.000      0.9214E-02   0.000    
   10250  0.1221E-01  0.1191E-05 SHELL         65  -0.0%  0.3821E-02  0.1256E-02  0.6139E-04  0.5140E-02   0.000      0.9214E-02   0.000    
   10300  0.1227E-01  0.1191E-05 SHELL         65  -0.0%  0.4024E-02  0.1175E-02  0.6032E-04  0.5260E-02   0.000      0.9214E-02   0.000    
   10350  0.1233E-01  0.1191E-05 SHELL         65  -0.0%  0.4213E-02  0.1096E-02  0.5928E-04  0.5369E-02   0.000      0.9214E-02   0.000    
   10400  0.1239E-01  0.1191E-05 SHELL         65  -0.0%  0.4373E-02  0.1023E-02  0.6140E-04  0.5458E-02   0.000      0.9214E-02   0.000    
   10450  0.1245E-01  0.1191E-05 SHELL         65  -0.0%  0.4504E-02  0.9571E-03  0.6410E-04  0.5526E-02   0.000      0.9214E-02   0.000    
   10500  0.1251E-01  0.1191E-05 SHELL         65  -0.0%  0.4619E-02  0.8913E-03  0.6368E-04  0.5575E-02   0.000      0.9214E-02   0.000    
   10550  0.1257E-01  0.1191E-05 SHELL         65  -0.0%  0.4715E-02  0.8247E-03  0.6359E-04  0.5604E-02   0.000      0.9214E-02   0.000    
   10600  0.1263E-01  0.1191E-05 SHELL         65  -0.0%  0.4801E-02  0.7559E-03  0.6607E-04  0.5624E-02   0.000      0.9214E-02   0.000    
   10650  0.1269E-01  0.1191E-05 SHELL         65  -0.0%  0.4884E-02  0.6883E-03  0.6788E-04  0.5641E-02   0.000      0.9214E-02   0.000    
   10700  0.1275E-01  0.1191E-05 SHELL         65  -0.0%  0.4956E-02  0.6211E-03  0.6687E-04  0.5645E-02   0.000      0.9214E-02   0.000    
   10750  0.1281E-01  0.1191E-05 SHELL         65  -0.0%  0.5012E-02  0.5605E-03  0.6565E-04  0.5639E-02   0.000      0.9214E-02   0.000    
   10800  0.1287E-01  0.1191E-05 SHELL         65  -0.0%  0.5044E-02  0.5172E-03  0.6704E-04  0.5629E-02   0.000      0.9214E-02   0.000    
   10850  0.1293E-01  0.1191E-05 SHELL         65  -0.0%  0.5056E-02  0.4882E-03  0.6793E-04  0.5613E-02   0.000      0.9214E-02   0.000    
   10900  0.1299E-01  0.1191E-05 SHELL         65  -0.0%  0.5049E-02  0.4747E-03  0.6755E-04  0.5593E-02   0.000      0.9214E-02   0.000    
   10950  0.1305E-01  0.1191E-05 SHELL         65  -0.0%  0.5030E-02  0.4698E-03  0.6873E-04  0.5570E-02   0.000      0.9214E-02   0.000    

     RESTART FILES: TWISBEAM_0001_[0001-0004].rst WRITTEN
     -------------

   CYCLE    TIME      TIME-STEP  ELEMENT          ERROR  I-ENERGY    K-ENERGY T  K-ENERGY R  EXT-WORK     MAS.ERR     TOTAL MASS  MASS ADDED
   11000  0.1311E-01  0.1191E-05 SHELL         65  -0.0%  0.4993E-02  0.4727E-03  0.7166E-04  0.5538E-02   0.000      0.9214E-02   0.000    
   11050  0.1317E-01  0.1191E-05 SHELL         65  -0.0%  0.4956E-02  0.4713E-03  0.7216E-04  0.5501E-02   0.000      0.9214E-02   0.000    
   11100  0.1322E-01  0.1191E-05 SHELL         65  -0.0%  0.4915E-02  0.4671E-03  0.7071E-04  0.5454E-02   0.000      0.9214E-02   0.000    
   11150  0.1328E-01  0.1191E-05 SHELL         65  -0.0%  0.4852E-02  0.4636E-03  0.7084E-04  0.5387E-02   0.000      0.9214E-02   0.000    
   11200  0.1334E-01  0.1191E-05 SHELL         65  -0.0%  0.4762E-02  0.4664E-03  0.7147E-04  0.5301E-02   0.000      0.9214E-02   0.000    
   11250  0.1340E-01  0.1191E-05 SHELL         65  -0.0%  0.4649E-02  0.4803E-03  0.7064E-04  0.5201E-02   0.000      0.9214E-02   0.000    
   11300  0.1346E-01  0.1191E-05 SHELL         65  -0.0%  0.4509E-02  0.5070E-03  0.6967E-04  0.5087E-02   0.000      0.9214E-02   0.000    
   11350  0.1352E-01  0.1191E-05 SHELL         65  -0.0%  0.4341E-02  0.5514E-03  0.7144E-04  0.4965E-02   0.000      0.9214E-02   0.000    
   11400  0.1358E-01  0.1191E-05 SHELL         65  -0.0%  0.4158E-02  0.6015E-03  0.7331E-04  0.4834E-02   0.000      0.9214E-02   0.000    
   11450  0.1364E-01  0.1191E-05 SHELL         65  -0.0%  0.3959E-02  0.6539E-03  0.7268E-04  0.4687E-02   0.000      0.9214E-02   0.000    
   11500  0.1370E-01  0.1191E-05 SHELL         65  -0.0%  0.3759E-02  0.7009E-03  0.7287E-04  0.4533E-02   0.000      0.9214E-02   0.000    
   11550  0.1376E-01  0.1191E-05 SHELL         65  -0.0%  0.3550E-02  0.7479E-03  0.7525E-04  0.4374E-02   0.000      0.9214E-02   0.000    
   11600  0.1382E-01  0.1191E-05 SHELL         65  -0.0%  0.3339E-02  0.7927E-03  0.7535E-04  0.4208E-02   0.000      0.9214E-02   0.000    
   11650  0.1388E-01  0.1191E-05 SHELL         65  -0.0%  0.3134E-02  0.8360E-03  0.7287E-04  0.4043E-02   0.000      0.9214E-02   0.000    
   11700  0.1394E-01  0.1191E-05 SHELL         65  -0.0%  0.2932E-02  0.8853E-03  0.7187E-04  0.3890E-02   0.000      0.9214E-02   0.000    
   11750  0.1400E-01  0.1191E-05 SHELL         65  -0.0%  0.2732E-02  0.9400E-03  0.7335E-04  0.3747E-02   0.000      0.9214E-02   0.000    
   11800  0.1406E-01  0.1191E-05 SHELL         65  -0.0%  0.2546E-02  0.9977E-03  0.7352E-04  0.3618E-02   0.000      0.9214E-02   0.000    
   11850  0.1412E-01  0.1191E-05 SHELL         65  -0.0%  0.2370E-02  0.1049E-02  0.7128E-04  0.3492E-02   0.000      0.9214E-02   0.000    
   11900  0.1418E-01  0.1191E-05 SHELL         65  -0.0%  0.2194E-02  0.1097E-02  0.7140E-04  0.3364E-02   0.000      0.9214E-02   0.000    
   11950  0.1424E-01  0.1191E-05 SHELL         65  -0.0%  0.2030E-02  0.1134E-02  0.7336E-04  0.3238E-02   0.000      0.9214E-02   0.000    

     RESTART FILES: TWISBEAM_0001_[0001-0004].rst WRITTEN
     -------------

   12000  0.1430E-01  0.1191E-05 SHELL         65  -0.0%  0.1878E-02  0.1159E-02  0.7275E-04  0.3110E-02   0.000      0.9214E-02   0.000    
   12050  0.1436E-01  0.1191E-05 SHELL         65  -0.0%  0.1735E-02  0.1172E-02  0.7074E-04  0.2979E-02   0.000      0.9214E-02   0.000    
   12100  0.1442E-01  0.1191E-05 SHELL         65  -0.0%  0.1594E-02  0.1183E-02  0.7051E-04  0.2849E-02   0.000      0.9214E-02   0.000    
   12150  0.1448E-01  0.1191E-05 SHELL         65  -0.0%  0.1446E-02  0.1199E-02  0.7168E-04  0.2717E-02   0.000      0.9214E-02   0.000    
   12200  0.1454E-01  0.1191E-05 SHELL         65  -0.0%  0.1296E-02  0.1215E-02  0.7091E-04  0.2583E-02   0.000      0.9214E-02   0.000    
   12250  0.1459E-01  0.1191E-05 SHELL         65  -0.0%  0.1134E-02  0.1237E-02  0.7022E-04  0.2442E-02   0.000      0.9214E-02   0.000    
   12300  0.1465E-01  0.1191E-05 SHELL         65  -0.0%  0.9635E-03  0.1257E-02  0.7264E-04  0.2294E-02   0.000      0.9214E-02   0.000    
   12350  0.1471E-01  0.1191E-05 SHELL         65  -0.0%  0.7898E-03  0.1274E-02  0.7520E-04  0.2140E-02   0.000      0.9214E-02   0.000    
   12400  0.1477E-01  0.1191E-05 SHELL         65  -0.0%  0.6423E-03  0.1273E-02  0.7471E-04  0.1991E-02   0.000      0.9214E-02   0.000    
   12450  0.1483E-01  0.1191E-05 SHELL         65  -0.1%  0.5188E-03  0.1260E-02  0.7377E-04  0.1854E-02   0.000      0.9214E-02   0.000    
   12500  0.1489E-01  0.1191E-05 SHELL         65  -0.1%  0.4192E-03  0.1240E-02  0.7458E-04  0.1735E-02   0.000      0.9214E-02   0.000    
   12550  0.1495E-01  0.1191E-05 SHELL         65  -0.1%  0.3479E-03  0.1213E-02  0.7539E-04  0.1637E-02   0.000      0.9214E-02   0.000    
   12600  0.1501E-01  0.1191E-05 SHELL         65  -0.1%  0.2979E-03  0.1188E-02  0.7422E-04  0.1561E-02   0.000      0.9214E-02   0.000    
   12650  0.1507E-01  0.1191E-05 SHELL         65  -0.1%  0.2610E-03  0.1168E-02  0.7448E-04  0.1504E-02   0.000      0.9214E-02   0.000    
   12700  0.1513E-01  0.1191E-05 SHELL         65  -0.1%  0.2329E-03  0.1158E-02  0.7685E-04  0.1469E-02   0.000      0.9214E-02   0.000    
   12750  0.1519E-01  0.1191E-05 SHELL         65  -0.1%  0.2258E-03  0.1145E-02  0.7753E-04  0.1449E-02   0.000      0.9214E-02   0.000    
   12800  0.1525E-01  0.1191E-05 SHELL         65  -0.1%  0.2342E-03  0.1132E-02  0.7685E-04  0.1444E-02   0.000      0.9214E-02   0.000    
   12850  0.1531E-01  0.1191E-05 SHELL         65  -0.1%  0.2677E-03  0.1114E-02  0.7785E-04  0.1461E-02   0.000      0.9214E-02   0.000    
   12900  0.1537E-01  0.1191E-05 SHELL         65  -0.1%  0.3161E-03  0.1096E-02  0.7979E-04  0.1493E-02   0.000      0.9214E-02   0.000    
   12950  0.1543E-01  0.1191E-05 SHELL         62  -0.1%  0.3831E-03  0.1074E-02  0.7945E-04  0.1537E-02   0.000      0.9214E-02   0.000    

     RESTART FILES: TWISBEAM_0001_[0001-0004].rst WRITTEN
     -------------

   13000  0.1549E-01  0.1191E-05 SHELL         65  -0.1%  0.4518E-03  0.1056E-02  0.7756E-04  0.1586E-02   0.000      0.9214E-02   0.000    
   13050  0.1555E-01  0.1191E-05 SHELL         62  -0.1%  0.5093E-03  0.1050E-02  0.7811E-04  0.1638E-02   0.000      0.9214E-02   0.000    
   13100  0.1561E-01  0.1191E-05 SHELL         62  -0.1%  0.5596E-03  0.1052E-02  0.7991E-04  0.1692E-02   0.000      0.9214E-02   0.000    
   13150  0.1567E-01  0.1191E-05 SHELL         62  -0.1%  0.6073E-03  0.1064E-02  0.7940E-04  0.1752E-02   0.000      0.9214E-02   0.000    
   13200  0.1573E-01  0.1191E-05 SHELL         62  -0.1%  0.6555E-03  0.1079E-02  0.7879E-04  0.1814E-02   0.000      0.9214E-02   0.000    
   13250  0.1579E-01  0.1191E-05 SHELL         62  -0.1%  0.7031E-03  0.1100E-02  0.8127E-04  0.1885E-02   0.000      0.9214E-02   0.000    
   13300  0.1585E-01  0.1191E-05 SHELL         62  -0.1%  0.7685E-03  0.1116E-02  0.8312E-04  0.1969E-02   0.000      0.9214E-02   0.000    
   13350  0.1591E-01  0.1191E-05 SHELL         62  -0.0%  0.8554E-03  0.1127E-02  0.8180E-04  0.2065E-02   0.000      0.9214E-02   0.000    
   13400  0.1596E-01  0.1191E-05 SHELL        134  -0.0%  0.9526E-03  0.1138E-02  0.8060E-04  0.2172E-02   0.000      0.9214E-02   0.000    
   13450  0.1602E-01  0.1191E-05 SHELL        134  -0.0%  0.1053E-02  0.1156E-02  0.8200E-04  0.2292E-02   0.000      0.9214E-02   0.000    
   13500  0.1608E-01  0.1191E-05 SHELL        134  -0.0%  0.1157E-02  0.1184E-02  0.8267E-04  0.2425E-02   0.000      0.9214E-02   0.000    
   13550  0.1614E-01  0.1191E-05 SHELL        134  -0.0%  0.1271E-02  0.1222E-02  0.8075E-04  0.2575E-02   0.000      0.9214E-02   0.000    
   13600  0.1620E-01  0.1191E-05 SHELL        134  -0.0%  0.1380E-02  0.1279E-02  0.8081E-04  0.2741E-02   0.000      0.9214E-02   0.000    
   13650  0.1626E-01  0.1191E-05 SHELL        134  -0.0%  0.1497E-02  0.1341E-02  0.8370E-04  0.2922E-02   0.000      0.9214E-02   0.000    
   13700  0.1632E-01  0.1191E-05 SHELL         62  -0.0%  0.1620E-02  0.1404E-02  0.8478E-04  0.3110E-02   0.000      0.9214E-02   0.000    
   CYCLE    TIME      TIME-STEP  ELEMENT          ERROR  I-ENERGY    K-ENERGY T  K-ENERGY R  EXT-WORK     MAS.ERR     TOTAL MASS  MASS ADDED
   13750  0.1638E-01  0.1191E-05 SHELL         62  -0.0%  0.1764E-02  0.1460E-02  0.8289E-04  0.3308E-02   0.000      0.9214E-02   0.000    
   13800  0.1644E-01  0.1191E-05 SHELL         65  -0.0%  0.1908E-02  0.1512E-02  0.8327E-04  0.3505E-02   0.000      0.9214E-02   0.000    
   13850  0.1650E-01  0.1191E-05 SHELL         62  -0.0%  0.2059E-02  0.1559E-02  0.8523E-04  0.3704E-02   0.000      0.9214E-02   0.000    
   13900  0.1656E-01  0.1191E-05 SHELL         65  -0.0%  0.2214E-02  0.1602E-02  0.8496E-04  0.3901E-02   0.000      0.9214E-02   0.000    
   13950  0.1662E-01  0.1191E-05 SHELL         65  -0.0%  0.2361E-02  0.1650E-02  0.8370E-04  0.4096E-02   0.000      0.9214E-02   0.000    

     RESTART FILES: TWISBEAM_0001_[0001-0004].rst WRITTEN
     -------------

   14000  0.1668E-01  0.1191E-05 SHELL         65  -0.0%  0.2501E-02  0.1702E-02  0.8475E-04  0.4288E-02   0.000      0.9214E-02   0.000    
   14050  0.1674E-01  0.1191E-05 SHELL         65  -0.0%  0.2632E-02  0.1759E-02  0.8696E-04  0.4480E-02   0.000      0.9214E-02   0.000    
   14100  0.1680E-01  0.1191E-05 SHELL         65  -0.0%  0.2765E-02  0.1811E-02  0.8611E-04  0.4663E-02   0.000      0.9214E-02   0.000    
   14150  0.1686E-01  0.1191E-05 SHELL         65  -0.0%  0.2893E-02  0.1858E-02  0.8488E-04  0.4837E-02   0.000      0.9214E-02   0.000    
   14200  0.1692E-01  0.1191E-05 SHELL         65  -0.0%  0.3024E-02  0.1896E-02  0.8631E-04  0.5007E-02   0.000      0.9214E-02   0.000    
   14250  0.1698E-01  0.1191E-05 SHELL         65  -0.0%  0.3165E-02  0.1923E-02  0.8804E-04  0.5177E-02   0.000      0.9214E-02   0.000    
   14300  0.1704E-01  0.1191E-05 SHELL         65  -0.0%  0.3326E-02  0.1938E-02  0.8712E-04  0.5353E-02   0.000      0.9214E-02   0.000    
   14350  0.1710E-01  0.1191E-05 SHELL         65  -0.0%  0.3499E-02  0.1948E-02  0.8740E-04  0.5536E-02   0.000      0.9214E-02   0.000    
   14400  0.1716E-01  0.1191E-05 SHELL         65  -0.0%  0.3675E-02  0.1960E-02  0.9066E-04  0.5727E-02   0.000      0.9214E-02   0.000    
   14450  0.1722E-01  0.1191E-05 SHELL         65  -0.0%  0.3864E-02  0.1968E-02  0.9221E-04  0.5925E-02   0.000      0.9214E-02   0.000    
   14500  0.1728E-01  0.1191E-05 SHELL         65  -0.0%  0.4058E-02  0.1976E-02  0.9128E-04  0.6127E-02   0.000      0.9214E-02   0.000    
   14550  0.1734E-01  0.1191E-05 SHELL         65  -0.0%  0.4254E-02  0.1979E-02  0.9154E-04  0.6327E-02   0.000      0.9214E-02   0.000    
   14600  0.1739E-01  0.1191E-05 SHELL         65  -0.0%  0.4449E-02  0.1975E-02  0.9482E-04  0.6520E-02   0.000      0.9214E-02   0.000    
   14650  0.1745E-01  0.1191E-05 SHELL         65  -0.0%  0.4665E-02  0.1949E-02  0.9634E-04  0.6712E-02   0.000      0.9214E-02   0.000    
   14700  0.1751E-01  0.1191E-05 SHELL         65  -0.0%  0.4892E-02  0.1908E-02  0.9563E-04  0.6896E-02   0.000      0.9214E-02   0.000    
   14750  0.1757E-01  0.1191E-05 SHELL         65  -0.0%  0.5120E-02  0.1854E-02  0.9724E-04  0.7072E-02   0.000      0.9214E-02   0.000    
   14800  0.1763E-01  0.1191E-05 SHELL         65  -0.0%  0.5342E-02  0.1793E-02  0.9997E-04  0.7237E-02   0.000      0.9214E-02   0.000    
   14850  0.1769E-01  0.1191E-05 SHELL         65  -0.0%  0.5545E-02  0.1732E-02  0.9986E-04  0.7378E-02   0.000      0.9214E-02   0.000    
   14900  0.1775E-01  0.1191E-05 SHELL         65  -0.0%  0.5721E-02  0.1674E-02  0.9862E-04  0.7494E-02   0.000      0.9214E-02   0.000    
   14950  0.1781E-01  0.1191E-05 SHELL         65  -0.0%  0.5859E-02  0.1624E-02  0.1005E-03  0.7585E-02   0.000      0.9214E-02   0.000    

     RESTART FILES: TWISBEAM_0001_[0001-0004].rst WRITTEN
     -------------

   15000  0.1787E-01  0.1191E-05 SHELL         65  -0.0%  0.5976E-02  0.1572E-02  0.1033E-03  0.7652E-02   0.000      0.9214E-02   0.000    
   15050  0.1793E-01  0.1191E-05 SHELL         65  -0.0%  0.6080E-02  0.1516E-02  0.1036E-03  0.7701E-02   0.000      0.9214E-02   0.000    
   15100  0.1799E-01  0.1191E-05 SHELL         65  -0.0%  0.6185E-02  0.1451E-02  0.1025E-03  0.7740E-02   0.000      0.9214E-02   0.000    
   15150  0.1805E-01  0.1191E-05 SHELL         65  -0.0%  0.6283E-02  0.1382E-02  0.1042E-03  0.7770E-02   0.000      0.9214E-02   0.000    
   15200  0.1811E-01  0.1191E-05 SHELL         65  -0.0%  0.6386E-02  0.1306E-02  0.1059E-03  0.7799E-02   0.000      0.9214E-02   0.000    
   15250  0.1817E-01  0.1191E-05 SHELL         65  -0.0%  0.6487E-02  0.1229E-02  0.1045E-03  0.7822E-02   0.000      0.9214E-02   0.000    
   15300  0.1823E-01  0.1191E-05 SHELL         65  -0.0%  0.6569E-02  0.1162E-02  0.1042E-03  0.7836E-02   0.000      0.9214E-02   0.000    
   15350  0.1829E-01  0.1191E-05 SHELL         65  -0.0%  0.6635E-02  0.1103E-02  0.1056E-03  0.7845E-02   0.000      0.9214E-02   0.000    
   15400  0.1835E-01  0.1191E-05 SHELL         65  -0.0%  0.6692E-02  0.1052E-02  0.1063E-03  0.7852E-02   0.000      0.9214E-02   0.000    
   15450  0.1841E-01  0.1191E-05 SHELL         65  -0.0%  0.6748E-02  0.1003E-02  0.1045E-03  0.7857E-02   0.000      0.9214E-02   0.000    
   15500  0.1847E-01  0.1191E-05 SHELL         65  -0.0%  0.6792E-02  0.9639E-03  0.1042E-03  0.7862E-02   0.000      0.9214E-02   0.000    
   15550  0.1853E-01  0.1191E-05 SHELL         65  -0.0%  0.6835E-02  0.9212E-03  0.1063E-03  0.7863E-02   0.000      0.9214E-02   0.000    
   15600  0.1859E-01  0.1191E-05 SHELL         65  -0.0%  0.6871E-02  0.8784E-03  0.1068E-03  0.7857E-02   0.000      0.9214E-02   0.000    
   15650  0.1865E-01  0.1191E-05 SHELL         65  -0.0%  0.6892E-02  0.8394E-03  0.1052E-03  0.7838E-02   0.000      0.9214E-02   0.000    
   15700  0.1871E-01  0.1191E-05 SHELL         65  -0.0%  0.6885E-02  0.8108E-03  0.1056E-03  0.7803E-02   0.000      0.9214E-02   0.000    
   15750  0.1876E-01  0.1191E-05 SHELL         65  -0.0%  0.6842E-02  0.7960E-03  0.1074E-03  0.7747E-02   0.000      0.9214E-02   0.000    
   15800  0.1882E-01  0.1191E-05 SHELL         65  -0.0%  0.6777E-02  0.7924E-03  0.1069E-03  0.7678E-02   0.000      0.9214E-02   0.000    
   15850  0.1888E-01  0.1191E-05 SHELL         65  -0.0%  0.6684E-02  0.8075E-03  0.1056E-03  0.7598E-02   0.000      0.9214E-02   0.000    
   15900  0.1894E-01  0.1191E-05 SHELL         65  -0.0%  0.6568E-02  0.8319E-03  0.1066E-03  0.7508E-02   0.000      0.9214E-02   0.000    
   15950  0.1900E-01  0.1191E-05 SHELL         65  -0.0%  0.6440E-02  0.8612E-03  0.1086E-03  0.7411E-02   0.000      0.9214E-02   0.000    

     RESTART FILES: TWISBEAM_0001_[0001-0004].rst WRITTEN
     -------------

   16000  0.1906E-01  0.1191E-05 SHELL         65  -0.0%  0.6316E-02  0.8829E-03  0.1083E-03  0.7308E-02   0.000      0.9214E-02   0.000    
   16050  0.1912E-01  0.1191E-05 SHELL         65  -0.0%  0.6184E-02  0.9025E-03  0.1074E-03  0.7195E-02   0.000      0.9214E-02   0.000    
   16100  0.1918E-01  0.1191E-05 SHELL         65  -0.0%  0.6052E-02  0.9202E-03  0.1090E-03  0.7082E-02   0.000      0.9214E-02   0.000    
   16150  0.1924E-01  0.1191E-05 SHELL         65  -0.0%  0.5920E-02  0.9370E-03  0.1105E-03  0.6969E-02   0.000      0.9214E-02   0.000    
   16200  0.1930E-01  0.1191E-05 SHELL         65  -0.0%  0.5784E-02  0.9611E-03  0.1095E-03  0.6856E-02   0.000      0.9214E-02   0.000    
   16250  0.1936E-01  0.1191E-05 SHELL         65  -0.0%  0.5646E-02  0.9954E-03  0.1092E-03  0.6751E-02   0.000      0.9214E-02   0.000    
   16300  0.1942E-01  0.1191E-05 SHELL         65  -0.0%  0.5499E-02  0.1041E-02  0.1114E-03  0.6653E-02   0.000      0.9214E-02   0.000    
   16350  0.1948E-01  0.1191E-05 SHELL         65  -0.0%  0.5360E-02  0.1085E-02  0.1124E-03  0.6558E-02   0.000      0.9214E-02   0.000    
   16400  0.1954E-01  0.1191E-05 SHELL         65  -0.0%  0.5225E-02  0.1128E-02  0.1112E-03  0.6466E-02   0.000      0.9214E-02   0.000    
   16450  0.1960E-01  0.1191E-05 SHELL         65  -0.0%  0.5094E-02  0.1164E-02  0.1112E-03  0.6370E-02   0.000      0.9214E-02   0.000    
   CYCLE    TIME      TIME-STEP  ELEMENT          ERROR  I-ENERGY    K-ENERGY T  K-ENERGY R  EXT-WORK     MAS.ERR     TOTAL MASS  MASS ADDED
   16500  0.1966E-01  0.1191E-05 SHELL         65  -0.0%  0.4965E-02  0.1190E-02  0.1137E-03  0.6271E-02   0.000      0.9214E-02   0.000    
   16550  0.1972E-01  0.1191E-05 SHELL         65  -0.0%  0.4852E-02  0.1206E-02  0.1147E-03  0.6174E-02   0.000      0.9214E-02   0.000    
   16600  0.1978E-01  0.1191E-05 SHELL         65  -0.0%  0.4741E-02  0.1216E-02  0.1143E-03  0.6073E-02   0.000      0.9214E-02   0.000    
   16650  0.1984E-01  0.1191E-05 SHELL         65  -0.0%  0.4620E-02  0.1228E-02  0.1160E-03  0.5966E-02   0.000      0.9214E-02   0.000    
   16700  0.1990E-01  0.1191E-05 SHELL         65  -0.0%  0.4499E-02  0.1235E-02  0.1191E-03  0.5854E-02   0.000      0.9214E-02   0.000    
   16750  0.1996E-01  0.1191E-05 SHELL         65  -0.0%  0.4376E-02  0.1240E-02  0.1197E-03  0.5737E-02   0.000      0.9214E-02   0.000    
     ANIMATION FILE: TWISBEAMA003 WRITTEN

     RESTART FILES: TWISBEAM_0001_[0001-0004].rst WRITTEN
     -------------

  
                           ** CPU USER TIME **
  
  
                        ** SUMMARY **
  
 #PROC  ELEMENT   KINCOND   INTEG     IO        T0        ASM       RESOL    
   1   .2186E+01 .1902E+00 .3866E+00 .1418E+01 .4157E+02 .2493E+00 .4896E+02
   2   .2548E+01 .1814E+00 .2968E+00 .1338E+01 .2562E+02 .2446E+00 .3290E+02
   3   .2153E+01 .1910E+00 .3550E+00 .1340E+01 .2663E+02 .1847E+00 .3295E+02
   4   .2179E+01 .2083E+00 .3105E+00 .1386E+01 .2518E+02 .3173E+00 .3293E+02
  
                 ** SPMD COM. TIME **
  
 #PROC  FORCES    RBYFOR    RBYVEL    VEL       TOT       %        
   1   .2225E+01 .0000E+00 .0000E+00 .1918E-01 .2244E+01 .4583E+01
   2   .1626E+01 .0000E+00 .0000E+00 .6713E-01 .1693E+01 .5146E+01
   3   .1078E+01 .0000E+00 .0000E+00 .3710E-01 .1115E+01 .3385E+01
   4   .2250E+01 .0000E+00 .0000E+00 .3735E-01 .2287E+01 .6946E+01
  
 
                   ** CUMULATIVE CPU TIME SUMMARY **
  
 CONTACT SORTING.............: .0000E+00     0.00 % 
 CONTACT FORCES..............: .5218E-01     0.04 % 
 ELEMENT FORCES..............: .9065E+01     6.14 % 
 KINEMATIC COND..............: .7709E+00     0.52 % 
 INTEGRATION.................: .1349E+01     0.91 % 
 ASSEMBLING..................: .9959E+00     0.67 % 
 OTHERS (including I/O)......: .1355E+03    91.72 % 
 TOTAL.......................: .1477E+03   100.00 % 
  
  
                           ** ELAPSED TIME **
  
  
                        ** SUMMARY **
  
 #PROC  ELEMENT   KINCOND   INTEG     IO        T0        ASM       RESOL    
   1   .1059E+01 .9194E-01 .1568E+00 .2006E+01 .2157E+02 .1257E+00 .2677E+02
   2   .1322E+01 .1226E+00 .1865E+00 .1792E+01 .2179E+02 .1285E+00 .2677E+02
   3   .1166E+01 .9989E-01 .1843E+00 .1783E+01 .2216E+02 .1206E+00 .2677E+02
   4   .1157E+01 .1004E+00 .1818E+00 .1740E+01 .2166E+02 .1360E+00 .2677E+02
  
        ELEMENT   KINCOND   INTEG     IO        T0        ASM       RESOL    
 MIN   .1059E+01 .9194E-01 .1568E+00 .1740E+01 .2157E+02 .1206E+00 .2677E+02
 MAX   .1322E+01 .1226E+00 .1865E+00 .2006E+01 .2216E+02 .1360E+00 .2677E+02
 AVG   .1176E+01 .1037E+00 .1773E+00 .1830E+01 .2180E+02 .1277E+00 .2677E+02
  
                 ** SPMD COM. TIME **
  
 #PROC  FORCES    RBYFOR    RBYVEL    VEL       TOT       %        
   1   .1281E+01 .0000E+00 .0000E+00 .2199E-01 .1303E+01 .4869E+01
   2   .7895E+00 .0000E+00 .0000E+00 .3006E-01 .8196E+00 .3062E+01
   3   .5990E+00 .0000E+00 .0000E+00 .3016E-01 .6292E+00 .2350E+01
   4   .1143E+01 .0000E+00 .0000E+00 .3063E-01 .1173E+01 .4383E+01
  
        FORCES    RBYFOR    RBYVEL    VEL       TOT       %        
 MIN   .5990E+00 .0000E+00 .0000E+00 .2199E-01 .6292E+00 .2350E+01
 MAX   .1281E+01 .0000E+00 .0000E+00 .3063E-01 .1303E+01 .4869E+01
 AVG   .9531E+00 .0000E+00 .0000E+00 .2821E-01 .9813E+00 .3666E+01
  
                   ** MEMORY USAGE STATISTICS **
  
 TOTAL MEMORY USED .........................:      264 MB
 MAXIMUM MEMORY PER PROCESSOR...............:        0 MB
 MINIMUM MEMORY PER PROCESSOR...............:       65 MB
 AVERAGE MEMORY PER PROCESSOR...............:       66 MB
  
                   ** DISK USAGE STATISTICS **
  
 TOTAL DISK SPACE USED .....................:          1 MB
 ANIMATION/H3D/TH/OUTP SIZE ................:          0 MB
 RESTART FILE SIZE .........................:          1 MB
  
                   ** COMPUTE TIME INFORMATION **
                        ** CURRENT ENGINE **
  
 EXECUTION STARTED .........................:      2025/03/19  11:23:33
 EXECUTION COMPLETED .......................:      2025/03/19  11:24:00
  
 ELAPSED TIME     =         27.00 s
                          0:00:26
 ESTIMATED SPEEDUP=          5.47



     NORMAL TERMINATION      



     TOTAL NUMBER OF CYCLES  :   16796

  
                   ** COMPUTE RUNTIME INFORMATION SUMMARY **
  
        STARTER RUNTIME =          6.93s (00:00:06)
 # 001   ENGINE RUNTIME =         27.00s (00:00:26)
 ------------------------------ 
 STARTER+ENGINE RUNTIME =         33.93s (00:00:33)
  
