 CRA2AV4_0001.out
************************************************************************
**                                                                    **
**                                                                    **
**                 Altair Radioss(TM) Engine MAINLINE                 **
**                                                                    **
**            Non-linear Finite Element Analysis Software             **
**                   from Altair Engineering, Inc.                    **
**                                                                    **
**                                                                    **
**              Linux 64 bits, Intel compiler, Intel MPI              **
**                                                                    **
**                           BETA_VERSION                             **
**                                                                    **
** Build tag: 1072339_12638000000_2070_0083627_10                     **
************************************************************************
**  COPYRIGHT (C) 1986-2021                 Altair Engineering, Inc.  **
** All Rights Reserved.  Copyright notice does not imply publication. **
** Contains trade secrets of Altair Engineering Inc.                  **
** Decompilation or disassembly of this software strictly prohibited. **
************************************************************************
 
 NUMBER OF SPMD DOMAINS           4
 NUMBER OF THREADS PER DOMAIN     1
 NUMBER OF HMPP PROCESSES         4
  
 COMPUTATION HARDWARE DESCRIPTION
  
 CPU#  HOSTNAME     CPU TYPE, FREQUENCY AND MEMORY
   1   fradf-shady.europe.altair.com   Intel(R) Xeon(R) CPU           X5680  @ 3.33GHz (x86_64), 1596 MHz,  19924 MB RAM,  48969 MB swap
   2   fradf-shady.europe.altair.com   Intel(R) Xeon(R) CPU           X5680  @ 3.33GHz (x86_64), 1596 MHz,  19924 MB RAM,  48969 MB swap
   3   fradf-shady.europe.altair.com   Intel(R) Xeon(R) CPU           X5680  @ 3.33GHz (x86_64), 1596 MHz,  19924 MB RAM,  48969 MB swap
   4   fradf-shady.europe.altair.com   Intel(R) Xeon(R) CPU           X5680  @ 3.33GHz (x86_64), 1596 MHz,  19924 MB RAM,  48969 MB swap
  
************************************************************************


 CRA2AV4D01                                                                      


 FINAL TIME . . . . . . . . . . . . . . . . . . .   20.00000    

 TIME INTERVAL FOR TIME HISTORY PLOTS . . . . . .  0.5000000E-01

 TIME STEP SCALE FACTOR . . . . . . . . . . . . .  0.9000000    

 MINIMUM TIME STEP  . . . . . . . . . . . . . . .   0.000000    


 BRICK TIME STEP SCALE FACTOR . . . . . . . . . .  0.9000000    
 BRICK MINIMUM TIME STEP. . . . . . . . . . . . .   0.000000    
 MIN. TIME STEP FLAG (1:STOP RUN, 2:DELETE BRICK)     1

 QUAD TIME STEP SCALE FACTOR. . . . . . . . . . .  0.9000000    
 QUAD MINIMUM TIME STEP . . . . . . . . . . . . .   0.000000    
 MIN. TIME STEP FLAG (1:STOP RUN, 2:DELETE QUAD).     1

 SHELL TIME STEP SCALE FACTOR . . . . . . . . . .  0.9000000    
 SHELL MINIMUM TIME STEP. . . . . . . . . . . . .   0.000000    
 MIN. TIME FLAG (1:STOP, 2:DELETE, 3:SMALL STRAIN)    2

 TRUSS TIME STEP SCALE FACTOR . . . . . . . . . .  0.9000000    
 TRUSS MINIMUM TIME STEP. . . . . . . . . . . . .   0.000000    
 MIN. TIME FLAG (1:STOP, 2:DELETE). . . . . . . .     0

 BEAM TIME STEP SCALE FACTOR. . . . . . . . . . .  0.9000000    
 BEAM MINIMUM TIME STEP . . . . . . . . . . . . .   0.000000    
 MIN. TIME FLAG (1:STOP, 2:DELETE). . . . . . . .     0

 SPRING TIME STEP SCALE FACTOR. . . . . . . . . .  0.9000000    
 SPRING MINIMUM TIME STEP . . . . . . . . . . . .   0.000000    
 MIN. TIME FLAG (1:STOP, 2:DELETE). . . . . . . .     0

 AIRBAG TIME STEP SCALE FACTOR. . . . . . . . . .  0.9000000    
 AIRBAG MINIMUM TIME STEP . . . . . . . . . . . .   0.000000    
 MIN. TIME FLAG (1:STOP). . . . . . . . . . . . .     0

 CONTACT TIME STEP SCALE FACTOR . . . . . . . . .  0.9000000    
 CONTACT MINIMUM TIME STEP. . . . . . . . . . . .   0.000000    
 MIN. TIME FLAG(1:STOP, 2:REMOVE NODE FROM INTERF)    0

 FVMBAG TIME STEP SCALE FACTOR. . . . . . . . . .   0.000000    
 FVMBAG MINIMUM TIME STEP . . . . . . . . . . . .   0.000000    
 FVMBAG TIME STEP FLAG. . . . . . . . . . . . . .     1

 PRINTOUT CYCLE FREQUENCY . . . . . . . . . . . .  -100

 RESTART CYCLE FREQUENCY. . . . . . . . . . . . .   10000000

 MAXIMUM RESTART WRITE BEFORE OVERWRITE . . . . .     0

 INVERS: INPUT DECK VERSION . . . . . . . . . . .    51
 ITTYP : FLAG FOR TYPE OF T-FILE. . . . . . . . .     4


 TIME FOR FIRST ANIMATION-FILE PLOT . . . . . . .   0.000000    
 TIME INTERVAL FOR ANIMATION-FILE PLOTS . . . . .   2.000000    
 SENSOR FOR ANIMATION-FILE PLOTS. . . . . . . . .          0
 TIME INTERVAL FOR SENSOR ANIMATION-FILE PLOTS. .   0.000000    

 VARIABLE SAVED ON ANIMATION FILES (1: YES) :
      PLASTIC STRAIN. . . . . .     1
      DENSITY     (SOLID ONLY).     0
      SPECIFIC ENERGY . . . . .     1
      HOURGLASS ENERGY. . . . .     0
      TEMPERATURE (SOLID ONLY).     0
      THICKNESS   (SHELL ONLY).     0
      PRESSURE    (SOLID ONLY).     0
      VON MISES . . . . . . . .     0
      TURBULENT ENERGY (FLUID).     0
      TURBULENT VISCOSITY(FLUID)    0
      VORTICITY (FLUID) . . . .     0
 NODAL VALUES SAVED ON ANIMATION FILES (1: YES) :
      PRESSURE. . . . . . . . .     0
      DENSITY . . . . . . . . .     0
      TEMPERATURE . . . . . . .     0
 VECTOR SAVED ON ANIMATION FILES (1: YES) :
      VELOCITY VECTOR . . . . .     1
      DISPLACEMENT VECTOR . . .     0
      ACCELERATION VECTOR . . .     0
      CONTACT FORCES. . . . . .     1
      INTERNAL FORCES . . . . .     1
      EXTERNAL FORCES . . . . .     1
      SECTION RBY RWALL FORCES.     1
      ROTATIONAL VELOCITY VECTOR    0
      CONTACT PRESSURE (VECTORS)    0
 SHELL TENSOR SAVED ON ANIMATION FILES (1: YES) :
      MEMBRANE STRESS . . . . .     1
      BENDING STRESS(MOMENT/T^2)    0
      UPPER LAYER STRESS. . . .     0
      LOWER LAYER STRESS. . . .     0
      MEMBRANE STRAIN . . . . .     0
      CURVATURE . . . . . . . .     0
      UPPER LAYER STRAIN. . . .     1
      LOWER LAYER STRAIN. . . .     0
 NODAL MASS SAVED ON ANIMATION FILES (1: YES) :    1
 KEEP DELETED ELEMENT (1: YES) :    0


 INITIAL TIME STEP. . . . . . . . . . . . . . . .   0.000000    
 MAXIMUM TIME STEP. . . . . . . . . . . . . . . .  0.1000000E+31

 PARALLEL ARITHMETIC ON
 NUMBER OF INTERFACES TO BE ELIMINATED. . . . . .        0

 NUMBER OF SOLID  ELEMENT BLOCKS TO BE ELIMINATED        0

 NUMBER OF QUAD   ELEMENT BLOCKS TO BE ELIMINATED        0

 NUMBER OF SHELL  ELEMENT BLOCKS TO BE ELIMINATED        0

 NUMBER OF TRUSS  ELEMENT BLOCKS TO BE ELIMINATED        0

 NUMBER OF BEAM   ELEMENT BLOCKS TO BE ELIMINATED        0

 NUMBER OF SPRING ELEMENT BLOCKS TO BE ELIMINATED        0

 NUMBER OF SH_3N  ELEMENT BLOCKS TO BE ELIMINATED        0

 NUMBER OF  SPH PARTICLES BLOCKS TO BE ELIMINATED        0

 NUMBER OF RIGID LINKS. . . . . . . . . . . . . .        0

 NUMBER OF NEW BOUNDARY CONDITIONS. . . . . . . .        0

 22/06/2021
 CYCLE    TIME      TIME-STEP  ELEMENT          ERROR  I-ENERGY    K-ENERGY T  K-ENERGY R  EXT-WORK MAS.ERR
     0   0.000      0.1792E-02 SHELL         13   0.0%   0.000      0.2500E+08   0.000       0.000       0.000    
     ANIMATION FILE: CRA2AV4A001 WRITTEN
   100  0.1771      0.1752E-02 SHELL        592   0.0%  0.5220E+05  0.2495E+08   333.6      -1027.       0.000    
   200  0.3485      0.1668E-02 SHELL        544   0.0%  0.9539E+05  0.2490E+08   496.8      -4010.       0.000    
   300  0.5107      0.1582E-02 SHELL        544   0.0%  0.1232E+06  0.2487E+08   523.0      -7788.       0.000    
   400  0.6661      0.1528E-02 SHELL        544  -0.0%  0.1439E+06  0.2484E+08   640.0     -0.1124E+05   0.000    
   500  0.8168      0.1484E-02 SHELL        225  -0.0%  0.1616E+06  0.2482E+08   741.7     -0.1411E+05   0.000    
   600  0.9628      0.1437E-02 SHELL        225  -0.0%  0.1771E+06  0.2480E+08   861.5     -0.1782E+05   0.000    
   700   1.105      0.1407E-02 SHELL        225  -0.0%  0.1900E+06  0.2478E+08   983.3     -0.2157E+05   0.000    
   800   1.245      0.1389E-02 SHELL        225  -0.0%  0.2015E+06  0.2476E+08   1034.     -0.2648E+05   0.000    
   900   1.383      0.1372E-02 SHELL        544  -0.0%  0.2131E+06  0.2475E+08   1102.     -0.2981E+05   0.000    
  1000   1.519      0.1357E-02 SHELL        544  -0.0%  0.2246E+06  0.2473E+08   1175.     -0.3246E+05   0.000    
  1100   1.654      0.1346E-02 SHELL        225  -0.0%  0.2356E+06  0.2472E+08   1189.     -0.3484E+05   0.000    
  1200   1.788      0.1338E-02 SHELL        544  -0.0%  0.2462E+06  0.2470E+08   1151.     -0.3707E+05   0.000    
  1300   1.922      0.1333E-02 SHELL        544  -0.1%  0.2559E+06  0.2469E+08   1128.     -0.3911E+05   0.000    
     ANIMATION FILE: CRA2AV4A002 WRITTEN
  1400   2.055      0.1330E-02 SHELL        225  -0.1%  0.2654E+06  0.2468E+08   1099.     -0.4088E+05   0.000    
  1500   2.188      0.1327E-02 SHELL        225  -0.1%  0.2746E+06  0.2467E+08   1048.     -0.4235E+05   0.000    
  1600   2.321      0.1326E-02 SHELL        225  -0.1%  0.2834E+06  0.2466E+08   996.3     -0.4357E+05   0.000    
  1700   2.453      0.1326E-02 SHELL        225  -0.1%  0.2919E+06  0.2464E+08   960.7     -0.4473E+05   0.000    
  1800   2.586      0.1327E-02 SHELL        225  -0.1%  0.3004E+06  0.2463E+08   941.1     -0.4595E+05   0.000    
  1900   2.719      0.1332E-02 SHELL        225  -0.1%  0.3119E+06  0.2462E+08   984.2     -0.4714E+05   0.000    
  2000   2.852      0.1340E-02 SHELL        225  -0.1%  0.3249E+06  0.2461E+08   996.4     -0.4739E+05   0.000    
  2100   2.987      0.1352E-02 SHELL        225  -0.1%  0.3377E+06  0.2459E+08   1064.     -0.4740E+05   0.000    
  2200   3.123      0.1365E-02 SHELL        225  -0.1%  0.3507E+06  0.2458E+08   1179.     -0.4741E+05   0.000    
  2300   3.260      0.1377E-02 SHELL        225  -0.1%  0.3640E+06  0.2456E+08   1284.     -0.4742E+05   0.000    
  2400   3.398      0.1394E-02 SHELL        225  -0.1%  0.3775E+06  0.2455E+08   1333.     -0.4750E+05   0.000    
  2500   3.538      0.1411E-02 SHELL        225  -0.1%  0.3907E+06  0.2453E+08   1358.     -0.4761E+05   0.000    
  2600   3.680      0.1427E-02 SHELL        544  -0.1%  0.4034E+06  0.2452E+08   1350.     -0.4770E+05   0.000    
  2700   3.824      0.1431E-02 SHELL        225  -0.1%  0.4152E+06  0.2451E+08   1342.     -0.4776E+05   0.000    
  2800   3.965      0.1407E-02 SHELL        225  -0.1%  0.4261E+06  0.2450E+08   1325.     -0.4780E+05   0.000    
     ANIMATION FILE: CRA2AV4A003 WRITTEN
  2900   4.105      0.1393E-02 SHELL        225  -0.1%  0.4376E+06  0.2448E+08   1384.     -0.4782E+05   0.000    
  3000   4.245      0.1393E-02 SHELL        225  -0.1%  0.4506E+06  0.2447E+08   1429.     -0.4790E+05   0.000    
  3100   4.384      0.1383E-02 SHELL        544  -0.1%  0.4630E+06  0.2446E+08   1429.     -0.4814E+05   0.000    
  3200   4.521      0.1370E-02 SHELL        544  -0.1%  0.4747E+06  0.2444E+08   1371.     -0.4848E+05   0.000    
  3300   4.658      0.1357E-02 SHELL        544  -0.1%  0.4860E+06  0.2443E+08   1350.     -0.4887E+05   0.000    
  3400   4.793      0.1351E-02 SHELL        544  -0.1%  0.4976E+06  0.2442E+08   1335.     -0.4949E+05   0.000    
  3500   4.928      0.1349E-02 SHELL        544  -0.1%  0.5103E+06  0.2440E+08   1322.     -0.5024E+05   0.000    
  3600   5.063      0.1347E-02 SHELL        544  -0.1%  0.5229E+06  0.2439E+08   1306.     -0.5097E+05   0.000    
  3700   5.197      0.1346E-02 SHELL        225  -0.1%  0.5352E+06  0.2438E+08   1260.     -0.5172E+05   0.000    
  3800   5.331      0.1332E-02 SHELL        225  -0.1%  0.5475E+06  0.2436E+08   1236.     -0.5233E+05   0.000    
  3900   5.464      0.1321E-02 SHELL        225  -0.2%  0.5597E+06  0.2435E+08   1200.     -0.5280E+05   0.000    
  4000   5.596      0.1312E-02 SHELL        225  -0.2%  0.5716E+06  0.2433E+08   1145.     -0.5319E+05   0.000    
  4100   5.726      0.1304E-02 SHELL        225  -0.2%  0.5832E+06  0.2432E+08   1074.     -0.5351E+05   0.000    
  4200   5.856      0.1297E-02 SHELL        225  -0.2%  0.5945E+06  0.2431E+08   1007.     -0.5379E+05   0.000    
  4300   5.985      0.1274E-02 SHELL        226  -0.2%  0.6055E+06  0.2430E+08   958.6     -0.5403E+05   0.000    
     ANIMATION FILE: CRA2AV4A004 WRITTEN
  4400   6.111      0.1252E-02 SHELL        226  -0.2%  0.6161E+06  0.2428E+08   913.9     -0.5426E+05   0.000    
  4500   6.236      0.1234E-02 SHELL        226  -0.2%  0.6264E+06  0.2427E+08   859.5     -0.5447E+05   0.000    
  4600   6.356      0.1179E-02 SHELL        226  -0.2%  0.6362E+06  0.2426E+08   822.7     -0.5465E+05   0.000    
  4700   6.472      0.1129E-02 SHELL        226  -0.2%  0.6456E+06  0.2425E+08   804.6     -0.5482E+05   0.000    
  4800   6.583      0.1106E-02 SHELL        226  -0.2%  0.6552E+06  0.2424E+08   779.2     -0.5500E+05   0.000    
  4900   6.693      0.1088E-02 SHELL        226  -0.2%  0.6646E+06  0.2423E+08   736.4     -0.5520E+05   0.000    
  5000   6.801      0.1070E-02 SHELL        226  -0.2%  0.6738E+06  0.2421E+08   714.0     -0.5540E+05   0.000    
  5100   6.907      0.1052E-02 SHELL        226  -0.2%  0.6828E+06  0.2420E+08   710.1     -0.5561E+05   0.000    
  5200   7.012      0.1038E-02 SHELL        226  -0.2%  0.6915E+06  0.2419E+08   698.5     -0.5584E+05   0.000    
  5300   7.115      0.1024E-02 SHELL        226  -0.2%  0.7001E+06  0.2418E+08   681.1     -0.5604E+05   0.000    
  5400   7.216      0.1012E-02 SHELL        226  -0.2%  0.7084E+06  0.2417E+08   662.5     -0.5624E+05   0.000    
 CYCLE    TIME      TIME-STEP  ELEMENT          ERROR  I-ENERGY    K-ENERGY T  K-ENERGY R  EXT-WORK MAS.ERR
  5500   7.317      0.9998E-03 SHELL        226  -0.2%  0.7167E+06  0.2416E+08   639.2     -0.5644E+05   0.000    
  5600   7.416      0.9861E-03 SHELL        226  -0.3%  0.7247E+06  0.2415E+08   610.9     -0.5664E+05   0.000    
  5700   7.514      0.9732E-03 SHELL        226  -0.3%  0.7327E+06  0.2415E+08   589.7     -0.5682E+05   0.000    
  5800   7.611      0.9603E-03 SHELL        226  -0.3%  0.7405E+06  0.2414E+08   563.3     -0.5695E+05   0.000    
  5900   7.706      0.9473E-03 SHELL        226  -0.3%  0.7482E+06  0.2413E+08   534.9     -0.5707E+05   0.000    
  6000   7.800      0.9341E-03 SHELL        226  -0.3%  0.7557E+06  0.2412E+08   523.5     -0.5719E+05   0.000    
  6100   7.893      0.9212E-03 SHELL        226  -0.3%  0.7632E+06  0.2411E+08   526.3     -0.5728E+05   0.000    
  6200   7.985      0.9094E-03 SHELL        226  -0.3%  0.7709E+06  0.2410E+08   541.5     -0.5736E+05   0.000    
     ANIMATION FILE: CRA2AV4A005 WRITTEN
  6300   8.075      0.8976E-03 SHELL        226  -0.3%  0.7785E+06  0.2409E+08   557.8     -0.5742E+05   0.000    
  6400   8.164      0.8861E-03 SHELL        226  -0.3%  0.7859E+06  0.2408E+08   577.1     -0.5746E+05   0.000    
  6500   8.252      0.8751E-03 SHELL        226  -0.3%  0.7933E+06  0.2407E+08   584.2     -0.5750E+05   0.000    
  6600   8.339      0.8650E-03 SHELL        226  -0.3%  0.8004E+06  0.2407E+08   589.3     -0.5756E+05   0.000    
  6700   8.425      0.8558E-03 SHELL        226  -0.3%  0.8074E+06  0.2406E+08   598.6     -0.5762E+05   0.000    
  6800   8.511      0.8477E-03 SHELL        226  -0.3%  0.8145E+06  0.2405E+08   608.1     -0.5769E+05   0.000    
  6900   8.595      0.8398E-03 SHELL        226  -0.3%  0.8217E+06  0.2404E+08   606.5     -0.5777E+05   0.000    
  7000   8.679      0.8317E-03 SHELL        226  -0.3%  0.8288E+06  0.2403E+08   621.0     -0.5787E+05   0.000    
  7100   8.761      0.8230E-03 SHELL        226  -0.3%  0.8358E+06  0.2402E+08   641.6     -0.5799E+05   0.000    
  7200   8.843      0.8136E-03 SHELL        226  -0.3%  0.8427E+06  0.2402E+08   660.3     -0.5811E+05   0.000    
  7300   8.924      0.8074E-03 SHELL        226  -0.3%  0.8498E+06  0.2401E+08   705.4     -0.5820E+05   0.000    
  7400   9.005      0.8031E-03 SHELL        226  -0.3%  0.8572E+06  0.2400E+08   737.0     -0.5829E+05   0.000    
  7500   9.085      0.7990E-03 SHELL        226  -0.3%  0.8643E+06  0.2399E+08   786.5     -0.5840E+05   0.000    
  7600   9.164      0.7955E-03 SHELL        226  -0.3%  0.8712E+06  0.2398E+08   819.6     -0.5855E+05   0.000    
  7700   9.244      0.7902E-03 SHELL        226  -0.4%  0.8780E+06  0.2397E+08   841.0     -0.5871E+05   0.000    
  7800   9.323      0.7855E-03 SHELL        226  -0.4%  0.8852E+06  0.2397E+08   862.7     -0.5885E+05   0.000    
  7900   9.401      0.7810E-03 SHELL        226  -0.4%  0.8925E+06  0.2396E+08   883.5     -0.5897E+05   0.000    
  8000   9.479      0.7772E-03 SHELL        226  -0.4%  0.8997E+06  0.2395E+08   915.3     -0.5910E+05   0.000    
  8100   9.556      0.7755E-03 SHELL        226  -0.4%  0.9069E+06  0.2394E+08   937.0     -0.5923E+05   0.000    
  8200   9.634      0.7736E-03 SHELL        226  -0.4%  0.9143E+06  0.2393E+08   952.8     -0.5937E+05   0.000    
  8300   9.711      0.7705E-03 SHELL        226  -0.4%  0.9218E+06  0.2392E+08   980.4     -0.5952E+05   0.000    
  8400   9.788      0.7678E-03 SHELL        226  -0.4%  0.9294E+06  0.2391E+08   1001.     -0.5969E+05   0.000    
  8500   9.865      0.7648E-03 SHELL        226  -0.4%  0.9375E+06  0.2391E+08   1041.     -0.5986E+05   0.000    
  8600   9.941      0.7617E-03 SHELL        226  -0.4%  0.9455E+06  0.2390E+08   1112.     -0.6002E+05   0.000    
     ANIMATION FILE: CRA2AV4A006 WRITTEN
  8700   10.02      0.7592E-03 SHELL        226  -0.4%  0.9537E+06  0.2389E+08   1170.     -0.6016E+05   0.000    
  8800   10.09      0.7569E-03 SHELL        226  -0.4%  0.9620E+06  0.2388E+08   1165.     -0.6027E+05   0.000    
  8900   10.17      0.7539E-03 SHELL        226  -0.4%  0.9704E+06  0.2387E+08   1138.     -0.6035E+05   0.000    
  9000   10.24      0.7515E-03 SHELL        226  -0.4%  0.9789E+06  0.2386E+08   1110.     -0.6044E+05   0.000    
  9100   10.32      0.7494E-03 SHELL        226  -0.4%  0.9873E+06  0.2385E+08   1084.     -0.6054E+05   0.000    
  9200   10.39      0.7470E-03 SHELL        226  -0.4%  0.9958E+06  0.2384E+08   1073.     -0.6063E+05   0.000    
  9300   10.47      0.7449E-03 SHELL        226  -0.4%  0.1004E+07  0.2383E+08   1077.     -0.6072E+05   0.000    
  9400   10.54      0.7429E-03 SHELL        226  -0.4%  0.1013E+07  0.2382E+08   1087.     -0.6080E+05   0.000    
  9500   10.62      0.7411E-03 SHELL        226  -0.4%  0.1021E+07  0.2381E+08   1091.     -0.6087E+05   0.000    
  9600   10.69      0.7393E-03 SHELL        226  -0.4%  0.1030E+07  0.2380E+08   1119.     -0.6092E+05   0.000    
  9700   10.76      0.7375E-03 SHELL        226  -0.4%  0.1039E+07  0.2379E+08   1175.     -0.6096E+05   0.000    
  9800   10.84      0.7356E-03 SHELL        226  -0.4%  0.1048E+07  0.2378E+08   1260.     -0.6099E+05   0.000    
  9900   10.91      0.7337E-03 SHELL        226  -0.4%  0.1057E+07  0.2378E+08   1342.     -0.6102E+05   0.000    
 10000   10.98      0.7321E-03 SHELL        226  -0.4%  0.1067E+07  0.2376E+08   1386.     -0.6104E+05   0.000    
 10100   11.06      0.7307E-03 SHELL        226  -0.4%  0.1077E+07  0.2375E+08   1419.     -0.6104E+05   0.000    
 10200   11.13      0.7294E-03 SHELL        226  -0.4%  0.1088E+07  0.2374E+08   1486.     -0.6105E+05   0.000    
 10300   11.20      0.7280E-03 SHELL        226  -0.4%  0.1099E+07  0.2373E+08   1494.     -0.6108E+05   0.000    
 10400   11.28      0.7264E-03 SHELL        226  -0.4%  0.1111E+07  0.2372E+08   1504.     -0.6117E+05   0.000    
 10500   11.35      0.7252E-03 SHELL        226  -0.4%  0.1124E+07  0.2370E+08   1467.     -0.6123E+05   0.000    
 10600   11.42      0.7240E-03 SHELL        226  -0.4%  0.1138E+07  0.2369E+08   1503.     -0.6132E+05   0.000    
 10700   11.49      0.7230E-03 SHELL        226  -0.4%  0.1152E+07  0.2367E+08   1530.     -0.6140E+05   0.000    
 10800   11.57      0.7219E-03 SHELL        226  -0.5%  0.1167E+07  0.2366E+08   1663.     -0.6148E+05   0.000    
 10900   11.64      0.7211E-03 SHELL        226  -0.5%  0.1182E+07  0.2364E+08   1779.     -0.6155E+05   0.000    
 CYCLE    TIME      TIME-STEP  ELEMENT          ERROR  I-ENERGY    K-ENERGY T  K-ENERGY R  EXT-WORK MAS.ERR
 11000   11.71      0.7208E-03 SHELL        226  -0.5%  0.1196E+07  0.2362E+08   1929.     -0.6162E+05   0.000    
 11100   11.78      0.7202E-03 SHELL        226  -0.5%  0.1211E+07  0.2361E+08   2073.     -0.6168E+05   0.000    
 11200   11.85      0.7195E-03 SHELL        226  -0.5%  0.1225E+07  0.2359E+08   2165.     -0.6176E+05   0.000    
 11300   11.93      0.7189E-03 SHELL        226  -0.5%  0.1239E+07  0.2358E+08   2194.     -0.6180E+05   0.000    
 11400   12.00      0.7179E-03 SHELL        226  -0.5%  0.1254E+07  0.2356E+08   2193.     -0.6184E+05   0.000    
     ANIMATION FILE: CRA2AV4A007 WRITTEN
 11500   12.07      0.7173E-03 SHELL        226  -0.5%  0.1269E+07  0.2354E+08   2172.     -0.6191E+05   0.000    
 11600   12.14      0.7171E-03 SHELL        226  -0.5%  0.1284E+07  0.2353E+08   2051.     -0.6194E+05   0.000    
 11700   12.21      0.7170E-03 SHELL        226  -0.5%  0.1299E+07  0.2351E+08   2014.     -0.6195E+05   0.000    
 11800   12.29      0.7163E-03 SHELL        226  -0.5%  0.1314E+07  0.2349E+08   2015.     -0.6200E+05   0.000    
 11900   12.36      0.7156E-03 SHELL        226  -0.5%  0.1330E+07  0.2347E+08   2051.     -0.6200E+05   0.000    
 12000   12.43      0.7154E-03 SHELL        226  -0.5%  0.1345E+07  0.2345E+08   1988.     -0.6201E+05   0.000    
 12100   12.50      0.7153E-03 SHELL        226  -0.6%  0.1362E+07  0.2344E+08   1897.     -0.6203E+05   0.000    
 12200   12.57      0.7146E-03 SHELL        226  -0.6%  0.1378E+07  0.2342E+08   1880.     -0.6204E+05   0.000    
 12300   12.64      0.7140E-03 SHELL        226  -0.6%  0.1394E+07  0.2340E+08   1903.     -0.6204E+05   0.000    
 12400   12.71      0.7137E-03 SHELL        226  -0.6%  0.1411E+07  0.2338E+08   1945.     -0.6205E+05   0.000    
 12500   12.79      0.7135E-03 SHELL        226  -0.6%  0.1427E+07  0.2336E+08   1962.     -0.6206E+05   0.000    
 12600   12.86      0.7134E-03 SHELL        226  -0.6%  0.1443E+07  0.2335E+08   1919.     -0.6207E+05   0.000    
 12700   12.93      0.7134E-03 SHELL        226  -0.6%  0.1459E+07  0.2333E+08   1813.     -0.6208E+05   0.000    
 12800   13.00      0.7132E-03 SHELL        226  -0.6%  0.1475E+07  0.2331E+08   1651.     -0.6209E+05   0.000    
 12900   13.07      0.7130E-03 SHELL        226  -0.6%  0.1490E+07  0.2330E+08   1494.     -0.6210E+05   0.000    
 13000   13.14      0.7129E-03 SHELL        226  -0.6%  0.1505E+07  0.2328E+08   1374.     -0.6212E+05   0.000    
 13100   13.21      0.7129E-03 SHELL        226  -0.6%  0.1520E+07  0.2326E+08   1308.     -0.6215E+05   0.000    
 13200   13.28      0.7129E-03 SHELL        226  -0.6%  0.1535E+07  0.2325E+08   1285.     -0.6218E+05   0.000    
 13300   13.36      0.7129E-03 SHELL        226  -0.6%  0.1549E+07  0.2323E+08   1289.     -0.6219E+05   0.000    
 13400   13.43      0.7129E-03 SHELL        226  -0.6%  0.1563E+07  0.2322E+08   1313.     -0.6221E+05   0.000    
 13500   13.50      0.7129E-03 SHELL        226  -0.6%  0.1577E+07  0.2320E+08   1356.     -0.6221E+05   0.000    
 13600   13.57      0.7129E-03 SHELL        226  -0.6%  0.1590E+07  0.2319E+08   1414.     -0.6222E+05   0.000    
 13700   13.64      0.7129E-03 SHELL        226  -0.6%  0.1603E+07  0.2317E+08   1449.     -0.6222E+05   0.000    
 13800   13.71      0.7130E-03 SHELL        226  -0.6%  0.1616E+07  0.2316E+08   1462.     -0.6222E+05   0.000    
 13900   13.78      0.7130E-03 SHELL        226  -0.7%  0.1628E+07  0.2315E+08   1453.     -0.6223E+05   0.000    
 14000   13.86      0.7131E-03 SHELL        226  -0.7%  0.1640E+07  0.2313E+08   1433.     -0.6223E+05   0.000    
 14100   13.93      0.7131E-03 SHELL        226  -0.7%  0.1651E+07  0.2312E+08   1400.     -0.6223E+05   0.000    
 14200   14.00      0.7131E-03 SHELL        226  -0.7%  0.1662E+07  0.2311E+08   1341.     -0.6224E+05   0.000    
     ANIMATION FILE: CRA2AV4A008 WRITTEN
 14300   14.07      0.7131E-03 SHELL        226  -0.7%  0.1673E+07  0.2309E+08   1250.     -0.6224E+05   0.000    
 14400   14.14      0.7131E-03 SHELL        226  -0.7%  0.1683E+07  0.2308E+08   1158.     -0.6224E+05   0.000    
 14500   14.21      0.7132E-03 SHELL        226  -0.7%  0.1694E+07  0.2307E+08   1078.     -0.6224E+05   0.000    
 14600   14.28      0.7132E-03 SHELL        226  -0.7%  0.1704E+07  0.2306E+08   1028.     -0.6224E+05   0.000    
 14700   14.35      0.7132E-03 SHELL        226  -0.7%  0.1714E+07  0.2305E+08   1010.     -0.6224E+05   0.000    
 14800   14.43      0.7132E-03 SHELL        226  -0.7%  0.1724E+07  0.2303E+08   1023.     -0.6224E+05   0.000    
 14900   14.50      0.7132E-03 SHELL        226  -0.7%  0.1734E+07  0.2302E+08   1048.     -0.6224E+05   0.000    
 15000   14.57      0.7132E-03 SHELL        226  -0.7%  0.1743E+07  0.2301E+08   1068.     -0.6224E+05   0.000    
 15100   14.64      0.7133E-03 SHELL        226  -0.7%  0.1753E+07  0.2300E+08   1054.     -0.6224E+05   0.000    
 15200   14.71      0.7132E-03 SHELL        226  -0.7%  0.1762E+07  0.2299E+08   1008.     -0.6224E+05   0.000    
 15300   14.78      0.7132E-03 SHELL        226  -0.7%  0.1771E+07  0.2298E+08   952.8     -0.6224E+05   0.000    
 15400   14.85      0.7132E-03 SHELL        226  -0.7%  0.1780E+07  0.2297E+08   898.4     -0.6225E+05   0.000    
 15500   14.92      0.7132E-03 SHELL        226  -0.8%  0.1789E+07  0.2296E+08   850.1     -0.6225E+05   0.000    
 15600   15.00      0.7132E-03 SHELL        226  -0.8%  0.1797E+07  0.2295E+08   810.2     -0.6225E+05   0.000    
 15700   15.07      0.7132E-03 SHELL        226  -0.8%  0.1806E+07  0.2294E+08   790.1     -0.6225E+05   0.000    
 15800   15.14      0.7132E-03 SHELL        226  -0.8%  0.1814E+07  0.2293E+08   784.3     -0.6225E+05   0.000    
 15900   15.21      0.7132E-03 SHELL        226  -0.8%  0.1823E+07  0.2292E+08   792.5     -0.6225E+05   0.000    
 16000   15.28      0.7132E-03 SHELL        226  -0.8%  0.1831E+07  0.2291E+08   814.5     -0.6225E+05   0.000    
 16100   15.35      0.7131E-03 SHELL        226  -0.8%  0.1840E+07  0.2290E+08   843.1     -0.6225E+05   0.000    
 16200   15.42      0.7131E-03 SHELL        226  -0.8%  0.1848E+07  0.2289E+08   882.0     -0.6225E+05   0.000    
 16300   15.50      0.7131E-03 SHELL        226  -0.8%  0.1856E+07  0.2288E+08   936.9     -0.6225E+05   0.000    
 16400   15.57      0.7096E-03 SHELL        205  -0.8%  0.1864E+07  0.2287E+08   999.1     -0.6225E+05   0.000    
 CYCLE    TIME      TIME-STEP  ELEMENT          ERROR  I-ENERGY    K-ENERGY T  K-ENERGY R  EXT-WORK MAS.ERR
 16500   15.64      0.7063E-03 SHELL        205  -0.8%  0.1872E+07  0.2286E+08   1055.     -0.6225E+05   0.000    
 16600   15.71      0.7049E-03 SHELL        205  -0.8%  0.1880E+07  0.2285E+08   1088.     -0.6225E+05   0.000    
 16700   15.78      0.7059E-03 SHELL        205  -0.8%  0.1888E+07  0.2284E+08   1083.     -0.6225E+05   0.000    
 16800   15.85      0.7090E-03 SHELL        205  -0.8%  0.1896E+07  0.2284E+08   1035.     -0.6225E+05   0.000    
 16900   15.92      0.7131E-03 SHELL        226  -0.8%  0.1904E+07  0.2283E+08   959.6     -0.6225E+05   0.000    
 17000   15.99      0.7131E-03 SHELL        226  -0.8%  0.1911E+07  0.2282E+08   884.6     -0.6225E+05   0.000    
     ANIMATION FILE: CRA2AV4A009 WRITTEN
 17100   16.06      0.7131E-03 SHELL        226  -0.8%  0.1919E+07  0.2281E+08   836.3     -0.6225E+05   0.000    
 17200   16.13      0.7132E-03 SHELL        226  -0.9%  0.1927E+07  0.2280E+08   812.9     -0.6225E+05   0.000    
 17300   16.21      0.7131E-03 SHELL        226  -0.9%  0.1934E+07  0.2279E+08   794.9     -0.6225E+05   0.000    
 17400   16.28      0.7131E-03 SHELL        226  -0.9%  0.1942E+07  0.2278E+08   781.8     -0.6225E+05   0.000    
 17500   16.35      0.7132E-03 SHELL        226  -0.9%  0.1950E+07  0.2277E+08   807.2     -0.6225E+05   0.000    
 17600   16.42      0.7131E-03 SHELL        226  -0.9%  0.1958E+07  0.2276E+08   843.7     -0.6225E+05   0.000    
 17700   16.49      0.7131E-03 SHELL        226  -0.9%  0.1967E+07  0.2275E+08   846.9     -0.6225E+05   0.000    
 17800   16.56      0.7131E-03 SHELL        226  -0.9%  0.1976E+07  0.2274E+08   851.5     -0.6225E+05   0.000    
 17900   16.63      0.7131E-03 SHELL        226  -0.9%  0.1985E+07  0.2273E+08   864.3     -0.6226E+05   0.000    
 18000   16.70      0.7131E-03 SHELL        226  -0.9%  0.1994E+07  0.2272E+08   884.5     -0.6226E+05   0.000    
 18100   16.78      0.7130E-03 SHELL        226  -0.9%  0.2003E+07  0.2271E+08   885.2     -0.6226E+05   0.000    
 18200   16.85      0.7130E-03 SHELL        226  -0.9%  0.2012E+07  0.2270E+08   884.8     -0.6226E+05   0.000    
 18300   16.92      0.7130E-03 SHELL        226  -0.9%  0.2021E+07  0.2268E+08   882.3     -0.6227E+05   0.000    
 18400   16.99      0.7130E-03 SHELL        226  -0.9%  0.2030E+07  0.2267E+08   894.1     -0.6227E+05   0.000    
 18500   17.06      0.7130E-03 SHELL        226  -0.9%  0.2039E+07  0.2266E+08   927.8     -0.6228E+05   0.000    
 18600   17.13      0.7130E-03 SHELL        226  -1.0%  0.2048E+07  0.2265E+08   976.7     -0.6228E+05   0.000    
 18700   17.20      0.7130E-03 SHELL        226  -1.0%  0.2057E+07  0.2264E+08   1034.     -0.6228E+05   0.000    
 18800   17.28      0.7130E-03 SHELL        226  -1.0%  0.2066E+07  0.2263E+08   1107.     -0.6228E+05   0.000    
 18900   17.35      0.7130E-03 SHELL        226  -1.0%  0.2075E+07  0.2262E+08   1151.     -0.6228E+05   0.000    
 19000   17.42      0.7130E-03 SHELL        226  -1.0%  0.2084E+07  0.2261E+08   1153.     -0.6228E+05   0.000    
 19100   17.49      0.7130E-03 SHELL        226  -1.0%  0.2093E+07  0.2260E+08   1074.     -0.6228E+05   0.000    
 19200   17.56      0.7129E-03 SHELL        226  -1.0%  0.2103E+07  0.2259E+08   948.7     -0.6228E+05   0.000    
 19300   17.63      0.7129E-03 SHELL        226  -1.0%  0.2112E+07  0.2257E+08   835.0     -0.6228E+05   0.000    
 19400   17.70      0.7128E-03 SHELL        226  -1.0%  0.2122E+07  0.2256E+08   755.2     -0.6228E+05   0.000    
 19500   17.77      0.7128E-03 SHELL        226  -1.0%  0.2132E+07  0.2255E+08   705.6     -0.6228E+05   0.000    
 19600   17.85      0.7126E-03 SHELL        226  -1.0%  0.2141E+07  0.2254E+08   689.9     -0.6229E+05   0.000    
 19700   17.92      0.7126E-03 SHELL        226  -1.0%  0.2151E+07  0.2253E+08   689.3     -0.6229E+05   0.000    
 19800   17.99      0.7126E-03 SHELL        226  -1.0%  0.2161E+07  0.2252E+08   688.1     -0.6229E+05   0.000    
     ANIMATION FILE: CRA2AV4A010 WRITTEN
 19900   18.06      0.7126E-03 SHELL        226  -1.0%  0.2172E+07  0.2251E+08   719.9     -0.6229E+05   0.000    
 20000   18.13      0.7126E-03 SHELL        226  -1.0%  0.2183E+07  0.2249E+08   753.9     -0.6229E+05   0.000    
 20100   18.20      0.7126E-03 SHELL        226  -1.1%  0.2194E+07  0.2248E+08   782.2     -0.6229E+05   0.000    
 20200   18.27      0.7127E-03 SHELL        226  -1.1%  0.2205E+07  0.2247E+08   791.3     -0.6230E+05   0.000    
 20300   18.34      0.7126E-03 SHELL        226  -1.1%  0.2216E+07  0.2246E+08   789.0     -0.6230E+05   0.000    
 20400   18.42      0.7126E-03 SHELL        226  -1.1%  0.2227E+07  0.2244E+08   804.0     -0.6230E+05   0.000    
 20500   18.49      0.7126E-03 SHELL        226  -1.1%  0.2238E+07  0.2243E+08   849.2     -0.6230E+05   0.000    
 20600   18.56      0.7126E-03 SHELL        226  -1.1%  0.2249E+07  0.2242E+08   916.0     -0.6230E+05   0.000    
 20700   18.63      0.7126E-03 SHELL        226  -1.1%  0.2260E+07  0.2241E+08   984.3     -0.6230E+05   0.000    
 20800   18.70      0.7126E-03 SHELL        226  -1.1%  0.2271E+07  0.2240E+08   1026.     -0.6230E+05   0.000    
 20900   18.77      0.7126E-03 SHELL        226  -1.1%  0.2281E+07  0.2238E+08   1018.     -0.6230E+05   0.000    
 21000   18.84      0.7126E-03 SHELL        226  -1.1%  0.2292E+07  0.2237E+08   962.8     -0.6230E+05   0.000    
 21100   18.91      0.7126E-03 SHELL        226  -1.1%  0.2302E+07  0.2236E+08   891.3     -0.6230E+05   0.000    
 21200   18.99      0.7126E-03 SHELL        226  -1.1%  0.2313E+07  0.2235E+08   825.1     -0.6230E+05   0.000    
 21300   19.06      0.7126E-03 SHELL        226  -1.1%  0.2323E+07  0.2234E+08   759.2     -0.6230E+05   0.000    
 21400   19.13      0.7125E-03 SHELL        226  -1.1%  0.2334E+07  0.2233E+08   698.4     -0.6231E+05   0.000    
 21500   19.20      0.7125E-03 SHELL        226  -1.1%  0.2345E+07  0.2231E+08   649.7     -0.6231E+05   0.000    
 21600   19.27      0.7074E-03 SHELL        534  -1.1%  0.2355E+07  0.2230E+08   625.7     -0.6232E+05   0.000    
 21700   19.34      0.6874E-03 SHELL        534  -1.1%  0.2365E+07  0.2229E+08   618.3     -0.6232E+05   0.000    
 21800   19.41      0.6710E-03 SHELL        534  -1.1%  0.2374E+07  0.2228E+08   616.4     -0.6232E+05   0.000    
 21900   19.47      0.6588E-03 SHELL        534  -1.1%  0.2384E+07  0.2227E+08   614.5     -0.6232E+05   0.000    
 CYCLE    TIME      TIME-STEP  ELEMENT          ERROR  I-ENERGY    K-ENERGY T  K-ENERGY R  EXT-WORK MAS.ERR
 22000   19.54      0.6520E-03 SHELL        534  -1.1%  0.2393E+07  0.2226E+08   612.2     -0.6232E+05   0.000    
 22100   19.61      0.6502E-03 SHELL        534  -1.1%  0.2401E+07  0.2225E+08   610.5     -0.6232E+05   0.000    
 22200   19.67      0.6550E-03 SHELL        534  -1.1%  0.2411E+07  0.2224E+08   628.2     -0.6232E+05   0.000    
 22300   19.74      0.6596E-03 SHELL        534  -1.1%  0.2421E+07  0.2223E+08   615.8     -0.6232E+05   0.000    
 22400   19.80      0.6679E-03 SHELL        534  -1.2%  0.2431E+07  0.2222E+08   586.6     -0.6232E+05   0.000    
 22500   19.87      0.6725E-03 SHELL        534  -1.2%  0.2442E+07  0.2221E+08   593.1     -0.6232E+05   0.000    
 22600   19.94      0.6740E-03 SHELL        534  -1.2%  0.2453E+07  0.2219E+08   568.0     -0.6232E+05   0.000    

     RESTART FILES: CRA2AV4_0001_[0001-0004].rst WRITTEN
     -------------

     ANIMATION FILE: CRA2AV4A011 WRITTEN
  
                           ** CPU USER TIME **
  
  
                        ** SUMMARY **
  
 #PROC  CONTSORT  CONTFOR   ELEMENT   KINCOND   INTEG     IO        T0        ASM       RESOL    
   1   .7019E+00 .3419E+00 .4090E+01 .3229E+00 .1450E+00 .2250E+00 .4189E+00 .2050E+00 .7318E+01
   2   .7108E+00 .6799E-01 .3594E+01 .3779E+00 .1650E+00 .2300E+00 .8488E+00 .1700E+00 .7458E+01
   3   .6468E+00 .6599E-01 .4224E+01 .4329E+00 .1790E+00 .2000E+00 .3459E+00 .1660E+00 .7506E+01
   4   .6788E+00 .2940E+00 .3597E+01 .3839E+00 .1760E+00 .2520E+00 .4609E+00 .2360E+00 .7462E+01
  
                 ** SPMD COM. TIME **
  
 #PROC  FORCES    RBYFOR    RBYVEL    VEL       TOT       %        
   1   .3270E+00 .1000E-01 .0000E+00 .1800E-01 .3550E+00 .4850E+01
   2   .5759E+00 .5999E-02 .0000E+00 .2100E-01 .6029E+00 .8084E+01
   3   .4469E+00 .8000E-02 .0000E+00 .3800E-01 .4929E+00 .6567E+01
   4   .6279E+00 .5999E-02 .0000E+00 .4900E-01 .6829E+00 .9151E+01
  
 
                   ** CUMULATIVE CPU TIME SUMMARY **
  
 CONTACT SORTING.............: .2738E+01     9.21 % 
 CONTACT FORCES..............: .7699E+00     2.59 % 
 ELEMENT FORCES..............: .1550E+02    52.13 % 
 KINEMATIC COND..............: .1518E+01     5.10 % 
 INTEGRATION.................: .6649E+00     2.24 % 
 ASSEMBLING..................: .7769E+00     2.61 % 
 OTHERS (including I/O)......: .7771E+01    26.13 % 
 TOTAL.......................: .2974E+02   100.00 % 
  
  
                           ** ELAPSED TIME **
  
  
                        ** SUMMARY **
  
 #PROC  CONTSORT  CONTFOR   ELEMENT   KINCOND   INTEG     IO        T0        ASM       RESOL    
   1   .7340E+00 .3458E+00 .3903E+01 .3557E+00 .1798E+00 .2804E+00 .5849E+00 .2288E+00 .7671E+01
   2   .6938E+00 .9049E-01 .3971E+01 .4016E+00 .1892E+00 .2666E+00 .7956E+00 .1710E+00 .7869E+01
   3   .6483E+00 .1432E+00 .4055E+01 .5291E+00 .1967E+00 .2739E+00 .4521E+00 .1881E+00 .7869E+01
   4   .7177E+00 .3159E+00 .4005E+01 .3807E+00 .1803E+00 .2764E+00 .5012E+00 .2262E+00 .7869E+01
  
        CONTSORT  CONTFOR   ELEMENT   KINCOND   INTEG     IO        T0        ASM       RESOL    
 MIN   .6483E+00 .9049E-01 .3903E+01 .3557E+00 .1798E+00 .2666E+00 .4521E+00 .1710E+00 .7671E+01
 MAX   .7340E+00 .3458E+00 .4055E+01 .5291E+00 .1967E+00 .2804E+00 .7956E+00 .2288E+00 .7869E+01
 AVG   .6985E+00 .2238E+00 .3983E+01 .4168E+00 .1865E+00 .2743E+00 .5834E+00 .2036E+00 .7820E+01
  
                 ** SPMD COM. TIME **
  
 #PROC  FORCES    RBYFOR    RBYVEL    VEL       TOT       %        
   1   .3846E+00 .1020E-01 .0000E+00 .2935E-01 .4242E+00 .5529E+01
   2   .4358E+00 .9836E-02 .0000E+00 .2966E-01 .4753E+00 .6040E+01
   3   .4877E+00 .1059E-01 .0000E+00 .5404E-01 .5524E+00 .7019E+01
   4   .3844E+00 .1040E-01 .0000E+00 .5302E-01 .4478E+00 .5691E+01
  
        FORCES    RBYFOR    RBYVEL    VEL       TOT       %        
 MIN   .3844E+00 .9836E-02 .0000E+00 .2935E-01 .4242E+00 .5529E+01
 MAX   .4877E+00 .1059E-01 .0000E+00 .5404E-01 .5524E+00 .7019E+01
 AVG   .4231E+00 .1026E-01 .0000E+00 .4152E-01 .4749E+00 .6070E+01
  
                   ** MEMORY USAGE STATISTICS **
  
 TOTAL MEMORY USED .........................:      249 MB
 MAXIMUM MEMORY PER PROCESSOR...............:       65 MB
 MINIMUM MEMORY PER PROCESSOR...............:       61 MB
 AVERAGE MEMORY PER PROCESSOR...............:       62 MB
  
                   ** DISK USAGE STATISTICS **
  
 TOTAL DISK SPACE USED .....................:          4 MB
 ANIMATION/H3D/TH/OUTP SIZE ................:          2 MB
 RESTART FILE SIZE .........................:          2 MB
  
                   ** COMPUTE TIME INFORMATION **
                        ** CURRENT ENGINE **
  
 EXECUTION STARTED .........................:      2021/06/22  12:35:55
 EXECUTION COMPLETED .......................:      2021/06/22  12:36:03
  
 ELAPSED TIME     =          7.90 s
                          0:00:07
 ESTIMATED SPEEDUP=          3.76



     NORMAL TERMINATION      



     TOTAL NUMBER OF CYCLES  :   22695

  
                   ** COMPUTE RUNTIME INFORMATION SUMMARY **
  
        STARTER RUNTIME =          0.87s (00:00:00)
 # 001   ENGINE RUNTIME =          7.90s (00:00:07)
 ------------------------------ 
 STARTER+ENGINE RUNTIME =          8.77s (00:00:08)
  
