 M21AV31_0001.out
************************************************************************
**                                                                    **
**                                                                    **
**                      RADIOSS ENGINE MAINLINE                       **
**                                                                    **
**            Non-linear Finite Element Analysis Software             **
**                   from Altair Engineering, Inc.                    **
**                                                                    **
**                                                                    **
**              Linux 64 bits, Intel compiler, Intel MPI              **
**                                                                    **
**                                                                    **
**                                                                    **
** Build tag: 0742056_087sesevot__2070_0032401_10                     **
************************************************************************
**  COPYRIGHT (C) 1986-2014                 Altair Engineering, Inc.  **
** All Rights Reserved.  Copyright notice does not imply publication. **
** Contains trade secrets of Altair Engineering Inc.                  **
** Decompilation or disassembly of this software strictly prohibited. **
************************************************************************
 
 NUMBER OF SPMD DOMAINS           4
 NUMBER OF THREADS PER DOMAIN     1
 NUMBER OF HMPP PROCESSES         4
  
 COMPUTATION HARDWARE DESCRIPTION
  
 CPU#  HOSTNAME     CPU TYPE, FREQUENCY AND MEMORY
   1   fradf-mariner1.europe.altair.com   Intel(R) Xeon(R) CPU E5-4640 0 @ 2.40GHz (x86_64), 2400 MHz,  16080 MB RAM,  16383 MB swap
   2   fradf-mariner1.europe.altair.com   Intel(R) Xeon(R) CPU E5-4640 0 @ 2.40GHz (x86_64), 2400 MHz,  16080 MB RAM,  16383 MB swap
   3   fradf-mariner1.europe.altair.com   Intel(R) Xeon(R) CPU E5-4640 0 @ 2.40GHz (x86_64), 2400 MHz,  16080 MB RAM,  16383 MB swap
   4   fradf-mariner1.europe.altair.com   Intel(R) Xeon(R) CPU E5-4640 0 @ 2.40GHz (x86_64), 2400 MHz,  16080 MB RAM,  16383 MB swap
  
************************************************************************


 M21AV31D01                                                                      


 FINAL TIME . . . . . . . . . . . . . . . . . . .  0.5000000    

 TIME INTERVAL FOR TIME HISTORY PLOTS . . . . . .  0.1000000E-02

 TIME STEP SCALE FACTOR . . . . . . . . . . . . .  0.5000000    

 MINIMUM TIME STEP  . . . . . . . . . . . . . . .   0.000000    


 BRICK TIME STEP SCALE FACTOR . . . . . . . . . .  0.5000000    
 BRICK MINIMUM TIME STEP. . . . . . . . . . . . .   0.000000    
 MIN. TIME STEP FLAG (1:STOP RUN, 2:DELETE BRICK)     1

 QUAD TIME STEP SCALE FACTOR. . . . . . . . . . .  0.5000000    
 QUAD MINIMUM TIME STEP . . . . . . . . . . . . .   0.000000    
 MIN. TIME STEP FLAG (1:STOP RUN, 2:DELETE QUAD).     1

 SHELL TIME STEP SCALE FACTOR . . . . . . . . . .  0.5000000    
 SHELL MINIMUM TIME STEP. . . . . . . . . . . . .   0.000000    
 MIN. TIME FLAG (1:STOP, 2:DELETE, 3:SMALL STRAIN)    2

 TRUSS TIME STEP SCALE FACTOR . . . . . . . . . .  0.5000000    
 TRUSS MINIMUM TIME STEP. . . . . . . . . . . . .   0.000000    
 MIN. TIME FLAG (1:STOP, 2:DELETE). . . . . . . .     0

 BEAM TIME STEP SCALE FACTOR. . . . . . . . . . .  0.5000000    
 BEAM MINIMUM TIME STEP . . . . . . . . . . . . .   0.000000    
 MIN. TIME FLAG (1:STOP, 2:DELETE). . . . . . . .     0

 SPRING TIME STEP SCALE FACTOR. . . . . . . . . .  0.5000000    
 SPRING MINIMUM TIME STEP . . . . . . . . . . . .   0.000000    
 MIN. TIME FLAG (1:STOP, 2:DELETE). . . . . . . .     0

 AIRBAG TIME STEP SCALE FACTOR. . . . . . . . . .  0.5000000    
 AIRBAG MINIMUM TIME STEP . . . . . . . . . . . .   0.000000    
 MIN. TIME FLAG (1:STOP). . . . . . . . . . . . .     0

 INTERFACE TYPE 7 TIME STEP SCALE FACTOR. . . . .  0.5000000    
 INTERFACE TYPE 7 MINIMUM TIME STEP . . . . . . .   0.000000    
 MIN. TIME FLAG(1:STOP, 2:REMOVE NODE FROM INTERF)    0

 FVMBAG TIME STEP SCALE FACTOR. . . . . . . . . .  0.5000000    
 FVMBAG MINIMUM TIME STEP . . . . . . . . . . . .   0.000000    

 PRINTOUT CYCLE FREQUENCY . . . . . . . . . . . .  -100

 RESTART CYCLE FREQUENCY. . . . . . . . . . . . .       5000

 MAXIMUM RESTART WRITE BEFORE OVERWRITE . . . . .     0

 INVERS: INPUT DECK VERSION . . . . . . . . . . .    30
 ITTYP : FLAG FOR TYPE OF T-FILE. . . . . . . . .     4

 TIME FOR FIRST ANIMATION-FILE PLOT . . . . . . .   0.000000    
 TIME INTERVAL FOR ANIMATION-FILE PLOTS . . . . .  0.1000000    
 SENSOR FOR ANIMATION-FILE PLOTS. . . . . . . . .          0
 TIME INTERVAL FOR SENSOR ANIMATION-FILE PLOTS. .   0.000000    

 VARIABLE SAVED ON ANIMATION FILES (1: YES) :
      PLASTIC STRAIN. . . . . .     0
      DENSITY     (SOLID ONLY).     0
      SPECIFIC ENERGY . . . . .     0
      HOURGLASS ENERGY. . . . .     0
      TEMPERATURE (SOLID ONLY).     0
      THICKNESS   (SHELL ONLY).     0
      PRESSURE    (SOLID ONLY).     0
      VON MISES . . . . . . . .     0
      TURBULENT ENERGY (FLUID).     0
      TURBULENT VISCOSITY(FLUID)    0
      VORTICITY (FLUID) . . . .     0
 VECTOR SAVED ON ANIMATION FILES (1: YES) :
      VELOCITY VECTOR . . . . .     0
      DISPLACEMENT VECTOR . . .     0
      ACCELERATION VECTOR . . .     0
      CONTACT FORCES. . . . . .     0
      INTERNAL FORCES . . . . .     0
      EXTERNAL FORCES . . . . .     0
      SECTION RBY RWALL FORCES.     0
      ROTATIONAL VELOCITY VECTOR    0
      CONTACT PRESSURE (VECTORS)    0
 SHELL TENSOR SAVED ON ANIMATION FILES (1: YES) :
      MEMBRANE STRESS . . . . .     0
      BENDING STRESS(MOMENT/T^2)    0
      UPPER LAYER STRESS. . . .     0
      LOWER LAYER STRESS. . . .     0
      MEMBRANE STRAIN . . . . .     0
      CURVATURE . . . . . . . .     0
      UPPER LAYER STRAIN. . . .     0
      LOWER LAYER STRAIN. . . .     0
 NODAL MASS SAVED ON ANIMATION FILES (1: YES) :    0
 KEEP DELETED ELEMENT (1: YES) :    0


 INITIAL TIME STEP. . . . . . . . . . . . . . . .   0.000000    
 MAXIMUM TIME STEP. . . . . . . . . . . . . . . .  0.1000000E+31

 PARALLEL ARITHMETIC ON

 ALE GRID FORMULATION                    
 --------------------                    
 NUMBER OF INTERFACES TO BE ELIMINATED. . . . . .        0

 NUMBER OF SOLID  ELEMENT BLOCKS TO BE ELIMINATED        0

 NUMBER OF QUAD   ELEMENT BLOCKS TO BE ELIMINATED        0

 NUMBER OF SHELL  ELEMENT BLOCKS TO BE ELIMINATED        0

 NUMBER OF TRUSS  ELEMENT BLOCKS TO BE ELIMINATED        0

 NUMBER OF BEAM   ELEMENT BLOCKS TO BE ELIMINATED        0

 NUMBER OF SPRING ELEMENT BLOCKS TO BE ELIMINATED        0

 NUMBER OF SH_3N  ELEMENT BLOCKS TO BE ELIMINATED        0

 NUMBER OF  SPH PARTICLES BLOCKS TO BE ELIMINATED        0

 NUMBER OF RIGID LINKS. . . . . . . . . . . . . .        0

 NUMBER OF ALE LINKS. . . . . . . . . . . . . . .        0

 NUMBER OF NEW BOUNDARY CONDITIONS. . . . . . . .        0

 19/11/2014
 CYCLE    TIME      TIME-STEP  ELEMENT          ERROR  I-ENERGY    K-ENERGY T  K-ENERGY R  EXT-WORK MAS.ERR
     0   0.000      0.2855E-03 SOLID          1   0.0%   0.000       0.000       0.000       0.000       0.000    
     ANIMATION FILE: M21AV31A001 WRITTEN
   100  0.2815E-01  0.2775E-03 SOLID          1   0.0%  0.7530E+07   2500.       0.000      0.7532E+07   0.000    
   200  0.5552E-01  0.2697E-03 SOLID          1   0.0%  0.1882E+08   2500.       0.000      0.1882E+08   0.000    
   300  0.8211E-01  0.2621E-03 SOLID          1   0.0%  0.3247E+08   2500.       0.000      0.3247E+08   0.000    
     ANIMATION FILE: M21AV31A002 WRITTEN
   400  0.1080      0.2547E-03 SOLID          1   0.0%  0.5057E+08   2500.       0.000      0.5057E+08   0.000    
   500  0.1331      0.2475E-03 SOLID          1   0.0%  0.8006E+08   2500.       0.000      0.8006E+08   0.000    
   600  0.1575      0.2406E-03 SOLID          1   0.0%  0.1212E+09   2500.       0.000      0.1212E+09   0.000    
   700  0.1812      0.2338E-03 SOLID          1   0.0%  0.1735E+09   2500.       0.000      0.1735E+09   0.000    
     ANIMATION FILE: M21AV31A003 WRITTEN
   800  0.2042      0.2272E-03 SOLID          1   0.0%  0.2369E+09   2500.       0.000      0.2369E+09   0.000    
   900  0.2267      0.2208E-03 SOLID          1   0.0%  0.3109E+09   2500.       0.000      0.3109E+09   0.000    
  1000  0.2484      0.2146E-03 SOLID          1   0.0%  0.3953E+09   2500.       0.000      0.3953E+09   0.000    
  1100  0.2696      0.2086E-03 SOLID          1   0.0%  0.4897E+09   2500.       0.000      0.4897E+09   0.000    
  1200  0.2902      0.2027E-03 SOLID          1   0.0%  0.5940E+09   2500.       0.000      0.5939E+09   0.000    
     ANIMATION FILE: M21AV31A004 WRITTEN
  1300  0.3101      0.1970E-03 SOLID          1   0.0%  0.7077E+09   2500.       0.000      0.7076E+09   0.000    
  1400  0.3296      0.1914E-03 SOLID          1   0.0%  0.8307E+09   2500.       0.000      0.8306E+09   0.000    
  1500  0.3484      0.1861E-03 SOLID          1   0.0%  0.9626E+09   2500.       0.000      0.9625E+09   0.000    
  1600  0.3668      0.1808E-03 SOLID          1   0.0%  0.1103E+10   2500.       0.000      0.1103E+10   0.000    
  1700  0.3846      0.1757E-03 SOLID          1   0.0%  0.1252E+10   2500.       0.000      0.1252E+10   0.000    
     ANIMATION FILE: M21AV31A005 WRITTEN
  1800  0.4019      0.1708E-03 SOLID          1   0.0%  0.1410E+10   2500.       0.000      0.1410E+10   0.000    
  1900  0.4188      0.1660E-03 SOLID          1   0.0%  0.1575E+10   2500.       0.000      0.1575E+10   0.000    
  2000  0.4351      0.1613E-03 SOLID          1   0.0%  0.1748E+10   2500.       0.000      0.1748E+10   0.000    
  2100  0.4510      0.1568E-03 SOLID          1   0.0%  0.1929E+10   2500.       0.000      0.1929E+10   0.000    
  2200  0.4665      0.1523E-03 SOLID          1   0.0%  0.2117E+10   2500.       0.000      0.2117E+10   0.000    
  2300  0.4815      0.1481E-03 SOLID          1   0.0%  0.2313E+10   2500.       0.000      0.2312E+10   0.000    
  2400  0.4961      0.1439E-03 SOLID          1   0.0%  0.2515E+10   2500.       0.000      0.2515E+10   0.000    

     RESTART FILES: M21AV31_0001_[0001-0004].rst WRITTEN
     -------------

     ANIMATION FILE: M21AV31A006 WRITTEN
  
                           ** CPU USER TIME **
  
 #PROC  CONT.SORT  CONT. F   ELEMENT  KIN.COND.  INTEGR.    I/O     TASK0     ASSEMB.   RESOL  
   1   .0000E+00 .0000E+00 .1070E+00 .1300E-01 .1700E-01 .2570E+00 .5199E-01 .5000E-02 .5089E+00
   2   .0000E+00 .0000E+00 .2000E-02 .9990E-03 .0000E+00 .2400E-01 .5139E+00 .0000E+00 .6529E+00
   3   .0000E+00 .0000E+00 .0000E+00 .0000E+00 .0000E+00 .1900E-01 .5289E+00 .0000E+00 .6529E+00
   4   .0000E+00 .0000E+00 .2000E-02 .0000E+00 .1999E-02 .2699E-01 .5369E+00 .1999E-02 .6799E+00
  
                          ** SPMD COMM. TIME **
  
 #PROC  FORCES    RBY.FOR.  RBY.VEL.  VELOCITIES   TOTAL   % CPU
   1   .1999E-02 .0000E+00 .0000E+00 .3999E-02 .5998E-02    1.18
   2   .0000E+00 .0000E+00 .0000E+00 .0000E+00 .0000E+00    0.00
   3   .0000E+00 .0000E+00 .0000E+00 .0000E+00 .0000E+00    0.00
   4   .0000E+00 .0000E+00 .0000E+00 .0000E+00 .0000E+00    0.00
  
                   ** CUMULATIVE CPU TIME SUMMARY **
  
 CONTACT SORTING.............: .0000E+00     0.00 % 
 CONTACT FORCES..............: .0000E+00     0.00 % 
 ELEMENT FORCES..............: .1110E+00     4.45 % 
 KINEMATIC COND..............: .1400E-01     0.56 % 
 INTEGRATION.................: .1899E-01     0.76 % 
 ASSEMBLING..................: .6999E-02     0.28 % 
 OTHERS (including I/O)......: .2344E+01    93.95 % 
 TOTAL.......................: .2495E+01   100.00 % 
  
  
                   ** MEMORY USAGE STATISTICS **
  
 TOTAL MEMORY USED .........................:      566 MB
 MAXIMUM MEMORY PER PROCESSOR...............:      142 MB
 MINIMUM MEMORY PER PROCESSOR...............:      141 MB
 AVERAGE MEMORY PER PROCESSOR...............:      141 MB
  
                   ** DISK USAGE STATISTICS **
  
 TOTAL DISK SPACE USED .....................:      494 KB
 ANIMATION/TH/OUTP SIZE ....................:      128 KB
 RESTART FILE SIZE .........................:      366 KB
  
 ELAPSED TIME     =          0.88 s
                          0:00:00
 ESTIMATED SPEEDUP=          2.84
  



     NORMAL TERMINATION      



     TOTAL NUMBER OF CYCLES  :    2429

