 M21AV31_0001.out
************************************************************************
**                                                                    **
**                                                                    **
**                         OpenRadioss Engine                         **
**                                                                    **
**            Non-linear Finite Element Analysis Software             **
**                                                                    **
**                                                                    **
**                                                                    **
**                Linux 64 bits, GNU compiler, OpenMPI                **
**                                                                    **
**                                                                    **
**                                                                    **
** CommitID: 440deeba848d606665f88afb8302e85b1ecf72bf                 **
************************************************************************
** OpenRadioss Software                                               **
** COPYRIGHT (C) 1986-2022 Altair Engineering, Inc.                   **
** Licensed under GNU Affero General Public License.                  **
** See License file.                                                  **
************************************************************************
 
 NUMBER OF SPMD DOMAINS           4
 NUMBER OF THREADS PER DOMAIN     2
 NUMBER OF HMPP PROCESSES         8
  
 COMPUTATION HARDWARE DESCRIPTION
  
 CPU#  HOSTNAME     CPU TYPE, FREQUENCY AND MEMORY
   1   fr-shady.europe.altair.com   Intel(R) Xeon(R) CPU           X5680  @ 3.33GHz (x86_64), 1596 MHz,  20012 MB RAM,  49126 MB swap
   2   fr-shady.europe.altair.com   Intel(R) Xeon(R) CPU           X5680  @ 3.33GHz (x86_64), 1596 MHz,  20012 MB RAM,  49126 MB swap
   3   fr-shady.europe.altair.com   Intel(R) Xeon(R) CPU           X5680  @ 3.33GHz (x86_64), 1596 MHz,  20012 MB RAM,  49126 MB swap
   4   fr-shady.europe.altair.com   Intel(R) Xeon(R) CPU           X5680  @ 3.33GHz (x86_64), 1596 MHz,  20012 MB RAM,  49126 MB swap
  
************************************************************************


 M21AV31D01                                                                      


 FINAL TIME . . . . . . . . . . . . . . . . . . .  0.5000000    

 TIME INTERVAL FOR TIME HISTORY PLOTS . . . . . .  0.1000000E-02

 TIME STEP SCALE FACTOR . . . . . . . . . . . . .  0.5000000    

 MINIMUM TIME STEP  . . . . . . . . . . . . . . .   0.000000    


 BRICK TIME STEP SCALE FACTOR . . . . . . . . . .  0.5000000    
 BRICK MINIMUM TIME STEP. . . . . . . . . . . . .   0.000000    
 MIN. TIME STEP FLAG (1:STOP RUN, 2:DELETE BRICK)     1

 QUAD TIME STEP SCALE FACTOR. . . . . . . . . . .  0.5000000    
 QUAD MINIMUM TIME STEP . . . . . . . . . . . . .   0.000000    
 MIN. TIME STEP FLAG (1:STOP RUN, 2:DELETE QUAD).     1

 SHELL TIME STEP SCALE FACTOR . . . . . . . . . .  0.5000000    
 SHELL MINIMUM TIME STEP. . . . . . . . . . . . .   0.000000    
 MIN. TIME FLAG (1:STOP, 2:DELETE, 3:SMALL STRAIN)    2

 TRUSS TIME STEP SCALE FACTOR . . . . . . . . . .  0.5000000    
 TRUSS MINIMUM TIME STEP. . . . . . . . . . . . .   0.000000    
 MIN. TIME FLAG (1:STOP, 2:DELETE). . . . . . . .     0

 BEAM TIME STEP SCALE FACTOR. . . . . . . . . . .  0.5000000    
 BEAM MINIMUM TIME STEP . . . . . . . . . . . . .   0.000000    
 MIN. TIME FLAG (1:STOP, 2:DELETE). . . . . . . .     0

 SPRING TIME STEP SCALE FACTOR. . . . . . . . . .  0.5000000    
 SPRING MINIMUM TIME STEP . . . . . . . . . . . .   0.000000    
 MIN. TIME FLAG (1:STOP, 2:DELETE). . . . . . . .     0

 AIRBAG TIME STEP SCALE FACTOR. . . . . . . . . .  0.5000000    
 AIRBAG MINIMUM TIME STEP . . . . . . . . . . . .   0.000000    
 MIN. TIME FLAG (1:STOP). . . . . . . . . . . . .     0

 CONTACT TIME STEP SCALE FACTOR . . . . . . . . .  0.5000000    
 CONTACT MINIMUM TIME STEP. . . . . . . . . . . .   0.000000    
 MIN. TIME FLAG(1:STOP, 2:REMOVE NODE FROM INTERF)    0

 PRINTOUT CYCLE FREQUENCY . . . . . . . . . . . .  -100

 RESTART CYCLE FREQUENCY. . . . . . . . . . . . .   10000000

 MAXIMUM RESTART WRITE BEFORE OVERWRITE . . . . .     0

 INVERS: INPUT DECK VERSION . . . . . . . . . . .  2019
 ITTYP : FLAG FOR TYPE OF T-FILE. . . . . . . . .     4


 TIME FOR FIRST ANIMATION-FILE PLOT . . . . . . .   0.000000    
 TIME INTERVAL FOR ANIMATION-FILE PLOTS . . . . .  0.1000000    
 SENSOR FOR ANIMATION-FILE PLOTS. . . . . . . . .          0
 TIME INTERVAL FOR SENSOR ANIMATION-FILE PLOTS. .   0.000000    

 VARIABLE SAVED ON ANIMATION FILES (1: YES) :
      PLASTIC STRAIN. . . . . .     0
      DENSITY     (SOLID ONLY).     0
      SPECIFIC ENERGY . . . . .     0
      HOURGLASS ENERGY. . . . .     0
      TEMPERATURE (SOLID ONLY).     0
      THICKNESS   (SHELL ONLY).     0
      PRESSURE    (SOLID ONLY).     0
      VON MISES . . . . . . . .     0
      TURBULENT ENERGY (FLUID).     0
      TURBULENT VISCOSITY(FLUID)    0
      VORTICITY (FLUID) . . . .     0
 NODAL VALUES SAVED ON ANIMATION FILES (1: YES) :
      PRESSURE. . . . . . . . .     0
      DENSITY . . . . . . . . .     0
      TEMPERATURE . . . . . . .     0
 VECTOR SAVED ON ANIMATION FILES (1: YES) :
      VELOCITY VECTOR . . . . .     0
      DISPLACEMENT VECTOR . . .     0
      ACCELERATION VECTOR . . .     0
      CONTACT FORCES. . . . . .     0
      INTERNAL FORCES . . . . .     0
      EXTERNAL FORCES . . . . .     0
      SECTION RBY RWALL FORCES.     0
      ROTATIONAL VELOCITY VECTOR    0
      CONTACT PRESSURE (VECTORS)    0
 SHELL TENSOR SAVED ON ANIMATION FILES (1: YES) :
      MEMBRANE STRESS . . . . .     0
      BENDING STRESS(MOMENT/T^2)    0
      UPPER LAYER STRESS. . . .     0
      LOWER LAYER STRESS. . . .     0
      MEMBRANE STRAIN . . . . .     0
      CURVATURE . . . . . . . .     0
      UPPER LAYER STRAIN. . . .     0
      LOWER LAYER STRAIN. . . .     0
 NODAL MASS SAVED ON ANIMATION FILES (1: YES) :    0
 KEEP DELETED ELEMENT (1: YES) :    0


 INITIAL TIME STEP. . . . . . . . . . . . . . . .   0.000000    
 MAXIMUM TIME STEP. . . . . . . . . . . . . . . .  0.1000000E+31

 PARALLEL ARITHMETIC ON
 NUMBER OF INTERFACES TO BE ELIMINATED. . . . . .        0

 NUMBER OF SOLID  ELEMENT BLOCKS TO BE ELIMINATED        0

 NUMBER OF QUAD   ELEMENT BLOCKS TO BE ELIMINATED        0

 NUMBER OF SHELL  ELEMENT BLOCKS TO BE ELIMINATED        0

 NUMBER OF TRUSS  ELEMENT BLOCKS TO BE ELIMINATED        0

 NUMBER OF BEAM   ELEMENT BLOCKS TO BE ELIMINATED        0

 NUMBER OF SPRING ELEMENT BLOCKS TO BE ELIMINATED        0

 NUMBER OF SH_3N  ELEMENT BLOCKS TO BE ELIMINATED        0

 NUMBER OF  SPH PARTICLES BLOCKS TO BE ELIMINATED        0

 NUMBER OF RIGID LINKS. . . . . . . . . . . . . .        0

 NUMBER OF NEW BOUNDARY CONDITIONS. . . . . . . .        0

 23/11/2022
   CYCLE    TIME      TIME-STEP  ELEMENT          ERROR  I-ENERGY    K-ENERGY T  K-ENERGY R  EXT-WORK     MAS.ERR     TOTAL MASS  MASS ADDED
       0   0.000      0.2855E-03 SOLID          1   0.0%   0.000       0.000       0.000       0.000       0.000      0.1000E+05   0.000    
     ANIMATION FILE: M21AV31A001 WRITTEN
     100  0.2815E-01  0.2775E-03 SOLID          1   0.0%  0.7530E+07   2500.       0.000      0.7532E+07   0.000      0.1000E+05   0.000    
     200  0.5552E-01  0.2697E-03 SOLID          1   0.0%  0.1882E+08   2500.       0.000      0.1882E+08   0.000      0.1000E+05   0.000    
     300  0.8211E-01  0.2621E-03 SOLID          1   0.0%  0.3247E+08   2500.       0.000      0.3247E+08   0.000      0.1000E+05   0.000    
     ANIMATION FILE: M21AV31A002 WRITTEN
     400  0.1080      0.2547E-03 SOLID          1   0.0%  0.5057E+08   2500.       0.000      0.5057E+08   0.000      0.1000E+05   0.000    
     500  0.1331      0.2475E-03 SOLID          1   0.0%  0.8006E+08   2500.       0.000      0.8006E+08   0.000      0.1000E+05   0.000    
     600  0.1575      0.2406E-03 SOLID          1   0.0%  0.1212E+09   2500.       0.000      0.1212E+09   0.000      0.1000E+05   0.000    
     700  0.1812      0.2338E-03 SOLID          1   0.0%  0.1735E+09   2500.       0.000      0.1735E+09   0.000      0.1000E+05   0.000    
     ANIMATION FILE: M21AV31A003 WRITTEN
     800  0.2042      0.2272E-03 SOLID          1   0.0%  0.2369E+09   2500.       0.000      0.2369E+09   0.000      0.1000E+05   0.000    
     900  0.2267      0.2208E-03 SOLID          1   0.0%  0.3109E+09   2500.       0.000      0.3109E+09   0.000      0.1000E+05   0.000    
    1000  0.2484      0.2146E-03 SOLID          1   0.0%  0.3953E+09   2500.       0.000      0.3953E+09   0.000      0.1000E+05   0.000    
    1100  0.2696      0.2086E-03 SOLID          1   0.0%  0.4897E+09   2500.       0.000      0.4897E+09   0.000      0.1000E+05   0.000    
    1200  0.2902      0.2027E-03 SOLID          1   0.0%  0.5940E+09   2500.       0.000      0.5939E+09   0.000      0.1000E+05   0.000    
     ANIMATION FILE: M21AV31A004 WRITTEN
    1300  0.3101      0.1970E-03 SOLID          1   0.0%  0.7077E+09   2500.       0.000      0.7076E+09   0.000      0.1000E+05   0.000    
    1400  0.3296      0.1914E-03 SOLID          1   0.0%  0.8307E+09   2500.       0.000      0.8306E+09   0.000      0.1000E+05   0.000    
    1500  0.3484      0.1861E-03 SOLID          1   0.0%  0.9626E+09   2500.       0.000      0.9625E+09   0.000      0.1000E+05   0.000    
    1600  0.3668      0.1808E-03 SOLID          1   0.0%  0.1103E+10   2500.       0.000      0.1103E+10   0.000      0.1000E+05   0.000    
    1700  0.3846      0.1757E-03 SOLID          1   0.0%  0.1252E+10   2500.       0.000      0.1252E+10   0.000      0.1000E+05   0.000    
     ANIMATION FILE: M21AV31A005 WRITTEN
    1800  0.4019      0.1708E-03 SOLID          1   0.0%  0.1410E+10   2500.       0.000      0.1410E+10   0.000      0.1000E+05   0.000    
    1900  0.4188      0.1660E-03 SOLID          1   0.0%  0.1575E+10   2500.       0.000      0.1575E+10   0.000      0.1000E+05   0.000    
    2000  0.4351      0.1613E-03 SOLID          1   0.0%  0.1748E+10   2500.       0.000      0.1748E+10   0.000      0.1000E+05   0.000    
    2100  0.4510      0.1568E-03 SOLID          1   0.0%  0.1929E+10   2500.       0.000      0.1929E+10   0.000      0.1000E+05   0.000    
    2200  0.4665      0.1523E-03 SOLID          1   0.0%  0.2117E+10   2500.       0.000      0.2117E+10   0.000      0.1000E+05   0.000    
    2300  0.4815      0.1481E-03 SOLID          1   0.0%  0.2313E+10   2500.       0.000      0.2312E+10   0.000      0.1000E+05   0.000    
    2400  0.4961      0.1439E-03 SOLID          1   0.0%  0.2515E+10   2500.       0.000      0.2515E+10   0.000      0.1000E+05   0.000    

     RESTART FILES: M21AV31_0001_[0001-0004].rst WRITTEN
     -------------

     ANIMATION FILE: M21AV31A006 WRITTEN
  
                           ** CPU USER TIME **
  
  
                        ** SUMMARY **
  
 #PROC  ELEMENT   KINCOND   INTEG     IO        T0        ASM       RESOL    
   1   .6423E-01 .4582E-01 .2932E-01 .2001E+00 .9053E-01 .1559E-01 .6215E+00
   2   .3549E-01 .3695E-01 .3143E-01 .9809E-01 .2279E+00 .1602E-01 .6409E+00
   3   .3340E-01 .3513E-01 .2983E-01 .9531E-01 .2385E+00 .1552E-01 .6330E+00
   4   .3303E-01 .3544E-01 .2999E-01 .9594E-01 .2285E+00 .1537E-01 .6256E+00
  
                 ** SPMD COM. TIME **
  
 #PROC  FORCES    RBYFOR    RBYVEL    VEL       TOT       %        
   1   .9062E-02 .0000E+00 .0000E+00 .1020E-01 .1926E-01 .3099E+01
   2   .1017E-01 .0000E+00 .0000E+00 .1039E-01 .2056E-01 .3208E+01
   3   .9745E-02 .0000E+00 .0000E+00 .1017E-01 .1992E-01 .3146E+01
   4   .9583E-02 .0000E+00 .0000E+00 .1005E-01 .1963E-01 .3138E+01
  
 
                   ** CUMULATIVE CPU TIME SUMMARY **
  
 CONTACT SORTING.............: .0000E+00     0.00 % 
 CONTACT FORCES..............: .1437E-01     0.57 % 
 ELEMENT FORCES..............: .1661E+00     6.59 % 
 KINEMATIC COND..............: .1533E+00     6.08 % 
 INTEGRATION.................: .1206E+00     4.78 % 
 ASSEMBLING..................: .6250E-01     2.48 % 
 OTHERS (including I/O)......: .2004E+01    79.49 % 
 TOTAL.......................: .2521E+01   100.00 % 
  
  
                           ** ELAPSED TIME **
  
  
                        ** SUMMARY **
  
 #PROC  ELEMENT   KINCOND   INTEG     IO        T0        ASM       RESOL    
   1   .3991E-01 .2856E-01 .1803E-01 .1263E+00 .5653E-01 .9688E-02 .3879E+00
   2   .2171E-01 .2242E-01 .1901E-01 .5907E-01 .1355E+00 .9802E-02 .3878E+00
   3   .2079E-01 .2163E-01 .1830E-01 .5836E-01 .1440E+00 .9703E-02 .3878E+00
   4   .2081E-01 .2191E-01 .1878E-01 .5842E-01 .1399E+00 .9741E-02 .3878E+00
  
        ELEMENT   KINCOND   INTEG     IO        T0        ASM       RESOL    
 MIN   .2079E-01 .2163E-01 .1803E-01 .5836E-01 .5653E-01 .9688E-02 .3878E+00
 MAX   .3991E-01 .2856E-01 .1901E-01 .1263E+00 .1440E+00 .9802E-02 .3879E+00
 AVG   .2580E-01 .2363E-01 .1853E-01 .7553E-01 .1190E+00 .9733E-02 .3878E+00
  
                 ** SPMD COM. TIME **
  
 #PROC  FORCES    RBYFOR    RBYVEL    VEL       TOT       %        
   1   .5646E-02 .0000E+00 .0000E+00 .6336E-02 .1198E-01 .3089E+01
   2   .6221E-02 .0000E+00 .0000E+00 .6454E-02 .1268E-01 .3268E+01
   3   .6061E-02 .0000E+00 .0000E+00 .6314E-02 .1237E-01 .3191E+01
   4   .6033E-02 .0000E+00 .0000E+00 .6356E-02 .1239E-01 .3195E+01
  
        FORCES    RBYFOR    RBYVEL    VEL       TOT       %        
 MIN   .5646E-02 .0000E+00 .0000E+00 .6314E-02 .1198E-01 .3089E+01
 MAX   .6221E-02 .0000E+00 .0000E+00 .6454E-02 .1268E-01 .3268E+01
 AVG   .5990E-02 .0000E+00 .0000E+00 .6365E-02 .1236E-01 .3186E+01
  
                   ** MEMORY USAGE STATISTICS **
  
 TOTAL MEMORY USED .........................:      228 MB
 MAXIMUM MEMORY PER PROCESSOR...............:       57 MB
 MINIMUM MEMORY PER PROCESSOR...............:       57 MB
 AVERAGE MEMORY PER PROCESSOR...............:       57 MB
  
                   ** DISK USAGE STATISTICS **
  
 TOTAL DISK SPACE USED .....................:          1 MB
 ANIMATION/H3D/TH/OUTP SIZE ................:          0 MB
 RESTART FILE SIZE .........................:          1 MB
  
                   ** COMPUTE TIME INFORMATION **
                        ** CURRENT ENGINE **
  
 EXECUTION STARTED .........................:      2022/11/23  16:21:45
 EXECUTION COMPLETED .......................:      2022/11/23  16:21:45
  
 ELAPSED TIME     =          0.50 s
                          0:00:00
 ESTIMATED SPEEDUP=          4.99



     NORMAL TERMINATION      



     TOTAL NUMBER OF CYCLES  :    2429

  
                   ** COMPUTE RUNTIME INFORMATION SUMMARY **
  
        STARTER RUNTIME =          0.62s (00:00:00)
 # 001   ENGINE RUNTIME =          0.50s (00:00:00)
 ------------------------------ 
 STARTER+ENGINE RUNTIME =          1.13s (00:00:01)
  
