 JETV41B_0001.out
************************************************************************
**                                                                    **
**                                                                    **
**                         OpenRadioss Engine                         **
**                                                                    **
**            Non-linear Finite Element Analysis Software             **
**                                                                    **
**                                                                    **
**                                                                    **
**                Linux 64 bits, GNU compiler, OpenMPI                **
**                                                                    **
**                                                                    **
**                                                                    **
** CommitID: 440deeba848d606665f88afb8302e85b1ecf72bf                 **
************************************************************************
** OpenRadioss Software                                               **
** COPYRIGHT (C) 1986-2022 Altair Engineering, Inc.                   **
** Licensed under GNU Affero General Public License.                  **
** See License file.                                                  **
************************************************************************
 
 NUMBER OF SPMD DOMAINS           4
 NUMBER OF THREADS PER DOMAIN     2
 NUMBER OF HMPP PROCESSES         8
  
 COMPUTATION HARDWARE DESCRIPTION
  
 CPU#  HOSTNAME     CPU TYPE, FREQUENCY AND MEMORY
   1   fr-shady.europe.altair.com   Intel(R) Xeon(R) CPU           X5680  @ 3.33GHz (x86_64), 1596 MHz,  20012 MB RAM,  49126 MB swap
   2   fr-shady.europe.altair.com   Intel(R) Xeon(R) CPU           X5680  @ 3.33GHz (x86_64), 1596 MHz,  20012 MB RAM,  49126 MB swap
   3   fr-shady.europe.altair.com   Intel(R) Xeon(R) CPU           X5680  @ 3.33GHz (x86_64), 1596 MHz,  20012 MB RAM,  49126 MB swap
   4   fr-shady.europe.altair.com   Intel(R) Xeon(R) CPU           X5680  @ 3.33GHz (x86_64), 1596 MHz,  20012 MB RAM,  49126 MB swap
  
************************************************************************


 JETV41BD01                                                                      


 FINAL TIME . . . . . . . . . . . . . . . . . . .   10.00000    

 TIME INTERVAL FOR TIME HISTORY PLOTS . . . . . .  0.2000000E-01

 TIME STEP SCALE FACTOR . . . . . . . . . . . . .  0.9000000    

 MINIMUM TIME STEP  . . . . . . . . . . . . . . .   0.000000    


 BRICK TIME STEP SCALE FACTOR . . . . . . . . . .  0.9000000    
 BRICK MINIMUM TIME STEP. . . . . . . . . . . . .   0.000000    
 MIN. TIME STEP FLAG (1:STOP RUN, 2:DELETE BRICK)     1

 QUAD TIME STEP SCALE FACTOR. . . . . . . . . . .  0.9000000    
 QUAD MINIMUM TIME STEP . . . . . . . . . . . . .   0.000000    
 MIN. TIME STEP FLAG (1:STOP RUN, 2:DELETE QUAD).     1

 SHELL TIME STEP SCALE FACTOR . . . . . . . . . .  0.9000000    
 SHELL MINIMUM TIME STEP. . . . . . . . . . . . .   0.000000    
 MIN. TIME FLAG (1:STOP, 2:DELETE, 3:SMALL STRAIN)    2

 TRUSS TIME STEP SCALE FACTOR . . . . . . . . . .  0.9000000    
 TRUSS MINIMUM TIME STEP. . . . . . . . . . . . .   0.000000    
 MIN. TIME FLAG (1:STOP, 2:DELETE). . . . . . . .     0

 BEAM TIME STEP SCALE FACTOR. . . . . . . . . . .  0.9000000    
 BEAM MINIMUM TIME STEP . . . . . . . . . . . . .   0.000000    
 MIN. TIME FLAG (1:STOP, 2:DELETE). . . . . . . .     0

 SPRING TIME STEP SCALE FACTOR. . . . . . . . . .  0.9000000    
 SPRING MINIMUM TIME STEP . . . . . . . . . . . .   0.000000    
 MIN. TIME FLAG (1:STOP, 2:DELETE). . . . . . . .     0

 AIRBAG TIME STEP SCALE FACTOR. . . . . . . . . .  0.9000000    
 AIRBAG MINIMUM TIME STEP . . . . . . . . . . . .   0.000000    
 MIN. TIME FLAG (1:STOP). . . . . . . . . . . . .     0

 CONTACT TIME STEP SCALE FACTOR . . . . . . . . .  0.9000000    
 CONTACT MINIMUM TIME STEP. . . . . . . . . . . .   0.000000    
 MIN. TIME FLAG(1:STOP, 2:REMOVE NODE FROM INTERF)    0

 PRINTOUT CYCLE FREQUENCY . . . . . . . . . . . .   -10

 RESTART CYCLE FREQUENCY. . . . . . . . . . . . .   10000000

 MAXIMUM RESTART WRITE BEFORE OVERWRITE . . . . .     0

 INVERS: INPUT DECK VERSION . . . . . . . . . . .  2019
 ITTYP : FLAG FOR TYPE OF T-FILE. . . . . . . . .     4


 TIME FOR FIRST ANIMATION-FILE PLOT . . . . . . .   0.000000    
 TIME INTERVAL FOR ANIMATION-FILE PLOTS . . . . .   2.000000    
 SENSOR FOR ANIMATION-FILE PLOTS. . . . . . . . .          0
 TIME INTERVAL FOR SENSOR ANIMATION-FILE PLOTS. .   0.000000    

 VARIABLE SAVED ON ANIMATION FILES (1: YES) :
      PLASTIC STRAIN. . . . . .     0
      DENSITY     (SOLID ONLY).     0
      SPECIFIC ENERGY . . . . .     0
      HOURGLASS ENERGY. . . . .     0
      TEMPERATURE (SOLID ONLY).     0
      THICKNESS   (SHELL ONLY).     0
      PRESSURE    (SOLID ONLY).     0
      VON MISES . . . . . . . .     0
      TURBULENT ENERGY (FLUID).     0
      TURBULENT VISCOSITY(FLUID)    0
      VORTICITY (FLUID) . . . .     0
 NODAL VALUES SAVED ON ANIMATION FILES (1: YES) :
      PRESSURE. . . . . . . . .     0
      DENSITY . . . . . . . . .     0
      TEMPERATURE . . . . . . .     0
 VECTOR SAVED ON ANIMATION FILES (1: YES) :
      VELOCITY VECTOR . . . . .     0
      DISPLACEMENT VECTOR . . .     0
      ACCELERATION VECTOR . . .     0
      CONTACT FORCES. . . . . .     0
      INTERNAL FORCES . . . . .     0
      EXTERNAL FORCES . . . . .     0
      SECTION RBY RWALL FORCES.     0
      ROTATIONAL VELOCITY VECTOR    0
      CONTACT PRESSURE (VECTORS)    0
 SHELL TENSOR SAVED ON ANIMATION FILES (1: YES) :
      MEMBRANE STRESS . . . . .     0
      BENDING STRESS(MOMENT/T^2)    0
      UPPER LAYER STRESS. . . .     0
      LOWER LAYER STRESS. . . .     0
      MEMBRANE STRAIN . . . . .     0
      CURVATURE . . . . . . . .     0
      UPPER LAYER STRAIN. . . .     0
      LOWER LAYER STRAIN. . . .     0
 NODAL MASS SAVED ON ANIMATION FILES (1: YES) :    0
 KEEP DELETED ELEMENT (1: YES) :    0


 INITIAL TIME STEP. . . . . . . . . . . . . . . .   0.000000    
 MAXIMUM TIME STEP. . . . . . . . . . . . . . . .  0.1000000E+31

 PARALLEL ARITHMETIC ON
 NUMBER OF INTERFACES TO BE ELIMINATED. . . . . .        0

 NUMBER OF SOLID  ELEMENT BLOCKS TO BE ELIMINATED        0

 NUMBER OF QUAD   ELEMENT BLOCKS TO BE ELIMINATED        0

 NUMBER OF SHELL  ELEMENT BLOCKS TO BE ELIMINATED        1

 NUMBER OF TRUSS  ELEMENT BLOCKS TO BE ELIMINATED        0

 NUMBER OF BEAM   ELEMENT BLOCKS TO BE ELIMINATED        0

 NUMBER OF SPRING ELEMENT BLOCKS TO BE ELIMINATED        0

 NUMBER OF SH_3N  ELEMENT BLOCKS TO BE ELIMINATED        0

 NUMBER OF  SPH PARTICLES BLOCKS TO BE ELIMINATED        0

 NUMBER OF RIGID LINKS. . . . . . . . . . . . . .        0

 NUMBER OF NEW BOUNDARY CONDITIONS. . . . . . . .        0




 LIST OF ELIMINATED SHELL  ELEMENTS 
 23/11/2022
   CYCLE    TIME      TIME-STEP  ELEMENT          ERROR  I-ENERGY    K-ENERGY T  K-ENERGY R  EXT-WORK     MAS.ERR     TOTAL MASS  MASS ADDED
       0   0.000      0.1043E-01 SH_3N       5512   0.0%   0.000       0.000       0.000     -0.1657E-28   0.000      0.1632       0.000    
     ANIMATION FILE: JETV41BA001 WRITTEN
  *** AIRBAG VENT HOLES MEMBRANE IS DEFLATED ***
  *** MONITORED VOLUME            1  VENT HOLES MEMBRANE NUMBER            1  ***
      10  0.1043      0.1043E-01 SH_3N       5512  -0.1%  0.7038E-03  0.4126E-02   0.000      0.4834E-02   0.000      0.1632       0.000    
      20  0.2086      0.1043E-01 SH_3N       5512  -0.2%  0.1609E-02  0.2011E-01   0.000      0.2176E-01   0.000      0.1632       0.000    
      30  0.3129      0.1043E-01 SH_3N       5512  -0.2%  0.2580E-02  0.4668E-01   0.000      0.4937E-01   0.000      0.1632       0.000    
      40  0.4173      0.1045E-01 SH_3N       5512  -0.5%  0.3763E-02  0.9725E-01   0.000      0.1015       0.000      0.1632       0.000    
      50  0.5218      0.1044E-01 SH_3N       5512  -0.8%  0.5309E-02  0.1108       0.000      0.1170       0.000      0.1632       0.000    
      60  0.6261      0.1044E-01 SH_3N       5512  -0.6%  0.8834E-02  0.2776       0.000      0.2883       0.000      0.1632       0.000    
      70  0.7306      0.1046E-01 SH_3N       5512  -0.9%  0.1796E-01  0.3300       0.000      0.3513       0.000      0.1632       0.000    
      80  0.8351      0.1043E-01 SH_3N       5512  -1.0%  0.3889E-01  0.4657       0.000      0.5096       0.000      0.1632       0.000    
      90  0.9394      0.1045E-01 SH_3N       5512  -0.9%  0.8449E-01  0.7798       0.000      0.8723       0.000      0.1632       0.000    
     100   1.044      0.1044E-01 SH_3N       5512  -1.0%  0.1668      0.8985       0.000       1.077       0.000      0.1632       0.000    
     110   1.148      0.1042E-01 SH_3N       5512  -1.0%  0.2913       1.204       0.000       1.510       0.000      0.1632       0.000    
     120   1.252      0.1042E-01 SH_3N       5512  -0.9%  0.4451       1.568       0.000       2.031       0.000      0.1632       0.000    
     130   1.357      0.1040E-01 SH_3N       5512  -0.9%  0.6417       1.919       0.000       2.583       0.000      0.1632       0.000    
     140   1.461      0.1039E-01 SH_3N       5512  -0.9%  0.9143       2.292       0.000       3.233       0.000      0.1632       0.000    
     150   1.564      0.1036E-01 SH_3N       5512  -0.8%   1.271       2.637       0.000       3.940       0.000      0.1632       0.000    
     160   1.668      0.1033E-01 SH_3N       5512  -0.8%   1.651       3.199       0.000       4.889       0.000      0.1632       0.000    
     170   1.771      0.1030E-01 SH_3N       5512  -0.8%   2.023       3.879       0.000       5.948       0.000      0.1632       0.000    
     180   1.874      0.1025E-01 SH_3N       5512  -0.8%   2.444       4.785       0.000       7.286       0.000      0.1632       0.000    
     190   1.976      0.1020E-01 SH_3N       5512  -0.8%   2.941       5.942       0.000       8.950       0.000      0.1632       0.000    
     ANIMATION FILE: JETV41BA002 WRITTEN
     200   2.078      0.1013E-01 SH_3N       5512  -0.7%   3.529       7.358       0.000       10.97       0.000      0.1632       0.000    
     210   2.179      0.1014E-01 SH_3N       5512  -0.7%   4.257       9.074       0.000       13.43       0.000      0.1632       0.000    
     220   2.280      0.1011E-01 SH_3N       5512  -0.7%   5.006       11.28       0.000       16.40       0.000      0.1632       0.000    
     230   2.381      0.1014E-01 SH_3N       5512  -0.7%   5.785       14.15       0.000       20.08       0.000      0.1632       0.000    
     240   2.483      0.1008E-01 SH_3N       5512  -0.7%   6.945       17.53       0.000       24.64       0.000      0.1632       0.000    
     250   2.583      0.1014E-01 SH_3N       5512  -0.7%   8.631       21.30       0.000       30.13       0.000      0.1632       0.000    
     260   2.685      0.1003E-01 SH_3N       5512  -0.6%   10.93       25.75       0.000       36.91       0.000      0.1632       0.000    
     270   2.785      0.1016E-01 SH_3N       5512  -0.6%   13.69       31.02       0.000       44.97       0.000      0.1632       0.000    
     280   2.887      0.1001E-01 SH_3N       5512  -0.5%   16.50       37.89       0.000       54.67       0.000      0.1632       0.000    
     290   2.987      0.1016E-01 SH_3N       5512  -0.5%   20.86       44.27       0.000       65.43       0.000      0.1632       0.000    
     300   3.088      0.1001E-01 SH_3N       5512  -0.4%   26.49       51.15       0.000       77.98       0.000      0.1632       0.000    
     310   3.189      0.1016E-01 SH_3N       5512  -0.4%   29.96       62.32       0.000       92.60       0.000      0.1632       0.000    
     320   3.290      0.1001E-01 SH_3N       5512  -0.3%   36.69       72.35       0.000       109.4       0.000      0.1632       0.000    
     330   3.391      0.1015E-01 SH_3N       5512  -0.1%   42.81       85.19       0.000       128.1       0.000      0.1632       0.000    
     340   3.491      0.1002E-01 SH_3N       5512  -0.2%   52.66       94.13       0.000       147.1       0.000      0.1632       0.000    
     350   3.592      0.1012E-01 SH_3N       5512  -0.2%   63.01       104.2       0.000       167.6       0.000      0.1632       0.000    
     360   3.693      0.1013E-01 SH_3N       5512  -0.1%   70.46       118.8       0.000       189.6       0.000      0.1632       0.000    
     370   3.795      0.1021E-01 SH_3N       5512   0.2%   91.20       120.4       0.000       211.2       0.000      0.1632       0.000    
     380   3.898      0.1034E-01 SH_3N       5512  -0.1%   104.9       123.5       0.000       228.7       0.000      0.1632       0.000    
     390   4.001      0.1038E-01 SH_3N       5512  -0.2%   123.9       122.6       0.000       246.9       0.000      0.1632       0.000    
     ANIMATION FILE: JETV41BA003 WRITTEN
     400   4.106      0.1053E-01 SH_3N       5124  -0.2%   139.7       124.5       0.000       264.6       0.000      0.1632       0.000    
     410   4.211      0.1057E-01 SH_3N       5512  -0.2%   158.5       120.4       0.000       279.3       0.000      0.1632       0.000    
     420   4.317      0.1055E-01 SH_3N       5512  -0.3%   180.0       115.1       0.000       295.9       0.000      0.1632       0.000    
     430   4.423      0.1061E-01 SH_3N       5512  -0.1%   196.2       114.7       0.000       311.1       0.000      0.1632       0.000    
     440   4.529      0.1066E-01 SH_3N       5124  -0.3%   202.0       117.4       0.000       320.3       0.000      0.1632       0.000    
     450   4.636      0.1064E-01 SH_3N       5124  -0.3%   219.2       109.8       0.000       329.8       0.000      0.1632       0.000    
     460   4.742      0.1067E-01 SH_3N       5124  -0.3%   225.8       109.6       0.000       336.5       0.000      0.1632       0.000    
     470   4.849      0.1072E-01 SH_3N       5124  -0.3%   238.2       103.3       0.000       342.7       0.000      0.1632       0.000    
     480   4.956      0.1071E-01 SH_3N       5512  -0.4%   246.1       103.6       0.000       351.0       0.000      0.1632       0.000    
     490   5.063      0.1063E-01 SH_3N       5512  -0.3%   259.0       98.06       0.000       358.3       0.000      0.1632       0.000    
     500   5.169      0.1064E-01 SH_3N       5512  -0.4%   268.6       95.08       0.000       365.0       0.000      0.1632       0.000    
     510   5.276      0.1064E-01 SH_3N       5124  -0.4%   285.2       84.31       0.000       370.9       0.000      0.1632       0.000    
     520   5.382      0.1062E-01 SH_3N       5512  -0.3%   300.7       75.30       0.000       377.2       0.000      0.1632       0.000    
     530   5.488      0.1065E-01 SH_3N       5512  -0.3%   307.7       74.10       0.000       383.1       0.000      0.1632       0.000    
     540   5.594      0.1060E-01 SH_3N       5124  -0.4%   307.1       79.25       0.000       387.7       0.000      0.1632       0.000    
   CYCLE    TIME      TIME-STEP  ELEMENT          ERROR  I-ENERGY    K-ENERGY T  K-ENERGY R  EXT-WORK     MAS.ERR     TOTAL MASS  MASS ADDED
     550   5.700      0.1056E-01 SH_3N       5512  -0.4%   306.8       84.24       0.000       392.5       0.000      0.1632       0.000    
     560   5.806      0.1056E-01 SH_3N       5124  -0.4%   306.6       90.71       0.000       398.7       0.000      0.1632       0.000    
     570   5.912      0.1058E-01 SH_3N       5124  -0.3%   313.1       91.63       0.000       405.9       0.000      0.1632       0.000    
     ANIMATION FILE: JETV41BA004 WRITTEN
     580   6.018      0.1061E-01 SH_3N       5512  -0.3%   326.1       81.03       0.000       408.4       0.000      0.1632       0.000    
     590   6.123      0.1057E-01 SH_3N       5512  -0.3%   328.6       78.14       0.000       408.1       0.000      0.1632       0.000    
     600   6.229      0.1059E-01 SH_3N       5124  -0.3%   333.4       77.47       0.000       412.3       0.000      0.1632       0.000    
     610   6.335      0.1066E-01 SH_3N       5124  -0.3%   338.7       81.10       0.000       421.3       0.000      0.1632       0.000    
     620   6.442      0.1075E-01 SH_3N       5512  -0.4%   341.4       90.06       0.000       433.0       0.000      0.1632       0.000    
     630   6.550      0.1075E-01 SH_3N       5512  -0.4%   355.8       88.00       0.000       445.3       0.000      0.1632       0.000    
     640   6.657      0.1072E-01 SH_3N       5512  -0.4%   369.4       85.92       0.000       456.9       0.000      0.1632       0.000    
     650   6.765      0.1071E-01 SH_3N       5124  -0.4%   386.9       78.20       0.000       466.7       0.000      0.1632       0.000    
     660   6.872      0.1072E-01 SH_3N       5124  -0.4%   394.0       77.88       0.000       473.6       0.000      0.1632       0.000    
     670   6.979      0.1072E-01 SH_3N       5124  -0.4%   397.3       79.17       0.000       478.2       0.000      0.1632       0.000    
     680   7.086      0.1070E-01 SH_3N       5124  -0.4%   402.1       76.64       0.000       480.5       0.000      0.1632       0.000    
     690   7.193      0.1062E-01 SH_3N       5124  -0.4%   404.1       76.97       0.000       482.8       0.000      0.1632       0.000    
     700   7.299      0.1064E-01 SH_3N       5124  -0.4%   410.6       75.75       0.000       488.1       0.000      0.1632       0.000    
     710   7.406      0.1075E-01 SH_3N       5124  -0.4%   414.7       79.05       0.000       495.5       0.000      0.1632       0.000    
     720   7.514      0.1087E-01 SH_3N       5124  -0.3%   420.1       82.47       0.000       504.3       0.000      0.1632       0.000    
     730   7.623      0.1084E-01 SH_3N       5512  -0.3%   431.5       78.85       0.000       512.0       0.000      0.1632       0.000    
     740   7.730      0.1076E-01 SH_3N       5512  -0.3%   440.6       73.50       0.000       515.8       0.000      0.1632       0.000    
     750   7.838      0.1083E-01 SH_3N       5124  -0.3%   443.8       71.36       0.000       516.9       0.000      0.1632       0.000    
     760   7.947      0.1085E-01 SH_3N       5512  -0.3%   444.8       70.23       0.000       516.8       0.000      0.1632       0.000    
     ANIMATION FILE: JETV41BA005 WRITTEN
     770   8.055      0.1080E-01 SH_3N       5512  -0.3%   443.7       72.62       0.000       518.0       0.000      0.1632       0.000    
     780   8.163      0.1078E-01 SH_3N       5512  -0.3%   443.4       75.05       0.000       520.1       0.000      0.1632       0.000    
     790   8.270      0.1072E-01 SH_3N       5124  -0.3%   449.3       72.99       0.000       524.1       0.000      0.1632       0.000    
     800   8.378      0.1088E-01 SH_3N       5124  -0.3%   455.9       70.84       0.000       528.5       0.000      0.1632       0.000    
     810   8.488      0.1097E-01 SH_3N       5512  -0.3%   466.2       66.12       0.000       534.1       0.000      0.1632       0.000    
     820   8.596      0.1075E-01 SH_3N       5124  -0.3%   472.6       66.91       0.000       541.3       0.000      0.1632       0.000    
     830   8.704      0.1082E-01 SH_3N       5124  -0.3%   475.1       71.02       0.000       547.9       0.000      0.1632       0.000    
     840   8.813      0.1097E-01 SH_3N       5124  -0.3%   481.4       69.64       0.000       552.8       0.000      0.1632       0.000    
     850   8.922      0.1077E-01 SH_3N       5124  -0.3%   487.6       66.56       0.000       555.9       0.000      0.1632       0.000    
     860   9.029      0.1075E-01 SH_3N       5124  -0.3%   491.2       65.60       0.000       558.5       0.000      0.1632       0.000    
     870   9.137      0.1075E-01 SH_3N       5512  -0.3%   495.0       64.22       0.000       560.9       0.000      0.1632       0.000    
     880   9.244      0.1070E-01 SH_3N       5512  -0.3%   499.5       62.26       0.000       563.5       0.000      0.1632       0.000    
     890   9.351      0.1054E-01 SH_3N       5124  -0.3%   501.9       63.01       0.000       566.7       0.000      0.1632       0.000    
     900   9.456      0.1049E-01 SH_3N       5124  -0.3%   506.3       62.33       0.000       570.4       0.000      0.1632       0.000    
     910   9.561      0.1054E-01 SH_3N       5124  -0.3%   508.9       64.35       0.000       575.0       0.000      0.1632       0.000    
     920   9.666      0.1055E-01 SH_3N       5124  -0.3%   512.9       63.66       0.000       578.3       0.000      0.1632       0.000    
     930   9.772      0.1058E-01 SH_3N       5124  -0.3%   516.5       61.94       0.000       580.1       0.000      0.1632       0.000    
     940   9.878      0.1073E-01 SH_3N       5124  -0.3%   520.2       59.56       0.000       581.5       0.000      0.1632       0.000    
     950   9.986      0.1089E-01 SH_3N       5512  -0.3%   521.5       60.43       0.000       583.6       0.000      0.1632       0.000    

     RESTART FILES: JETV41B_0001_[0001-0004].rst WRITTEN
     -------------

     ANIMATION FILE: JETV41BA006 WRITTEN
  
                           ** CPU USER TIME **
  
  
                        ** SUMMARY **
  
 #PROC  ELEMENT   KINCOND   INTEG     IO        T0        ASM       RESOL    
   1   .2732E+00 .1884E-01 .2192E-01 .1065E+00 .2506E+00 .2308E-01 .8501E+00
   2   .2302E+00 .1626E-01 .1909E-01 .8625E-01 .2423E+00 .2110E-01 .8442E+00
   3   .2445E+00 .1843E-01 .2151E-01 .8379E-01 .2370E+00 .2322E-01 .8473E+00
   4   .2483E+00 .1569E-01 .1887E-01 .7921E-01 .3216E+00 .2013E-01 .8489E+00
  
                 ** SPMD COM. TIME **
  
 #PROC  FORCES    RBYFOR    RBYVEL    VEL       TOT       %        
   1   .4694E-01 .0000E+00 .0000E+00 .5419E-02 .5236E-01 .6159E+01
   2   .1325E+00 .0000E+00 .0000E+00 .4714E-02 .1372E+00 .1626E+02
   3   .1120E+00 .0000E+00 .0000E+00 .5396E-02 .1174E+00 .1386E+02
   4   .4804E-01 .0000E+00 .0000E+00 .4987E-02 .5303E-01 .6247E+01
  
 
                   ** CUMULATIVE CPU TIME SUMMARY **
  
 CONTACT SORTING.............: .0000E+00     0.00 % 
 CONTACT FORCES..............: .6866E-02     0.20 % 
 ELEMENT FORCES..............: .9962E+00    29.38 % 
 KINEMATIC COND..............: .6922E-01     2.04 % 
 INTEGRATION.................: .8140E-01     2.40 % 
 ASSEMBLING..................: .8753E-01     2.58 % 
 OTHERS (including I/O)......: .2149E+01    63.39 % 
 TOTAL.......................: .3391E+01   100.00 % 
  
  
                           ** ELAPSED TIME **
  
  
                        ** SUMMARY **
  
 #PROC  ELEMENT   KINCOND   INTEG     IO        T0        ASM       RESOL    
   1   .1474E+00 .1029E-01 .1185E-01 .6069E-01 .1363E+00 .1239E-01 .4634E+00
   2   .1259E+00 .8923E-02 .1050E-01 .4867E-01 .1323E+00 .1147E-01 .4637E+00
   3   .1327E+00 .1011E-01 .1174E-01 .4724E-01 .1295E+00 .1276E-01 .4636E+00
   4   .1343E+00 .8549E-02 .1023E-01 .4498E-01 .1742E+00 .1100E-01 .4637E+00
  
        ELEMENT   KINCOND   INTEG     IO        T0        ASM       RESOL    
 MIN   .1259E+00 .8549E-02 .1023E-01 .4498E-01 .1295E+00 .1100E-01 .4634E+00
 MAX   .1474E+00 .1029E-01 .1185E-01 .6069E-01 .1742E+00 .1276E-01 .4637E+00
 AVG   .1351E+00 .9467E-02 .1108E-01 .5039E-01 .1431E+00 .1191E-01 .4636E+00
  
                 ** SPMD COM. TIME **
  
 #PROC  FORCES    RBYFOR    RBYVEL    VEL       TOT       %        
   1   .2520E-01 .0000E+00 .0000E+00 .3019E-02 .2822E-01 .6089E+01
   2   .7133E-01 .0000E+00 .0000E+00 .2630E-02 .7396E-01 .1595E+02
   3   .6099E-01 .0000E+00 .0000E+00 .3027E-02 .6402E-01 .1381E+02
   4   .2616E-01 .0000E+00 .0000E+00 .2787E-02 .2895E-01 .6243E+01
  
        FORCES    RBYFOR    RBYVEL    VEL       TOT       %        
 MIN   .2520E-01 .0000E+00 .0000E+00 .2630E-02 .2822E-01 .6089E+01
 MAX   .7133E-01 .0000E+00 .0000E+00 .3027E-02 .7396E-01 .1595E+02
 AVG   .4592E-01 .0000E+00 .0000E+00 .2866E-02 .4879E-01 .1052E+02
  
                   ** MEMORY USAGE STATISTICS **
  
 TOTAL MEMORY USED .........................:      232 MB
 MAXIMUM MEMORY PER PROCESSOR...............:       58 MB
 MINIMUM MEMORY PER PROCESSOR...............:       58 MB
 AVERAGE MEMORY PER PROCESSOR...............:       58 MB
  
                   ** DISK USAGE STATISTICS **
  
 TOTAL DISK SPACE USED .....................:          2 MB
 ANIMATION/H3D/TH/OUTP SIZE ................:          0 MB
 RESTART FILE SIZE .........................:          2 MB
  
                   ** COMPUTE TIME INFORMATION **
                        ** CURRENT ENGINE **
  
 EXECUTION STARTED .........................:      2022/11/23  16:20:50
 EXECUTION COMPLETED .......................:      2022/11/23  16:20:51
  
 ELAPSED TIME     =          0.55 s
                          0:00:00
 ESTIMATED SPEEDUP=          6.16



     NORMAL TERMINATION      



     TOTAL NUMBER OF CYCLES  :     953

  
                   ** COMPUTE RUNTIME INFORMATION SUMMARY **
  
        STARTER RUNTIME =          0.66s (00:00:00)
 # 001   ENGINE RUNTIME =          0.55s (00:00:00)
 ------------------------------ 
 STARTER+ENGINE RUNTIME =          1.21s (00:00:01)
  
