 COMP_0001.out
************************************************************************
**                                                                    **
**                                                                    **
**                         OpenRadioss Engine                         **
**                                                                    **
**            Non-linear Finite Element Analysis Software             **
**                                                                    **
**                                                                    **
**                                                                    **
**                Linux 64 bits, GNU compiler, OpenMPI                **
**                                                                    **
**                                                                    **
**                                                                    **
** CommitID: 440deeba848d606665f88afb8302e85b1ecf72bf                 **
************************************************************************
** OpenRadioss Software                                               **
** COPYRIGHT (C) 1986-2022 Altair Engineering, Inc.                   **
** Licensed under GNU Affero General Public License.                  **
** See License file.                                                  **
************************************************************************
 
 NUMBER OF SPMD DOMAINS           4
 NUMBER OF THREADS PER DOMAIN     2
 NUMBER OF HMPP PROCESSES         8
  
 COMPUTATION HARDWARE DESCRIPTION
  
 CPU#  HOSTNAME     CPU TYPE, FREQUENCY AND MEMORY
   1   fr-shady.europe.altair.com   Intel(R) Xeon(R) CPU           X5680  @ 3.33GHz (x86_64), 1596 MHz,  20012 MB RAM,  49126 MB swap
   2   fr-shady.europe.altair.com   Intel(R) Xeon(R) CPU           X5680  @ 3.33GHz (x86_64), 1596 MHz,  20012 MB RAM,  49126 MB swap
   3   fr-shady.europe.altair.com   Intel(R) Xeon(R) CPU           X5680  @ 3.33GHz (x86_64), 1596 MHz,  20012 MB RAM,  49126 MB swap
   4   fr-shady.europe.altair.com   Intel(R) Xeon(R) CPU           X5680  @ 3.33GHz (x86_64), 1596 MHz,  20012 MB RAM,  49126 MB swap
  
************************************************************************


 COMPD01simple specimen traction                                                 


 FINAL TIME . . . . . . . . . . . . . . . . . . .   1.500000    

 TIME INTERVAL FOR TIME HISTORY PLOTS . . . . . .  0.1000000    

 TIME STEP SCALE FACTOR . . . . . . . . . . . . .  0.9000000    

 MINIMUM TIME STEP  . . . . . . . . . . . . . . .   0.000000    


 BRICK TIME STEP SCALE FACTOR . . . . . . . . . .  0.9000000    
 BRICK MINIMUM TIME STEP. . . . . . . . . . . . .   0.000000    
 MIN. TIME STEP FLAG (1:STOP RUN, 2:DELETE BRICK)     1

 QUAD TIME STEP SCALE FACTOR. . . . . . . . . . .  0.9000000    
 QUAD MINIMUM TIME STEP . . . . . . . . . . . . .   0.000000    
 MIN. TIME STEP FLAG (1:STOP RUN, 2:DELETE QUAD).     1

 SHELL TIME STEP SCALE FACTOR . . . . . . . . . .  0.9000000    
 SHELL MINIMUM TIME STEP. . . . . . . . . . . . .   0.000000    
 MIN. TIME FLAG (1:STOP, 2:DELETE, 3:SMALL STRAIN)    2

 TRUSS TIME STEP SCALE FACTOR . . . . . . . . . .  0.9000000    
 TRUSS MINIMUM TIME STEP. . . . . . . . . . . . .   0.000000    
 MIN. TIME FLAG (1:STOP, 2:DELETE). . . . . . . .     0

 BEAM TIME STEP SCALE FACTOR. . . . . . . . . . .  0.9000000    
 BEAM MINIMUM TIME STEP . . . . . . . . . . . . .   0.000000    
 MIN. TIME FLAG (1:STOP, 2:DELETE). . . . . . . .     0

 SPRING TIME STEP SCALE FACTOR. . . . . . . . . .  0.9000000    
 SPRING MINIMUM TIME STEP . . . . . . . . . . . .   0.000000    
 MIN. TIME FLAG (1:STOP, 2:DELETE). . . . . . . .     0

 AIRBAG TIME STEP SCALE FACTOR. . . . . . . . . .  0.9000000    
 AIRBAG MINIMUM TIME STEP . . . . . . . . . . . .   0.000000    
 MIN. TIME FLAG (1:STOP). . . . . . . . . . . . .     0

 CONTACT TIME STEP SCALE FACTOR . . . . . . . . .  0.9000000    
 CONTACT MINIMUM TIME STEP. . . . . . . . . . . .   0.000000    
 MIN. TIME FLAG(1:STOP, 2:REMOVE NODE FROM INTERF)    0

 PRINTOUT CYCLE FREQUENCY . . . . . . . . . . . .   -10

 RESTART CYCLE FREQUENCY. . . . . . . . . . . . .   10000000

 MAXIMUM RESTART WRITE BEFORE OVERWRITE . . . . .     0

 INVERS: INPUT DECK VERSION . . . . . . . . . . .  2019
 ITTYP : FLAG FOR TYPE OF T-FILE. . . . . . . . .     4


 TIME FOR FIRST ANIMATION-FILE PLOT . . . . . . .   0.000000    
 TIME INTERVAL FOR ANIMATION-FILE PLOTS . . . . .  0.2000000    
 SENSOR FOR ANIMATION-FILE PLOTS. . . . . . . . .          0
 TIME INTERVAL FOR SENSOR ANIMATION-FILE PLOTS. .   0.000000    

 VARIABLE SAVED ON ANIMATION FILES (1: YES) :
      PLASTIC STRAIN. . . . . .     0
      DENSITY     (SOLID ONLY).     0
      SPECIFIC ENERGY . . . . .     0
      HOURGLASS ENERGY. . . . .     0
      TEMPERATURE (SOLID ONLY).     0
      THICKNESS   (SHELL ONLY).     0
      PRESSURE    (SOLID ONLY).     1
      VON MISES . . . . . . . .     0
      TURBULENT ENERGY (FLUID).     0
      TURBULENT VISCOSITY(FLUID)    0
      VORTICITY (FLUID) . . . .     0
 NODAL VALUES SAVED ON ANIMATION FILES (1: YES) :
      PRESSURE. . . . . . . . .     0
      DENSITY . . . . . . . . .     0
      TEMPERATURE . . . . . . .     0
 VECTOR SAVED ON ANIMATION FILES (1: YES) :
      VELOCITY VECTOR . . . . .     0
      DISPLACEMENT VECTOR . . .     0
      ACCELERATION VECTOR . . .     0
      CONTACT FORCES. . . . . .     0
      INTERNAL FORCES . . . . .     0
      EXTERNAL FORCES . . . . .     0
      SECTION RBY RWALL FORCES.     0
      ROTATIONAL VELOCITY VECTOR    0
      CONTACT PRESSURE (VECTORS)    0
 SHELL TENSOR SAVED ON ANIMATION FILES (1: YES) :
      MEMBRANE STRESS . . . . .     0
      BENDING STRESS(MOMENT/T^2)    0
      UPPER LAYER STRESS. . . .     0
      LOWER LAYER STRESS. . . .     0
      MEMBRANE STRAIN . . . . .     0
      CURVATURE . . . . . . . .     0
      UPPER LAYER STRAIN. . . .     0
      LOWER LAYER STRAIN. . . .     0
 NODAL MASS SAVED ON ANIMATION FILES (1: YES) :    0
 KEEP DELETED ELEMENT (1: YES) :    0


 INITIAL TIME STEP. . . . . . . . . . . . . . . .   0.000000    
 MAXIMUM TIME STEP. . . . . . . . . . . . . . . .  0.1000000E+31

 PARALLEL ARITHMETIC ON
 NUMBER OF INTERFACES TO BE ELIMINATED. . . . . .        0

 NUMBER OF SOLID  ELEMENT BLOCKS TO BE ELIMINATED        0

 NUMBER OF QUAD   ELEMENT BLOCKS TO BE ELIMINATED        0

 NUMBER OF SHELL  ELEMENT BLOCKS TO BE ELIMINATED        0

 NUMBER OF TRUSS  ELEMENT BLOCKS TO BE ELIMINATED        0

 NUMBER OF BEAM   ELEMENT BLOCKS TO BE ELIMINATED        0

 NUMBER OF SPRING ELEMENT BLOCKS TO BE ELIMINATED        0

 NUMBER OF SH_3N  ELEMENT BLOCKS TO BE ELIMINATED        0

 NUMBER OF  SPH PARTICLES BLOCKS TO BE ELIMINATED        0

 NUMBER OF RIGID LINKS. . . . . . . . . . . . . .        0

 NUMBER OF NEW BOUNDARY CONDITIONS. . . . . . . .        0

 23/11/2022
   CYCLE    TIME      TIME-STEP  ELEMENT          ERROR  I-ENERGY    K-ENERGY T  K-ENERGY R  EXT-WORK     MAS.ERR     TOTAL MASS  MASS ADDED
       0   0.000      0.4605E-03 SHELL    1000001   0.0%   0.000       0.000       0.000       0.000       0.000      0.2100       0.000    
     ANIMATION FILE: COMPA001 WRITTEN
      10  0.4606E-02  0.4609E-03 SHELL    1000001   0.0%   11.96       1.328       0.000       13.29       0.000      0.2100       0.000    
      20  0.9216E-02  0.4611E-03 SHELL    1000001   0.0%   47.96       1.313       0.000       49.27       0.000      0.2100       0.000    
      30  0.1383E-01  0.4616E-03 SHELL    1000001   0.0%   106.5       1.323       0.000       107.8       0.000      0.2100       0.000    
      40  0.1845E-01  0.4618E-03 SHELL    1000001   0.0%   170.9       1.314       0.000       172.2       0.000      0.2100       0.000    
      50  0.2307E-01  0.4622E-03 SHELL    1000001   0.0%   236.8       1.321       0.000       238.1       0.000      0.2100       0.000    
      60  0.2769E-01  0.4625E-03 SHELL    1000001   0.0%   304.0       1.314       0.000       305.3       0.000      0.2100       0.000    
      70  0.3232E-01  0.4629E-03 SHELL    1000001   0.0%   372.6       1.320       0.000       373.9       0.000      0.2100       0.000    
      80  0.3695E-01  0.4632E-03 SHELL    1000001   0.0%   442.5       1.315       0.000       443.8       0.000      0.2100       0.000    
      90  0.4158E-01  0.4636E-03 SHELL    1000001   0.0%   513.6       1.319       0.000       514.8       0.000      0.2100       0.000    
     100  0.4622E-01  0.4640E-03 SHELL    1000001   0.0%   585.8       1.315       0.000       587.1       0.000      0.2100       0.000    
     110  0.5086E-01  0.4643E-03 SHELL    1000001   0.0%   659.2       1.319       0.000       660.5       0.000      0.2100       0.000    
     120  0.5551E-01  0.4647E-03 SHELL    1000001   0.0%   733.7       1.316       0.000       734.9       0.000      0.2100       0.000    
     130  0.6015E-01  0.4650E-03 SHELL    1000001   0.0%   809.2       1.318       0.000       810.4       0.000      0.2100       0.000    
     140  0.6481E-01  0.4654E-03 SHELL    1000001   0.0%   885.7       1.316       0.000       887.0       0.000      0.2100       0.000    
     150  0.6946E-01  0.4657E-03 SHELL    1000001   0.0%   963.3       1.318       0.000       964.5       0.000      0.2100       0.000    
     160  0.7412E-01  0.4661E-03 SHELL    1000001   0.0%   1042.       1.316       0.000       1043.       0.000      0.2100       0.000    
     170  0.7878E-01  0.4665E-03 SHELL    1000001   0.0%   1121.       1.318       0.000       1122.       0.000      0.2100       0.000    
     180  0.8345E-01  0.4668E-03 SHELL    1000001   0.0%   1201.       1.317       0.000       1203.       0.000      0.2100       0.000    
     190  0.8812E-01  0.4672E-03 SHELL    1000001   0.0%   1283.       1.318       0.000       1284.       0.000      0.2100       0.000    
     200  0.9279E-01  0.4676E-03 SHELL    1000001   0.0%   1365.       1.317       0.000       1366.       0.000      0.2100       0.000    
     210  0.9747E-01  0.4679E-03 SHELL    1000001   0.0%   1448.       1.318       0.000       1449.       0.000      0.2100       0.000    
     220  0.1022      0.4683E-03 SHELL    1000001   0.0%   1531.       1.317       0.000       1533.       0.000      0.2100       0.000    
     230  0.1068      0.4687E-03 SHELL    1000001   0.0%   1616.       1.318       0.000       1617.       0.000      0.2100       0.000    
     240  0.1115      0.4690E-03 SHELL    1000001   0.0%   1701.       1.317       0.000       1702.       0.000      0.2100       0.000    
     250  0.1162      0.4694E-03 SHELL    1000001   0.0%   1787.       1.318       0.000       1789.       0.000      0.2100       0.000    
     260  0.1209      0.4698E-03 SHELL    1000001   0.0%   1874.       1.317       0.000       1876.       0.000      0.2100       0.000    
     270  0.1256      0.4702E-03 SHELL    1000001   0.0%   1962.       1.318       0.000       1963.       0.000      0.2100       0.000    
     280  0.1303      0.4705E-03 SHELL    1000001   0.0%   2051.       1.317       0.000       2052.       0.000      0.2100       0.000    
     290  0.1350      0.4709E-03 SHELL    1000001   0.0%   2140.       1.318       0.000       2141.       0.000      0.2100       0.000    
     300  0.1397      0.4713E-03 SHELL    1000001   0.0%   2230.       1.317       0.000       2231.       0.000      0.2100       0.000    
     310  0.1444      0.4717E-03 SHELL    1000001   0.0%   2321.       1.318       0.000       2322.       0.000      0.2100       0.000    
     320  0.1492      0.4721E-03 SHELL    1000001   0.0%   2413.       1.318       0.000       2414.       0.000      0.2100       0.000    
     330  0.1539      0.4725E-03 SHELL    1000001   0.0%   2505.       1.318       0.000       2506.       0.000      0.2100       0.000    
     340  0.1586      0.4728E-03 SHELL    1000001   0.0%   2599.       1.318       0.000       2600.       0.000      0.2100       0.000    
     350  0.1633      0.4732E-03 SHELL    1000001   0.0%   2693.       1.318       0.000       2694.       0.000      0.2100       0.000    
     360  0.1681      0.4736E-03 SHELL    1000001   0.0%   2787.       1.318       0.000       2788.       0.000      0.2100       0.000    
     370  0.1728      0.4740E-03 SHELL    1000001   0.0%   2883.       1.318       0.000       2884.       0.000      0.2100       0.000    
     380  0.1776      0.4744E-03 SHELL    1000001   0.0%   2979.       1.318       0.000       2980.       0.000      0.2100       0.000    
     390  0.1823      0.4748E-03 SHELL    1000001   0.0%   3077.       1.318       0.000       3078.       0.000      0.2100       0.000    
     400  0.1871      0.4752E-03 SHELL    1000001   0.0%   3174.       1.318       0.000       3175.       0.000      0.2100       0.000    
     410  0.1918      0.4756E-03 SHELL    1000001   0.0%   3273.       1.318       0.000       3274.       0.000      0.2100       0.000    
     420  0.1966      0.4760E-03 SHELL    1000001   0.0%   3373.       1.318       0.000       3373.       0.000      0.2100       0.000    
     ANIMATION FILE: COMPA002 WRITTEN
     430  0.2013      0.4764E-03 SHELL    1000001   0.0%   3473.       1.318       0.000       3474.       0.000      0.2100       0.000    
     440  0.2061      0.4768E-03 SHELL    1000001   0.0%   3574.       1.318       0.000       3575.       0.000      0.2100       0.000    
     450  0.2109      0.4772E-03 SHELL    1000001   0.0%   3675.       1.318       0.000       3676.       0.000      0.2100       0.000    
     460  0.2156      0.4776E-03 SHELL    1000001   0.0%   3778.       1.318       0.000       3779.       0.000      0.2100       0.000    
     470  0.2204      0.4780E-03 SHELL    1000001   0.0%   3881.       1.318       0.000       3882.       0.000      0.2100       0.000    
     480  0.2252      0.4784E-03 SHELL    1000001   0.0%   3985.       1.318       0.000       3986.       0.000      0.2100       0.000    
     490  0.2300      0.4789E-03 SHELL    1000001   0.0%   4090.       1.318       0.000       4090.       0.000      0.2100       0.000    
     500  0.2348      0.4793E-03 SHELL    1000001   0.0%   4195.       1.318       0.000       4196.       0.000      0.2100       0.000    
     510  0.2396      0.4797E-03 SHELL    1000001   0.0%   4301.       1.318       0.000       4302.       0.000      0.2100       0.000    
     520  0.2444      0.4801E-03 SHELL    1000001   0.0%   4408.       1.318       0.000       4409.       0.000      0.2100       0.000    
     530  0.2492      0.4805E-03 SHELL    1000001   0.0%   4515.       1.318       0.000       4516.       0.000      0.2100       0.000    
     540  0.2540      0.4810E-03 SHELL    1000001   0.0%   4623.       1.319       0.000       4624.       0.000      0.2100       0.000    
   CYCLE    TIME      TIME-STEP  ELEMENT          ERROR  I-ENERGY    K-ENERGY T  K-ENERGY R  EXT-WORK     MAS.ERR     TOTAL MASS  MASS ADDED
     550  0.2588      0.4814E-03 SHELL    1000001   0.0%   4732.       1.319       0.000       4733.       0.000      0.2100       0.000    
     560  0.2636      0.4818E-03 SHELL    1000001   0.0%   4842.       1.319       0.000       4842.       0.000      0.2100       0.000    
     570  0.2684      0.4822E-03 SHELL    1000001   0.0%   4952.       1.319       0.000       4952.       0.000      0.2100       0.000    
     580  0.2733      0.4827E-03 SHELL    1000001   0.0%   5062.       1.319       0.000       5063.       0.000      0.2100       0.000    
     590  0.2781      0.4831E-03 SHELL    1000001   0.0%   5174.       1.319       0.000       5174.       0.000      0.2100       0.000    
     600  0.2829      0.4835E-03 SHELL    1000001   0.0%   5285.       1.319       0.000       5286.       0.000      0.2100       0.000    
     610  0.2877      0.4840E-03 SHELL    1000001   0.0%   5398.       1.319       0.000       5399.       0.000      0.2100       0.000    
     620  0.2926      0.4844E-03 SHELL    1000001   0.0%   5511.       1.319       0.000       5512.       0.000      0.2100       0.000    
     630  0.2974      0.4849E-03 SHELL    1000001   0.0%   5625.       1.319       0.000       5625.       0.000      0.2100       0.000    
     640  0.3023      0.4853E-03 SHELL    1000001   0.0%   5739.       1.319       0.000       5739.       0.000      0.2100       0.000    
     650  0.3071      0.4857E-03 SHELL    1000001   0.0%   5853.       1.319       0.000       5854.       0.000      0.2100       0.000    
     660  0.3120      0.4862E-03 SHELL    1000001   0.0%   5969.       1.319       0.000       5969.       0.000      0.2100       0.000    
     670  0.3169      0.4866E-03 SHELL    1000001   0.0%   6084.       1.319       0.000       6085.       0.000      0.2100       0.000    
     680  0.3217      0.4871E-03 SHELL    1000001   0.0%   6201.       1.319       0.000       6201.       0.000      0.2100       0.000    
     690  0.3266      0.4875E-03 SHELL    1000001   0.0%   6317.       1.319       0.000       6318.       0.000      0.2100       0.000    
     700  0.3315      0.4880E-03 SHELL    1000001   0.0%   6435.       1.319       0.000       6435.       0.000      0.2100       0.000    
     710  0.3364      0.4885E-03 SHELL    1000001   0.0%   6553.       1.319       0.000       6553.       0.000      0.2100       0.000    
     720  0.3413      0.4889E-03 SHELL    1000001   0.0%   6671.       1.319       0.000       6672.       0.000      0.2100       0.000    
     730  0.3461      0.4894E-03 SHELL    1000001   0.0%   6790.       1.319       0.000       6791.       0.000      0.2100       0.000    
     740  0.3510      0.4898E-03 SHELL    1000001   0.0%   6910.       1.319       0.000       6911.       0.000      0.2100       0.000    
     750  0.3559      0.4903E-03 SHELL    1000001   0.0%   7030.       1.320       0.000       7031.       0.000      0.2100       0.000    
     760  0.3608      0.4908E-03 SHELL    1000001   0.0%   7151.       1.320       0.000       7152.       0.000      0.2100       0.000    
     770  0.3658      0.4913E-03 SHELL    1000001   0.0%   7273.       1.320       0.000       7273.       0.000      0.2100       0.000    
     780  0.3707      0.4917E-03 SHELL    1000001   0.0%   7395.       1.320       0.000       7395.       0.000      0.2100       0.000    
     790  0.3756      0.4922E-03 SHELL    1000001   0.0%   7517.       1.320       0.000       7518.       0.000      0.2100       0.000    
     800  0.3805      0.4927E-03 SHELL    1000001   0.0%   7641.       1.320       0.000       7641.       0.000      0.2100       0.000    
     810  0.3854      0.4932E-03 SHELL    1000001   0.0%   7765.       1.320       0.000       7765.       0.000      0.2100       0.000    
     820  0.3904      0.4936E-03 SHELL    1000001   0.0%   7890.       1.320       0.000       7890.       0.000      0.2100       0.000    
     830  0.3953      0.4941E-03 SHELL    1000001   0.0%   8015.       1.320       0.000       8015.       0.000      0.2100       0.000    
     840  0.4003      0.4946E-03 SHELL    1000001   0.0%   8141.       1.320       0.000       8141.       0.000      0.2100       0.000    
     ANIMATION FILE: COMPA003 WRITTEN
     850  0.4052      0.4951E-03 SHELL    1000001   0.0%   8268.       1.320       0.000       8268.       0.000      0.2100       0.000    
     860  0.4102      0.4956E-03 SHELL    1000001   0.0%   8395.       1.320       0.000       8395.       0.000      0.2100       0.000    
     870  0.4151      0.4961E-03 SHELL    1000001   0.0%   8523.       1.320       0.000       8523.       0.000      0.2100       0.000    
     880  0.4201      0.4966E-03 SHELL    1000001   0.0%   8651.       1.320       0.000       8652.       0.000      0.2100       0.000    
     890  0.4251      0.4971E-03 SHELL    1000001   0.0%   8780.       1.320       0.000       8781.       0.000      0.2100       0.000    
     900  0.4300      0.4976E-03 SHELL    1000001   0.0%   8910.       1.320       0.000       8911.       0.000      0.2100       0.000    
     910  0.4350      0.4981E-03 SHELL    1000001   0.0%   9041.       1.321       0.000       9042.       0.000      0.2100       0.000    
     920  0.4400      0.4986E-03 SHELL    1000001   0.0%   9173.       1.321       0.000       9174.       0.000      0.2100       0.000    
     930  0.4450      0.4991E-03 SHELL    1000001   0.0%   9306.       1.321       0.000       9307.       0.000      0.2100       0.000    
     940  0.4500      0.4996E-03 SHELL    1000001   0.0%   9440.       1.321       0.000       9441.       0.000      0.2100       0.000    
     950  0.4550      0.5002E-03 SHELL    1000001   0.0%   9575.       1.321       0.000       9576.       0.000      0.2100       0.000    
     960  0.4600      0.5007E-03 SHELL    1000001   0.0%   9712.       1.321       0.000       9712.       0.000      0.2100       0.000    
     970  0.4650      0.5012E-03 SHELL    1000001   0.0%   9849.       1.321       0.000       9849.       0.000      0.2100       0.000    
     980  0.4700      0.5017E-03 SHELL    1000001   0.0%   9987.       1.321       0.000       9987.       0.000      0.2100       0.000    
     990  0.4750      0.5023E-03 SHELL    1000001   0.0%  0.1013E+05   1.321       0.000      0.1013E+05   0.000      0.2100       0.000    
    1000  0.4800      0.5028E-03 SHELL    1000001   0.0%  0.1027E+05   1.321       0.000      0.1027E+05   0.000      0.2100       0.000    
    1010  0.4851      0.5033E-03 SHELL    1000001   0.0%  0.1041E+05   1.321       0.000      0.1041E+05   0.000      0.2100       0.000    
    1020  0.4901      0.5039E-03 SHELL    1000001   0.0%  0.1055E+05   1.321       0.000      0.1055E+05   0.000      0.2100       0.000    
    1030  0.4951      0.5044E-03 SHELL    1000001   0.0%  0.1069E+05   1.321       0.000      0.1069E+05   0.000      0.2100       0.000    
    1040  0.5002      0.5049E-03 SHELL    1000001   0.0%  0.1084E+05   1.321       0.000      0.1084E+05   0.000      0.2100       0.000    
    1050  0.5052      0.5055E-03 SHELL    1000001   0.0%  0.1099E+05   1.322       0.000      0.1099E+05   0.000      0.2100       0.000    
    1060  0.5103      0.5060E-03 SHELL    1000001   0.0%  0.1113E+05   1.322       0.000      0.1113E+05   0.000      0.2100       0.000    
    1070  0.5154      0.5066E-03 SHELL    1000001   0.0%  0.1128E+05   1.322       0.000      0.1128E+05   0.000      0.2100       0.000    
    1080  0.5204      0.5071E-03 SHELL    1000001   0.0%  0.1143E+05   1.322       0.000      0.1143E+05   0.000      0.2100       0.000    
    1090  0.5255      0.5077E-03 SHELL    1000001   0.0%  0.1158E+05   1.322       0.000      0.1158E+05   0.000      0.2100       0.000    
   CYCLE    TIME      TIME-STEP  ELEMENT          ERROR  I-ENERGY    K-ENERGY T  K-ENERGY R  EXT-WORK     MAS.ERR     TOTAL MASS  MASS ADDED
    1100  0.5306      0.5083E-03 SHELL    1000001   0.0%  0.1173E+05   1.322       0.000      0.1173E+05   0.000      0.2100       0.000    
    1110  0.5357      0.5088E-03 SHELL    1000001   0.0%  0.1189E+05   1.322       0.000      0.1189E+05   0.000      0.2100       0.000    
    1120  0.5408      0.5094E-03 SHELL    1000001   0.0%  0.1204E+05   1.322       0.000      0.1204E+05   0.000      0.2100       0.000    
    1130  0.5459      0.5100E-03 SHELL    1000001   0.0%  0.1220E+05   1.322       0.000      0.1220E+05   0.000      0.2100       0.000    
    1140  0.5510      0.5105E-03 SHELL    1000001   0.0%  0.1235E+05   1.322       0.000      0.1235E+05   0.000      0.2100       0.000    
    1150  0.5561      0.5111E-03 SHELL    1000001   0.0%  0.1251E+05   1.322       0.000      0.1251E+05   0.000      0.2100       0.000    
    1160  0.5612      0.5117E-03 SHELL    1000001   0.0%  0.1267E+05   1.323       0.000      0.1267E+05   0.000      0.2100       0.000    
    1170  0.5663      0.5123E-03 SHELL    1000001   0.0%  0.1283E+05   1.323       0.000      0.1283E+05   0.000      0.2100       0.000    
    1180  0.5714      0.5129E-03 SHELL    1000001   0.0%  0.1300E+05   1.323       0.000      0.1300E+05   0.000      0.2100       0.000    
    1190  0.5766      0.5135E-03 SHELL    1000001   0.0%  0.1316E+05   1.323       0.000      0.1316E+05   0.000      0.2100       0.000    
    1200  0.5817      0.5140E-03 SHELL    1000001   0.0%  0.1333E+05   1.323       0.000      0.1332E+05   0.000      0.2100       0.000    
    1210  0.5868      0.5146E-03 SHELL    1000001   0.0%  0.1349E+05   1.323       0.000      0.1349E+05   0.000      0.2100       0.000    
    1220  0.5920      0.5152E-03 SHELL    1000001   0.0%  0.1366E+05   1.323       0.000      0.1366E+05   0.000      0.2100       0.000    
    1230  0.5971      0.5159E-03 SHELL    1000001   0.0%  0.1383E+05   1.323       0.000      0.1383E+05   0.000      0.2100       0.000    
     ANIMATION FILE: COMPA004 WRITTEN
    1240  0.6023      0.5165E-03 SHELL    1000001   0.0%  0.1400E+05   1.323       0.000      0.1400E+05   0.000      0.2100       0.000    
    1250  0.6075      0.5171E-03 SHELL    1000001   0.0%  0.1417E+05   1.323       0.000      0.1417E+05   0.000      0.2100       0.000    
    1260  0.6126      0.5177E-03 SHELL    1000001   0.0%  0.1435E+05   1.324       0.000      0.1434E+05   0.000      0.2100       0.000    
    1270  0.6178      0.5183E-03 SHELL    1000001   0.0%  0.1452E+05   1.324       0.000      0.1452E+05   0.000      0.2100       0.000    
    1280  0.6230      0.5189E-03 SHELL    1000001   0.0%  0.1470E+05   1.324       0.000      0.1470E+05   0.000      0.2100       0.000    
    1290  0.6282      0.5196E-03 SHELL    1000001   0.0%  0.1488E+05   1.324       0.000      0.1487E+05   0.000      0.2100       0.000    
    1300  0.6334      0.5202E-03 SHELL    1000001   0.0%  0.1505E+05   1.324       0.000      0.1505E+05   0.000      0.2100       0.000    
    1310  0.6386      0.5208E-03 SHELL    1000001   0.0%  0.1524E+05   1.324       0.000      0.1524E+05   0.000      0.2100       0.000    
    1320  0.6438      0.5215E-03 SHELL    1000001   0.0%  0.1542E+05   1.324       0.000      0.1542E+05   0.000      0.2100       0.000    
    1330  0.6490      0.5221E-03 SHELL    1000001   0.0%  0.1560E+05   1.324       0.000      0.1560E+05   0.000      0.2100       0.000    
    1340  0.6543      0.5228E-03 SHELL    1000001   0.0%  0.1579E+05   1.324       0.000      0.1579E+05   0.000      0.2100       0.000    
    1350  0.6595      0.5234E-03 SHELL    1000001   0.0%  0.1598E+05   1.325       0.000      0.1598E+05   0.000      0.2100       0.000    
    1360  0.6647      0.5241E-03 SHELL    1000001   0.0%  0.1617E+05   1.325       0.000      0.1617E+05   0.000      0.2100       0.000    
    1370  0.6700      0.5247E-03 SHELL    1000001   0.0%  0.1636E+05   1.325       0.000      0.1636E+05   0.000      0.2100       0.000    
    1380  0.6752      0.5254E-03 SHELL    1000001   0.0%  0.1655E+05   1.325       0.000      0.1655E+05   0.000      0.2100       0.000    
    1390  0.6805      0.5261E-03 SHELL    1000001   0.0%  0.1674E+05   1.325       0.000      0.1674E+05   0.000      0.2100       0.000    
    1400  0.6857      0.5267E-03 SHELL    1000001   0.0%  0.1694E+05   1.325       0.000      0.1694E+05   0.000      0.2100       0.000    
    1410  0.6910      0.5274E-03 SHELL    1000001   0.0%  0.1714E+05   1.325       0.000      0.1714E+05   0.000      0.2100       0.000    
    1420  0.6963      0.5281E-03 SHELL    1000001   0.0%  0.1734E+05   1.326       0.000      0.1734E+05   0.000      0.2100       0.000    
    1430  0.7016      0.5288E-03 SHELL    1000001   0.0%  0.1754E+05   1.326       0.000      0.1754E+05   0.000      0.2100       0.000    
    1440  0.7069      0.5295E-03 SHELL    1000001   0.0%  0.1774E+05   1.326       0.000      0.1774E+05   0.000      0.2100       0.000    
    1450  0.7122      0.5302E-03 SHELL    1000001   0.0%  0.1795E+05   1.326       0.000      0.1795E+05   0.000      0.2100       0.000    
    1460  0.7175      0.5309E-03 SHELL    1000001   0.0%  0.1816E+05   1.326       0.000      0.1815E+05   0.000      0.2100       0.000    
    1470  0.7228      0.5316E-03 SHELL    1000001   0.0%  0.1836E+05   1.326       0.000      0.1836E+05   0.000      0.2100       0.000    
    1480  0.7281      0.5323E-03 SHELL    1000001   0.0%  0.1858E+05   1.326       0.000      0.1857E+05   0.000      0.2100       0.000    
    1490  0.7334      0.5330E-03 SHELL    1000001   0.0%  0.1879E+05   1.327       0.000      0.1879E+05   0.000      0.2100       0.000    
    1500  0.7388      0.5337E-03 SHELL    1000001   0.0%  0.1900E+05   1.327       0.000      0.1900E+05   0.000      0.2100       0.000    
    1510  0.7441      0.5345E-03 SHELL    1000001   0.0%  0.1922E+05   1.327       0.000      0.1922E+05   0.000      0.2100       0.000    
    1520  0.7494      0.5352E-03 SHELL    1000001   0.0%  0.1944E+05   1.327       0.000      0.1944E+05   0.000      0.2100       0.000    
    1530  0.7548      0.5359E-03 SHELL    1000001   0.0%  0.1966E+05   1.327       0.000      0.1966E+05   0.000      0.2100       0.000    
    1540  0.7602      0.5367E-03 SHELL    1000001   0.0%  0.1988E+05   1.327       0.000      0.1988E+05   0.000      0.2100       0.000    
    1550  0.7655      0.5374E-03 SHELL    1000001   0.0%  0.2011E+05   1.328       0.000      0.2011E+05   0.000      0.2100       0.000    
    1560  0.7709      0.5382E-03 SHELL    1000001   0.0%  0.2033E+05   1.328       0.000      0.2033E+05   0.000      0.2100       0.000    
    1570  0.7763      0.5389E-03 SHELL    1000001   0.0%  0.2056E+05   1.328       0.000      0.2056E+05   0.000      0.2100       0.000    
    1580  0.7817      0.5397E-03 SHELL    1000001   0.0%  0.2080E+05   1.328       0.000      0.2079E+05   0.000      0.2100       0.000    
    1590  0.7871      0.5404E-03 SHELL    1000001   0.0%  0.2103E+05   1.328       0.000      0.2103E+05   0.000      0.2100       0.000    
    1600  0.7925      0.5412E-03 SHELL    1000001   0.0%  0.2127E+05   1.328       0.000      0.2126E+05   0.000      0.2100       0.000    
    1610  0.7979      0.5420E-03 SHELL    1000001   0.0%  0.2150E+05   1.329       0.000      0.2150E+05   0.000      0.2100       0.000    
     ANIMATION FILE: COMPA005 WRITTEN
    1620  0.8033      0.5428E-03 SHELL    1000001   0.0%  0.2175E+05   1.329       0.000      0.2174E+05   0.000      0.2100       0.000    
    1630  0.8088      0.5436E-03 SHELL    1000001   0.0%  0.2199E+05   1.329       0.000      0.2199E+05   0.000      0.2100       0.000    
    1640  0.8142      0.5444E-03 SHELL    1000001   0.0%  0.2223E+05   1.329       0.000      0.2223E+05   0.000      0.2100       0.000    
   CYCLE    TIME      TIME-STEP  ELEMENT          ERROR  I-ENERGY    K-ENERGY T  K-ENERGY R  EXT-WORK     MAS.ERR     TOTAL MASS  MASS ADDED
    1650  0.8197      0.5452E-03 SHELL    1000001   0.0%  0.2248E+05   1.329       0.000      0.2248E+05   0.000      0.2100       0.000    
    1660  0.8251      0.5460E-03 SHELL    1000001   0.0%  0.2273E+05   1.330       0.000      0.2273E+05   0.000      0.2100       0.000    
    1670  0.8306      0.5468E-03 SHELL    1000001   0.0%  0.2299E+05   1.330       0.000      0.2298E+05   0.000      0.2100       0.000    
    1680  0.8360      0.5476E-03 SHELL    1000001   0.0%  0.2324E+05   1.330       0.000      0.2324E+05   0.000      0.2100       0.000    
    1690  0.8415      0.5484E-03 SHELL    1000001   0.0%  0.2350E+05   1.330       0.000      0.2350E+05   0.000      0.2100       0.000    
    1700  0.8470      0.5493E-03 SHELL    1000001   0.0%  0.2376E+05   1.330       0.000      0.2376E+05   0.000      0.2100       0.000    
    1710  0.8525      0.5501E-03 SHELL    1000001   0.0%  0.2402E+05   1.331       0.000      0.2402E+05   0.000      0.2100       0.000    
    1720  0.8580      0.5510E-03 SHELL    1000001   0.0%  0.2429E+05   1.331       0.000      0.2429E+05   0.000      0.2100       0.000    
    1730  0.8635      0.5518E-03 SHELL    1000001   0.0%  0.2456E+05   1.331       0.000      0.2456E+05   0.000      0.2100       0.000    
    1740  0.8690      0.5527E-03 SHELL    1000001   0.0%  0.2483E+05   1.331       0.000      0.2483E+05   0.000      0.2100       0.000    
    1750  0.8746      0.5536E-03 SHELL    1000001   0.0%  0.2511E+05   1.332       0.000      0.2510E+05   0.000      0.2100       0.000    
    1760  0.8801      0.5544E-03 SHELL    1000001   0.0%  0.2538E+05   1.332       0.000      0.2538E+05   0.000      0.2100       0.000    
    1770  0.8857      0.5553E-03 SHELL    1000001   0.0%  0.2566E+05   1.332       0.000      0.2566E+05   0.000      0.2100       0.000    
    1780  0.8912      0.5562E-03 SHELL    1000001   0.0%  0.2595E+05   1.332       0.000      0.2594E+05   0.000      0.2100       0.000    
    1790  0.8968      0.5571E-03 SHELL    1000001   0.0%  0.2623E+05   1.333       0.000      0.2623E+05   0.000      0.2100       0.000    
    1800  0.9024      0.5580E-03 SHELL    1000001   0.0%  0.2652E+05   1.333       0.000      0.2652E+05   0.000      0.2100       0.000    
    1810  0.9079      0.5589E-03 SHELL    1000001   0.0%  0.2681E+05   1.333       0.000      0.2681E+05   0.000      0.2100       0.000    
    1820  0.9135      0.5598E-03 SHELL    1000001   0.0%  0.2711E+05   1.334       0.000      0.2711E+05   0.000      0.2100       0.000    
    1830  0.9191      0.5608E-03 SHELL    1000001   0.0%  0.2741E+05   1.334       0.000      0.2741E+05   0.000      0.2100       0.000    
    1840  0.9248      0.5617E-03 SHELL    1000001   0.0%  0.2771E+05   1.334       0.000      0.2771E+05   0.000      0.2100       0.000    
    1850  0.9304      0.5626E-03 SHELL    1000001   0.0%  0.2802E+05   1.334       0.000      0.2801E+05   0.000      0.2100       0.000    
    1860  0.9360      0.5636E-03 SHELL    1000001   0.0%  0.2833E+05   1.335       0.000      0.2832E+05   0.000      0.2100       0.000    
    1870  0.9416      0.5645E-03 SHELL    1000001   0.0%  0.2864E+05   1.335       0.000      0.2863E+05   0.000      0.2100       0.000    
    1880  0.9473      0.5655E-03 SHELL    1000001   0.0%  0.2895E+05   1.335       0.000      0.2895E+05   0.000      0.2100       0.000    
    1890  0.9530      0.5665E-03 SHELL    1000001   0.0%  0.2927E+05   1.336       0.000      0.2927E+05   0.000      0.2100       0.000    
    1900  0.9586      0.5675E-03 SHELL    1000001   0.0%  0.2960E+05   1.336       0.000      0.2959E+05   0.000      0.2100       0.000    
    1910  0.9643      0.5685E-03 SHELL    1000001   0.0%  0.2992E+05   1.336       0.000      0.2992E+05   0.000      0.2100       0.000    
    1920  0.9700      0.5695E-03 SHELL    1000001   0.0%  0.3025E+05   1.337       0.000      0.3025E+05   0.000      0.2100       0.000    
    1930  0.9757      0.5705E-03 SHELL    1000001   0.0%  0.3059E+05   1.337       0.000      0.3058E+05   0.000      0.2100       0.000    
    1940  0.9814      0.5715E-03 SHELL    1000001   0.0%  0.3092E+05   1.337       0.000      0.3092E+05   0.000      0.2100       0.000    
    1950  0.9871      0.5725E-03 SHELL    1000001   0.0%  0.3127E+05   1.338       0.000      0.3126E+05   0.000      0.2100       0.000    
    1960  0.9929      0.5736E-03 SHELL    1000001   0.0%  0.3161E+05   1.338       0.000      0.3161E+05   0.000      0.2100       0.000    
    1970  0.9986      0.5746E-03 SHELL    1000001   0.0%  0.3196E+05   1.339       0.000      0.3196E+05   0.000      0.2100       0.000    
     ANIMATION FILE: COMPA006 WRITTEN
    1980   1.004      0.5757E-03 SHELL    1000001   0.0%  0.3232E+05   1.339       0.000      0.3231E+05   0.000      0.2100       0.000    
    1990   1.010      0.5768E-03 SHELL    1000001   0.0%  0.3267E+05   1.339       0.000      0.3267E+05   0.000      0.2100       0.000    
    2000   1.016      0.5778E-03 SHELL    1000001   0.0%  0.3304E+05   1.340       0.000      0.3303E+05   0.000      0.2100       0.000    
    2010   1.022      0.5789E-03 SHELL    1000001   0.0%  0.3340E+05   1.340       0.000      0.3340E+05   0.000      0.2100       0.000    
    2020   1.027      0.5800E-03 SHELL    1000001   0.0%  0.3378E+05   1.341       0.000      0.3377E+05   0.000      0.2100       0.000    
    2030   1.033      0.5811E-03 SHELL    1000001   0.0%  0.3415E+05   1.341       0.000      0.3415E+05   0.000      0.2100       0.000    
    2040   1.039      0.5823E-03 SHELL    1000001   0.0%  0.3453E+05   1.342       0.000      0.3453E+05   0.000      0.2100       0.000    
    2050   1.045      0.5834E-03 SHELL    1000001   0.0%  0.3492E+05   1.342       0.000      0.3491E+05   0.000      0.2100       0.000    
    2060   1.051      0.5846E-03 SHELL    1000001   0.0%  0.3531E+05   1.343       0.000      0.3530E+05   0.000      0.2100       0.000    
    2070   1.057      0.5857E-03 SHELL    1000001   0.0%  0.3570E+05   1.343       0.000      0.3570E+05   0.000      0.2100       0.000    
    2080   1.062      0.5869E-03 SHELL    1000001   0.0%  0.3610E+05   1.344       0.000      0.3610E+05   0.000      0.2100       0.000    
    2090   1.068      0.5881E-03 SHELL    1000001   0.0%  0.3651E+05   1.344       0.000      0.3650E+05   0.000      0.2100       0.000    
    2100   1.074      0.5893E-03 SHELL    1000001   0.0%  0.3692E+05   1.345       0.000      0.3691E+05   0.000      0.2100       0.000    
    2110   1.080      0.5905E-03 SHELL    1000001   0.0%  0.3733E+05   1.345       0.000      0.3733E+05   0.000      0.2100       0.000    
    2120   1.086      0.5917E-03 SHELL    1000001   0.0%  0.3775E+05   1.346       0.000      0.3775E+05   0.000      0.2100       0.000    
    2130   1.092      0.5929E-03 SHELL    1000001   0.0%  0.3818E+05   1.346       0.000      0.3817E+05   0.000      0.2100       0.000    
    2140   1.098      0.5942E-03 SHELL    1000001   0.0%  0.3861E+05   1.347       0.000      0.3861E+05   0.000      0.2100       0.000    
    2150   1.104      0.5954E-03 SHELL    1000001   0.0%  0.3905E+05   1.348       0.000      0.3904E+05   0.000      0.2100       0.000    
    2160   1.110      0.5967E-03 SHELL    1000001   0.0%  0.3949E+05   1.348       0.000      0.3949E+05   0.000      0.2100       0.000    
    2170   1.116      0.5980E-03 SHELL    1000001   0.0%  0.3994E+05   1.349       0.000      0.3994E+05   0.000      0.2100       0.000    
    2180   1.122      0.5993E-03 SHELL    1000001   0.0%  0.4040E+05   1.349       0.000      0.4039E+05   0.000      0.2100       0.000    
    2190   1.128      0.6006E-03 SHELL    1000001   0.0%  0.4086E+05   1.350       0.000      0.4085E+05   0.000      0.2100       0.000    
   CYCLE    TIME      TIME-STEP  ELEMENT          ERROR  I-ENERGY    K-ENERGY T  K-ENERGY R  EXT-WORK     MAS.ERR     TOTAL MASS  MASS ADDED
    2200   1.134      0.6019E-03 SHELL    1000001   0.0%  0.4133E+05   1.351       0.000      0.4132E+05   0.000      0.2100       0.000    
    2210   1.140      0.6033E-03 SHELL    1000001   0.0%  0.4180E+05   1.352       0.000      0.4180E+05   0.000      0.2100       0.000    
    2220   1.146      0.6046E-03 SHELL    1000001   0.0%  0.4228E+05   1.352       0.000      0.4228E+05   0.000      0.2100       0.000    
    2230   1.152      0.6060E-03 SHELL    1000001   0.0%  0.4277E+05   1.353       0.000      0.4276E+05   0.000      0.2100       0.000    
    2240   1.158      0.6074E-03 SHELL    1000001   0.0%  0.4327E+05   1.354       0.000      0.4326E+05   0.000      0.2100       0.000    
    2250   1.164      0.6088E-03 SHELL    1000001   0.0%  0.4377E+05   1.355       0.000      0.4376E+05   0.000      0.2100       0.000    
    2260   1.170      0.6103E-03 SHELL    1000001   0.0%  0.4428E+05   1.355       0.000      0.4427E+05   0.000      0.2100       0.000    
    2270   1.176      0.6117E-03 SHELL    1000001   0.0%  0.4479E+05   1.356       0.000      0.4479E+05   0.000      0.2100       0.000    
    2280   1.182      0.6132E-03 SHELL    1000001   0.0%  0.4532E+05   1.357       0.000      0.4531E+05   0.000      0.2100       0.000    
    2290   1.188      0.6146E-03 SHELL    1000001   0.0%  0.4585E+05   1.358       0.000      0.4584E+05   0.000      0.2100       0.000    
    2300   1.195      0.6161E-03 SHELL    1000001   0.0%  0.4639E+05   1.359       0.000      0.4638E+05   0.000      0.2100       0.000    
     ANIMATION FILE: COMPA007 WRITTEN
    2310   1.201      0.6177E-03 SHELL    1000001   0.0%  0.4694E+05   1.360       0.000      0.4693E+05   0.000      0.2100       0.000    
    2320   1.207      0.6192E-03 SHELL    1000001   0.0%  0.4750E+05   1.361       0.000      0.4749E+05   0.000      0.2100       0.000    
    2330   1.213      0.6208E-03 SHELL    1000001   0.0%  0.4806E+05   1.362       0.000      0.4805E+05   0.000      0.2100       0.000    
    2340   1.219      0.6223E-03 SHELL    1000001   0.0%  0.4863E+05   1.363       0.000      0.4862E+05   0.000      0.2100       0.000    
    2350   1.226      0.6239E-03 SHELL    1000001   0.0%  0.4922E+05   1.364       0.000      0.4921E+05   0.000      0.2100       0.000    
    2360   1.232      0.6256E-03 SHELL    1000001   0.0%  0.4981E+05   1.365       0.000      0.4980E+05   0.000      0.2100       0.000    
    2370   1.238      0.6272E-03 SHELL    1000001   0.0%  0.5041E+05   1.366       0.000      0.5040E+05   0.000      0.2100       0.000    
    2380   1.244      0.6289E-03 SHELL    1000001   0.0%  0.5102E+05   1.367       0.000      0.5101E+05   0.000      0.2100       0.000    
    2390   1.251      0.6305E-03 SHELL    1000001   0.0%  0.5164E+05   1.369       0.000      0.5163E+05   0.000      0.2100       0.000    
    2400   1.257      0.6323E-03 SHELL    1000001   0.0%  0.5227E+05   1.370       0.000      0.5226E+05   0.000      0.2100       0.000    
    2410   1.263      0.6340E-03 SHELL    1000001   0.0%  0.5291E+05   1.371       0.000      0.5290E+05   0.000      0.2100       0.000    
    2420   1.270      0.6357E-03 SHELL    1000001   0.0%  0.5356E+05   1.373       0.000      0.5355E+05   0.000      0.2100       0.000    
    2430   1.276      0.6375E-03 SHELL    1000001   0.0%  0.5423E+05   1.374       0.000      0.5421E+05   0.000      0.2100       0.000    
    2440   1.282      0.6393E-03 SHELL    1000001   0.0%  0.5490E+05   1.375       0.000      0.5489E+05   0.000      0.2100       0.000    
    2450   1.289      0.6412E-03 SHELL    1000001   0.0%  0.5559E+05   1.377       0.000      0.5557E+05   0.000      0.2100       0.000    
    2460   1.295      0.6430E-03 SHELL    1000001   0.0%  0.5628E+05   1.379       0.000      0.5627E+05   0.000      0.2100       0.000    
    2470   1.302      0.6431E-03 SHELL    1000001   0.0%  0.5699E+05   1.380       0.000      0.5698E+05   0.000      0.2100       0.000    
    2480   1.308      0.6372E-03 SHELL    1000001   0.0%  0.5771E+05   1.382       0.000      0.5770E+05   0.000      0.2100       0.000    
    2490   1.314      0.6314E-03 SHELL    1000001   0.0%  0.5843E+05   1.384       0.000      0.5842E+05   0.000      0.2100       0.000    
    2500   1.321      0.6256E-03 SHELL    1000001   0.0%  0.5915E+05   1.385       0.000      0.5914E+05   0.000      0.2100       0.000    
    2510   1.327      0.6198E-03 SHELL    1000001   0.0%  0.5988E+05   1.387       0.000      0.5987E+05   0.000      0.2100       0.000    
    2520   1.333      0.6142E-03 SHELL    1000001   0.0%  0.6061E+05   1.389       0.000      0.6060E+05   0.000      0.2100       0.000    
    2530   1.339      0.6085E-03 SHELL    1000001   0.0%  0.6135E+05   1.391       0.000      0.6133E+05   0.000      0.2100       0.000    
    2540   1.345      0.6029E-03 SHELL    1000001   0.0%  0.6209E+05   1.393       0.000      0.6207E+05   0.000      0.2100       0.000    
    2550   1.351      0.5974E-03 SHELL    1000001   0.0%  0.6283E+05   1.395       0.000      0.6281E+05   0.000      0.2100       0.000    
    2560   1.357      0.5919E-03 SHELL    1000001   0.0%  0.6357E+05   1.397       0.000      0.6356E+05   0.000      0.2100       0.000    
    2570   1.363      0.5865E-03 SHELL    1000001   0.0%  0.6432E+05   1.399       0.000      0.6431E+05   0.000      0.2100       0.000    
    2580   1.369      0.5811E-03 SHELL    1000001   0.0%  0.6508E+05   1.401       0.000      0.6506E+05   0.000      0.2100       0.000    
    2590   1.375      0.5758E-03 SHELL    1000001   0.0%  0.6584E+05   1.403       0.000      0.6582E+05   0.000      0.2100       0.000    
    2600   1.381      0.5705E-03 SHELL    1000001   0.0%  0.6660E+05   1.405       0.000      0.6658E+05   0.000      0.2100       0.000    
    2610   1.386      0.5653E-03 SHELL    1000001   0.0%  0.6736E+05   1.408       0.000      0.6735E+05   0.000      0.2100       0.000    
    2620   1.392      0.5601E-03 SHELL    1000001   0.0%  0.6813E+05   1.410       0.000      0.6812E+05   0.000      0.2100       0.000    
    2630   1.397      0.5550E-03 SHELL    1000001   0.0%  0.6891E+05   1.412       0.000      0.6889E+05   0.000      0.2100       0.000    
     ANIMATION FILE: COMPA008 WRITTEN
    2640   1.403      0.5499E-03 SHELL    1000001   0.0%  0.6968E+05   1.415       0.000      0.6967E+05   0.000      0.2100       0.000    
    2650   1.408      0.5448E-03 SHELL    1000001   0.0%  0.7046E+05   1.417       0.000      0.7045E+05   0.000      0.2100       0.000    
    2660   1.414      0.5398E-03 SHELL    1000001   0.0%  0.7125E+05   1.420       0.000      0.7123E+05   0.000      0.2100       0.000    
    2670   1.419      0.5349E-03 SHELL    1000001   0.0%  0.7204E+05   1.423       0.000      0.7202E+05   0.000      0.2100       0.000    
    2680   1.425      0.5300E-03 SHELL    1000001   0.0%  0.7283E+05   1.425       0.000      0.7281E+05   0.000      0.2100       0.000    
    2690   1.430      0.5251E-03 SHELL    1000001   0.0%  0.7362E+05   1.428       0.000      0.7361E+05   0.000      0.2100       0.000    
    2700   1.435      0.5203E-03 SHELL    1000001   0.0%  0.7442E+05   1.431       0.000      0.7441E+05   0.000      0.2100       0.000    
    2710   1.440      0.5155E-03 SHELL    1000001   0.0%  0.7523E+05   1.434       0.000      0.7521E+05   0.000      0.2100       0.000    
    2720   1.445      0.5108E-03 SHELL    1000001   0.0%  0.7604E+05   1.437       0.000      0.7602E+05   0.000      0.2100       0.000    
    2730   1.450      0.5061E-03 SHELL    1000001   0.0%  0.7685E+05   1.440       0.000      0.7683E+05   0.000      0.2100       0.000    
    2740   1.456      0.5015E-03 SHELL    1000001   0.0%  0.7766E+05   1.443       0.000      0.7764E+05   0.000      0.2100       0.000    
   CYCLE    TIME      TIME-STEP  ELEMENT          ERROR  I-ENERGY    K-ENERGY T  K-ENERGY R  EXT-WORK     MAS.ERR     TOTAL MASS  MASS ADDED
    2750   1.461      0.4969E-03 SHELL    1000001   0.0%  0.7848E+05   1.446       0.000      0.7846E+05   0.000      0.2100       0.000    
    2760   1.465      0.4923E-03 SHELL    1000001   0.0%  0.7930E+05   1.450       0.000      0.7928E+05   0.000      0.2100       0.000    
    2770   1.470      0.4878E-03 SHELL    1000001   0.0%  0.8013E+05   1.453       0.000      0.8011E+05   0.000      0.2100       0.000    
    2780   1.475      0.4833E-03 SHELL    1000001   0.0%  0.8096E+05   1.456       0.000      0.8094E+05   0.000      0.2100       0.000    
    2790   1.480      0.4789E-03 SHELL    1000001   0.0%  0.8179E+05   1.460       0.000      0.8177E+05   0.000      0.2100       0.000    
    2800   1.485      0.4745E-03 SHELL    1000001   0.0%  0.8263E+05   1.464       0.000      0.8261E+05   0.000      0.2100       0.000    
    2810   1.490      0.4701E-03 SHELL    1000001   0.0%  0.8347E+05   1.467       0.000      0.8345E+05   0.000      0.2100       0.000    
    2820   1.494      0.4658E-03 SHELL    1000001   0.0%  0.8431E+05   1.471       0.000      0.8429E+05   0.000      0.2100       0.000    
    2830   1.499      0.4616E-03 SHELL    1000001   0.0%  0.8516E+05   1.475       0.000      0.8514E+05   0.000      0.2100       0.000    

     RESTART FILES: COMP_0001_[0001-0004].rst WRITTEN
     -------------

     ANIMATION FILE: COMPA009 WRITTEN
  
                           ** CPU USER TIME **
  
  
                        ** SUMMARY **
  
 #PROC  ELEMENT   KINCOND   INTEG     IO        T0        ASM       RESOL    
   1   .7901E-01 .5260E-01 .3409E-01 .1158E+00 .9666E-01 .1791E-01 .5939E+00
   2   .3691E-01 .3955E-01 .3339E-01 .1057E+00 .1821E+00 .1723E-01 .6258E+00
   3   .3861E-01 .4292E-01 .3573E-01 .1058E+00 .1531E+00 .1782E-01 .6099E+00
   4   .3811E-01 .4076E-01 .3520E-01 .1061E+00 .1780E+00 .1742E-01 .6276E+00
  
                 ** SPMD COM. TIME **
  
 #PROC  FORCES    RBYFOR    RBYVEL    VEL       TOT       %        
   1   .1065E-01 .0000E+00 .0000E+00 .1157E-01 .2222E-01 .3741E+01
   2   .1062E-01 .0000E+00 .0000E+00 .1133E-01 .2195E-01 .3507E+01
   3   .1071E-01 .0000E+00 .0000E+00 .1157E-01 .2228E-01 .3653E+01
   4   .1086E-01 .0000E+00 .0000E+00 .1119E-01 .2205E-01 .3514E+01
  
 
                   ** CUMULATIVE CPU TIME SUMMARY **
  
 CONTACT SORTING.............: .0000E+00     0.00 % 
 CONTACT FORCES..............: .1623E-01     0.66 % 
 ELEMENT FORCES..............: .1926E+00     7.84 % 
 KINEMATIC COND..............: .1758E+00     7.16 % 
 INTEGRATION.................: .1384E+00     5.63 % 
 ASSEMBLING..................: .7039E-01     2.86 % 
 OTHERS (including I/O)......: .1864E+01    75.85 % 
 TOTAL.......................: .2457E+01   100.00 % 
  
  
                           ** ELAPSED TIME **
  
  
                        ** SUMMARY **
  
 #PROC  ELEMENT   KINCOND   INTEG     IO        T0        ASM       RESOL    
   1   .5219E-01 .3477E-01 .2245E-01 .8218E-01 .6435E-01 .1189E-01 .4009E+00
   2   .2382E-01 .2544E-01 .2146E-01 .6657E-01 .1155E+00 .1112E-01 .4017E+00
   3   .2572E-01 .2834E-01 .2345E-01 .6784E-01 .1010E+00 .1188E-01 .4016E+00
   4   .2450E-01 .2609E-01 .2248E-01 .6698E-01 .1128E+00 .1120E-01 .4017E+00
  
        ELEMENT   KINCOND   INTEG     IO        T0        ASM       RESOL    
 MIN   .2382E-01 .2544E-01 .2146E-01 .6657E-01 .6435E-01 .1112E-01 .4009E+00
 MAX   .5219E-01 .3477E-01 .2345E-01 .8218E-01 .1155E+00 .1189E-01 .4017E+00
 AVG   .3156E-01 .2866E-01 .2246E-01 .7089E-01 .9841E-01 .1152E-01 .4015E+00
  
                 ** SPMD COM. TIME **
  
 #PROC  FORCES    RBYFOR    RBYVEL    VEL       TOT       %        
   1   .7071E-02 .0000E+00 .0000E+00 .7727E-02 .1480E-01 .3691E+01
   2   .6859E-02 .0000E+00 .0000E+00 .7374E-02 .1423E-01 .3543E+01
   3   .7133E-02 .0000E+00 .0000E+00 .7658E-02 .1479E-01 .3683E+01
   4   .6960E-02 .0000E+00 .0000E+00 .7223E-02 .1418E-01 .3531E+01
  
        FORCES    RBYFOR    RBYVEL    VEL       TOT       %        
 MIN   .6859E-02 .0000E+00 .0000E+00 .7223E-02 .1418E-01 .3531E+01
 MAX   .7133E-02 .0000E+00 .0000E+00 .7727E-02 .1480E-01 .3691E+01
 AVG   .7006E-02 .0000E+00 .0000E+00 .7496E-02 .1450E-01 .3612E+01
  
                   ** MEMORY USAGE STATISTICS **
  
 TOTAL MEMORY USED .........................:      228 MB
 MAXIMUM MEMORY PER PROCESSOR...............:       57 MB
 MINIMUM MEMORY PER PROCESSOR...............:       57 MB
 AVERAGE MEMORY PER PROCESSOR...............:       57 MB
  
                   ** DISK USAGE STATISTICS **
  
 TOTAL DISK SPACE USED .....................:          1 MB
 ANIMATION/H3D/TH/OUTP SIZE ................:          0 MB
 RESTART FILE SIZE .........................:          1 MB
  
                   ** COMPUTE TIME INFORMATION **
                        ** CURRENT ENGINE **
  
 EXECUTION STARTED .........................:      2022/11/23  16:22:23
 EXECUTION COMPLETED .......................:      2022/11/23  16:22:24
  
 ELAPSED TIME     =          0.50 s
                          0:00:00
 ESTIMATED SPEEDUP=          4.92



     NORMAL TERMINATION      



     TOTAL NUMBER OF CYCLES  :    2834

  
                   ** COMPUTE RUNTIME INFORMATION SUMMARY **
  
        STARTER RUNTIME =          0.66s (00:00:00)
 # 001   ENGINE RUNTIME =          0.50s (00:00:00)
 ------------------------------ 
 STARTER+ENGINE RUNTIME =          1.16s (00:00:01)
  
