 TRITUBV4_0001.out
************************************************************************
**                                                                    **
**                                                                    **
**                         OpenRadioss Engine                         **
**                                                                    **
**            Non-linear Finite Element Analysis Software             **
**                                                                    **
**                                                                    **
**                                                                    **
**                Linux 64 bits, GNU compiler, OpenMPI                **
**                                                                    **
**                                                                    **
**                                                                    **
** CommitID: 440deeba848d606665f88afb8302e85b1ecf72bf                 **
************************************************************************
** OpenRadioss Software                                               **
** COPYRIGHT (C) 1986-2022 Altair Engineering, Inc.                   **
** Licensed under GNU Affero General Public License.                  **
** See License file.                                                  **
************************************************************************
 
 NUMBER OF SPMD DOMAINS           4
 NUMBER OF THREADS PER DOMAIN     2
 NUMBER OF HMPP PROCESSES         8
  
 COMPUTATION HARDWARE DESCRIPTION
  
 CPU#  HOSTNAME     CPU TYPE, FREQUENCY AND MEMORY
   1   fr-shady.europe.altair.com   Intel(R) Xeon(R) CPU           X5680  @ 3.33GHz (x86_64), 1596 MHz,  20012 MB RAM,  49126 MB swap
   2   fr-shady.europe.altair.com   Intel(R) Xeon(R) CPU           X5680  @ 3.33GHz (x86_64), 1596 MHz,  20012 MB RAM,  49126 MB swap
   3   fr-shady.europe.altair.com   Intel(R) Xeon(R) CPU           X5680  @ 3.33GHz (x86_64), 1596 MHz,  20012 MB RAM,  49126 MB swap
   4   fr-shady.europe.altair.com   Intel(R) Xeon(R) CPU           X5680  @ 3.33GHz (x86_64), 1596 MHz,  20012 MB RAM,  49126 MB swap
  
************************************************************************


 TRITUBV4D01                                                                     


 FINAL TIME . . . . . . . . . . . . . . . . . . .  0.7510000E-01

 TIME INTERVAL FOR TIME HISTORY PLOTS . . . . . .  0.1000000E-05

 TIME STEP SCALE FACTOR . . . . . . . . . . . . .  0.9000000    

 MINIMUM TIME STEP  . . . . . . . . . . . . . . .   0.000000    


 BRICK TIME STEP SCALE FACTOR . . . . . . . . . .  0.9000000    
 BRICK MINIMUM TIME STEP. . . . . . . . . . . . .   0.000000    
 MIN. TIME STEP FLAG (1:STOP RUN, 2:DELETE BRICK)     1

 QUAD TIME STEP SCALE FACTOR. . . . . . . . . . .  0.9000000    
 QUAD MINIMUM TIME STEP . . . . . . . . . . . . .   0.000000    
 MIN. TIME STEP FLAG (1:STOP RUN, 2:DELETE QUAD).     1

 SHELL TIME STEP SCALE FACTOR . . . . . . . . . .  0.9000000    
 SHELL MINIMUM TIME STEP. . . . . . . . . . . . .   0.000000    
 MIN. TIME FLAG (1:STOP, 2:DELETE, 3:SMALL STRAIN)    2

 TRUSS TIME STEP SCALE FACTOR . . . . . . . . . .  0.9000000    
 TRUSS MINIMUM TIME STEP. . . . . . . . . . . . .   0.000000    
 MIN. TIME FLAG (1:STOP, 2:DELETE). . . . . . . .     0

 BEAM TIME STEP SCALE FACTOR. . . . . . . . . . .  0.9000000    
 BEAM MINIMUM TIME STEP . . . . . . . . . . . . .   0.000000    
 MIN. TIME FLAG (1:STOP, 2:DELETE). . . . . . . .     0

 SPRING TIME STEP SCALE FACTOR. . . . . . . . . .  0.9000000    
 SPRING MINIMUM TIME STEP . . . . . . . . . . . .   0.000000    
 MIN. TIME FLAG (1:STOP, 2:DELETE). . . . . . . .     0

 AIRBAG TIME STEP SCALE FACTOR. . . . . . . . . .  0.9000000    
 AIRBAG MINIMUM TIME STEP . . . . . . . . . . . .   0.000000    
 MIN. TIME FLAG (1:STOP). . . . . . . . . . . . .     0

 CONTACT TIME STEP SCALE FACTOR . . . . . . . . .  0.9000000    
 CONTACT MINIMUM TIME STEP. . . . . . . . . . . .   0.000000    
 MIN. TIME FLAG(1:STOP, 2:REMOVE NODE FROM INTERF)    0

 PRINTOUT CYCLE FREQUENCY . . . . . . . . . . . .   -10

 RESTART CYCLE FREQUENCY. . . . . . . . . . . . .   10000000

 MAXIMUM RESTART WRITE BEFORE OVERWRITE . . . . .     0

 INVERS: INPUT DECK VERSION . . . . . . . . . . .  2019
 ITTYP : FLAG FOR TYPE OF T-FILE. . . . . . . . .     4


 TIME FOR FIRST ANIMATION-FILE PLOT . . . . . . .   0.000000    
 TIME INTERVAL FOR ANIMATION-FILE PLOTS . . . . .  0.5000000E-02
 SENSOR FOR ANIMATION-FILE PLOTS. . . . . . . . .          0
 TIME INTERVAL FOR SENSOR ANIMATION-FILE PLOTS. .   0.000000    

 VARIABLE SAVED ON ANIMATION FILES (1: YES) :
      PLASTIC STRAIN. . . . . .     1
      DENSITY     (SOLID ONLY).     0
      SPECIFIC ENERGY . . . . .     0
      HOURGLASS ENERGY. . . . .     0
      TEMPERATURE (SOLID ONLY).     0
      THICKNESS   (SHELL ONLY).     0
      PRESSURE    (SOLID ONLY).     0
      VON MISES . . . . . . . .     0
      TURBULENT ENERGY (FLUID).     0
      TURBULENT VISCOSITY(FLUID)    0
      VORTICITY (FLUID) . . . .     0
 NODAL VALUES SAVED ON ANIMATION FILES (1: YES) :
      PRESSURE. . . . . . . . .     0
      DENSITY . . . . . . . . .     0
      TEMPERATURE . . . . . . .     0
 VECTOR SAVED ON ANIMATION FILES (1: YES) :
      VELOCITY VECTOR . . . . .     0
      DISPLACEMENT VECTOR . . .     0
      ACCELERATION VECTOR . . .     0
      CONTACT FORCES. . . . . .     1
      INTERNAL FORCES . . . . .     0
      EXTERNAL FORCES . . . . .     0
      SECTION RBY RWALL FORCES.     0
      ROTATIONAL VELOCITY VECTOR    0
      CONTACT PRESSURE (VECTORS)    0
 SHELL TENSOR SAVED ON ANIMATION FILES (1: YES) :
      MEMBRANE STRESS . . . . .     0
      BENDING STRESS(MOMENT/T^2)    0
      UPPER LAYER STRESS. . . .     0
      LOWER LAYER STRESS. . . .     0
      MEMBRANE STRAIN . . . . .     0
      CURVATURE . . . . . . . .     0
      UPPER LAYER STRAIN. . . .     0
      LOWER LAYER STRAIN. . . .     0
 NODAL MASS SAVED ON ANIMATION FILES (1: YES) :    0
 KEEP DELETED ELEMENT (1: YES) :    0


 INITIAL TIME STEP. . . . . . . . . . . . . . . .   0.000000    
 MAXIMUM TIME STEP. . . . . . . . . . . . . . . .  0.1000000E+31

 PARALLEL ARITHMETIC ON
 NUMBER OF INTERFACES TO BE ELIMINATED. . . . . .        0

 NUMBER OF SOLID  ELEMENT BLOCKS TO BE ELIMINATED        0

 NUMBER OF QUAD   ELEMENT BLOCKS TO BE ELIMINATED        0

 NUMBER OF SHELL  ELEMENT BLOCKS TO BE ELIMINATED        0

 NUMBER OF TRUSS  ELEMENT BLOCKS TO BE ELIMINATED        0

 NUMBER OF BEAM   ELEMENT BLOCKS TO BE ELIMINATED        0

 NUMBER OF SPRING ELEMENT BLOCKS TO BE ELIMINATED        0

 NUMBER OF SH_3N  ELEMENT BLOCKS TO BE ELIMINATED        0

 NUMBER OF  SPH PARTICLES BLOCKS TO BE ELIMINATED        0

 NUMBER OF RIGID LINKS. . . . . . . . . . . . . .        0

 NUMBER OF NEW BOUNDARY CONDITIONS. . . . . . . .        0

 23/11/2022
   CYCLE    TIME      TIME-STEP  ELEMENT          ERROR  I-ENERGY    K-ENERGY T  K-ENERGY R  EXT-WORK     MAS.ERR     TOTAL MASS  MASS ADDED
       0   0.000      0.4070E-04 NODE         466   0.0%   0.000      0.5000E+06   0.000       0.000       0.000       100.6       0.000    
     ANIMATION FILE: TRITUBV4A001 WRITTEN
      10  0.4042E-03  0.3990E-04 NODE          31   0.0%   61.04      0.4999E+06  0.1344E-02  -54.63       0.000       100.6       0.000    
      20  0.7986E-03  0.3890E-04 NODE          31   0.0%   165.5      0.4998E+06  0.2180E-01  -54.63       0.000       100.6       0.000    
      30  0.1184E-02  0.3812E-04 NODE          31   0.0%   272.1      0.4997E+06  0.6115E-01  -54.63       0.000       100.6       0.000    
      40  0.1562E-02  0.3759E-04 NODE          31   0.0%   375.8      0.4996E+06  0.1140      -54.63       0.000       100.6       0.000    
      50  0.1934E-02  0.3655E-04 SH_3N        900   0.0%   475.8      0.4995E+06  0.1991      -54.63       0.000       100.6       0.000    
      60  0.2296E-02  0.3582E-04 SH_3N        900   0.0%   573.5      0.4994E+06  0.2816      -54.63       0.000       100.6       0.000    
      70  0.2652E-02  0.3542E-04 SH_3N        900   0.0%   670.0      0.4993E+06  0.3696      -54.63       0.000       100.6       0.000    
      80  0.3005E-02  0.3515E-04 SH_3N        900   0.0%   765.2      0.4992E+06  0.4674      -54.63       0.000       100.6       0.000    
      90  0.3355E-02  0.3485E-04 SH_3N        900   0.0%   859.1      0.4991E+06  0.5849      -54.63       0.000       100.6       0.000    
     100  0.3702E-02  0.3453E-04 SH_3N        900   0.0%   952.0      0.4990E+06  0.7302      -54.63       0.000       100.6       0.000    
     110  0.4046E-02  0.3424E-04 SH_3N        900   0.0%   1044.      0.4989E+06  0.8545      -54.63       0.000       100.6       0.000    
     120  0.4387E-02  0.3398E-04 SH_3N        900   0.0%   1135.      0.4988E+06  0.9810      -54.63       0.000       100.6       0.000    
     130  0.4726E-02  0.3372E-04 SH_3N        900   0.0%   1225.      0.4987E+06   1.110      -54.63       0.000       100.6       0.000    
     ANIMATION FILE: TRITUBV4A002 WRITTEN
     140  0.5062E-02  0.3349E-04 SH_3N        900   0.0%   1314.      0.4986E+06   1.297      -54.62       0.000       100.6       0.000    
     150  0.5396E-02  0.3330E-04 SH_3N        900   0.0%   1402.      0.4986E+06   1.403      -54.62       0.000       100.6       0.000    
     160  0.5728E-02  0.3311E-04 SH_3N        900   0.0%   1490.      0.4985E+06   1.533      -54.62       0.000       100.6       0.000    
     170  0.6058E-02  0.3295E-04 SH_3N        900   0.0%   1577.      0.4984E+06   1.650      -54.62       0.000       100.6       0.000    
     180  0.6387E-02  0.3281E-04 SH_3N        900   0.0%   1663.      0.4983E+06   1.726      -54.62       0.000       100.6       0.000    
     190  0.6715E-02  0.3268E-04 SH_3N        900   0.0%   1749.      0.4982E+06   1.841      -54.62       0.000       100.6       0.000    
     200  0.7041E-02  0.3257E-04 SH_3N        900   0.0%   1835.      0.4981E+06   1.860      -54.62       0.000       100.6       0.000    
     210  0.7366E-02  0.3248E-04 SH_3N        900   0.0%   1921.      0.4980E+06   1.968      -54.62       0.000       100.6       0.000    
     220  0.7691E-02  0.3240E-04 SH_3N        900   0.0%   2006.      0.4980E+06   1.964      -54.62       0.000       100.6       0.000    
     230  0.8014E-02  0.3234E-04 SH_3N        900   0.0%   2091.      0.4979E+06   2.030      -54.62       0.000       100.6       0.000    
     240  0.8338E-02  0.3229E-04 SH_3N        900   0.0%   2176.      0.4978E+06   2.051      -54.62       0.000       100.6       0.000    
     250  0.8660E-02  0.3225E-04 SH_3N        900   0.0%   2262.      0.4977E+06   2.058      -54.62       0.000       100.6       0.000    
     260  0.8983E-02  0.3222E-04 SH_3N        900   0.0%   2347.      0.4976E+06   2.118      -54.62       0.000       100.6       0.000    
     270  0.9305E-02  0.3219E-04 SH_3N        900   0.0%   2432.      0.4975E+06   2.099      -54.62       0.000       100.6       0.000    
     280  0.9627E-02  0.3217E-04 SH_3N        900   0.0%   2517.      0.4974E+06   2.158      -54.62       0.000       100.6       0.000    
     290  0.9948E-02  0.3215E-04 SH_3N        900   0.0%   2603.      0.4974E+06   2.163      -54.62       0.000       100.6       0.000    
     ANIMATION FILE: TRITUBV4A003 WRITTEN
     300  0.1027E-01  0.3214E-04 SH_3N        900   0.0%   2689.      0.4973E+06   2.191      -54.61       0.000       100.6       0.000    
     310  0.1059E-01  0.3212E-04 SH_3N        900   0.0%   2774.      0.4972E+06   2.233      -54.61       0.000       100.6       0.000    
     320  0.1091E-01  0.3211E-04 SH_3N        900   0.0%   2860.      0.4971E+06   2.234      -54.61       0.000       100.6       0.000    
     330  0.1123E-01  0.3211E-04 SH_3N        900   0.0%   2946.      0.4970E+06   2.279      -54.61       0.000       100.6       0.000    
     340  0.1155E-01  0.3210E-04 SH_3N        900   0.0%   3032.      0.4969E+06   2.287      -54.61       0.000       100.6       0.000    
     350  0.1188E-01  0.3210E-04 SH_3N        900   0.0%   3118.      0.4968E+06   2.294      -54.61       0.000       100.6       0.000    
     360  0.1220E-01  0.3209E-04 SH_3N        900   0.0%   3205.      0.4968E+06   2.321      -54.61       0.000       100.6       0.000    
     370  0.1252E-01  0.3209E-04 SH_3N        900   0.0%   3291.      0.4967E+06   2.289      -54.61       0.000       100.6       0.000    
     380  0.1284E-01  0.3209E-04 SH_3N        900   0.0%   3378.      0.4966E+06   2.309      -54.61       0.000       100.6       0.000    
     390  0.1316E-01  0.3209E-04 SH_3N        900   0.0%   3465.      0.4965E+06   2.280      -54.61       0.000       100.6       0.000    
     400  0.1348E-01  0.3209E-04 SH_3N        900   0.0%   3552.      0.4964E+06   2.253      -54.61       0.000       100.6       0.000    
     410  0.1380E-01  0.3209E-04 SH_3N        900   0.0%   3639.      0.4963E+06   2.263      -54.61       0.000       100.6       0.000    
     420  0.1412E-01  0.3210E-04 SH_3N        900   0.0%   3726.      0.4962E+06   2.190      -54.61       0.000       100.6       0.000    
     430  0.1444E-01  0.3210E-04 SH_3N        900   0.0%   3814.      0.4961E+06   2.229      -54.61       0.000       100.6       0.000    
     440  0.1476E-01  0.3210E-04 SH_3N        900   0.0%   3901.      0.4961E+06   2.163      -54.61       0.000       100.6       0.000    
     ANIMATION FILE: TRITUBV4A004 WRITTEN
     450  0.1508E-01  0.3210E-04 SH_3N        900   0.0%   3989.      0.4960E+06   2.190      -54.61       0.000       100.6       0.000    
     460  0.1541E-01  0.3210E-04 SH_3N        900   0.0%   4076.      0.4959E+06   2.181      -54.61       0.000       100.6       0.000    
     470  0.1573E-01  0.3211E-04 SH_3N        900   0.0%   4164.      0.4958E+06   2.184      -54.61       0.000       100.6       0.000    
     480  0.1605E-01  0.3211E-04 SH_3N        900   0.0%   4252.      0.4957E+06   2.232      -54.61       0.000       100.6       0.000    
     490  0.1637E-01  0.3211E-04 SH_3N        900   0.0%   4340.      0.4956E+06   2.240      -54.61       0.000       100.6       0.000    
     500  0.1669E-01  0.3212E-04 SH_3N        900   0.0%   4428.      0.4955E+06   2.307      -54.60       0.000       100.6       0.000    
     510  0.1701E-01  0.3212E-04 SH_3N        900   0.0%   4516.      0.4954E+06   2.355      -54.60       0.000       100.6       0.000    
     520  0.1733E-01  0.3213E-04 SH_3N        900   0.0%   4604.      0.4954E+06   2.415      -54.60       0.000       100.6       0.000    
     530  0.1765E-01  0.3214E-04 SH_3N        900   0.0%   4692.      0.4953E+06   2.495      -54.60       0.000       100.6       0.000    
     540  0.1798E-01  0.3215E-04 SH_3N        900   0.0%   4781.      0.4952E+06   2.564      -54.60       0.000       100.6       0.000    
   CYCLE    TIME      TIME-STEP  ELEMENT          ERROR  I-ENERGY    K-ENERGY T  K-ENERGY R  EXT-WORK     MAS.ERR     TOTAL MASS  MASS ADDED
     550  0.1830E-01  0.3216E-04 SH_3N        900   0.0%   4869.      0.4951E+06   2.633      -54.60       0.000       100.6       0.000    
     560  0.1862E-01  0.3216E-04 SH_3N        900   0.0%   4958.      0.4950E+06   2.733      -54.60       0.000       100.6       0.000    
     570  0.1894E-01  0.3217E-04 SH_3N        900   0.0%   5047.      0.4949E+06   2.771      -54.61       0.000       100.6       0.000    
     580  0.1926E-01  0.3218E-04 SH_3N        900   0.0%   5136.      0.4948E+06   2.899      -54.61       0.000       100.6       0.000    
     590  0.1958E-01  0.3220E-04 SH_3N        900   0.0%   5225.      0.4947E+06   2.919      -54.61       0.000       100.6       0.000    
     600  0.1991E-01  0.3221E-04 SH_3N        900   0.0%   5314.      0.4946E+06   3.027      -54.60       0.000       100.6       0.000    
     ANIMATION FILE: TRITUBV4A005 WRITTEN
     610  0.2023E-01  0.3222E-04 SH_3N        900   0.0%   5403.      0.4946E+06   3.079      -54.60       0.000       100.6       0.000    
     620  0.2055E-01  0.3224E-04 SH_3N        900   0.0%   5493.      0.4945E+06   3.147      -54.60       0.000       100.6       0.000    
     630  0.2087E-01  0.3226E-04 SH_3N        900   0.0%   5582.      0.4944E+06   3.229      -54.60       0.000       100.6       0.000    
     640  0.2120E-01  0.3217E-04 SH_3N        890   0.0%   5672.      0.4943E+06   3.264      -54.60       0.000       100.6       0.000    
     650  0.2152E-01  0.3190E-04 SH_3N        890   0.0%   5762.      0.4942E+06   3.358      -54.60       0.000       100.6       0.000    
     660  0.2183E-01  0.3163E-04 SH_3N        890   0.0%   5851.      0.4941E+06   3.420      -54.60       0.000       100.6       0.000    
     670  0.2215E-01  0.3137E-04 SH_3N        890   0.0%   5939.      0.4940E+06   3.453      -54.60       0.000       100.6       0.000    
     680  0.2246E-01  0.3111E-04 SH_3N        890   0.0%   6027.      0.4939E+06   3.558      -54.60       0.000       100.6       0.000    
     690  0.2277E-01  0.3085E-04 SH_3N        890   0.0%   6114.      0.4938E+06   3.573      -54.60       0.000       100.6       0.000    
     700  0.2308E-01  0.3061E-04 SH_3N        890   0.0%   6201.      0.4938E+06   3.670      -54.60       0.000       100.6       0.000    
     710  0.2338E-01  0.3036E-04 SH_3N        890   0.0%   6287.      0.4937E+06   3.736      -54.60       0.000       100.6       0.000    
     720  0.2369E-01  0.3013E-04 SH_3N        890   0.0%   6373.      0.4936E+06   3.764      -54.60       0.000       100.6       0.000    
     730  0.2399E-01  0.2990E-04 SH_3N        890   0.0%   6458.      0.4935E+06   3.896      -54.60       0.000       100.6       0.000    
     740  0.2428E-01  0.2967E-04 SH_3N        890   0.0%   6543.      0.4934E+06   3.943      -54.60       0.000       100.6       0.000    
     750  0.2458E-01  0.2946E-04 SH_3N        890   0.0%   6627.      0.4933E+06   4.012      -54.60       0.000       100.6       0.000    
     760  0.2487E-01  0.2924E-04 SH_3N        890   0.0%   6711.      0.4932E+06   4.139      -54.60       0.000       100.6       0.000    
     ANIMATION FILE: TRITUBV4A006 WRITTEN
     770  0.2517E-01  0.2904E-04 SH_3N        890   0.0%   6795.      0.4932E+06   4.233      -54.60       0.000       100.6       0.000    
     780  0.2545E-01  0.2884E-04 SH_3N        890   0.0%   6878.      0.4931E+06   4.346      -54.60       0.000       100.6       0.000    
     790  0.2574E-01  0.2871E-04 SH_3N        890   0.0%   6960.      0.4930E+06   4.493      -54.60       0.000       100.6       0.000    
     800  0.2603E-01  0.2866E-04 SH_3N        890   0.0%   7043.      0.4929E+06   4.624      -54.60       0.000       100.6       0.000    
     810  0.2632E-01  0.2860E-04 SH_3N        890   0.0%   7126.      0.4928E+06   4.757      -54.60       0.000       100.6       0.000    
     820  0.2660E-01  0.2854E-04 SH_3N        890   0.0%   7209.      0.4927E+06   4.960      -54.60       0.000       100.6       0.000    
     830  0.2689E-01  0.2847E-04 SH_3N        890   0.0%   7291.      0.4927E+06   5.099      -54.60       0.000       100.6       0.000    
     840  0.2717E-01  0.2841E-04 SH_3N        890   0.0%   7374.      0.4926E+06   5.285      -54.60       0.000       100.6       0.000    
     850  0.2745E-01  0.2837E-04 SH_3N        890   0.0%   7456.      0.4925E+06   5.513      -54.60       0.000       100.6       0.000    
     860  0.2774E-01  0.2833E-04 SH_3N        890   0.0%   7539.      0.4924E+06   5.671      -54.60       0.000       100.6       0.000    
     870  0.2802E-01  0.2828E-04 SH_3N        890   0.0%   7621.      0.4923E+06   5.923      -54.60       0.000       100.6       0.000    
     880  0.2830E-01  0.2821E-04 SH_3N        890   0.0%   7704.      0.4922E+06   6.153      -54.60       0.000       100.6       0.000    
     890  0.2859E-01  0.2816E-04 SH_3N        890   0.0%   7786.      0.4922E+06   6.346      -54.59       0.000       100.6       0.000    
     900  0.2887E-01  0.2813E-04 SH_3N        890   0.0%   7868.      0.4921E+06   6.614      -54.59       0.000       100.6       0.000    
     910  0.2915E-01  0.2809E-04 SH_3N        890   0.0%   7950.      0.4920E+06   6.845      -54.59       0.000       100.6       0.000    
     920  0.2943E-01  0.2806E-04 SH_3N        890   0.0%   8031.      0.4919E+06   7.093      -54.59       0.000       100.6       0.000    
     930  0.2971E-01  0.2805E-04 SH_3N        890   0.0%   8113.      0.4918E+06   7.365      -54.59       0.000       100.6       0.000    
     940  0.2999E-01  0.2804E-04 SH_3N         49   0.0%   8195.      0.4918E+06   7.582      -54.59       0.000       100.6       0.000    
     ANIMATION FILE: TRITUBV4A007 WRITTEN
     950  0.3027E-01  0.2801E-04 SH_3N         49   0.0%   8276.      0.4917E+06   7.823      -54.59       0.000       100.6       0.000    
     960  0.3055E-01  0.2799E-04 SH_3N         49   0.0%   8357.      0.4916E+06   8.075      -54.59       0.000       100.6       0.000    
     970  0.3083E-01  0.2798E-04 SH_3N         49   0.0%   8438.      0.4915E+06   8.295      -54.59       0.000       100.6       0.000    
     980  0.3111E-01  0.2797E-04 SH_3N         49   0.0%   8519.      0.4914E+06   8.503      -54.59       0.000       100.6       0.000    
     990  0.3139E-01  0.2796E-04 SH_3N         49   0.0%   8599.      0.4913E+06   8.760      -54.59       0.000       100.6       0.000    
    1000  0.3167E-01  0.2793E-04 SH_3N         49   0.0%   8679.      0.4913E+06   8.949      -54.59       0.000       100.6       0.000    
    1010  0.3195E-01  0.2792E-04 SH_3N         49   0.0%   8760.      0.4912E+06   9.122      -54.59       0.000       100.6       0.000    
    1020  0.3223E-01  0.2793E-04 SH_3N         49   0.0%   8840.      0.4911E+06   9.302      -54.59       0.000       100.6       0.000    
    1030  0.3251E-01  0.2791E-04 SH_3N         49   0.0%   8919.      0.4910E+06   9.400      -54.59       0.000       100.6       0.000    
    1040  0.3279E-01  0.2787E-04 SH_3N         49   0.0%   8999.      0.4909E+06   9.622      -54.59       0.000       100.6       0.000    
    1050  0.3306E-01  0.2786E-04 SH_3N         49   0.0%   9078.      0.4909E+06   9.727      -54.59       0.000       100.6       0.000    
    1060  0.3334E-01  0.2789E-04 SH_3N         49   0.0%   9157.      0.4908E+06   9.885      -54.59       0.000       100.6       0.000    
    1070  0.3362E-01  0.2790E-04 SH_3N         47   0.0%   9236.      0.4907E+06   10.06      -54.59       0.000       100.6       0.000    
    1080  0.3390E-01  0.2791E-04 SH_3N         49   0.0%   9315.      0.4906E+06   10.16      -54.59       0.000       100.6       0.000    
    1090  0.3418E-01  0.2790E-04 SH_3N         47  -0.0%   9393.      0.4905E+06   10.40      -54.59       0.000       100.6       0.000    
   CYCLE    TIME      TIME-STEP  ELEMENT          ERROR  I-ENERGY    K-ENERGY T  K-ENERGY R  EXT-WORK     MAS.ERR     TOTAL MASS  MASS ADDED
    1100  0.3446E-01  0.2790E-04 SH_3N         47  -0.0%   9472.      0.4905E+06   10.60      -54.59       0.000       100.6       0.000    
    1110  0.3474E-01  0.2791E-04 SH_3N        114  -0.0%   9550.      0.4904E+06   10.74      -54.59       0.000       100.6       0.000    
    1120  0.3502E-01  0.2790E-04 SH_3N        114  -0.0%   9628.      0.4903E+06   10.81      -54.59       0.000       100.6       0.000    
     ANIMATION FILE: TRITUBV4A008 WRITTEN
    1130  0.3530E-01  0.2788E-04 SH_3N        594  -0.0%   9706.      0.4902E+06   10.90      -54.59       0.000       100.6       0.000    
    1140  0.3557E-01  0.2786E-04 SH_3N        594  -0.0%   9784.      0.4901E+06   11.00      -54.59       0.000       100.6       0.000    
    1150  0.3585E-01  0.2785E-04 SH_3N        594  -0.0%   9861.      0.4901E+06   11.11      -54.59       0.000       100.6       0.000    
    1160  0.3613E-01  0.2783E-04 SH_3N        116  -0.0%   9938.      0.4900E+06   11.31      -54.59       0.000       100.6       0.000    
    1170  0.3641E-01  0.2780E-04 SH_3N        116  -0.0%  0.1002E+05  0.4899E+06   11.44      -54.59       0.000       100.6       0.000    
    1180  0.3669E-01  0.2778E-04 SH_3N        116  -0.0%  0.1009E+05  0.4898E+06   11.59      -54.59       0.000       100.6       0.000    
    1190  0.3697E-01  0.2775E-04 SH_3N        116  -0.0%  0.1017E+05  0.4898E+06   11.81      -54.59       0.000       100.6       0.000    
    1200  0.3724E-01  0.2773E-04 SH_3N        116  -0.0%  0.1024E+05  0.4897E+06   12.01      -54.59       0.000       100.6       0.000    
    1210  0.3752E-01  0.2771E-04 SH_3N        116  -0.0%  0.1032E+05  0.4896E+06   12.43      -54.59       0.000       100.6       0.000    
    1220  0.3780E-01  0.2769E-04 SH_3N        596  -0.0%  0.1039E+05  0.4895E+06   12.92      -54.59       0.000       100.6       0.000    
    1230  0.3807E-01  0.2767E-04 SH_3N        596  -0.0%  0.1047E+05  0.4894E+06   13.23      -54.59       0.000       100.6       0.000    
    1240  0.3835E-01  0.2766E-04 SH_3N        596  -0.0%  0.1054E+05  0.4894E+06   13.47      -54.59       0.000       100.6       0.000    
    1250  0.3863E-01  0.2765E-04 SH_3N        596  -0.0%  0.1062E+05  0.4893E+06   13.69      -54.59       0.000       100.6       0.000    
    1260  0.3890E-01  0.2765E-04 SH_3N        596  -0.0%  0.1069E+05  0.4892E+06   13.90      -54.59       0.000       100.6       0.000    
    1270  0.3918E-01  0.2764E-04 SH_3N        536  -0.0%  0.1077E+05  0.4891E+06   14.16      -54.58       0.000       100.6       0.000    
    1280  0.3946E-01  0.2764E-04 SH_3N        476  -0.0%  0.1084E+05  0.4891E+06   14.41      -54.58       0.000       100.6       0.000    
    1290  0.3973E-01  0.2764E-04 SH_3N        476  -0.0%  0.1092E+05  0.4890E+06   14.56      -54.58       0.000       100.6       0.000    
    1300  0.4001E-01  0.2764E-04 SH_3N        476  -0.0%  0.1099E+05  0.4889E+06   14.72      -54.58       0.000       100.6       0.000    
     ANIMATION FILE: TRITUBV4A009 WRITTEN
    1310  0.4029E-01  0.2764E-04 SH_3N        476  -0.0%  0.1106E+05  0.4889E+06   14.93      -54.58       0.000       100.6       0.000    
    1320  0.4056E-01  0.2764E-04 SH_3N        356  -0.0%  0.1113E+05  0.4888E+06   15.04      -54.58       0.000       100.6       0.000    
    1330  0.4084E-01  0.2764E-04 SH_3N        356  -0.0%  0.1121E+05  0.4887E+06   15.15      -54.58       0.000       100.6       0.000    
    1340  0.4111E-01  0.2764E-04 SH_3N        356  -0.0%  0.1128E+05  0.4886E+06   15.33      -54.59       0.000       100.6       0.000    
    1350  0.4139E-01  0.2764E-04 SH_3N        356  -0.0%  0.1135E+05  0.4886E+06   15.50      -54.59       0.000       100.6       0.000    
    1360  0.4167E-01  0.2764E-04 SH_3N        356  -0.0%  0.1142E+05  0.4885E+06   15.66      -54.59       0.000       100.6       0.000    
    1370  0.4194E-01  0.2765E-04 SH_3N        356  -0.0%  0.1149E+05  0.4884E+06   15.84      -54.59       0.000       100.6       0.000    
    1380  0.4222E-01  0.2764E-04 SH_3N        356  -0.0%  0.1156E+05  0.4884E+06   16.01      -54.59       0.000       100.6       0.000    
    1390  0.4250E-01  0.2765E-04 SH_3N        356  -0.0%  0.1163E+05  0.4883E+06   16.17      -54.59       0.000       100.6       0.000    
    1400  0.4277E-01  0.2765E-04 SH_3N        356  -0.0%  0.1170E+05  0.4882E+06   16.38      -54.59       0.000       100.6       0.000    
    1410  0.4305E-01  0.2766E-04 SH_3N        356  -0.0%  0.1177E+05  0.4881E+06   16.60      -54.59       0.000       100.6       0.000    
    1420  0.4333E-01  0.2766E-04 SH_3N        356  -0.0%  0.1184E+05  0.4881E+06   16.76      -54.59       0.000       100.6       0.000    
    1430  0.4360E-01  0.2767E-04 SH_3N        356  -0.0%  0.1191E+05  0.4880E+06   16.98      -54.59       0.000       100.6       0.000    
    1440  0.4388E-01  0.2767E-04 SH_3N        356  -0.0%  0.1197E+05  0.4879E+06   17.15      -54.59       0.000       100.6       0.000    
    1450  0.4416E-01  0.2768E-04 SH_3N        356  -0.0%  0.1204E+05  0.4879E+06   17.25      -54.59       0.000       100.6       0.000    
    1460  0.4443E-01  0.2769E-04 SH_3N        356  -0.0%  0.1211E+05  0.4878E+06   17.45      -54.59       0.000       100.6       0.000    
    1470  0.4471E-01  0.2769E-04 SH_3N        356  -0.0%  0.1218E+05  0.4877E+06   17.59      -54.59       0.000       100.6       0.000    
    1480  0.4499E-01  0.2770E-04 SH_3N        356  -0.0%  0.1224E+05  0.4877E+06   17.73      -54.59       0.000       100.6       0.000    
     ANIMATION FILE: TRITUBV4A010 WRITTEN
    1490  0.4526E-01  0.2771E-04 SH_3N        356  -0.0%  0.1231E+05  0.4876E+06   17.89      -54.59       0.000       100.6       0.000    
    1500  0.4554E-01  0.2772E-04 SH_3N        236  -0.0%  0.1237E+05  0.4875E+06   18.02      -54.59       0.000       100.6       0.000    
    1510  0.4582E-01  0.2772E-04 SH_3N        236  -0.0%  0.1244E+05  0.4875E+06   18.16      -54.60       0.000       100.6       0.000    
    1520  0.4610E-01  0.2773E-04 SH_3N        238  -0.0%  0.1251E+05  0.4874E+06   18.27      -54.60       0.000       100.6       0.000    
    1530  0.4637E-01  0.2772E-04 SH_3N        238  -0.0%  0.1257E+05  0.4873E+06   18.41      -54.60       0.000       100.6       0.000    
    1540  0.4665E-01  0.2772E-04 SH_3N        238  -0.0%  0.1264E+05  0.4873E+06   18.40      -54.60       0.000       100.6       0.000    
    1550  0.4693E-01  0.2772E-04 SH_3N        238  -0.0%  0.1270E+05  0.4872E+06   18.42      -54.60       0.000       100.6       0.000    
    1560  0.4721E-01  0.2772E-04 SH_3N        238  -0.0%  0.1276E+05  0.4871E+06   18.59      -54.60       0.000       100.6       0.000    
    1570  0.4748E-01  0.2772E-04 SH_3N        238  -0.0%  0.1283E+05  0.4871E+06   18.59      -54.60       0.000       100.6       0.000    
    1580  0.4776E-01  0.2772E-04 SH_3N        238  -0.0%  0.1289E+05  0.4870E+06   18.74      -54.60       0.000       100.6       0.000    
    1590  0.4804E-01  0.2773E-04 SH_3N        238  -0.0%  0.1296E+05  0.4870E+06   18.88      -54.60       0.000       100.6       0.000    
    1600  0.4831E-01  0.2773E-04 SH_3N        238  -0.0%  0.1302E+05  0.4869E+06   18.86      -54.60       0.000       100.6       0.000    
    1610  0.4859E-01  0.2773E-04 SH_3N        238  -0.0%  0.1308E+05  0.4868E+06   18.98      -54.60       0.000       100.6       0.000    
    1620  0.4887E-01  0.2774E-04 SH_3N        238  -0.0%  0.1314E+05  0.4868E+06   19.16      -54.60       0.000       100.6       0.000    
    1630  0.4915E-01  0.2774E-04 SH_3N        238  -0.0%  0.1321E+05  0.4867E+06   19.29      -54.60       0.000       100.6       0.000    
    1640  0.4942E-01  0.2775E-04 SH_3N        238  -0.0%  0.1327E+05  0.4866E+06   19.44      -54.60       0.000       100.6       0.000    
   CYCLE    TIME      TIME-STEP  ELEMENT          ERROR  I-ENERGY    K-ENERGY T  K-ENERGY R  EXT-WORK     MAS.ERR     TOTAL MASS  MASS ADDED
    1650  0.4970E-01  0.2776E-04 SH_3N        238  -0.0%  0.1333E+05  0.4866E+06   19.62      -54.60       0.000       100.6       0.000    
    1660  0.4998E-01  0.2776E-04 SH_3N        238  -0.0%  0.1339E+05  0.4865E+06   19.75      -54.60       0.000       100.6       0.000    
     ANIMATION FILE: TRITUBV4A011 WRITTEN
    1670  0.5026E-01  0.2777E-04 SH_3N        178  -0.0%  0.1345E+05  0.4865E+06   19.95      -54.60       0.000       100.6       0.000    
    1680  0.5053E-01  0.2777E-04 SH_3N        178  -0.0%  0.1351E+05  0.4864E+06   20.12      -54.60       0.000       100.6       0.000    
    1690  0.5081E-01  0.2778E-04 SH_3N        178  -0.0%  0.1358E+05  0.4863E+06   20.21      -54.60       0.000       100.6       0.000    
    1700  0.5109E-01  0.2778E-04 SH_3N        178  -0.0%  0.1364E+05  0.4863E+06   20.35      -54.60       0.000       100.6       0.000    
    1710  0.5137E-01  0.2778E-04 SH_3N        118  -0.0%  0.1370E+05  0.4862E+06   20.46      -54.60       0.000       100.6       0.000    
    1720  0.5165E-01  0.2778E-04 SH_3N        118  -0.0%  0.1376E+05  0.4862E+06   20.53      -54.60       0.000       100.6       0.000    
    1730  0.5192E-01  0.2777E-04 SH_3N        118  -0.0%  0.1382E+05  0.4861E+06   20.67      -54.60       0.000       100.6       0.000    
    1740  0.5220E-01  0.2777E-04 SH_3N        118  -0.0%  0.1388E+05  0.4860E+06   20.85      -54.60       0.000       100.6       0.000    
    1750  0.5248E-01  0.2777E-04 SH_3N        118  -0.0%  0.1394E+05  0.4860E+06   21.12      -54.69       0.000       100.6       0.000    
    1760  0.5276E-01  0.2777E-04 SH_3N        118  -0.0%  0.1400E+05  0.4859E+06   22.59      -54.76       0.000       100.6       0.000    
    1770  0.5303E-01  0.2777E-04 SH_3N        118  -0.0%  0.1406E+05  0.4859E+06   23.30      -54.77       0.000       100.6       0.000    
    1780  0.5331E-01  0.2778E-04 SH_3N        118  -0.0%  0.1411E+05  0.4858E+06   22.63      -54.84       0.000       100.6       0.000    
    1790  0.5359E-01  0.2779E-04 SH_3N        118  -0.0%  0.1417E+05  0.4857E+06   23.45      -54.94       0.000       100.6       0.000    
    1800  0.5387E-01  0.2780E-04 SH_3N        118  -0.0%  0.1424E+05  0.4857E+06   25.07      -55.08       0.000       100.6       0.000    
    1810  0.5415E-01  0.2781E-04 SH_3N        118  -0.0%  0.1430E+05  0.4856E+06   26.15      -55.13       0.000       100.6       0.000    
    1820  0.5442E-01  0.2782E-04 SH_3N        118  -0.0%  0.1436E+05  0.4855E+06   27.46      -55.23       0.000       100.6       0.000    
    1830  0.5470E-01  0.2781E-04 SH_3N        118  -0.0%  0.1442E+05  0.4855E+06   28.45      -55.29       0.000       100.6       0.000    
    1840  0.5498E-01  0.2781E-04 SH_3N        118  -0.0%  0.1448E+05  0.4854E+06   29.42      -55.45       0.000       100.6       0.000    
     ANIMATION FILE: TRITUBV4A012 WRITTEN
    1850  0.5526E-01  0.2783E-04 SH_3N        118  -0.0%  0.1454E+05  0.4854E+06   30.28      -55.59       0.000       100.6       0.000    
    1860  0.5554E-01  0.2784E-04 SH_3N        118  -0.0%  0.1461E+05  0.4853E+06   31.35      -55.81       0.000       100.6       0.000    
    1870  0.5581E-01  0.2787E-04 SH_3N        118  -0.0%  0.1467E+05  0.4852E+06   33.51      -56.13       0.000       100.6       0.000    
    1880  0.5609E-01  0.2788E-04 SH_3N        178  -0.0%  0.1474E+05  0.4851E+06   35.99      -56.13       0.000       100.6       0.000    
    1890  0.5637E-01  0.2788E-04 SH_3N        178  -0.0%  0.1480E+05  0.4851E+06   35.78      -56.18       0.000       100.6       0.000    
    1900  0.5665E-01  0.2784E-04 SH_3N        110  -0.0%  0.1487E+05  0.4850E+06   36.15      -56.23       0.000       100.6       0.000    
    1910  0.5693E-01  0.2783E-04 SH_3N        110  -0.0%  0.1494E+05  0.4849E+06   38.69      -56.39       0.000       100.6       0.000    
    1920  0.5721E-01  0.2776E-04 SH_3N        110  -0.0%  0.1501E+05  0.4849E+06   38.93      -56.55       0.000       100.6       0.000    
    1930  0.5749E-01  0.2775E-04 SH_3N        110  -0.0%  0.1508E+05  0.4848E+06   38.57      -56.63       0.000       100.6       0.000    
    1940  0.5776E-01  0.2776E-04 SH_3N        110  -0.0%  0.1515E+05  0.4847E+06   37.33      -57.04       0.000       100.6       0.000    
    1950  0.5804E-01  0.2777E-04 SH_3N        170  -0.0%  0.1522E+05  0.4847E+06   39.19      -57.07       0.000       100.6       0.000    
    1960  0.5832E-01  0.2777E-04 SH_3N        170  -0.0%  0.1529E+05  0.4846E+06   40.66      -57.14       0.000       100.6       0.000    
    1970  0.5860E-01  0.2780E-04 SH_3N        232  -0.0%  0.1536E+05  0.4845E+06   40.10      -57.20       0.000       100.6       0.000    
    1980  0.5887E-01  0.2781E-04 SH_3N        232  -0.0%  0.1544E+05  0.4844E+06   41.96      -57.27       0.000       100.6       0.000    
    1990  0.5915E-01  0.2782E-04 SH_3N        232  -0.0%  0.1551E+05  0.4844E+06   42.05      -57.28       0.000       100.6       0.000    
    2000  0.5943E-01  0.2783E-04 SH_3N        232  -0.0%  0.1558E+05  0.4843E+06   41.81      -57.30       0.000       100.6       0.000    
    2010  0.5971E-01  0.2784E-04 SH_3N        701  -0.0%  0.1566E+05  0.4842E+06   40.33      -57.38       0.000       100.6       0.000    
    2020  0.5999E-01  0.2781E-04 SH_3N        701  -0.0%  0.1573E+05  0.4841E+06   39.78      -57.39       0.000       100.6       0.000    
     ANIMATION FILE: TRITUBV4A013 WRITTEN
    2030  0.6026E-01  0.2776E-04 SH_3N        701  -0.0%  0.1581E+05  0.4841E+06   39.80      -57.51       0.000       100.6       0.000    
    2040  0.6054E-01  0.2775E-04 SH_3N        641  -0.0%  0.1588E+05  0.4840E+06   39.10      -57.60       0.000       100.6       0.000    
    2050  0.6082E-01  0.2770E-04 SH_3N        641  -0.0%  0.1596E+05  0.4839E+06   40.95      -57.72       0.000       100.6       0.000    
    2060  0.6110E-01  0.2768E-04 SH_3N        641  -0.0%  0.1603E+05  0.4838E+06   41.94      -57.89       0.000       100.6       0.000    
    2070  0.6137E-01  0.2765E-04 SH_3N        581  -0.0%  0.1611E+05  0.4837E+06   42.61      -57.91       0.000       100.6       0.000    
    2080  0.6165E-01  0.2762E-04 SH_3N        581  -0.0%  0.1619E+05  0.4837E+06   45.90      -57.91       0.000       100.6       0.000    
    2090  0.6193E-01  0.2761E-04 SH_3N        521  -0.0%  0.1627E+05  0.4836E+06   45.56      -57.96       0.000       100.6       0.000    
    2100  0.6220E-01  0.2769E-04 SH_3N        170  -0.0%  0.1635E+05  0.4835E+06   45.11      -58.01       0.000       100.6       0.000    
    2110  0.6248E-01  0.2767E-04 SH_3N        811  -0.0%  0.1643E+05  0.4834E+06   44.45      -58.01       0.000       100.6       0.000    
    2120  0.6276E-01  0.2765E-04 SH_3N        811  -0.0%  0.1651E+05  0.4833E+06   43.33      -58.05       0.000       100.6       0.000    
    2130  0.6303E-01  0.2762E-04 SH_3N        811  -0.0%  0.1659E+05  0.4833E+06   43.21      -58.10       0.000       100.6       0.000    
    2140  0.6331E-01  0.2761E-04 SH_3N        811  -0.0%  0.1667E+05  0.4832E+06   42.15      -58.10       0.000       100.6       0.000    
    2150  0.6358E-01  0.2759E-04 SH_3N        811  -0.0%  0.1674E+05  0.4831E+06   42.54      -58.11       0.000       100.6       0.000    
    2160  0.6386E-01  0.2757E-04 SH_3N        811  -0.0%  0.1682E+05  0.4830E+06   42.76      -58.11       0.000       100.6       0.000    
    2170  0.6414E-01  0.2756E-04 SH_3N        811  -0.0%  0.1690E+05  0.4830E+06   42.53      -58.11       0.000       100.6       0.000    
    2180  0.6441E-01  0.2754E-04 SH_3N        811  -0.0%  0.1698E+05  0.4829E+06   42.47      -58.16       0.000       100.6       0.000    
    2190  0.6469E-01  0.2753E-04 SH_3N        811  -0.0%  0.1706E+05  0.4828E+06   41.70      -58.19       0.000       100.6       0.000    
   CYCLE    TIME      TIME-STEP  ELEMENT          ERROR  I-ENERGY    K-ENERGY T  K-ENERGY R  EXT-WORK     MAS.ERR     TOTAL MASS  MASS ADDED
    2200  0.6496E-01  0.2752E-04 SH_3N        811  -0.0%  0.1714E+05  0.4827E+06   40.63      -58.22       0.000       100.6       0.000    
     ANIMATION FILE: TRITUBV4A014 WRITTEN
    2210  0.6524E-01  0.2751E-04 SH_3N        811  -0.0%  0.1721E+05  0.4826E+06   40.87      -58.26       0.000       100.6       0.000    
    2220  0.6551E-01  0.2751E-04 SH_3N        811  -0.0%  0.1729E+05  0.4826E+06   40.58      -58.26       0.000       100.6       0.000    
    2230  0.6579E-01  0.2751E-04 SH_3N        811  -0.0%  0.1737E+05  0.4825E+06   40.33      -58.30       0.000       100.6       0.000    
    2240  0.6606E-01  0.2751E-04 SH_3N        811  -0.0%  0.1745E+05  0.4824E+06   40.64      -58.32       0.000       100.6       0.000    
    2250  0.6634E-01  0.2751E-04 SH_3N        811  -0.0%  0.1753E+05  0.4823E+06   40.22      -58.52       0.000       100.6       0.000    
    2260  0.6661E-01  0.2751E-04 SH_3N        811  -0.0%  0.1761E+05  0.4822E+06   40.99      -58.52       0.000       100.6       0.000    
    2270  0.6689E-01  0.2750E-04 SH_3N        811  -0.0%  0.1769E+05  0.4822E+06   40.14      -58.54       0.000       100.6       0.000    
    2280  0.6716E-01  0.2748E-04 SH_3N        811  -0.0%  0.1777E+05  0.4821E+06   39.06      -58.59       0.000       100.6       0.000    
    2290  0.6744E-01  0.2748E-04 SH_3N        811  -0.0%  0.1785E+05  0.4820E+06   37.71      -58.64       0.000       100.6       0.000    
    2300  0.6771E-01  0.2748E-04 SH_3N        811  -0.0%  0.1793E+05  0.4819E+06   38.28      -58.64       0.000       100.6       0.000    
    2310  0.6799E-01  0.2749E-04 SH_3N        811  -0.0%  0.1801E+05  0.4818E+06   37.49      -58.64       0.000       100.6       0.000    
    2320  0.6826E-01  0.2749E-04 SH_3N        811  -0.0%  0.1809E+05  0.4818E+06   37.28      -58.73       0.000       100.6       0.000    
    2330  0.6854E-01  0.2748E-04 SH_3N        809  -0.0%  0.1817E+05  0.4817E+06   36.91      -58.77       0.000       100.6       0.000    
    2340  0.6881E-01  0.2746E-04 SH_3N        809  -0.0%  0.1825E+05  0.4816E+06   36.18      -58.88       0.000       100.6       0.000    
    2350  0.6908E-01  0.2745E-04 SH_3N        809  -0.0%  0.1833E+05  0.4815E+06   37.17      -58.89       0.000       100.6       0.000    
    2360  0.6936E-01  0.2744E-04 SH_3N        809  -0.0%  0.1842E+05  0.4814E+06   35.80      -58.90       0.000       100.6       0.000    
    2370  0.6963E-01  0.2742E-04 SH_3N        817  -0.0%  0.1849E+05  0.4814E+06   36.08      -58.91       0.000       100.6       0.000    
    2380  0.6991E-01  0.2737E-04 SH_3N        817  -0.0%  0.1857E+05  0.4813E+06   35.98      -58.94       0.000       100.6       0.000    
     ANIMATION FILE: TRITUBV4A015 WRITTEN
    2390  0.7018E-01  0.2733E-04 SH_3N        817  -0.0%  0.1865E+05  0.4812E+06   35.70      -58.94       0.000       100.6       0.000    
    2400  0.7045E-01  0.2730E-04 SH_3N        817  -0.0%  0.1873E+05  0.4811E+06   35.27      -58.97       0.000       100.6       0.000    
    2410  0.7073E-01  0.2729E-04 SH_3N        817  -0.0%  0.1881E+05  0.4810E+06   35.33      -58.99       0.000       100.6       0.000    
    2420  0.7100E-01  0.2729E-04 SH_3N        817  -0.0%  0.1889E+05  0.4810E+06   35.67      -59.00       0.000       100.6       0.000    
    2430  0.7127E-01  0.2730E-04 SH_3N        817  -0.0%  0.1896E+05  0.4809E+06   35.94      -59.00       0.000       100.6       0.000    
    2440  0.7155E-01  0.2733E-04 SH_3N        817  -0.0%  0.1904E+05  0.4808E+06   35.98      -59.02       0.000       100.6       0.000    
    2450  0.7182E-01  0.2733E-04 SH_3N        878  -0.0%  0.1912E+05  0.4807E+06   36.28      -59.02       0.000       100.6       0.000    
    2460  0.7209E-01  0.2730E-04 SH_3N        878  -0.0%  0.1920E+05  0.4807E+06   36.31      -59.02       0.000       100.6       0.000    
    2470  0.7237E-01  0.2728E-04 SH_3N        878  -0.0%  0.1927E+05  0.4806E+06   36.27      -59.09       0.000       100.6       0.000    
    2480  0.7264E-01  0.2730E-04 SH_3N        878  -0.0%  0.1935E+05  0.4805E+06   36.76      -59.14       0.000       100.6       0.000    
    2490  0.7291E-01  0.2733E-04 SH_3N        878  -0.0%  0.1943E+05  0.4804E+06   36.86      -59.14       0.000       100.6       0.000    
    2500  0.7319E-01  0.2739E-04 SH_3N        878  -0.0%  0.1950E+05  0.4804E+06   36.53      -59.14       0.000       100.6       0.000    
    2510  0.7346E-01  0.2744E-04 SH_3N        878  -0.0%  0.1958E+05  0.4803E+06   37.46      -59.14       0.000       100.6       0.000    
    2520  0.7373E-01  0.2746E-04 SH_3N        878  -0.0%  0.1965E+05  0.4802E+06   37.32      -59.15       0.000       100.6       0.000    
    2530  0.7401E-01  0.2748E-04 SH_3N        878  -0.0%  0.1973E+05  0.4801E+06   37.86      -59.17       0.000       100.6       0.000    
    2540  0.7428E-01  0.2747E-04 SH_3N        878  -0.0%  0.1981E+05  0.4801E+06   37.76      -59.17       0.000       100.6       0.000    
    2550  0.7456E-01  0.2744E-04 SH_3N        878  -0.0%  0.1988E+05  0.4800E+06   38.02      -59.20       0.000       100.6       0.000    
    2560  0.7483E-01  0.2746E-04 SH_3N        878  -0.0%  0.1996E+05  0.4799E+06   38.48      -59.21       0.000       100.6       0.000    
     ANIMATION FILE: TRITUBV4A016 WRITTEN

     RESTART FILES: TRITUBV4_0001_[0001-0004].rst WRITTEN
     -------------

  
                           ** CPU USER TIME **
  
  
                        ** SUMMARY **
  
 #PROC  CONTSORT  CONTFOR   ELEMENT   KINCOND   INTEG     IO        T0        ASM       RESOL    
   1   .2704E+00 .2546E+00 .5943E+00 .1156E+00 .4981E-01 .2998E+00 .3178E+00 .1288E+00 .2720E+01
   2   .2914E+00 .2164E+00 .5937E+00 .1267E+00 .4735E-01 .2705E+00 .3381E+00 .1078E+00 .2758E+01
   3   .3545E+00 .4560E+00 .5996E+00 .1294E+00 .4966E-01 .2454E+00 .1502E+00 .2713E+00 .2733E+01
   4   .3349E+00 .3220E+00 .6109E+00 .1329E+00 .4877E-01 .2400E+00 .2507E+00 .1676E+00 .2739E+01
  
                 ** SPMD COM. TIME **
  
 #PROC  FORCES    RBYFOR    RBYVEL    VEL       TOT       %        
   1   .3527E+00 .0000E+00 .0000E+00 .3207E-01 .3847E+00 .1414E+02
   2   .4192E+00 .0000E+00 .0000E+00 .6321E-01 .4824E+00 .1749E+02
   3   .1495E+00 .0000E+00 .0000E+00 .3512E-01 .1846E+00 .6756E+01
   4   .2944E+00 .0000E+00 .0000E+00 .4889E-01 .3433E+00 .1253E+02
  
 
                   ** CUMULATIVE CPU TIME SUMMARY **
  
 CONTACT SORTING.............: .1251E+01    11.43 % 
 CONTACT FORCES..............: .1249E+01    11.41 % 
 ELEMENT FORCES..............: .2399E+01    21.90 % 
 KINEMATIC COND..............: .5046E+00     4.61 % 
 INTEGRATION.................: .1956E+00     1.79 % 
 ASSEMBLING..................: .6755E+00     6.17 % 
 OTHERS (including I/O)......: .4676E+01    42.70 % 
 TOTAL.......................: .1095E+02   100.00 % 
  
  
                           ** ELAPSED TIME **
  
  
                        ** SUMMARY **
  
 #PROC  CONTSORT  CONTFOR   ELEMENT   KINCOND   INTEG     IO        T0        ASM       RESOL    
   1   .1480E+00 .1397E+00 .3294E+00 .6357E-01 .2722E-01 .1706E+00 .1687E+00 .6828E-01 .1488E+01
   2   .1581E+00 .1169E+00 .3242E+00 .6893E-01 .2566E-01 .1476E+00 .1791E+00 .5661E-01 .1488E+01
   3   .1932E+00 .2482E+00 .3277E+00 .7108E-01 .2714E-01 .1354E+00 .8161E-01 .1432E+00 .1487E+01
   4   .1828E+00 .1760E+00 .3336E+00 .7250E-01 .2650E-01 .1327E+00 .1347E+00 .8885E-01 .1488E+01
  
        CONTSORT  CONTFOR   ELEMENT   KINCOND   INTEG     IO        T0        ASM       RESOL    
 MIN   .1480E+00 .1169E+00 .3242E+00 .6357E-01 .2566E-01 .1327E+00 .8161E-01 .5661E-01 .1487E+01
 MAX   .1932E+00 .2482E+00 .3336E+00 .7250E-01 .2722E-01 .1706E+00 .1791E+00 .1432E+00 .1488E+01
 AVG   .1705E+00 .1702E+00 .3287E+00 .6902E-01 .2663E-01 .1466E+00 .1410E+00 .8924E-01 .1488E+01
  
                 ** SPMD COM. TIME **
  
 #PROC  FORCES    RBYFOR    RBYVEL    VEL       TOT       %        
   1   .1912E+00 .0000E+00 .0000E+00 .1785E-01 .2090E+00 .1405E+02
   2   .2244E+00 .0000E+00 .0000E+00 .3448E-01 .2589E+00 .1740E+02
   3   .8172E-01 .0000E+00 .0000E+00 .1966E-01 .1014E+00 .6816E+01
   4   .1590E+00 .0000E+00 .0000E+00 .2721E-01 .1862E+00 .1252E+02
  
        FORCES    RBYFOR    RBYVEL    VEL       TOT       %        
 MIN   .8172E-01 .0000E+00 .0000E+00 .1785E-01 .1014E+00 .6816E+01
 MAX   .2244E+00 .0000E+00 .0000E+00 .3448E-01 .2589E+00 .1740E+02
 AVG   .1641E+00 .0000E+00 .0000E+00 .2480E-01 .1889E+00 .1270E+02
  
                   ** MEMORY USAGE STATISTICS **
  
 TOTAL MEMORY USED .........................:      232 MB
 MAXIMUM MEMORY PER PROCESSOR...............:       58 MB
 MINIMUM MEMORY PER PROCESSOR...............:       58 MB
 AVERAGE MEMORY PER PROCESSOR...............:       58 MB
  
                   ** DISK USAGE STATISTICS **
  
 TOTAL DISK SPACE USED .....................:          2 MB
 ANIMATION/H3D/TH/OUTP SIZE ................:          0 MB
 RESTART FILE SIZE .........................:          1 MB
  
                   ** COMPUTE TIME INFORMATION **
                        ** CURRENT ENGINE **
  
 EXECUTION STARTED .........................:      2022/11/23  16:21:00
 EXECUTION COMPLETED .......................:      2022/11/23  16:21:01
  
 ELAPSED TIME     =          1.57 s
                          0:00:01
 ESTIMATED SPEEDUP=          6.98



     NORMAL TERMINATION      



     TOTAL NUMBER OF CYCLES  :    2570

  
                   ** COMPUTE RUNTIME INFORMATION SUMMARY **
  
        STARTER RUNTIME =          0.63s (00:00:00)
 # 001   ENGINE RUNTIME =          1.57s (00:00:01)
 ------------------------------ 
 STARTER+ENGINE RUNTIME =          2.20s (00:00:02)
  
