 SPR250_0001.out
************************************************************************
**                                                                    **
**                                                                    **
**                         OpenRadioss Engine                         **
**                                                                    **
**            Non-linear Finite Element Analysis Software             **
**                                                                    **
**                                                                    **
**                                                                    **
**                Linux 64 bits, GNU compiler, OpenMPI                **
**                                                                    **
**                                                                    **
**                                                                    **
** CommitID: 440deeba848d606665f88afb8302e85b1ecf72bf                 **
************************************************************************
** OpenRadioss Software                                               **
** COPYRIGHT (C) 1986-2022 Altair Engineering, Inc.                   **
** Licensed under GNU Affero General Public License.                  **
** See License file.                                                  **
************************************************************************
 
 NUMBER OF SPMD DOMAINS           4
 NUMBER OF THREADS PER DOMAIN     2
 NUMBER OF HMPP PROCESSES         8
  
 COMPUTATION HARDWARE DESCRIPTION
  
 CPU#  HOSTNAME     CPU TYPE, FREQUENCY AND MEMORY
   1   fr-shady.europe.altair.com   Intel(R) Xeon(R) CPU           X5680  @ 3.33GHz (x86_64), 1596 MHz,  20012 MB RAM,  49126 MB swap
   2   fr-shady.europe.altair.com   Intel(R) Xeon(R) CPU           X5680  @ 3.33GHz (x86_64), 1596 MHz,  20012 MB RAM,  49126 MB swap
   3   fr-shady.europe.altair.com   Intel(R) Xeon(R) CPU           X5680  @ 3.33GHz (x86_64), 1596 MHz,  20012 MB RAM,  49126 MB swap
   4   fr-shady.europe.altair.com   Intel(R) Xeon(R) CPU           X5680  @ 3.33GHz (x86_64), 1596 MHz,  20012 MB RAM,  49126 MB swap
  
************************************************************************


 SPR250D01                                                                       


 FINAL TIME . . . . . . . . . . . . . . . . . . .   5.010000    

 TIME INTERVAL FOR TIME HISTORY PLOTS . . . . . .  0.1000000E-01

 TIME STEP SCALE FACTOR . . . . . . . . . . . . .  0.9000000    

 MINIMUM TIME STEP  . . . . . . . . . . . . . . .   0.000000    


 BRICK TIME STEP SCALE FACTOR . . . . . . . . . .  0.9000000    
 BRICK MINIMUM TIME STEP. . . . . . . . . . . . .   0.000000    
 MIN. TIME STEP FLAG (1:STOP RUN, 2:DELETE BRICK)     1

 QUAD TIME STEP SCALE FACTOR. . . . . . . . . . .  0.9000000    
 QUAD MINIMUM TIME STEP . . . . . . . . . . . . .   0.000000    
 MIN. TIME STEP FLAG (1:STOP RUN, 2:DELETE QUAD).     1

 SHELL TIME STEP SCALE FACTOR . . . . . . . . . .  0.9000000    
 SHELL MINIMUM TIME STEP. . . . . . . . . . . . .   0.000000    
 MIN. TIME FLAG (1:STOP, 2:DELETE, 3:SMALL STRAIN)    2

 TRUSS TIME STEP SCALE FACTOR . . . . . . . . . .  0.9000000    
 TRUSS MINIMUM TIME STEP. . . . . . . . . . . . .   0.000000    
 MIN. TIME FLAG (1:STOP, 2:DELETE). . . . . . . .     0

 BEAM TIME STEP SCALE FACTOR. . . . . . . . . . .  0.9000000    
 BEAM MINIMUM TIME STEP . . . . . . . . . . . . .   0.000000    
 MIN. TIME FLAG (1:STOP, 2:DELETE). . . . . . . .     0

 SPRING TIME STEP SCALE FACTOR. . . . . . . . . .  0.9000000    
 SPRING MINIMUM TIME STEP . . . . . . . . . . . .   0.000000    
 MIN. TIME FLAG (1:STOP, 2:DELETE). . . . . . . .     0

 AIRBAG TIME STEP SCALE FACTOR. . . . . . . . . .  0.9000000    
 AIRBAG MINIMUM TIME STEP . . . . . . . . . . . .   0.000000    
 MIN. TIME FLAG (1:STOP). . . . . . . . . . . . .     0

 CONTACT TIME STEP SCALE FACTOR . . . . . . . . .  0.9000000    
 CONTACT MINIMUM TIME STEP. . . . . . . . . . . .   0.000000    
 MIN. TIME FLAG(1:STOP, 2:REMOVE NODE FROM INTERF)    0

 PRINTOUT CYCLE FREQUENCY . . . . . . . . . . . .   -10

 RESTART CYCLE FREQUENCY. . . . . . . . . . . . .   10000000

 MAXIMUM RESTART WRITE BEFORE OVERWRITE . . . . .     0

 INVERS: INPUT DECK VERSION . . . . . . . . . . .    44
 ITTYP : FLAG FOR TYPE OF T-FILE. . . . . . . . .     4


 TIME FOR FIRST ANIMATION-FILE PLOT . . . . . . .   0.000000    
 TIME INTERVAL FOR ANIMATION-FILE PLOTS . . . . .   2.000000    
 SENSOR FOR ANIMATION-FILE PLOTS. . . . . . . . .          0
 TIME INTERVAL FOR SENSOR ANIMATION-FILE PLOTS. .   0.000000    

 VARIABLE SAVED ON ANIMATION FILES (1: YES) :
      PLASTIC STRAIN. . . . . .     0
      DENSITY     (SOLID ONLY).     0
      SPECIFIC ENERGY . . . . .     0
      HOURGLASS ENERGY. . . . .     0
      TEMPERATURE (SOLID ONLY).     0
      THICKNESS   (SHELL ONLY).     0
      PRESSURE    (SOLID ONLY).     0
      VON MISES . . . . . . . .     0
      TURBULENT ENERGY (FLUID).     0
      TURBULENT VISCOSITY(FLUID)    0
      VORTICITY (FLUID) . . . .     0
 NODAL VALUES SAVED ON ANIMATION FILES (1: YES) :
      PRESSURE. . . . . . . . .     0
      DENSITY . . . . . . . . .     0
      TEMPERATURE . . . . . . .     0
 VECTOR SAVED ON ANIMATION FILES (1: YES) :
      VELOCITY VECTOR . . . . .     1
      DISPLACEMENT VECTOR . . .     1
      ACCELERATION VECTOR . . .     0
      CONTACT FORCES. . . . . .     0
      INTERNAL FORCES . . . . .     0
      EXTERNAL FORCES . . . . .     0
      SECTION RBY RWALL FORCES.     0
      ROTATIONAL VELOCITY VECTOR    0
      CONTACT PRESSURE (VECTORS)    0
 SHELL TENSOR SAVED ON ANIMATION FILES (1: YES) :
      MEMBRANE STRESS . . . . .     0
      BENDING STRESS(MOMENT/T^2)    0
      UPPER LAYER STRESS. . . .     0
      LOWER LAYER STRESS. . . .     0
      MEMBRANE STRAIN . . . . .     0
      CURVATURE . . . . . . . .     0
      UPPER LAYER STRAIN. . . .     0
      LOWER LAYER STRAIN. . . .     0
 NODAL MASS SAVED ON ANIMATION FILES (1: YES) :    0
 KEEP DELETED ELEMENT (1: YES) :    0


 INITIAL TIME STEP. . . . . . . . . . . . . . . .   0.000000    
 MAXIMUM TIME STEP. . . . . . . . . . . . . . . .  0.1000000E+31

 PARALLEL ARITHMETIC ON
 NUMBER OF INTERFACES TO BE ELIMINATED. . . . . .        0

 NUMBER OF SOLID  ELEMENT BLOCKS TO BE ELIMINATED        0

 NUMBER OF QUAD   ELEMENT BLOCKS TO BE ELIMINATED        0

 NUMBER OF SHELL  ELEMENT BLOCKS TO BE ELIMINATED        0

 NUMBER OF TRUSS  ELEMENT BLOCKS TO BE ELIMINATED        0

 NUMBER OF BEAM   ELEMENT BLOCKS TO BE ELIMINATED        0

 NUMBER OF SPRING ELEMENT BLOCKS TO BE ELIMINATED        0

 NUMBER OF SH_3N  ELEMENT BLOCKS TO BE ELIMINATED        0

 NUMBER OF  SPH PARTICLES BLOCKS TO BE ELIMINATED        0

 NUMBER OF RIGID LINKS. . . . . . . . . . . . . .        0

 NUMBER OF NEW BOUNDARY CONDITIONS. . . . . . . .        0

 23/11/2022
   CYCLE    TIME      TIME-STEP  ELEMENT          ERROR  I-ENERGY    K-ENERGY T  K-ENERGY R  EXT-WORK     MAS.ERR     TOTAL MASS  MASS ADDED
       0   0.000      0.6364E-03 SPRIN          1   0.0%   0.000       0.000       0.000       0.000       0.000       1.000       0.000    
     ANIMATION FILE: SPR250A001 WRITTEN
      10  0.6364E-02  0.6364E-03 SPRIN          1   0.0%  0.3249      0.5000      0.1651E-02  0.8263       0.000       1.000       0.000    
      20  0.1273E-01  0.6364E-03 SPRIN          1   0.0%   1.297      0.5000      0.2097E-02   1.799       0.000       1.000       0.000    
      30  0.1909E-01  0.6364E-03 SPRIN          1   0.0%   2.916      0.5000      0.4326E-06   3.416       0.000       1.000       0.000    
      40  0.2546E-01  0.6364E-03 SPRIN          1   0.0%   5.185      0.5000      0.1217E-02   5.686       0.000       1.000       0.000    
      50  0.3182E-01  0.6364E-03 SPRIN          1   0.0%   8.100      0.5000      0.2515E-02   8.603       0.000       1.000       0.000    
      60  0.3818E-01  0.6364E-03 SPRIN          1   0.0%   11.66      0.5000      0.6759E-05   12.16       0.000       1.000       0.000    
      70  0.4455E-01  0.6364E-03 SPRIN          1   0.0%   15.88      0.5000      0.8316E-03   16.38       0.000       1.000       0.000    
      80  0.5091E-01  0.6364E-03 SPRIN          1   0.0%   20.74      0.5000      0.2861E-02   21.24       0.000       1.000       0.000    
      90  0.5728E-01  0.6364E-03 SPRIN          1   0.0%   26.24      0.5000      0.3290E-04   26.74       0.000       1.000       0.000    
     100  0.6364E-01  0.6364E-03 SPRIN          1   0.0%   32.40      0.5000      0.5182E-03   32.90       0.000       1.000       0.000    
     110  0.7000E-01  0.6364E-03 SPRIN          1   0.0%   39.20      0.5000      0.3097E-02   39.71       0.000       1.000       0.000    
     120  0.7637E-01  0.6364E-03 SPRIN          1   0.0%   46.66      0.5000      0.9836E-04   47.16       0.000       1.000       0.000    
     130  0.8273E-01  0.6364E-03 SPRIN          1   0.0%   54.76      0.5000      0.2874E-03   55.26       0.000       1.000       0.000    
     140  0.8910E-01  0.6364E-03 SPRIN          1   0.0%   63.50      0.5000      0.1833E-02   64.00       0.000       1.000       0.000    
     150  0.9546E-01  0.6364E-03 SPRIN          1   0.0%   72.61      0.5001      0.6229E-03   73.11       0.000       1.000       0.000    
     160  0.1018      0.6364E-03 SPRIN          1   0.0%   81.88      0.5001      0.1278E-02   82.38       0.000       1.000       0.000    
     170  0.1082      0.6364E-03 SPRIN          1   0.0%   91.33      0.5001      0.2484E-03   91.83       0.000       1.000       0.000    
     180  0.1146      0.6364E-03 SPRIN          1   0.0%   100.9      0.5001      0.6123E-03   101.4       0.000       1.000       0.000    
     190  0.1209      0.6364E-03 SPRIN          1   0.0%   110.7      0.5001      0.1116E-04   111.2       0.000       1.000       0.000    
     200  0.1273      0.6364E-03 SPRIN          1   0.0%   120.7      0.5001      0.1286E-03   121.2       0.000       1.000       0.000    
     210  0.1336      0.6364E-03 SPRIN          1   0.0%   130.8      0.5001      0.1119E-03   131.3       0.000       1.000       0.000    
     220  0.1400      0.6364E-03 SPRIN          1   0.0%   141.1      0.5002      0.6785E-05   141.6       0.000       1.000       0.000    
     230  0.1464      0.6364E-03 SPRIN          1   0.0%   151.6      0.5001      0.5789E-03   152.1       0.000       1.000       0.000    
     240  0.1527      0.6364E-03 SPRIN          1   0.0%   162.2      0.5002      0.2295E-03   162.7       0.000       1.000       0.000    
     250  0.1591      0.6364E-03 SPRIN          1   0.0%   173.0      0.5002      0.1241E-02   173.5       0.000       1.000       0.000    
     260  0.1655      0.6364E-03 SPRIN          1   0.0%   184.0      0.5002      0.6030E-03   184.5       0.000       1.000       0.000    
     270  0.1718      0.6364E-03 SPRIN          1   0.0%   195.2      0.5002      0.1810E-02   195.7       0.000       1.000       0.000    
     280  0.1782      0.6364E-03 SPRIN          1   0.0%   206.5      0.5003      0.8714E-03   207.0       0.000       1.000       0.000    
     290  0.1846      0.6364E-03 SPRIN          1  -0.0%   218.0      0.5002      0.2024E-02   218.5       0.000       1.000       0.000    
     300  0.1909      0.6364E-03 SPRIN          1   0.0%   229.7      0.5003      0.8614E-03   230.2       0.000       1.000       0.000    
     310  0.1973      0.6364E-03 SPRIN          1   0.0%   241.5      0.5003      0.1782E-02   242.0       0.000       1.000       0.000    
     320  0.2036      0.6364E-03 SPRIN          1   0.0%   253.5      0.5003      0.5796E-03   254.0       0.000       1.000       0.000    
     330  0.2100      0.6364E-03 SPRIN          1   0.0%   265.7      0.5003      0.1199E-02   266.2       0.000       1.000       0.000    
     340  0.2164      0.6364E-03 SPRIN          1   0.0%   278.0      0.5004      0.2083E-03   278.5       0.000       1.000       0.000    
     350  0.2227      0.6364E-03 SPRIN          1   0.0%   290.6      0.5004      0.5413E-03   291.1       0.000       1.000       0.000    
     360  0.2291      0.6364E-03 SPRIN          1   0.0%   303.3      0.5004      0.3074E-05   303.8       0.000       1.000       0.000    
     370  0.2355      0.6364E-03 SPRIN          1   0.0%   316.1      0.5005      0.9439E-04   316.6       0.000       1.000       0.000    
     380  0.2418      0.6364E-03 SPRIN          1   0.0%   329.1      0.5004      0.1487E-03   329.7       0.000       1.000       0.000    
     390  0.2482      0.6364E-03 SPRIN          1   0.0%   342.4      0.5004      0.1718E-04   342.9       0.000       1.000       0.000    
     400  0.2546      0.6364E-03 SPRIN          1   0.0%   355.7      0.5005      0.6495E-03   356.2       0.000       1.000       0.000    
     410  0.2609      0.6364E-03 SPRIN          1   0.0%   369.3      0.5005      0.2689E-03   369.8       0.000       1.000       0.000    
     420  0.2673      0.6364E-03 SPRIN          1   0.0%   383.0      0.5005      0.1316E-02   383.5       0.000       1.000       0.000    
     430  0.2736      0.6364E-03 SPRIN          1   0.0%   396.9      0.5006      0.6424E-03   397.4       0.000       1.000       0.000    
     440  0.2800      0.6364E-03 SPRIN          1   0.0%   410.9      0.5006      0.1855E-02   411.4       0.000       1.000       0.000    
     450  0.2864      0.6364E-03 SPRIN          1   0.0%   425.2      0.5006      0.8852E-03   425.7       0.000       1.000       0.000    
     460  0.2927      0.6364E-03 SPRIN          1   0.0%   439.6      0.5007      0.2020E-02   440.1       0.000       1.000       0.000    
     470  0.2991      0.6364E-03 SPRIN          1   0.0%   454.2      0.5007      0.8418E-03   454.7       0.000       1.000       0.000    
     480  0.3055      0.6364E-03 SPRIN          1   0.0%   468.9      0.5007      0.1732E-02   469.4       0.000       1.000       0.000    
     490  0.3118      0.6363E-03 SPRIN          1   0.0%   483.8      0.5008      0.5397E-03   484.3       0.000       1.000       0.000    
     500  0.3182      0.6363E-03 SPRIN          1   0.0%   498.9      0.5008      0.1128E-02   499.4       0.000       1.000       0.000    
     510  0.3246      0.6363E-03 SPRIN          1   0.0%   514.2      0.5008      0.1745E-03   514.7       0.000       1.000       0.000    
     520  0.3309      0.6363E-03 SPRIN          1   0.0%   529.6      0.5009      0.4810E-03   530.1       0.000       1.000       0.000    
     530  0.3373      0.6363E-03 SPRIN          1   0.0%   545.2      0.5010      0.1128E-06   545.7       0.000       1.000       0.000    
     540  0.3436      0.6363E-03 SPRIN          1   0.0%   561.0      0.5009      0.6865E-04   561.5       0.000       1.000       0.000    
   CYCLE    TIME      TIME-STEP  ELEMENT          ERROR  I-ENERGY    K-ENERGY T  K-ENERGY R  EXT-WORK     MAS.ERR     TOTAL MASS  MASS ADDED
     550  0.3500      0.6363E-03 SPRIN          1   0.0%   576.9      0.5009      0.1853E-03   577.4       0.000       1.000       0.000    
     560  0.3564      0.6363E-03 SPRIN          1   0.0%   593.0      0.5011      0.2995E-04   593.5       0.000       1.000       0.000    
     570  0.3627      0.6363E-03 SPRIN          1   0.0%   609.3      0.5010      0.7131E-03   609.8       0.000       1.000       0.000    
     580  0.3691      0.6363E-03 SPRIN          1   0.0%   625.8      0.5010      0.3043E-03   626.3       0.000       1.000       0.000    
     590  0.3755      0.6363E-03 SPRIN          1   0.0%   642.4      0.5012      0.1379E-02   642.9       0.000       1.000       0.000    
     600  0.3818      0.6363E-03 SPRIN          1   0.0%   659.2      0.5011      0.6748E-03   659.7       0.000       1.000       0.000    
     610  0.3882      0.6363E-03 SPRIN          1   0.0%   676.2      0.5011      0.1890E-02   676.7       0.000       1.000       0.000    
     620  0.3945      0.6363E-03 SPRIN          1   0.0%   693.3      0.5013      0.8941E-03   693.8       0.000       1.000       0.000    
     630  0.4009      0.6363E-03 SPRIN          1   0.0%   710.7      0.5013      0.2012E-02   711.2       0.000       1.000       0.000    
     640  0.4073      0.6363E-03 SPRIN          1   0.0%   728.1      0.5013      0.8223E-03   728.6       0.000       1.000       0.000    
     650  0.4136      0.6363E-03 SPRIN          1   0.0%   745.8      0.5014      0.1687E-02   746.3       0.000       1.000       0.000    
     660  0.4200      0.6363E-03 SPRIN          1   0.0%   763.6      0.5014      0.5053E-03   764.1       0.000       1.000       0.000    
     670  0.4264      0.6363E-03 SPRIN          1   0.0%   781.6      0.5014      0.1068E-02   782.2       0.000       1.000       0.000    
     680  0.4327      0.6363E-03 SPRIN          1   0.0%   799.8      0.5016      0.1479E-03   800.3       0.000       1.000       0.000    
     690  0.4391      0.6363E-03 SPRIN          1   0.0%   818.2      0.5016      0.4330E-03   818.7       0.000       1.000       0.000    
     700  0.4455      0.6363E-03 SPRIN          1   0.0%   836.7      0.5015      0.7221E-06   837.2       0.000       1.000       0.000    
     710  0.4518      0.6363E-03 SPRIN          1   0.0%   855.4      0.5017      0.5054E-04   855.9       0.000       1.000       0.000    
     720  0.4582      0.6363E-03 SPRIN          1   0.0%   874.3      0.5017      0.2180E-03   874.8       0.000       1.000       0.000    
     730  0.4645      0.6363E-03 SPRIN          1   0.0%   893.3      0.5016      0.4274E-04   893.8       0.000       1.000       0.000    
     740  0.4709      0.6363E-03 SPRIN          1   0.0%   912.5      0.5018      0.7659E-03   913.0       0.000       1.000       0.000    
     750  0.4773      0.6363E-03 SPRIN          1   0.0%   931.9      0.5019      0.3334E-03   932.4       0.000       1.000       0.000    
     760  0.4836      0.6363E-03 SPRIN          1   0.0%   951.4      0.5018      0.1429E-02   951.9       0.000       1.000       0.000    
     770  0.4900      0.6363E-03 SPRIN          1   0.0%   971.2      0.5019      0.6994E-03   971.7       0.000       1.000       0.000    
     780  0.4964      0.6363E-03 SPRIN          1   0.0%   991.1      0.5021      0.1916E-02   991.6       0.000       1.000       0.000    
     790  0.5027      0.6363E-03 SPRIN          1  -0.0%   1011.      0.5020      0.8989E-03   1012.       0.000       1.000       0.000    
     800  0.5091      0.6363E-03 SPRIN          1   0.0%   1031.      0.5021      0.2003E-02   1032.       0.000       1.000       0.000    
     810  0.5154      0.6363E-03 SPRIN          1   0.0%   1052.      0.5022      0.8056E-03   1052.       0.000       1.000       0.000    
     820  0.5218      0.6363E-03 SPRIN          1   0.0%   1072.      0.5021      0.1651E-02   1073.       0.000       1.000       0.000    
     830  0.5282      0.6363E-03 SPRIN          1   0.0%   1093.      0.5022      0.4786E-03   1094.       0.000       1.000       0.000    
     840  0.5345      0.6363E-03 SPRIN          1   0.0%   1114.      0.5024      0.1022E-02   1115.       0.000       1.000       0.000    
     850  0.5409      0.6363E-03 SPRIN          1   0.0%   1135.      0.5023      0.1289E-03   1136.       0.000       1.000       0.000    
     860  0.5473      0.6363E-03 SPRIN          1   0.0%   1156.      0.5023      0.3986E-03   1157.       0.000       1.000       0.000    
     870  0.5536      0.6363E-03 SPRIN          1   0.0%   1178.      0.5026      0.3013E-05   1178.       0.000       1.000       0.000    
     880  0.5600      0.6363E-03 SPRIN          1   0.0%   1200.      0.5025      0.3905E-04   1200.       0.000       1.000       0.000    
     890  0.5664      0.6363E-03 SPRIN          1   0.0%   1221.      0.5025      0.2436E-03   1222.       0.000       1.000       0.000    
     900  0.5727      0.6363E-03 SPRIN          1   0.0%   1243.      0.5028      0.5321E-04   1244.       0.000       1.000       0.000    
     910  0.5791      0.6363E-03 SPRIN          1   0.0%   1265.      0.5027      0.8044E-03   1266.       0.000       1.000       0.000    
     920  0.5854      0.6363E-03 SPRIN          1   0.0%   1288.      0.5027      0.3541E-03   1288.       0.000       1.000       0.000    
     930  0.5918      0.6363E-03 SPRIN          1   0.0%   1310.      0.5029      0.1464E-02   1311.       0.000       1.000       0.000    
     940  0.5982      0.6363E-03 SPRIN          1   0.0%   1333.      0.5029      0.7155E-03   1333.       0.000       1.000       0.000    
     950  0.6045      0.6363E-03 SPRIN          1   0.0%   1356.      0.5028      0.1932E-02   1356.       0.000       1.000       0.000    
     960  0.6109      0.6363E-03 SPRIN          1  -0.0%   1379.      0.5031      0.9009E-03   1379.       0.000       1.000       0.000    
     970  0.6173      0.6363E-03 SPRIN          1   0.0%   1402.      0.5032      0.1997E-02   1402.       0.000       1.000       0.000    
     980  0.6236      0.6362E-03 SPRIN          1   0.0%   1425.      0.5030      0.7937E-03   1426.       0.000       1.000       0.000    
     990  0.6300      0.6362E-03 SPRIN          1   0.0%   1449.      0.5032      0.1628E-02   1449.       0.000       1.000       0.000    
    1000  0.6363      0.6362E-03 SPRIN          1   0.0%   1473.      0.5034      0.4614E-03   1473.       0.000       1.000       0.000    
    1010  0.6427      0.6362E-03 SPRIN          1   0.0%   1496.      0.5032      0.9946E-03   1497.       0.000       1.000       0.000    
    1020  0.6491      0.6362E-03 SPRIN          1   0.0%   1521.      0.5034      0.1178E-03   1521.       0.000       1.000       0.000    
    1030  0.6554      0.6362E-03 SPRIN          1   0.0%   1545.      0.5036      0.3787E-03   1545.       0.000       1.000       0.000    
    1040  0.6618      0.6362E-03 SPRIN          1   0.0%   1569.      0.5035      0.5115E-05   1570.       0.000       1.000       0.000    
    1050  0.6682      0.6362E-03 SPRIN          1   0.0%   1594.      0.5036      0.3323E-04   1594.       0.000       1.000       0.000    
    1060  0.6745      0.6362E-03 SPRIN          1   0.0%   1618.      0.5038      0.2585E-03   1619.       0.000       1.000       0.000    
    1070  0.6809      0.6362E-03 SPRIN          1   0.0%   1643.      0.5037      0.5920E-04   1644.       0.000       1.000       0.000    
    1080  0.6872      0.6362E-03 SPRIN          1   0.0%   1668.      0.5038      0.8251E-03   1669.       0.000       1.000       0.000    
    1090  0.6936      0.6362E-03 SPRIN          1   0.0%   1694.      0.5041      0.3644E-03   1694.       0.000       1.000       0.000    
   CYCLE    TIME      TIME-STEP  ELEMENT          ERROR  I-ENERGY    K-ENERGY T  K-ENERGY R  EXT-WORK     MAS.ERR     TOTAL MASS  MASS ADDED
    1100  0.7000      0.6362E-03 SPRIN          1   0.0%   1719.      0.5040      0.1481E-02   1720.       0.000       1.000       0.000    
    1110  0.7063      0.6362E-03 SPRIN          1   0.0%   1745.      0.5040      0.7225E-03   1745.       0.000       1.000       0.000    
    1120  0.7127      0.6362E-03 SPRIN          1   0.0%   1771.      0.5043      0.1940E-02   1771.       0.000       1.000       0.000    
    1130  0.7190      0.6362E-03 SPRIN          1  -0.0%   1797.      0.5042      0.9010E-03   1797.       0.000       1.000       0.000    
    1140  0.7254      0.6362E-03 SPRIN          1   0.0%   1823.      0.5042      0.1995E-02   1823.       0.000       1.000       0.000    
    1150  0.7318      0.6362E-03 SPRIN          1   0.0%   1849.      0.5045      0.7886E-03   1849.       0.000       1.000       0.000    
    1160  0.7381      0.6362E-03 SPRIN          1   0.0%   1875.      0.5045      0.1620E-02   1876.       0.000       1.000       0.000    
    1170  0.7445      0.6362E-03 SPRIN          1   0.0%   1902.      0.5044      0.4555E-03   1903.       0.000       1.000       0.000    
    1180  0.7509      0.6362E-03 SPRIN          1   0.0%   1929.      0.5047      0.9871E-03   1929.       0.000       1.000       0.000    
    1190  0.7572      0.6362E-03 SPRIN          1   0.0%   1956.      0.5048      0.1148E-03   1956.       0.000       1.000       0.000    
    1200  0.7636      0.6362E-03 SPRIN          1   0.0%   1983.      0.5050      0.6432E-03   1984.       0.000       1.000       0.000    
    1210  0.7699      0.6362E-03 SPRIN          1   0.0%   2010.      0.5059      0.7979E-03   2011.       0.000       1.000       0.000    
    1220  0.7763      0.6362E-03 SPRIN          1   0.0%   2037.      0.5052      0.9740E-03   2038.       0.000       1.000       0.000    
    1230  0.7827      0.6362E-03 SPRIN          1   0.0%   2065.      0.5052      0.1129E-02   2065.       0.000       1.000       0.000    
    1240  0.7890      0.6362E-03 SPRIN          1   0.0%   2092.      0.5061      0.1299E-02   2092.       0.000       1.000       0.000    
    1250  0.7954      0.6362E-03 SPRIN          1   0.0%   2119.      0.5056      0.1435E-02   2119.       0.000       1.000       0.000    
    1260  0.8018      0.6362E-03 SPRIN          1   0.0%   2146.      0.5054      0.1578E-02   2147.       0.000       1.000       0.000    
    1270  0.8081      0.6362E-03 SPRIN          1   0.0%   2173.      0.5064      0.1675E-02   2174.       0.000       1.000       0.000    
    1280  0.8145      0.6362E-03 SPRIN          1   0.0%   2200.      0.5061      0.1772E-02   2201.       0.000       1.000       0.000    
    1290  0.8208      0.6362E-03 SPRIN          1   0.0%   2228.      0.5056      0.1816E-02   2228.       0.000       1.000       0.000    
    1300  0.8272      0.6362E-03 SPRIN          1  -0.0%   2255.      0.5066      0.1858E-02   2255.       0.000       1.000       0.000    
    1310  0.8336      0.6362E-03 SPRIN          1  -0.0%   2282.      0.5065      0.1843E-02   2283.       0.000       1.000       0.000    
    1320  0.8399      0.6362E-03 SPRIN          1   0.0%   2309.      0.5059      0.1825E-02   2310.       0.000       1.000       0.000    
    1330  0.8463      0.6362E-03 SPRIN          1   0.0%   2336.      0.5068      0.1750E-02   2337.       0.000       1.000       0.000    
    1340  0.8526      0.6362E-03 SPRIN          1   0.0%   2364.      0.5070      0.1675E-02   2364.       0.000       1.000       0.000    
    1350  0.8590      0.6362E-03 SPRIN          1   0.0%   2391.      0.5062      0.1549E-02   2391.       0.000       1.000       0.000    
    1360  0.8654      0.6362E-03 SPRIN          1   0.0%   2418.      0.5069      0.1429E-02   2419.       0.000       1.000       0.000    
    1370  0.8717      0.6362E-03 SPRIN          1   0.0%   2445.      0.5074      0.1268E-02   2446.       0.000       1.000       0.000    
    1380  0.8781      0.6362E-03 SPRIN          1   0.0%   2473.      0.5066      0.1118E-02   2473.       0.000       1.000       0.000    
    1390  0.8845      0.6362E-03 SPRIN          1   0.0%   2500.      0.5071      0.9407E-03   2500.       0.000       1.000       0.000    
    1400  0.8908      0.6362E-03 SPRIN          1   0.0%   2527.      0.5079      0.7820E-03   2528.       0.000       1.000       0.000    
    1410  0.8972      0.6362E-03 SPRIN          1   0.0%   2554.      0.5070      0.6110E-03   2555.       0.000       1.000       0.000    
    1420  0.9035      0.6361E-03 SPRIN          1   0.0%   2582.      0.5073      0.4660E-03   2582.       0.000       1.000       0.000    
    1430  0.9099      0.6361E-03 SPRIN          1   0.0%   2609.      0.5082      0.3226E-03   2609.       0.000       1.000       0.000    
    1440  0.9163      0.6361E-03 SPRIN          1   0.0%   2636.      0.5075      0.2100E-03   2637.       0.000       1.000       0.000    
    1450  0.9226      0.6361E-03 SPRIN          1   0.0%   2663.      0.5075      0.1121E-03   2664.       0.000       1.000       0.000    
    1460  0.9290      0.6361E-03 SPRIN          1   0.0%   2691.      0.5086      0.4773E-04   2691.       0.000       1.000       0.000    
    1470  0.9353      0.6361E-03 SPRIN          1   0.0%   2718.      0.5080      0.8213E-05   2718.       0.000       1.000       0.000    
    1480  0.9417      0.6361E-03 SPRIN          1   0.0%   2745.      0.5077      0.7863E-06   2746.       0.000       1.000       0.000    
    1490  0.9481      0.6361E-03 SPRIN          1   0.0%   2772.      0.5089      0.2453E-04   2773.       0.000       1.000       0.000    
    1500  0.9544      0.6361E-03 SPRIN          1   0.0%   2800.      0.5085      0.7517E-04   2800.       0.000       1.000       0.000    
    1510  0.9608      0.6361E-03 SPRIN          1   0.0%   2827.      0.5079      0.1595E-03   2827.       0.000       1.000       0.000    
    1520  0.9672      0.6361E-03 SPRIN          1   0.0%   2854.      0.5091      0.2614E-03   2855.       0.000       1.000       0.000    
    1530  0.9735      0.6361E-03 SPRIN          1   0.0%   2882.      0.5091      0.3952E-03   2882.       0.000       1.000       0.000    
    1540  0.9799      0.6361E-03 SPRIN          1   0.0%   2909.      0.5083      0.5344E-03   2909.       0.000       1.000       0.000    
    1550  0.9862      0.6361E-03 SPRIN          1   0.0%   2936.      0.5093      0.7015E-03   2937.       0.000       1.000       0.000    
    1560  0.9926      0.6361E-03 SPRIN          1   0.0%   2963.      0.5096      0.8598E-03   2964.       0.000       1.000       0.000    
    1570  0.9990      0.6361E-03 SPRIN          1   0.0%   2991.      0.5086      0.1038E-02   2991.       0.000       1.000       0.000    
    1580   1.005      0.6361E-03 SPRIN          1   0.0%   3018.      0.5095      0.1193E-02   3019.       0.000       1.000       0.000    
    1590   1.012      0.6361E-03 SPRIN          1   0.0%   3045.      0.5101      0.1361E-02   3046.       0.000       1.000       0.000    
    1600   1.018      0.6361E-03 SPRIN          1   0.0%   3073.      0.5091      0.1491E-02   3073.       0.000       1.000       0.000    
    1610   1.024      0.6361E-03 SPRIN          1   0.0%   3100.      0.5097      0.1627E-02   3101.       0.000       1.000       0.000    
    1620   1.031      0.6361E-03 SPRIN          1   0.0%   3127.      0.5106      0.1715E-02   3128.       0.000       1.000       0.000    
    1630   1.037      0.6361E-03 SPRIN          1   0.0%   3155.      0.5096      0.1802E-02   3155.       0.000       1.000       0.000    
    1640   1.043      0.6361E-03 SPRIN          1  -0.0%   3182.      0.5099      0.1833E-02   3183.       0.000       1.000       0.000    
   CYCLE    TIME      TIME-STEP  ELEMENT          ERROR  I-ENERGY    K-ENERGY T  K-ENERGY R  EXT-WORK     MAS.ERR     TOTAL MASS  MASS ADDED
    1650   1.050      0.6361E-03 SPRIN          1  -0.0%   3210.      0.5110      0.1861E-02   3210.       0.000       1.000       0.000    
    1660   1.056      0.6361E-03 SPRIN          1  -0.0%   3237.      0.5102      0.1831E-02   3237.       0.000       1.000       0.000    
    1670   1.063      0.6361E-03 SPRIN          1   0.0%   3264.      0.5101      0.1798E-02   3265.       0.000       1.000       0.000    
    1680   1.069      0.6361E-03 SPRIN          1   0.0%   3292.      0.5114      0.1710E-02   3292.       0.000       1.000       0.000    
    1690   1.075      0.6361E-03 SPRIN          1   0.0%   3319.      0.5108      0.1620E-02   3320.       0.000       1.000       0.000    
    1700   1.082      0.6361E-03 SPRIN          1   0.0%   3346.      0.5104      0.1482E-02   3347.       0.000       1.000       0.000    
    1710   1.088      0.6361E-03 SPRIN          1   0.0%   3374.      0.5117      0.1350E-02   3374.       0.000       1.000       0.000    
    1720   1.094      0.6361E-03 SPRIN          1   0.0%   3401.      0.5114      0.1181E-02   3402.       0.000       1.000       0.000    
    1730   1.101      0.6361E-03 SPRIN          1   0.0%   3429.      0.5107      0.1025E-02   3429.       0.000       1.000       0.000    
    1740   1.107      0.6361E-03 SPRIN          1   0.0%   3456.      0.5120      0.8458E-03   3457.       0.000       1.000       0.000    
    1750   1.113      0.6361E-03 SPRIN          1   0.0%   3484.      0.5121      0.6869E-03   3484.       0.000       1.000       0.000    
    1760   1.120      0.6361E-03 SPRIN          1   0.0%   3511.      0.5111      0.5199E-03   3511.       0.000       1.000       0.000    
    1770   1.126      0.6361E-03 SPRIN          1   0.0%   3538.      0.5122      0.3812E-03   3539.       0.000       1.000       0.000    
    1780   1.133      0.6361E-03 SPRIN          1   0.0%   3566.      0.5127      0.2485E-03   3566.       0.000       1.000       0.000    
    1790   1.139      0.6361E-03 SPRIN          1   0.0%   3593.      0.5116      0.1485E-03   3594.       0.000       1.000       0.000    
    1800   1.145      0.6361E-03 SPRIN          1   0.0%   3621.      0.5124      0.6688E-04   3621.       0.000       1.000       0.000    
    1810   1.152      0.6361E-03 SPRIN          1   0.0%   3648.      0.5133      0.1951E-04   3649.       0.000       1.000       0.000    
    1820   1.158      0.6361E-03 SPRIN          1   0.0%   3676.      0.5121      0.9494E-07   3676.       0.000       1.000       0.000    
    1830   1.164      0.6361E-03 SPRIN          1   0.0%   3703.      0.5126      0.1214E-04   3704.       0.000       1.000       0.000    
    1840   1.171      0.6361E-03 SPRIN          1   0.0%   3731.      0.5138      0.5726E-04   3731.       0.000       1.000       0.000    
    1850   1.177      0.6361E-03 SPRIN          1   0.0%   3758.      0.5128      0.1272E-03   3758.       0.000       1.000       0.000    
    1860   1.183      0.6361E-03 SPRIN          1   0.0%   3785.      0.5128      0.2314E-03   3786.       0.000       1.000       0.000    
    1870   1.190      0.6361E-03 SPRIN          1   0.0%   3813.      0.5143      0.3497E-03   3813.       0.000       1.000       0.000    
    1880   1.196      0.6361E-03 SPRIN          1   0.0%   3840.      0.5135      0.4990E-03   3841.       0.000       1.000       0.000    
    1890   1.203      0.6361E-03 SPRIN          1   0.0%   3868.      0.5131      0.6488E-03   3868.       0.000       1.000       0.000    
    1900   1.209      0.6361E-03 SPRIN          1   0.0%   3895.      0.5146      0.8244E-03   3896.       0.000       1.000       0.000    
    1910   1.215      0.6361E-03 SPRIN          1   0.0%   3923.      0.5142      0.9859E-03   3923.       0.000       1.000       0.000    
    1920   1.222      0.6361E-03 SPRIN          1   0.0%   3950.      0.5134      0.1165E-02   3951.       0.000       1.000       0.000    
    1930   1.228      0.6361E-03 SPRIN          1   0.0%   3978.      0.5149      0.1315E-02   3979.       0.000       1.000       0.000    
    1940   1.234      0.6361E-03 SPRIN          1   0.0%   4006.      0.5149      0.1474E-02   4006.       0.000       1.000       0.000    
    1950   1.241      0.6361E-03 SPRIN          1   0.0%   4033.      0.5139      0.1590E-02   4034.       0.000       1.000       0.000    
    1960   1.247      0.6361E-03 SPRIN          1   0.0%   4061.      0.5152      0.1710E-02   4061.       0.000       1.000       0.000    
    1970   1.253      0.6361E-03 SPRIN          1   0.0%   4088.      0.5157      0.1777E-02   4089.       0.000       1.000       0.000    
    1980   1.260      0.6360E-03 SPRIN          1  -0.0%   4116.      0.5144      0.1842E-02   4116.       0.000       1.000       0.000    
    1990   1.266      0.6360E-03 SPRIN          1  -0.0%   4143.      0.5154      0.1848E-02   4144.       0.000       1.000       0.000    
    2000   1.272      0.6360E-03 SPRIN          1  -0.0%   4171.      0.5163      0.1849E-02   4171.       0.000       1.000       0.000    
    2010   1.279      0.6360E-03 SPRIN          1   0.0%   4198.      0.5150      0.1793E-02   4199.       0.000       1.000       0.000    
    2020   1.285      0.6360E-03 SPRIN          1   0.0%   4226.      0.5156      0.1734E-02   4226.       0.000       1.000       0.000    
    2030   1.292      0.6360E-03 SPRIN          1   0.0%   4254.      0.5169      0.1622E-02   4254.       0.000       1.000       0.000    
    2040   1.298      0.6360E-03 SPRIN          1   0.0%   4281.      0.5158      0.1510E-02   4282.       0.000       1.000       0.000    
    2050   1.304      0.6360E-03 SPRIN          1   0.0%   4309.      0.5158      0.1354E-02   4309.       0.000       1.000       0.000    
    2060   1.311      0.6360E-03 SPRIN          1   0.0%   4336.      0.5174      0.1207E-02   4337.       0.000       1.000       0.000    
    2070   1.317      0.6360E-03 SPRIN          1   0.0%   4364.      0.5166      0.1028E-02   4364.       0.000       1.000       0.000    
    2080   1.323      0.6360E-03 SPRIN          1   0.0%   4392.      0.5161      0.8669E-03   4392.       0.000       1.000       0.000    
    2090   1.330      0.6360E-03 SPRIN          1   0.0%   4419.      0.5178      0.6886E-03   4420.       0.000       1.000       0.000    
    2100   1.336      0.6360E-03 SPRIN          1   0.0%   4447.      0.5174      0.5347E-03   4447.       0.000       1.000       0.000    
    2110   1.342      0.6360E-03 SPRIN          1   0.0%   4474.      0.5165      0.3799E-03   4475.       0.000       1.000       0.000    
    2120   1.349      0.6360E-03 SPRIN          1   0.0%   4502.      0.5181      0.2564E-03   4503.       0.000       1.000       0.000    
    2130   1.355      0.6360E-03 SPRIN          1   0.0%   4530.      0.5182      0.1460E-03   4530.       0.000       1.000       0.000    
    2140   1.362      0.6360E-03 SPRIN          1   0.0%   4557.      0.5170      0.6991E-04   4558.       0.000       1.000       0.000    
    2150   1.368      0.6360E-03 SPRIN          1   0.0%   4585.      0.5184      0.1800E-04   4586.       0.000       1.000       0.000    
    2160   1.374      0.6360E-03 SPRIN          1   0.0%   4613.      0.5190      0.1609E-06   4613.       0.000       1.000       0.000    
    2170   1.381      0.6360E-03 SPRIN          1   0.0%   4640.      0.5176      0.1412E-04   4641.       0.000       1.000       0.000    
    2180   1.387      0.6360E-03 SPRIN          1   0.0%   4668.      0.5186      0.5717E-04   4669.       0.000       1.000       0.000    
    2190   1.393      0.6360E-03 SPRIN          1   0.0%   4696.      0.5198      0.1350E-03   4696.       0.000       1.000       0.000    
   CYCLE    TIME      TIME-STEP  ELEMENT          ERROR  I-ENERGY    K-ENERGY T  K-ENERGY R  EXT-WORK     MAS.ERR     TOTAL MASS  MASS ADDED
    2200   1.400      0.6360E-03 SPRIN          1   0.0%   4723.      0.5184      0.2330E-03   4724.       0.000       1.000       0.000    
    2210   1.406      0.6360E-03 SPRIN          1   0.0%   4751.      0.5188      0.3650E-03   4752.       0.000       1.000       0.000    
    2220   1.412      0.6360E-03 SPRIN          1   0.0%   4779.      0.5204      0.5043E-03   4779.       0.000       1.000       0.000    
    2230   1.419      0.6360E-03 SPRIN          1   0.0%   4807.      0.5192      0.6723E-03   4807.       0.000       1.000       0.000    
    2240   1.425      0.6360E-03 SPRIN          1   0.0%   4834.      0.5191      0.8327E-03   4835.       0.000       1.000       0.000    
    2250   1.431      0.6360E-03 SPRIN          1   0.0%   4862.      0.5209      0.1015E-02   4863.       0.000       1.000       0.000    
    2260   1.438      0.6360E-03 SPRIN          1   0.0%   4890.      0.5201      0.1174E-02   4890.       0.000       1.000       0.000    
    2270   1.444      0.6360E-03 SPRIN          1   0.0%   4917.      0.5195      0.1347E-02   4918.       0.000       1.000       0.000    
    2280   1.451      0.6360E-03 SPRIN          1   0.0%   4945.      0.5213      0.1482E-02   4946.       0.000       1.000       0.000    
    2290   1.457      0.6360E-03 SPRIN          1   0.0%   4973.      0.5210      0.1621E-02   4974.       0.000       1.000       0.000    
    2300   1.463      0.6360E-03 SPRIN          1   0.0%   5001.      0.5199      0.1712E-02   5001.       0.000       1.000       0.000    
    2310   1.470      0.6360E-03 SPRIN          1   0.0%   5029.      0.5216      0.1801E-02   5029.       0.000       1.000       0.000    
    2320   1.476      0.6360E-03 SPRIN          1  -0.0%   5056.      0.5220      0.1834E-02   5057.       0.000       1.000       0.000    
    2330   1.482      0.6360E-03 SPRIN          1  -0.0%   5084.      0.5205      0.1862E-02   5085.       0.000       1.000       0.000    
    2340   1.489      0.6360E-03 SPRIN          1  -0.0%   5112.      0.5218      0.1830E-02   5112.       0.000       1.000       0.000    
    2350   1.495      0.6360E-03 SPRIN          1   0.0%   5140.      0.5228      0.1793E-02   5140.       0.000       1.000       0.000    
    2360   1.501      0.6360E-03 SPRIN          1   0.0%   5167.      0.5213      0.1700E-02   5168.       0.000       1.000       0.000    
    2370   1.508      0.6360E-03 SPRIN          1   0.0%   5195.      0.5221      0.1606E-02   5196.       0.000       1.000       0.000    
    2380   1.514      0.6360E-03 SPRIN          1   0.0%   5223.      0.5236      0.1463E-02   5224.       0.000       1.000       0.000    
    2390   1.521      0.6360E-03 SPRIN          1   0.0%   5251.      0.5222      0.1326E-02   5251.       0.000       1.000       0.000    
    2400   1.527      0.6360E-03 SPRIN          1   0.0%   5279.      0.5223      0.1151E-02   5279.       0.000       1.000       0.000    
    2410   1.533      0.6360E-03 SPRIN          1   0.0%   5307.      0.5242      0.9898E-03   5307.       0.000       1.000       0.000    
    2420   1.540      0.6360E-03 SPRIN          1   0.0%   5334.      0.5232      0.8070E-03   5335.       0.000       1.000       0.000    
    2430   1.546      0.6360E-03 SPRIN          1   0.0%   5362.      0.5226      0.6465E-03   5363.       0.000       1.000       0.000    
    2440   1.552      0.6360E-03 SPRIN          1   0.0%   5390.      0.5246      0.4794E-03   5391.       0.000       1.000       0.000    
    2450   1.559      0.6360E-03 SPRIN          1   0.0%   5418.      0.5242      0.3417E-03   5419.       0.000       1.000       0.000    
    2460   1.565      0.6360E-03 SPRIN          1   0.0%   5446.      0.5231      0.2129E-03   5446.       0.000       1.000       0.000    
    2470   1.571      0.6360E-03 SPRIN          1   0.0%   5474.      0.5250      0.1187E-03   5474.       0.000       1.000       0.000    
    2480   1.578      0.6360E-03 SPRIN          1   0.0%   5502.      0.5252      0.4606E-04   5502.       0.000       1.000       0.000    
    2490   1.584      0.6360E-03 SPRIN          1   0.0%   5530.      0.5238      0.8604E-05   5530.       0.000       1.000       0.000    
    2500   1.590      0.6360E-03 SPRIN          1   0.0%   5557.      0.5252      0.1625E-05   5558.       0.000       1.000       0.000    
    2510   1.597      0.6360E-03 SPRIN          1   0.0%   5585.      0.5262      0.2656E-04   5586.       0.000       1.000       0.000    
    2520   1.603      0.6359E-03 SPRIN          1   0.0%   5613.      0.5246      0.8653E-04   5614.       0.000       1.000       0.000    
    2530   1.610      0.6359E-03 SPRIN          1   0.0%   5641.      0.5254      0.1702E-03   5642.       0.000       1.000       0.000    
    2540   1.616      0.6359E-03 SPRIN          1   0.0%   5669.      0.5270      0.2889E-03   5670.       0.000       1.000       0.000    
    2550   1.622      0.6359E-03 SPRIN          1   0.0%   5697.      0.5255      0.4195E-03   5698.       0.000       1.000       0.000    
    2560   1.629      0.6359E-03 SPRIN          1   0.0%   5725.      0.5257      0.5815E-03   5726.       0.000       1.000       0.000    
    2570   1.635      0.6359E-03 SPRIN          1   0.0%   5753.      0.5277      0.7403E-03   5754.       0.000       1.000       0.000    
    2580   1.641      0.6359E-03 SPRIN          1   0.0%   5781.      0.5266      0.9228E-03   5782.       0.000       1.000       0.000    
    2590   1.648      0.6359E-03 SPRIN          1   0.0%   5809.      0.5261      0.1086E-02   5810.       0.000       1.000       0.000    
    2600   1.654      0.6359E-03 SPRIN          1   0.0%   5837.      0.5282      0.1265E-02   5838.       0.000       1.000       0.000    
    2610   1.660      0.6359E-03 SPRIN          1   0.0%   5865.      0.5277      0.1410E-02   5865.       0.000       1.000       0.000    
    2620   1.667      0.6359E-03 SPRIN          1   0.0%   5893.      0.5266      0.1562E-02   5893.       0.000       1.000       0.000    
    2630   1.673      0.6359E-03 SPRIN          1   0.0%   5921.      0.5285      0.1666E-02   5922.       0.000       1.000       0.000    
    2640   1.680      0.6359E-03 SPRIN          1   0.0%   5949.      0.5288      0.1769E-02   5950.       0.000       1.000       0.000    
    2650   1.686      0.6359E-03 SPRIN          1  -0.0%   5977.      0.5273      0.1816E-02   5978.       0.000       1.000       0.000    
    2660   1.692      0.6359E-03 SPRIN          1  -0.0%   6005.      0.5288      0.1859E-02   6006.       0.000       1.000       0.000    
    2670   1.699      0.6359E-03 SPRIN          1  -0.0%   6033.      0.5299      0.1842E-02   6034.       0.000       1.000       0.000    
    2680   1.705      0.6359E-03 SPRIN          1   0.0%   6061.      0.5281      0.1819E-02   6062.       0.000       1.000       0.000    
    2690   1.711      0.6359E-03 SPRIN          1   0.0%   6089.      0.5290      0.1737E-02   6090.       0.000       1.000       0.000    
    2700   1.718      0.6359E-03 SPRIN          1   0.0%   6117.      0.5307      0.1652E-02   6118.       0.000       1.000       0.000    
    2710   1.724      0.6359E-03 SPRIN          1   0.0%   6145.      0.5292      0.1517E-02   6146.       0.000       1.000       0.000    
    2720   1.730      0.6359E-03 SPRIN          1   0.0%   6173.      0.5293      0.1385E-02   6174.       0.000       1.000       0.000    
    2730   1.737      0.6359E-03 SPRIN          1   0.0%   6201.      0.5314      0.1213E-02   6202.       0.000       1.000       0.000    
    2740   1.743      0.6359E-03 SPRIN          1   0.0%   6230.      0.5304      0.1053E-02   6230.       0.000       1.000       0.000    
   CYCLE    TIME      TIME-STEP  ELEMENT          ERROR  I-ENERGY    K-ENERGY T  K-ENERGY R  EXT-WORK     MAS.ERR     TOTAL MASS  MASS ADDED
    2750   1.749      0.6359E-03 SPRIN          1   0.0%   6258.      0.5297      0.8676E-03   6258.       0.000       1.000       0.000    
    2760   1.756      0.6359E-03 SPRIN          1   0.0%   6286.      0.5319      0.7033E-03   6286.       0.000       1.000       0.000    
    2770   1.762      0.6359E-03 SPRIN          1   0.0%   6314.      0.5317      0.5304E-03   6314.       0.000       1.000       0.000    
    2780   1.769      0.6359E-03 SPRIN          1   0.0%   6342.      0.5303      0.3862E-03   6343.       0.000       1.000       0.000    
    2790   1.775      0.6359E-03 SPRIN          1   0.0%   6370.      0.5322      0.2486E-03   6371.       0.000       1.000       0.000    
    2800   1.781      0.6359E-03 SPRIN          1   0.0%   6398.      0.5328      0.1455E-03   6399.       0.000       1.000       0.000    
    2810   1.788      0.6359E-03 SPRIN          1   0.0%   6426.      0.5311      0.6281E-04   6427.       0.000       1.000       0.000    
    2820   1.794      0.6359E-03 SPRIN          1   0.0%   6455.      0.5325      0.1637E-04   6455.       0.000       1.000       0.000    
    2830   1.800      0.6359E-03 SPRIN          1   0.0%   6483.      0.5339      0.3755E-07   6483.       0.000       1.000       0.000    
    2840   1.807      0.6359E-03 SPRIN          1   0.0%   6511.      0.5321      0.1694E-04   6512.       0.000       1.000       0.000    
    2850   1.813      0.6359E-03 SPRIN          1   0.0%   6539.      0.5327      0.6939E-04   6540.       0.000       1.000       0.000    
    2860   1.819      0.6359E-03 SPRIN          1   0.0%   6567.      0.5348      0.1475E-03   6568.       0.000       1.000       0.000    
    2870   1.826      0.6359E-03 SPRIN          1   0.0%   6596.      0.5334      0.2614E-03   6596.       0.000       1.000       0.000    
    2880   1.832      0.6359E-03 SPRIN          1   0.0%   6624.      0.5330      0.3888E-03   6624.       0.000       1.000       0.000    
    2890   1.838      0.6359E-03 SPRIN          1   0.0%   6652.      0.5354      0.5487E-03   6653.       0.000       1.000       0.000    
    2900   1.845      0.6359E-03 SPRIN          1   0.0%   6680.      0.5347      0.7075E-03   6681.       0.000       1.000       0.000    
    2910   1.851      0.6359E-03 SPRIN          1   0.0%   6709.      0.5335      0.8915E-03   6709.       0.000       1.000       0.000    
    2920   1.858      0.6359E-03 SPRIN          1   0.0%   6737.      0.5358      0.1057E-02   6737.       0.000       1.000       0.000    
    2930   1.864      0.6359E-03 SPRIN          1   0.0%   6765.      0.5360      0.1239E-02   6766.       0.000       1.000       0.000    
    2940   1.870      0.6359E-03 SPRIN          1   0.0%   6793.      0.5343      0.1387E-02   6794.       0.000       1.000       0.000    
    2950   1.877      0.6359E-03 SPRIN          1   0.0%   6822.      0.5360      0.1544E-02   6822.       0.000       1.000       0.000    
    2960   1.883      0.6359E-03 SPRIN          1   0.0%   6850.      0.5372      0.1652E-02   6850.       0.000       1.000       0.000    
    2970   1.889      0.6359E-03 SPRIN          1   0.0%   6878.      0.5353      0.1761E-02   6879.       0.000       1.000       0.000    
    2980   1.896      0.6359E-03 SPRIN          1  -0.0%   6906.      0.5362      0.1811E-02   6907.       0.000       1.000       0.000    
    2990   1.902      0.6359E-03 SPRIN          1  -0.0%   6935.      0.5382      0.1858E-02   6935.       0.000       1.000       0.000    
    3000   1.908      0.6359E-03 SPRIN          1  -0.0%   6963.      0.5366      0.1843E-02   6964.       0.000       1.000       0.000    
    3010   1.915      0.6359E-03 SPRIN          1  -0.0%   6991.      0.5365      0.1823E-02   6992.       0.000       1.000       0.000    
    3020   1.921      0.6359E-03 SPRIN          1   0.0%   7020.      0.5390      0.1742E-02   7020.       0.000       1.000       0.000    
    3030   1.928      0.6359E-03 SPRIN          1   0.0%   7048.      0.5380      0.1659E-02   7049.       0.000       1.000       0.000    
    3040   1.934      0.6358E-03 SPRIN          1   0.0%   7076.      0.5370      0.1522E-02   7077.       0.000       1.000       0.000    
    3050   1.940      0.6358E-03 SPRIN          1   0.0%   7105.      0.5394      0.1390E-02   7105.       0.000       1.000       0.000    
    3060   1.947      0.6358E-03 SPRIN          1   0.0%   7133.      0.5394      0.1216E-02   7134.       0.000       1.000       0.000    
    3070   1.953      0.6358E-03 SPRIN          1   0.0%   7162.      0.5377      0.1055E-02   7162.       0.000       1.000       0.000    
    3080   1.959      0.6358E-03 SPRIN          1   0.0%   7190.      0.5397      0.8675E-03   7191.       0.000       1.000       0.000    
    3090   1.966      0.6358E-03 SPRIN          1   0.0%   7218.      0.5408      0.7011E-03   7219.       0.000       1.000       0.000    
    3100   1.972      0.6358E-03 SPRIN          1   0.0%   7247.      0.5388      0.5263E-03   7247.       0.000       1.000       0.000    
    3110   1.978      0.6358E-03 SPRIN          1   0.0%   7275.      0.5399      0.3812E-03   7276.       0.000       1.000       0.000    
    3120   1.985      0.6358E-03 SPRIN          1   0.0%   7304.      0.5419      0.2433E-03   7304.       0.000       1.000       0.000    
    3130   1.991      0.6358E-03 SPRIN          1   0.0%   7332.      0.5401      0.1404E-03   7333.       0.000       1.000       0.000    
    3140   1.997      0.6358E-03 SPRIN          1   0.0%   7361.      0.5402      0.5863E-04   7361.       0.000       1.000       0.000    
     ANIMATION FILE: SPR250A002 WRITTEN
    3150   2.004      0.6358E-03 SPRIN          1   0.0%   7389.      0.5427      0.1388E-04   7390.       0.000       1.000       0.000    
    3160   2.010      0.6358E-03 SPRIN          1   0.0%   7417.      0.5416      0.3155E-06   7418.       0.000       1.000       0.000    
    3170   2.017      0.6358E-03 SPRIN          1   0.0%   7446.      0.5407      0.2041E-04   7446.       0.000       1.000       0.000    
    3180   2.023      0.6358E-03 SPRIN          1   0.0%   7474.      0.5432      0.7687E-04   7475.       0.000       1.000       0.000    
    3190   2.029      0.6358E-03 SPRIN          1   0.0%   7503.      0.5432      0.1591E-03   7503.       0.000       1.000       0.000    
    3200   2.036      0.6358E-03 SPRIN          1   0.0%   7531.      0.5414      0.2779E-03   7532.       0.000       1.000       0.000    
    3210   2.042      0.6358E-03 SPRIN          1   0.0%   7560.      0.5435      0.4097E-03   7560.       0.000       1.000       0.000    
    3220   2.048      0.6358E-03 SPRIN          1   0.0%   7588.      0.5446      0.5736E-03   7589.       0.000       1.000       0.000    
    3230   2.055      0.6358E-03 SPRIN          1   0.0%   7617.      0.5425      0.7354E-03   7618.       0.000       1.000       0.000    
    3240   2.061      0.6358E-03 SPRIN          1   0.0%   7646.      0.5437      0.9223E-03   7646.       0.000       1.000       0.000    
    3250   2.067      0.6358E-03 SPRIN          1   0.0%   7674.      0.5458      0.1090E-02   7675.       0.000       1.000       0.000    
    3260   2.074      0.6358E-03 SPRIN          1   0.0%   7703.      0.5440      0.1272E-02   7703.       0.000       1.000       0.000    
    3270   2.080      0.6358E-03 SPRIN          1   0.0%   7731.      0.5440      0.1419E-02   7732.       0.000       1.000       0.000    
    3280   2.086      0.6358E-03 SPRIN          1   0.0%   7760.      0.5466      0.1572E-02   7760.       0.000       1.000       0.000    
    3290   2.093      0.6358E-03 SPRIN          1   0.0%   7788.      0.5456      0.1676E-02   7789.       0.000       1.000       0.000    
   CYCLE    TIME      TIME-STEP  ELEMENT          ERROR  I-ENERGY    K-ENERGY T  K-ENERGY R  EXT-WORK     MAS.ERR     TOTAL MASS  MASS ADDED
    3300   2.099      0.6358E-03 SPRIN          1   0.0%   7817.      0.5445      0.1779E-02   7818.       0.000       1.000       0.000    
    3310   2.106      0.6358E-03 SPRIN          1  -0.0%   7846.      0.5471      0.1823E-02   7846.       0.000       1.000       0.000    
    3320   2.112      0.6358E-03 SPRIN          1  -0.0%   7874.      0.5472      0.1861E-02   7875.       0.000       1.000       0.000    
    3330   2.118      0.6358E-03 SPRIN          1  -0.0%   7903.      0.5453      0.1837E-02   7903.       0.000       1.000       0.000    
    3340   2.125      0.6358E-03 SPRIN          1   0.0%   7932.      0.5474      0.1807E-02   7932.       0.000       1.000       0.000    
    3350   2.131      0.6358E-03 SPRIN          1   0.0%   7960.      0.5487      0.1717E-02   7961.       0.000       1.000       0.000    
    3360   2.137      0.6358E-03 SPRIN          1   0.0%   7989.      0.5466      0.1624E-02   7989.       0.000       1.000       0.000    
    3370   2.144      0.6358E-03 SPRIN          1   0.0%   8018.      0.5475      0.1479E-02   8018.       0.000       1.000       0.000    
    3380   2.150      0.6358E-03 SPRIN          1   0.0%   8046.      0.5499      0.1338E-02   8047.       0.000       1.000       0.000    
    3390   2.156      0.6358E-03 SPRIN          1   0.0%   8075.      0.5482      0.1159E-02   8075.       0.000       1.000       0.000    
    3400   2.163      0.6358E-03 SPRIN          1   0.0%   8104.      0.5479      0.9933E-03   8104.       0.000       1.000       0.000    
    3410   2.169      0.6358E-03 SPRIN          1   0.0%   8132.      0.5507      0.8043E-03   8133.       0.000       1.000       0.000    
    3420   2.175      0.6358E-03 SPRIN          1   0.0%   8161.      0.5499      0.6381E-03   8162.       0.000       1.000       0.000    
    3430   2.182      0.6358E-03 SPRIN          1   0.0%   8190.      0.5485      0.4664E-03   8190.       0.000       1.000       0.000    
    3440   2.188      0.6358E-03 SPRIN          1   0.0%   8219.      0.5511      0.3263E-03   8219.       0.000       1.000       0.000    
    3450   2.195      0.6358E-03 SPRIN          1   0.0%   8247.      0.5516      0.1970E-03   8248.       0.000       1.000       0.000    
    3460   2.201      0.6358E-03 SPRIN          1   0.0%   8276.      0.5495      0.1040E-03   8277.       0.000       1.000       0.000    
    3470   2.207      0.6358E-03 SPRIN          1   0.0%   8305.      0.5513      0.3514E-04   8305.       0.000       1.000       0.000    
    3480   2.214      0.6358E-03 SPRIN          1   0.0%   8334.      0.5531      0.3729E-05   8334.       0.000       1.000       0.000    
    3490   2.220      0.6358E-03 SPRIN          1   0.0%   8362.      0.5510      0.5804E-05   8363.       0.000       1.000       0.000    
    3500   2.226      0.6358E-03 SPRIN          1   0.0%   8391.      0.5515      0.4088E-04   8392.       0.000       1.000       0.000    
    3510   2.233      0.6358E-03 SPRIN          1   0.0%   8420.      0.5542      0.1135E-03   8421.       0.000       1.000       0.000    
    3520   2.239      0.6358E-03 SPRIN          1   0.0%   8449.      0.5527      0.2100E-03   8450.       0.000       1.000       0.000    
    3530   2.245      0.6357E-03 SPRIN          1   0.0%   8478.      0.5519      0.3431E-03   8478.       0.000       1.000       0.000    
    3540   2.252      0.6357E-03 SPRIN          1   0.0%   8507.      0.5548      0.4860E-03   8507.       0.000       1.000       0.000    
    3550   2.258      0.6357E-03 SPRIN          1   0.0%   8536.      0.5546      0.6599E-03   8536.       0.000       1.000       0.000    
    3560   2.264      0.6357E-03 SPRIN          1   0.0%   8564.      0.5527      0.8272E-03   8565.       0.000       1.000       0.000    
    3570   2.271      0.6357E-03 SPRIN          1   0.0%   8593.      0.5551      0.1018E-02   8594.       0.000       1.000       0.000    
    3580   2.277      0.6357E-03 SPRIN          1   0.0%   8622.      0.5563      0.1184E-02   8623.       0.000       1.000       0.000    
    3590   2.284      0.6357E-03 SPRIN          1   0.0%   8651.      0.5541      0.1363E-02   8652.       0.000       1.000       0.000    
    3600   2.290      0.6357E-03 SPRIN          1   0.0%   8680.      0.5552      0.1501E-02   8681.       0.000       1.000       0.000    
    3610   2.296      0.6357E-03 SPRIN          1   0.0%   8709.      0.5577      0.1643E-02   8710.       0.000       1.000       0.000    
    3620   2.303      0.6357E-03 SPRIN          1   0.0%   8738.      0.5558      0.1732E-02   8738.       0.000       1.000       0.000    
    3630   2.309      0.6357E-03 SPRIN          1  -0.0%   8767.      0.5555      0.1818E-02   8767.       0.000       1.000       0.000    
    3640   2.315      0.6357E-03 SPRIN          1  -0.0%   8796.      0.5585      0.1842E-02   8796.       0.000       1.000       0.000    
    3650   2.322      0.6357E-03 SPRIN          1  -0.0%   8825.      0.5578      0.1859E-02   8825.       0.000       1.000       0.000    
    3660   2.328      0.6357E-03 SPRIN          1  -0.0%   8854.      0.5562      0.1813E-02   8854.       0.000       1.000       0.000    
    3670   2.334      0.6357E-03 SPRIN          1   0.0%   8883.      0.5589      0.1761E-02   8883.       0.000       1.000       0.000    
    3680   2.341      0.6357E-03 SPRIN          1   0.0%   8912.      0.5597      0.1651E-02   8912.       0.000       1.000       0.000    
    3690   2.347      0.6357E-03 SPRIN          1   0.0%   8941.      0.5574      0.1539E-02   8941.       0.000       1.000       0.000    
    3700   2.353      0.6357E-03 SPRIN          1   0.0%   8970.      0.5591      0.1378E-02   8970.       0.000       1.000       0.000    
    3710   2.360      0.6357E-03 SPRIN          1   0.0%   8999.      0.5613      0.1224E-02   8999.       0.000       1.000       0.000    
    3720   2.366      0.6357E-03 SPRIN          1   0.0%   9028.      0.5591      0.1036E-02   9029.       0.000       1.000       0.000    
    3730   2.373      0.6357E-03 SPRIN          1   0.0%   9057.      0.5593      0.8659E-03   9058.       0.000       1.000       0.000    
    3740   2.379      0.6357E-03 SPRIN          1   0.0%   9086.      0.5623      0.6781E-03   9087.       0.000       1.000       0.000    
    3750   2.385      0.6357E-03 SPRIN          1   0.0%   9115.      0.5611      0.5167E-03   9116.       0.000       1.000       0.000    
    3760   2.392      0.6357E-03 SPRIN          1   0.0%   9144.      0.5599      0.3561E-03   9145.       0.000       1.000       0.000    
    3770   2.398      0.6357E-03 SPRIN          1   0.0%   9173.      0.5629      0.2300E-03   9174.       0.000       1.000       0.000    
    3780   2.404      0.6357E-03 SPRIN          1   0.0%   9203.      0.5632      0.1207E-03   9203.       0.000       1.000       0.000    
    3790   2.411      0.6357E-03 SPRIN          1   0.0%   9232.      0.5610      0.4943E-04   9232.       0.000       1.000       0.000    
    3800   2.417      0.6357E-03 SPRIN          1   0.0%   9261.      0.5630      0.7096E-05   9261.       0.000       1.000       0.000    
    3810   2.423      0.6357E-03 SPRIN          1   0.0%   9290.      0.5650      0.1946E-05   9291.       0.000       1.000       0.000    
    3820   2.430      0.6357E-03 SPRIN          1   0.0%   9319.      0.5626      0.3330E-04   9320.       0.000       1.000       0.000    
    3830   2.436      0.6357E-03 SPRIN          1   0.0%   9348.      0.5632      0.9511E-04   9349.       0.000       1.000       0.000    
    3840   2.442      0.6357E-03 SPRIN          1   0.0%   9378.      0.5662      0.1955E-03   9378.       0.000       1.000       0.000    
   CYCLE    TIME      TIME-STEP  ELEMENT          ERROR  I-ENERGY    K-ENERGY T  K-ENERGY R  EXT-WORK     MAS.ERR     TOTAL MASS  MASS ADDED
    3850   2.449      0.6357E-03 SPRIN          1   0.0%   9407.      0.5647      0.3150E-03   9407.       0.000       1.000       0.000    
    3860   2.455      0.6357E-03 SPRIN          1   0.0%   9436.      0.5637      0.4700E-03   9437.       0.000       1.000       0.000    
    3870   2.462      0.6357E-03 SPRIN          1   0.0%   9465.      0.5668      0.6281E-03   9466.       0.000       1.000       0.000    
    3880   2.468      0.6357E-03 SPRIN          1   0.0%   9494.      0.5669      0.8143E-03   9495.       0.000       1.000       0.000    
    3890   2.474      0.6357E-03 SPRIN          1   0.0%   9524.      0.5647      0.9861E-03   9524.       0.000       1.000       0.000    
    3900   2.481      0.6357E-03 SPRIN          1   0.0%   9553.      0.5670      0.1177E-02   9554.       0.000       1.000       0.000    
    3910   2.487      0.6357E-03 SPRIN          1   0.0%   9582.      0.5688      0.1336E-02   9583.       0.000       1.000       0.000    
    3920   2.493      0.6357E-03 SPRIN          1   0.0%   9612.      0.5664      0.1503E-02   9612.       0.000       1.000       0.000    
    3930   2.500      0.6357E-03 SPRIN          1   0.0%   9641.      0.5671      0.1621E-02   9641.       0.000       1.000       0.000    
    3940   2.506      0.6357E-03 SPRIN          1   0.0%   9670.      0.5702      0.1740E-02   9671.       0.000       1.000       0.000    
    3950   2.512      0.6357E-03 SPRIN          1  -0.0%   9700.      0.5686      0.1801E-02   9700.       0.000       1.000       0.000    
    3960   2.519      0.6357E-03 SPRIN          1  -0.0%   9729.      0.5676      0.1856E-02   9729.       0.000       1.000       0.000    
    3970   2.525      0.6357E-03 SPRIN          1  -0.0%   9758.      0.5708      0.1845E-02   9759.       0.000       1.000       0.000    
    3980   2.531      0.6357E-03 SPRIN          1  -0.0%   9788.      0.5709      0.1828E-02   9788.       0.000       1.000       0.000    
    3990   2.538      0.6357E-03 SPRIN          1   0.0%   9817.      0.5687      0.1747E-02   9818.       0.000       1.000       0.000    
    4000   2.544      0.6356E-03 SPRIN          1   0.0%   9846.      0.5710      0.1663E-02   9847.       0.000       1.000       0.000    
    4010   2.551      0.6356E-03 SPRIN          1   0.0%   9876.      0.5729      0.1523E-02   9876.       0.000       1.000       0.000    
    4020   2.557      0.6356E-03 SPRIN          1   0.0%   9905.      0.5705      0.1386E-02   9906.       0.000       1.000       0.000    
    4030   2.563      0.6356E-03 SPRIN          1   0.0%   9935.      0.5711      0.1206E-02   9935.       0.000       1.000       0.000    
    4040   2.570      0.6356E-03 SPRIN          1   0.0%   9964.      0.5743      0.1038E-02   9965.       0.000       1.000       0.000    
    4050   2.576      0.6356E-03 SPRIN          1   0.0%   9994.      0.5728      0.8446E-03   9994.       0.000       1.000       0.000    
    4060   2.582      0.6356E-03 SPRIN          1   0.0%  0.1002E+05  0.5716      0.6740E-03  0.1002E+05   0.000       1.000       0.000    
    4070   2.589      0.6356E-03 SPRIN          1   0.0%  0.1005E+05  0.5749      0.4956E-03  0.1005E+05   0.000       1.000       0.000    
    4080   2.595      0.6356E-03 SPRIN          1   0.0%  0.1008E+05  0.5752      0.3488E-03  0.1008E+05   0.000       1.000       0.000    
    4090   2.601      0.6356E-03 SPRIN          1   0.0%  0.1011E+05  0.5728      0.2124E-03  0.1011E+05   0.000       1.000       0.000    
    4100   2.608      0.6356E-03 SPRIN          1   0.0%  0.1014E+05  0.5751      0.1139E-03  0.1014E+05   0.000       1.000       0.000    
    4110   2.614      0.6356E-03 SPRIN          1   0.0%  0.1017E+05  0.5772      0.3997E-04  0.1017E+05   0.000       1.000       0.000    
    4120   2.620      0.6356E-03 SPRIN          1   0.0%  0.1020E+05  0.5748      0.5037E-05  0.1020E+05   0.000       1.000       0.000    
    4130   2.627      0.6356E-03 SPRIN          1   0.0%  0.1023E+05  0.5752      0.4846E-05  0.1023E+05   0.000       1.000       0.000    
    4140   2.633      0.6356E-03 SPRIN          1   0.0%  0.1026E+05  0.5785      0.3948E-04  0.1026E+05   0.000       1.000       0.000    
    4150   2.640      0.6356E-03 SPRIN          1   0.0%  0.1029E+05  0.5772      0.1132E-03  0.1029E+05   0.000       1.000       0.000    
    4160   2.646      0.6356E-03 SPRIN          1   0.0%  0.1032E+05  0.5758      0.2117E-03  0.1032E+05   0.000       1.000       0.000    
    4170   2.652      0.6356E-03 SPRIN          1   0.0%  0.1035E+05  0.5791      0.3485E-03  0.1035E+05   0.000       1.000       0.000    
    4180   2.659      0.6356E-03 SPRIN          1   0.0%  0.1038E+05  0.5797      0.4957E-03  0.1038E+05   0.000       1.000       0.000    
    4190   2.665      0.6356E-03 SPRIN          1   0.0%  0.1041E+05  0.5772      0.6749E-03  0.1041E+05   0.000       1.000       0.000    
    4200   2.671      0.6356E-03 SPRIN          1   0.0%  0.1044E+05  0.5792      0.8463E-03  0.1044E+05   0.000       1.000       0.000    
    4210   2.678      0.6356E-03 SPRIN          1   0.0%  0.1047E+05  0.5817      0.1041E-02  0.1047E+05   0.000       1.000       0.000    
    4220   2.684      0.6356E-03 SPRIN          1   0.0%  0.1050E+05  0.5794      0.1209E-02  0.1050E+05   0.000       1.000       0.000    
    4230   2.690      0.6356E-03 SPRIN          1   0.0%  0.1053E+05  0.5793      0.1391E-02  0.1053E+05   0.000       1.000       0.000    
    4240   2.697      0.6356E-03 SPRIN          1   0.0%  0.1056E+05  0.5828      0.1528E-02  0.1056E+05   0.000       1.000       0.000    
    4250   2.703      0.6356E-03 SPRIN          1   0.0%  0.1059E+05  0.5820      0.1668E-02  0.1059E+05   0.000       1.000       0.000    
    4260   2.709      0.6356E-03 SPRIN          1   0.0%  0.1062E+05  0.5801      0.1752E-02  0.1062E+05   0.000       1.000       0.000    
    4270   2.716      0.6356E-03 SPRIN          1  -0.0%  0.1064E+05  0.5832      0.1831E-02  0.1065E+05   0.000       1.000       0.000    
    4280   2.722      0.6356E-03 SPRIN          1  -0.0%  0.1067E+05  0.5845      0.1846E-02  0.1068E+05   0.000       1.000       0.000    
    4290   2.729      0.6356E-03 SPRIN          1  -0.0%  0.1070E+05  0.5818      0.1854E-02  0.1071E+05   0.000       1.000       0.000    
    4300   2.735      0.6356E-03 SPRIN          1  -0.0%  0.1073E+05  0.5833      0.1795E-02  0.1073E+05   0.000       1.000       0.000    
    4310   2.741      0.6356E-03 SPRIN          1   0.0%  0.1076E+05  0.5863      0.1730E-02  0.1076E+05   0.000       1.000       0.000    
    4320   2.748      0.6356E-03 SPRIN          1   0.0%  0.1079E+05  0.5843      0.1606E-02  0.1079E+05   0.000       1.000       0.000    
    4330   2.754      0.6356E-03 SPRIN          1   0.0%  0.1082E+05  0.5836      0.1483E-02  0.1082E+05   0.000       1.000       0.000    
    4340   2.760      0.6356E-03 SPRIN          1   0.0%  0.1085E+05  0.5872      0.1310E-02  0.1085E+05   0.000       1.000       0.000    
    4350   2.767      0.6356E-03 SPRIN          1   0.0%  0.1088E+05  0.5871      0.1147E-02  0.1088E+05   0.000       1.000       0.000    
    4360   2.773      0.6356E-03 SPRIN          1   0.0%  0.1091E+05  0.5847      0.9521E-03  0.1091E+05   0.000       1.000       0.000    
    4370   2.779      0.6356E-03 SPRIN          1   0.0%  0.1094E+05  0.5874      0.7777E-03  0.1094E+05   0.000       1.000       0.000    
    4380   2.786      0.6356E-03 SPRIN          1   0.0%  0.1097E+05  0.5895      0.5902E-03  0.1097E+05   0.000       1.000       0.000    
    4390   2.792      0.6356E-03 SPRIN          1   0.0%  0.1100E+05  0.5868      0.4324E-03  0.1100E+05   0.000       1.000       0.000    
   CYCLE    TIME      TIME-STEP  ELEMENT          ERROR  I-ENERGY    K-ENERGY T  K-ENERGY R  EXT-WORK     MAS.ERR     TOTAL MASS  MASS ADDED
    4400   2.798      0.6356E-03 SPRIN          1   0.0%  0.1103E+05  0.5874      0.2801E-03  0.1103E+05   0.000       1.000       0.000    
    4410   2.805      0.6356E-03 SPRIN          1   0.0%  0.1106E+05  0.5910      0.1653E-03  0.1106E+05   0.000       1.000       0.000    
    4420   2.811      0.6356E-03 SPRIN          1   0.0%  0.1109E+05  0.5896      0.7245E-04  0.1109E+05   0.000       1.000       0.000    
    4430   2.817      0.6356E-03 SPRIN          1   0.0%  0.1112E+05  0.5880      0.1956E-04  0.1112E+05   0.000       1.000       0.000    
    4440   2.824      0.6356E-03 SPRIN          1   0.0%  0.1115E+05  0.5915      0.4217E-08  0.1115E+05   0.000       1.000       0.000    
    4450   2.830      0.6355E-03 SPRIN          1   0.0%  0.1118E+05  0.5924      0.1774E-04  0.1118E+05   0.000       1.000       0.000    
    4460   2.837      0.6355E-03 SPRIN          1   0.0%  0.1121E+05  0.5897      0.7494E-04  0.1121E+05   0.000       1.000       0.000    
    4470   2.843      0.6355E-03 SPRIN          1   0.0%  0.1124E+05  0.5915      0.1604E-03  0.1124E+05   0.000       1.000       0.000    
    4480   2.849      0.6355E-03 SPRIN          1   0.0%  0.1127E+05  0.5945      0.2855E-03  0.1127E+05   0.000       1.000       0.000    
    4490   2.856      0.6355E-03 SPRIN          1   0.0%  0.1130E+05  0.5923      0.4251E-03  0.1130E+05   0.000       1.000       0.000    
    4500   2.862      0.6355E-03 SPRIN          1   0.0%  0.1133E+05  0.5917      0.5993E-03  0.1133E+05   0.000       1.000       0.000    
    4510   2.868      0.6355E-03 SPRIN          1   0.0%  0.1136E+05  0.5955      0.7699E-03  0.1136E+05   0.000       1.000       0.000    
    4520   2.875      0.6355E-03 SPRIN          1   0.0%  0.1139E+05  0.5953      0.9657E-03  0.1139E+05   0.000       1.000       0.000    
    4530   2.881      0.6355E-03 SPRIN          1   0.0%  0.1142E+05  0.5929      0.1139E-02  0.1142E+05   0.000       1.000       0.000    
    4540   2.887      0.6355E-03 SPRIN          1   0.0%  0.1145E+05  0.5957      0.1327E-02  0.1145E+05   0.000       1.000       0.000    
    4550   2.894      0.6355E-03 SPRIN          1   0.0%  0.1148E+05  0.5979      0.1475E-02  0.1148E+05   0.000       1.000       0.000    
    4560   2.900      0.6355E-03 SPRIN          1   0.0%  0.1151E+05  0.5952      0.1626E-02  0.1151E+05   0.000       1.000       0.000    
    4570   2.906      0.6355E-03 SPRIN          1   0.0%  0.1154E+05  0.5957      0.1721E-02  0.1154E+05   0.000       1.000       0.000    
    4580   2.913      0.6355E-03 SPRIN          1  -0.0%  0.1157E+05  0.5994      0.1813E-02  0.1157E+05   0.000       1.000       0.000    
    4590   2.919      0.6355E-03 SPRIN          1  -0.0%  0.1160E+05  0.5982      0.1840E-02  0.1160E+05   0.000       1.000       0.000    
    4600   2.926      0.6355E-03 SPRIN          1  -0.0%  0.1163E+05  0.5964      0.1860E-02  0.1164E+05   0.000       1.000       0.000    
    4610   2.932      0.6355E-03 SPRIN          1  -0.0%  0.1166E+05  0.5999      0.1812E-02  0.1167E+05   0.000       1.000       0.000    
    4620   2.938      0.6355E-03 SPRIN          1   0.0%  0.1170E+05  0.6012      0.1757E-02  0.1170E+05   0.000       1.000       0.000    
    4630   2.945      0.6355E-03 SPRIN          1   0.0%  0.1173E+05  0.5984      0.1640E-02  0.1173E+05   0.000       1.000       0.000    
    4640   2.951      0.6355E-03 SPRIN          1   0.0%  0.1176E+05  0.5998      0.1522E-02  0.1176E+05   0.000       1.000       0.000    
    4650   2.957      0.6355E-03 SPRIN          1   0.0%  0.1179E+05  0.6033      0.1353E-02  0.1179E+05   0.000       1.000       0.000    
    4660   2.964      0.6355E-03 SPRIN          1   0.0%  0.1182E+05  0.6013      0.1192E-02  0.1182E+05   0.000       1.000       0.000    
    4670   2.970      0.6355E-03 SPRIN          1   0.0%  0.1185E+05  0.6002      0.9958E-03  0.1185E+05   0.000       1.000       0.000    
    4680   2.976      0.6355E-03 SPRIN          1   0.0%  0.1188E+05  0.6041      0.8191E-03  0.1188E+05   0.000       1.000       0.000    
    4690   2.983      0.6355E-03 SPRIN          1   0.0%  0.1191E+05  0.6045      0.6272E-03  0.1191E+05   0.000       1.000       0.000    
    4700   2.989      0.6355E-03 SPRIN          1   0.0%  0.1194E+05  0.6018      0.4647E-03  0.1194E+05   0.000       1.000       0.000    
    4710   2.995      0.6355E-03 SPRIN          1   0.0%  0.1197E+05  0.6041      0.3059E-03  0.1197E+05   0.000       1.000       0.000    
    4720   3.002      0.6355E-03 SPRIN          1   0.0%  0.1200E+05  0.6070      0.1848E-03  0.1200E+05   0.000       1.000       0.000    
    4730   3.008      0.6355E-03 SPRIN          1   0.0%  0.1203E+05  0.6046      0.8491E-04  0.1203E+05   0.000       1.000       0.000    
    4740   3.015      0.6355E-03 SPRIN          1   0.0%  0.1206E+05  0.6042      0.2592E-04  0.1206E+05   0.000       1.000       0.000    
    4750   3.021      0.6355E-03 SPRIN          1   0.0%  0.1209E+05  0.6082      0.3106E-06  0.1209E+05   0.000       1.000       0.000    
    4760   3.027      0.6355E-03 SPRIN          1   0.0%  0.1212E+05  0.6079      0.1324E-04  0.1212E+05   0.000       1.000       0.000    
    4770   3.034      0.6355E-03 SPRIN          1   0.0%  0.1215E+05  0.6054      0.6636E-04  0.1215E+05   0.000       1.000       0.000    
    4780   3.040      0.6355E-03 SPRIN          1   0.0%  0.1218E+05  0.6083      0.1492E-03  0.1218E+05   0.000       1.000       0.000    
    4790   3.046      0.6355E-03 SPRIN          1   0.0%  0.1221E+05  0.6108      0.2725E-03  0.1221E+05   0.000       1.000       0.000    
    4800   3.053      0.6355E-03 SPRIN          1   0.0%  0.1224E+05  0.6080      0.4116E-03  0.1224E+05   0.000       1.000       0.000    
    4810   3.059      0.6355E-03 SPRIN          1   0.0%  0.1227E+05  0.6083      0.5864E-03  0.1227E+05   0.000       1.000       0.000    
    4820   3.065      0.6355E-03 SPRIN          1   0.0%  0.1230E+05  0.6124      0.7584E-03  0.1230E+05   0.000       1.000       0.000    
    4830   3.072      0.6355E-03 SPRIN          1   0.0%  0.1233E+05  0.6115      0.9563E-03  0.1233E+05   0.000       1.000       0.000    
    4840   3.078      0.6355E-03 SPRIN          1   0.0%  0.1236E+05  0.6093      0.1132E-02  0.1237E+05   0.000       1.000       0.000    
    4850   3.084      0.6355E-03 SPRIN          1   0.0%  0.1240E+05  0.6126      0.1323E-02  0.1240E+05   0.000       1.000       0.000    
    4860   3.091      0.6355E-03 SPRIN          1   0.0%  0.1243E+05  0.6146      0.1472E-02  0.1243E+05   0.000       1.000       0.000    
    4870   3.097      0.6354E-03 SPRIN          1   0.0%  0.1246E+05  0.6117      0.1626E-02  0.1246E+05   0.000       1.000       0.000    
    4880   3.103      0.6354E-03 SPRIN          1   0.0%  0.1249E+05  0.6125      0.1722E-02  0.1249E+05   0.000       1.000       0.000    
    4890   3.110      0.6354E-03 SPRIN          1  -0.0%  0.1252E+05  0.6165      0.1814E-02  0.1252E+05   0.000       1.000       0.000    
    4900   3.116      0.6354E-03 SPRIN          1  -0.0%  0.1255E+05  0.6152      0.1841E-02  0.1255E+05   0.000       1.000       0.000    
    4910   3.123      0.6354E-03 SPRIN          1  -0.0%  0.1258E+05  0.6133      0.1860E-02  0.1258E+05   0.000       1.000       0.000    
    4920   3.129      0.6354E-03 SPRIN          1  -0.0%  0.1261E+05  0.6169      0.1809E-02  0.1261E+05   0.000       1.000       0.000    
    4930   3.135      0.6354E-03 SPRIN          1   0.0%  0.1264E+05  0.6186      0.1752E-02  0.1264E+05   0.000       1.000       0.000    
    4940   3.142      0.6354E-03 SPRIN          1   0.0%  0.1267E+05  0.6156      0.1631E-02  0.1267E+05   0.000       1.000       0.000    
   CYCLE    TIME      TIME-STEP  ELEMENT          ERROR  I-ENERGY    K-ENERGY T  K-ENERGY R  EXT-WORK     MAS.ERR     TOTAL MASS  MASS ADDED
    4950   3.148      0.6354E-03 SPRIN          1   0.0%  0.1270E+05  0.6168      0.1510E-02  0.1270E+05   0.000       1.000       0.000    
    4960   3.154      0.6354E-03 SPRIN          1   0.0%  0.1273E+05  0.6207      0.1336E-02  0.1273E+05   0.000       1.000       0.000    
    4970   3.161      0.6354E-03 SPRIN          1   0.0%  0.1276E+05  0.6191      0.1172E-02  0.1276E+05   0.000       1.000       0.000    
    4980   3.167      0.6354E-03 SPRIN          1   0.0%  0.1279E+05  0.6174      0.9725E-03  0.1280E+05   0.000       1.000       0.000    
    4990   3.173      0.6354E-03 SPRIN          1   0.0%  0.1283E+05  0.6213      0.7939E-03  0.1283E+05   0.000       1.000       0.000    
    5000   3.180      0.6354E-03 SPRIN          1   0.0%  0.1286E+05  0.6227      0.6011E-03  0.1286E+05   0.000       1.000       0.000    
    5010   3.186      0.6354E-03 SPRIN          1   0.0%  0.1289E+05  0.6197      0.4390E-03  0.1289E+05   0.000       1.000       0.000    
    5020   3.192      0.6354E-03 SPRIN          1   0.0%  0.1292E+05  0.6211      0.2823E-03  0.1292E+05   0.000       1.000       0.000    
    5030   3.199      0.6354E-03 SPRIN          1   0.0%  0.1295E+05  0.6250      0.1647E-03  0.1295E+05   0.000       1.000       0.000    
    5040   3.205      0.6354E-03 SPRIN          1   0.0%  0.1298E+05  0.6233      0.7024E-04  0.1298E+05   0.000       1.000       0.000    
    5050   3.211      0.6354E-03 SPRIN          1   0.0%  0.1301E+05  0.6217      0.1760E-04  0.1301E+05   0.000       1.000       0.000    
    5060   3.218      0.6354E-03 SPRIN          1   0.0%  0.1304E+05  0.6256      0.1616E-06  0.1304E+05   0.000       1.000       0.000    
    5070   3.224      0.6354E-03 SPRIN          1   0.0%  0.1307E+05  0.6270      0.2155E-04  0.1307E+05   0.000       1.000       0.000    
    5080   3.231      0.6354E-03 SPRIN          1   0.0%  0.1310E+05  0.6239      0.8439E-04  0.1310E+05   0.000       1.000       0.000    
    5090   3.237      0.6354E-03 SPRIN          1   0.0%  0.1314E+05  0.6255      0.1761E-03  0.1314E+05   0.000       1.000       0.000    
    5100   3.243      0.6354E-03 SPRIN          1   0.0%  0.1317E+05  0.6294      0.3091E-03  0.1317E+05   0.000       1.000       0.000    
    5110   3.250      0.6354E-03 SPRIN          1   0.0%  0.1320E+05  0.6276      0.4560E-03  0.1320E+05   0.000       1.000       0.000    
    5120   3.256      0.6354E-03 SPRIN          1   0.0%  0.1323E+05  0.6260      0.6381E-03  0.1323E+05   0.000       1.000       0.000    
    5130   3.262      0.6354E-03 SPRIN          1   0.0%  0.1326E+05  0.6300      0.8144E-03  0.1326E+05   0.000       1.000       0.000    
    5140   3.269      0.6354E-03 SPRIN          1   0.0%  0.1329E+05  0.6314      0.1016E-02  0.1329E+05   0.000       1.000       0.000    
    5150   3.275      0.6354E-03 SPRIN          1   0.0%  0.1332E+05  0.6284      0.1191E-02  0.1332E+05   0.000       1.000       0.000    
    5160   3.281      0.6354E-03 SPRIN          1   0.0%  0.1335E+05  0.6298      0.1380E-02  0.1335E+05   0.000       1.000       0.000    
    5170   3.288      0.6354E-03 SPRIN          1   0.0%  0.1338E+05  0.6339      0.1524E-02  0.1338E+05   0.000       1.000       0.000    
    5180   3.294      0.6354E-03 SPRIN          1   0.0%  0.1342E+05  0.6322      0.1669E-02  0.1342E+05   0.000       1.000       0.000    
    5190   3.300      0.6354E-03 SPRIN          1  -0.0%  0.1345E+05  0.6304      0.1755E-02  0.1345E+05   0.000       1.000       0.000    
    5200   3.307      0.6354E-03 SPRIN          1  -0.0%  0.1348E+05  0.6344      0.1835E-02  0.1348E+05   0.000       1.000       0.000    
    5210   3.313      0.6354E-03 SPRIN          1  -0.0%  0.1351E+05  0.6361      0.1847E-02  0.1351E+05   0.000       1.000       0.000    
    5220   3.320      0.6354E-03 SPRIN          1  -0.0%  0.1354E+05  0.6330      0.1850E-02  0.1354E+05   0.000       1.000       0.000    
    5230   3.326      0.6354E-03 SPRIN          1  -0.0%  0.1357E+05  0.6342      0.1783E-02  0.1357E+05   0.000       1.000       0.000    
    5240   3.332      0.6354E-03 SPRIN          1   0.0%  0.1360E+05  0.6384      0.1710E-02  0.1360E+05   0.000       1.000       0.000    
    5250   3.339      0.6354E-03 SPRIN          1   0.0%  0.1363E+05  0.6370      0.1574E-02  0.1364E+05   0.000       1.000       0.000    
    5260   3.345      0.6353E-03 SPRIN          1   0.0%  0.1367E+05  0.6350      0.1439E-02  0.1367E+05   0.000       1.000       0.000    
    5270   3.351      0.6353E-03 SPRIN          1   0.0%  0.1370E+05  0.6388      0.1255E-02  0.1370E+05   0.000       1.000       0.000    
    5280   3.358      0.6353E-03 SPRIN          1   0.0%  0.1373E+05  0.6409      0.1082E-02  0.1373E+05   0.000       1.000       0.000    
    5290   3.364      0.6353E-03 SPRIN          1   0.0%  0.1376E+05  0.6378      0.8791E-03  0.1376E+05   0.000       1.000       0.000    
    5300   3.370      0.6353E-03 SPRIN          1   0.0%  0.1379E+05  0.6386      0.6998E-03  0.1379E+05   0.000       1.000       0.000    
    5310   3.377      0.6353E-03 SPRIN          1   0.0%  0.1382E+05  0.6431      0.5111E-03  0.1382E+05   0.000       1.000       0.000    
    5320   3.383      0.6353E-03 SPRIN          1   0.0%  0.1385E+05  0.6421      0.3562E-03  0.1385E+05   0.000       1.000       0.000    
    5330   3.389      0.6353E-03 SPRIN          1   0.0%  0.1389E+05  0.6397      0.2123E-03  0.1389E+05   0.000       1.000       0.000    
    5340   3.396      0.6353E-03 SPRIN          1   0.0%  0.1392E+05  0.6432      0.1099E-03  0.1392E+05   0.000       1.000       0.000    
    5350   3.402      0.6353E-03 SPRIN          1   0.0%  0.1395E+05  0.6459      0.3501E-04  0.1395E+05   0.000       1.000       0.000    
    5360   3.408      0.6353E-03 SPRIN          1   0.0%  0.1398E+05  0.6430      0.2700E-05  0.1398E+05   0.000       1.000       0.000    
    5370   3.415      0.6353E-03 SPRIN          1   0.0%  0.1401E+05  0.6431      0.9113E-05  0.1401E+05   0.000       1.000       0.000    
    5380   3.421      0.6353E-03 SPRIN          1   0.0%  0.1404E+05  0.6477      0.5300E-04  0.1404E+05   0.000       1.000       0.000    
    5390   3.428      0.6353E-03 SPRIN          1   0.0%  0.1407E+05  0.6474      0.1398E-03  0.1408E+05   0.000       1.000       0.000    
    5400   3.434      0.6353E-03 SPRIN          1   0.0%  0.1411E+05  0.6446      0.2521E-03  0.1411E+05   0.000       1.000       0.000    
    5410   3.440      0.6353E-03 SPRIN          1   0.0%  0.1414E+05  0.6477      0.4054E-03  0.1414E+05   0.000       1.000       0.000    
    5420   3.447      0.6353E-03 SPRIN          1   0.0%  0.1417E+05  0.6510      0.5670E-03  0.1417E+05   0.000       1.000       0.000    
    5430   3.453      0.6353E-03 SPRIN          1   0.0%  0.1420E+05  0.6484      0.7611E-03  0.1420E+05   0.000       1.000       0.000    
    5440   3.459      0.6353E-03 SPRIN          1   0.0%  0.1423E+05  0.6477      0.9424E-03  0.1423E+05   0.000       1.000       0.000    
    5450   3.466      0.6353E-03 SPRIN          1   0.0%  0.1426E+05  0.6523      0.1146E-02  0.1427E+05   0.000       1.000       0.000    
    5460   3.472      0.6353E-03 SPRIN          1   0.0%  0.1430E+05  0.6530      0.1316E-02  0.1430E+05   0.000       1.000       0.000    
    5470   3.478      0.6353E-03 SPRIN          1   0.0%  0.1433E+05  0.6498      0.1495E-02  0.1433E+05   0.000       1.000       0.000    
    5480   3.485      0.6353E-03 SPRIN          1   0.0%  0.1436E+05  0.6521      0.1621E-02  0.1436E+05   0.000       1.000       0.000    
    5490   3.491      0.6353E-03 SPRIN          1   0.0%  0.1439E+05  0.6561      0.1747E-02  0.1439E+05   0.000       1.000       0.000    
   CYCLE    TIME      TIME-STEP  ELEMENT          ERROR  I-ENERGY    K-ENERGY T  K-ENERGY R  EXT-WORK     MAS.ERR     TOTAL MASS  MASS ADDED
    5500   3.497      0.6353E-03 SPRIN          1  -0.0%  0.1442E+05  0.6541      0.1807E-02  0.1442E+05   0.000       1.000       0.000    
    5510   3.504      0.6353E-03 SPRIN          1  -0.0%  0.1446E+05  0.6525      0.1860E-02  0.1446E+05   0.000       1.000       0.000    
    5520   3.510      0.6353E-03 SPRIN          1  -0.0%  0.1449E+05  0.6569      0.1841E-02  0.1449E+05   0.000       1.000       0.000    
    5530   3.516      0.6353E-03 SPRIN          1  -0.0%  0.1452E+05  0.6586      0.1812E-02  0.1452E+05   0.000       1.000       0.000    
    5540   3.523      0.6353E-03 SPRIN          1   0.0%  0.1455E+05  0.6554      0.1715E-02  0.1455E+05   0.000       1.000       0.000    
    5550   3.529      0.6353E-03 SPRIN          1   0.0%  0.1458E+05  0.6566      0.1614E-02  0.1458E+05   0.000       1.000       0.000    
    5560   3.536      0.6353E-03 SPRIN          1   0.0%  0.1462E+05  0.6612      0.1453E-02  0.1462E+05   0.000       1.000       0.000    
    5570   3.542      0.6353E-03 SPRIN          1   0.0%  0.1465E+05  0.6601      0.1297E-02  0.1465E+05   0.000       1.000       0.000    
    5580   3.548      0.6353E-03 SPRIN          1   0.0%  0.1468E+05  0.6577      0.1098E-02  0.1468E+05   0.000       1.000       0.000    
    5590   3.555      0.6353E-03 SPRIN          1   0.0%  0.1471E+05  0.6613      0.9170E-03  0.1471E+05   0.000       1.000       0.000    
    5600   3.561      0.6353E-03 SPRIN          1   0.0%  0.1474E+05  0.6644      0.7138E-03  0.1474E+05   0.000       1.000       0.000    
    5610   3.567      0.6353E-03 SPRIN          1   0.0%  0.1478E+05  0.6614      0.5393E-03  0.1478E+05   0.000       1.000       0.000    
    5620   3.574      0.6353E-03 SPRIN          1   0.0%  0.1481E+05  0.6612      0.3646E-03  0.1481E+05   0.000       1.000       0.000    
    5630   3.580      0.6352E-03 SPRIN          1   0.0%  0.1484E+05  0.6660      0.2290E-03  0.1484E+05   0.000       1.000       0.000    
    5640   3.586      0.6352E-03 SPRIN          1   0.0%  0.1487E+05  0.6664      0.1131E-03  0.1487E+05   0.000       1.000       0.000    
    5650   3.593      0.6352E-03 SPRIN          1   0.0%  0.1490E+05  0.6633      0.4081E-04  0.1490E+05   0.000       1.000       0.000    
    5660   3.599      0.6352E-03 SPRIN          1   0.0%  0.1494E+05  0.6658      0.2851E-05  0.1494E+05   0.000       1.000       0.000    
    5670   3.605      0.6352E-03 SPRIN          1   0.0%  0.1497E+05  0.6699      0.7064E-05  0.1497E+05   0.000       1.000       0.000    
    5680   3.612      0.6352E-03 SPRIN          1   0.0%  0.1500E+05  0.6679      0.5390E-04  0.1500E+05   0.000       1.000       0.000    
    5690   3.618      0.6352E-03 SPRIN          1   0.0%  0.1503E+05  0.6662      0.1339E-03  0.1503E+05   0.000       1.000       0.000    
    5700   3.624      0.6352E-03 SPRIN          1   0.0%  0.1506E+05  0.6707      0.2578E-03  0.1507E+05   0.000       1.000       0.000    
    5710   3.631      0.6352E-03 SPRIN          1   0.0%  0.1510E+05  0.6727      0.3998E-03  0.1510E+05   0.000       1.000       0.000    
    5720   3.637      0.6352E-03 SPRIN          1   0.0%  0.1513E+05  0.6695      0.5799E-03  0.1513E+05   0.000       1.000       0.000    
    5730   3.644      0.6352E-03 SPRIN          1   0.0%  0.1516E+05  0.6703      0.7574E-03  0.1516E+05   0.000       1.000       0.000    
    5740   3.650      0.6352E-03 SPRIN          1   0.0%  0.1519E+05  0.6752      0.9632E-03  0.1519E+05   0.000       1.000       0.000    
    5750   3.656      0.6352E-03 SPRIN          1   0.0%  0.1523E+05  0.6747      0.1145E-02  0.1523E+05   0.000       1.000       0.000    
    5760   3.663      0.6352E-03 SPRIN          1   0.0%  0.1526E+05  0.6718      0.1342E-02  0.1526E+05   0.000       1.000       0.000    
    5770   3.669      0.6352E-03 SPRIN          1   0.0%  0.1529E+05  0.6752      0.1493E-02  0.1529E+05   0.000       1.000       0.000    
    5780   3.675      0.6352E-03 SPRIN          1   0.0%  0.1532E+05  0.6789      0.1648E-02  0.1532E+05   0.000       1.000       0.000    
    5790   3.682      0.6352E-03 SPRIN          1  -0.0%  0.1536E+05  0.6763      0.1742E-02  0.1536E+05   0.000       1.000       0.000    
    5800   3.688      0.6352E-03 SPRIN          1  -0.0%  0.1539E+05  0.6753      0.1830E-02  0.1539E+05   0.000       1.000       0.000    
    5810   3.694      0.6352E-03 SPRIN          1  -0.0%  0.1542E+05  0.6801      0.1846E-02  0.1542E+05   0.000       1.000       0.000    
    5820   3.701      0.6352E-03 SPRIN          1  -0.0%  0.1545E+05  0.6816      0.1852E-02  0.1545E+05   0.000       1.000       0.000    
    5830   3.707      0.6352E-03 SPRIN          1  -0.0%  0.1549E+05  0.6782      0.1786E-02  0.1549E+05   0.000       1.000       0.000    
    5840   3.713      0.6352E-03 SPRIN          1   0.0%  0.1552E+05  0.6797      0.1713E-02  0.1552E+05   0.000       1.000       0.000    
    5850   3.720      0.6352E-03 SPRIN          1   0.0%  0.1555E+05  0.6846      0.1574E-02  0.1555E+05   0.000       1.000       0.000    
    5860   3.726      0.6352E-03 SPRIN          1   0.0%  0.1558E+05  0.6836      0.1435E-02  0.1558E+05   0.000       1.000       0.000    
    5870   3.732      0.6352E-03 SPRIN          1   0.0%  0.1562E+05  0.6810      0.1245E-02  0.1562E+05   0.000       1.000       0.000    
    5880   3.739      0.6352E-03 SPRIN          1   0.0%  0.1565E+05  0.6846      0.1068E-02  0.1565E+05   0.000       1.000       0.000    
    5890   3.745      0.6352E-03 SPRIN          1   0.0%  0.1568E+05  0.6882      0.8598E-03  0.1568E+05   0.000       1.000       0.000    
    5900   3.751      0.6352E-03 SPRIN          1   0.0%  0.1571E+05  0.6855      0.6763E-03  0.1571E+05   0.000       1.000       0.000    
    5910   3.758      0.6352E-03 SPRIN          1   0.0%  0.1575E+05  0.6846      0.4846E-03  0.1575E+05   0.000       1.000       0.000    
    5920   3.764      0.6352E-03 SPRIN          1   0.0%  0.1578E+05  0.6896      0.3296E-03  0.1578E+05   0.000       1.000       0.000    
    5930   3.771      0.6352E-03 SPRIN          1   0.0%  0.1581E+05  0.6911      0.1881E-03  0.1581E+05   0.000       1.000       0.000    
    5940   3.777      0.6352E-03 SPRIN          1   0.0%  0.1585E+05  0.6877      0.9014E-04  0.1585E+05   0.000       1.000       0.000    
    5950   3.783      0.6352E-03 SPRIN          1   0.0%  0.1588E+05  0.6891      0.2281E-04  0.1588E+05   0.000       1.000       0.000    
    5960   3.790      0.6352E-03 SPRIN          1   0.0%  0.1591E+05  0.6941      0.1500E-06  0.1591E+05   0.000       1.000       0.000    
    5970   3.796      0.6352E-03 SPRIN          1   0.0%  0.1594E+05  0.6934      0.1921E-04  0.1594E+05   0.000       1.000       0.000    
    5980   3.802      0.6351E-03 SPRIN          1   0.0%  0.1598E+05  0.6906      0.7613E-04  0.1598E+05   0.000       1.000       0.000    
    5990   3.809      0.6351E-03 SPRIN          1   0.0%  0.1601E+05  0.6941      0.1785E-03  0.1601E+05   0.000       1.000       0.000    
    6000   3.815      0.6351E-03 SPRIN          1   0.0%  0.1604E+05  0.6980      0.3050E-03  0.1604E+05   0.000       1.000       0.000    
    6010   3.821      0.6351E-03 SPRIN          1   0.0%  0.1608E+05  0.6955      0.4728E-03  0.1608E+05   0.000       1.000       0.000    
    6020   3.828      0.6351E-03 SPRIN          1   0.0%  0.1611E+05  0.6943      0.6448E-03  0.1611E+05   0.000       1.000       0.000    
    6030   3.834      0.6351E-03 SPRIN          1   0.0%  0.1614E+05  0.6992      0.8495E-03  0.1614E+05   0.000       1.000       0.000    
    6040   3.840      0.6351E-03 SPRIN          1   0.0%  0.1617E+05  0.7012      0.1036E-02  0.1618E+05   0.000       1.000       0.000    
   CYCLE    TIME      TIME-STEP  ELEMENT          ERROR  I-ENERGY    K-ENERGY T  K-ENERGY R  EXT-WORK     MAS.ERR     TOTAL MASS  MASS ADDED
    6050   3.847      0.6351E-03 SPRIN          1   0.0%  0.1621E+05  0.6978      0.1242E-02  0.1621E+05   0.000       1.000       0.000    
    6060   3.853      0.6351E-03 SPRIN          1   0.0%  0.1624E+05  0.6987      0.1406E-02  0.1624E+05   0.000       1.000       0.000    
    6070   3.859      0.6351E-03 SPRIN          1   0.0%  0.1627E+05  0.7040      0.1578E-02  0.1627E+05   0.000       1.000       0.000    
    6080   3.866      0.6351E-03 SPRIN          1   0.0%  0.1631E+05  0.7039      0.1690E-02  0.1631E+05   0.000       1.000       0.000    
    6090   3.872      0.6351E-03 SPRIN          1  -0.0%  0.1634E+05  0.7008      0.1799E-02  0.1634E+05   0.000       1.000       0.000    
    6100   3.879      0.6351E-03 SPRIN          1  -0.0%  0.1637E+05  0.7037      0.1835E-02  0.1637E+05   0.000       1.000       0.000    
    6110   3.885      0.6351E-03 SPRIN          1  -0.0%  0.1641E+05  0.7083      0.1862E-02  0.1641E+05   0.000       1.000       0.000    
    6120   3.891      0.6351E-03 SPRIN          1  -0.0%  0.1644E+05  0.7064      0.1814E-02  0.1644E+05   0.000       1.000       0.000    
    6130   3.898      0.6351E-03 SPRIN          1  -0.0%  0.1647E+05  0.7044      0.1758E-02  0.1647E+05   0.000       1.000       0.000    
    6140   3.904      0.6351E-03 SPRIN          1   0.0%  0.1651E+05  0.7089      0.1632E-02  0.1651E+05   0.000       1.000       0.000    
    6150   3.910      0.6351E-03 SPRIN          1   0.0%  0.1654E+05  0.7120      0.1503E-02  0.1654E+05   0.000       1.000       0.000    
    6160   3.917      0.6351E-03 SPRIN          1   0.0%  0.1657E+05  0.7089      0.1319E-02  0.1657E+05   0.000       1.000       0.000    
    6170   3.923      0.6351E-03 SPRIN          1   0.0%  0.1661E+05  0.7086      0.1145E-02  0.1661E+05   0.000       1.000       0.000    
    6180   3.929      0.6351E-03 SPRIN          1   0.0%  0.1664E+05  0.7139      0.9350E-03  0.1664E+05   0.000       1.000       0.000    
    6190   3.936      0.6351E-03 SPRIN          1   0.0%  0.1667E+05  0.7152      0.7476E-03  0.1667E+05   0.000       1.000       0.000    
    6200   3.942      0.6351E-03 SPRIN          1   0.0%  0.1671E+05  0.7118      0.5477E-03  0.1671E+05   0.000       1.000       0.000    
    6210   3.948      0.6351E-03 SPRIN          1   0.0%  0.1674E+05  0.7134      0.3836E-03  0.1674E+05   0.000       1.000       0.000    
    6220   3.955      0.6351E-03 SPRIN          1   0.0%  0.1677E+05  0.7187      0.2294E-03  0.1677E+05   0.000       1.000       0.000    
    6230   3.961      0.6351E-03 SPRIN          1   0.0%  0.1681E+05  0.7182      0.1190E-03  0.1681E+05   0.000       1.000       0.000    
    6240   3.967      0.6351E-03 SPRIN          1   0.0%  0.1684E+05  0.7152      0.3794E-04  0.1684E+05   0.000       1.000       0.000    
    6250   3.974      0.6351E-03 SPRIN          1   0.0%  0.1687E+05  0.7185      0.3000E-05  0.1687E+05   0.000       1.000       0.000    
    6260   3.980      0.6351E-03 SPRIN          1   0.0%  0.1691E+05  0.7231      0.9673E-05  0.1691E+05   0.000       1.000       0.000    
    6270   3.986      0.6351E-03 SPRIN          1   0.0%  0.1694E+05  0.7210      0.5675E-04  0.1694E+05   0.000       1.000       0.000    
    6280   3.993      0.6351E-03 SPRIN          1   0.0%  0.1697E+05  0.7191      0.1504E-03  0.1698E+05   0.000       1.000       0.000    
    6290   3.999      0.6351E-03 SPRIN          1   0.0%  0.1701E+05  0.7238      0.2707E-03  0.1701E+05   0.000       1.000       0.000    
     ANIMATION FILE: SPR250A003 WRITTEN
    6300   4.006      0.6351E-03 SPRIN          1   0.0%  0.1704E+05  0.7270      0.4344E-03  0.1704E+05   0.000       1.000       0.000    
    6310   4.012      0.6350E-03 SPRIN          1   0.0%  0.1708E+05  0.7240      0.6054E-03  0.1708E+05   0.000       1.000       0.000    
    6320   4.018      0.6350E-03 SPRIN          1   0.0%  0.1711E+05  0.7235      0.8109E-03  0.1711E+05   0.000       1.000       0.000    
    6330   4.025      0.6350E-03 SPRIN          1   0.0%  0.1714E+05  0.7290      0.9995E-03  0.1714E+05   0.000       1.000       0.000    
    6340   4.031      0.6350E-03 SPRIN          1   0.0%  0.1718E+05  0.7307      0.1209E-02  0.1718E+05   0.000       1.000       0.000    
    6350   4.037      0.6350E-03 SPRIN          1   0.0%  0.1721E+05  0.7272      0.1379E-02  0.1721E+05   0.000       1.000       0.000    
    6360   4.044      0.6350E-03 SPRIN          1   0.0%  0.1724E+05  0.7284      0.1558E-02  0.1725E+05   0.000       1.000       0.000    
    6370   4.050      0.6350E-03 SPRIN          1   0.0%  0.1728E+05  0.7340      0.1676E-02  0.1728E+05   0.000       1.000       0.000    
    6380   4.056      0.6350E-03 SPRIN          1  -0.0%  0.1731E+05  0.7341      0.1790E-02  0.1731E+05   0.000       1.000       0.000    
    6390   4.063      0.6350E-03 SPRIN          1  -0.0%  0.1735E+05  0.7308      0.1831E-02  0.1735E+05   0.000       1.000       0.000    
    6400   4.069      0.6350E-03 SPRIN          1  -0.0%  0.1738E+05  0.7335      0.1864E-02  0.1738E+05   0.000       1.000       0.000    
    6410   4.075      0.6350E-03 SPRIN          1  -0.0%  0.1741E+05  0.7387      0.1818E-02  0.1742E+05   0.000       1.000       0.000    
    6420   4.082      0.6350E-03 SPRIN          1  -0.0%  0.1745E+05  0.7375      0.1764E-02  0.1745E+05   0.000       1.000       0.000    
    6430   4.088      0.6350E-03 SPRIN          1   0.0%  0.1748E+05  0.7348      0.1637E-02  0.1748E+05   0.000       1.000       0.000    
    6440   4.094      0.6350E-03 SPRIN          1   0.0%  0.1752E+05  0.7388      0.1509E-02  0.1752E+05   0.000       1.000       0.000    
    6450   4.101      0.6350E-03 SPRIN          1   0.0%  0.1755E+05  0.7432      0.1323E-02  0.1755E+05   0.000       1.000       0.000    
    6460   4.107      0.6350E-03 SPRIN          1   0.0%  0.1758E+05  0.7409      0.1147E-02  0.1759E+05   0.000       1.000       0.000    
    6470   4.113      0.6350E-03 SPRIN          1   0.0%  0.1762E+05  0.7392      0.9333E-03  0.1762E+05   0.000       1.000       0.000    
    6480   4.120      0.6350E-03 SPRIN          1   0.0%  0.1765E+05  0.7442      0.7439E-03  0.1765E+05   0.000       1.000       0.000    
    6490   4.126      0.6350E-03 SPRIN          1   0.0%  0.1769E+05  0.7475      0.5418E-03  0.1769E+05   0.000       1.000       0.000    
    6500   4.133      0.6350E-03 SPRIN          1   0.0%  0.1772E+05  0.7445      0.3760E-03  0.1772E+05   0.000       1.000       0.000    
    6510   4.139      0.6350E-03 SPRIN          1   0.0%  0.1776E+05  0.7440      0.2211E-03  0.1776E+05   0.000       1.000       0.000    
    6520   4.145      0.6350E-03 SPRIN          1   0.0%  0.1779E+05  0.7495      0.1118E-03  0.1779E+05   0.000       1.000       0.000    
    6530   4.152      0.6350E-03 SPRIN          1   0.0%  0.1782E+05  0.7517      0.3312E-04  0.1783E+05   0.000       1.000       0.000    
    6540   4.158      0.6350E-03 SPRIN          1   0.0%  0.1786E+05  0.7483      0.1586E-05  0.1786E+05   0.000       1.000       0.000    
    6550   4.164      0.6350E-03 SPRIN          1   0.0%  0.1789E+05  0.7490      0.1340E-04  0.1789E+05   0.000       1.000       0.000    
    6560   4.171      0.6350E-03 SPRIN          1   0.0%  0.1793E+05  0.7548      0.6610E-04  0.1793E+05   0.000       1.000       0.000    
    6570   4.177      0.6350E-03 SPRIN          1   0.0%  0.1796E+05  0.7558      0.1665E-03  0.1796E+05   0.000       1.000       0.000    
    6580   4.183      0.6350E-03 SPRIN          1   0.0%  0.1800E+05  0.7523      0.2932E-03  0.1800E+05   0.000       1.000       0.000    
    6590   4.190      0.6350E-03 SPRIN          1   0.0%  0.1803E+05  0.7542      0.4645E-03  0.1803E+05   0.000       1.000       0.000    
   CYCLE    TIME      TIME-STEP  ELEMENT          ERROR  I-ENERGY    K-ENERGY T  K-ENERGY R  EXT-WORK     MAS.ERR     TOTAL MASS  MASS ADDED
    6600   4.196      0.6350E-03 SPRIN          1   0.0%  0.1807E+05  0.7599      0.6407E-03  0.1807E+05   0.000       1.000       0.000    
    6610   4.202      0.6349E-03 SPRIN          1   0.0%  0.1810E+05  0.7599      0.8509E-03  0.1810E+05   0.000       1.000       0.000    
    6620   4.209      0.6349E-03 SPRIN          1   0.0%  0.1814E+05  0.7566      0.1042E-02  0.1814E+05   0.000       1.000       0.000    
    6630   4.215      0.6349E-03 SPRIN          1   0.0%  0.1817E+05  0.7595      0.1253E-02  0.1817E+05   0.000       1.000       0.000    
    6640   4.221      0.6349E-03 SPRIN          1   0.0%  0.1820E+05  0.7650      0.1421E-02  0.1821E+05   0.000       1.000       0.000    
    6650   4.228      0.6349E-03 SPRIN          1   0.0%  0.1824E+05  0.7640      0.1595E-02  0.1824E+05   0.000       1.000       0.000    
    6660   4.234      0.6349E-03 SPRIN          1  -0.0%  0.1827E+05  0.7612      0.1705E-02  0.1827E+05   0.000       1.000       0.000    
    6670   4.240      0.6349E-03 SPRIN          1  -0.0%  0.1831E+05  0.7649      0.1811E-02  0.1831E+05   0.000       1.000       0.000    
    6680   4.247      0.6349E-03 SPRIN          1  -0.0%  0.1834E+05  0.7700      0.1840E-02  0.1834E+05   0.000       1.000       0.000    
    6690   4.253      0.6349E-03 SPRIN          1  -0.0%  0.1838E+05  0.7683      0.1860E-02  0.1838E+05   0.000       1.000       0.000    
    6700   4.260      0.6349E-03 SPRIN          1  -0.0%  0.1841E+05  0.7659      0.1799E-02  0.1841E+05   0.000       1.000       0.000    
    6710   4.266      0.6349E-03 SPRIN          1  -0.0%  0.1845E+05  0.7704      0.1731E-02  0.1845E+05   0.000       1.000       0.000    
    6720   4.272      0.6349E-03 SPRIN          1   0.0%  0.1848E+05  0.7750      0.1590E-02  0.1848E+05   0.000       1.000       0.000    
    6730   4.279      0.6349E-03 SPRIN          1   0.0%  0.1852E+05  0.7727      0.1449E-02  0.1852E+05   0.000       1.000       0.000    
    6740   4.285      0.6349E-03 SPRIN          1   0.0%  0.1855E+05  0.7709      0.1252E-02  0.1855E+05   0.000       1.000       0.000    
    6750   4.291      0.6349E-03 SPRIN          1   0.0%  0.1859E+05  0.7759      0.1068E-02  0.1859E+05   0.000       1.000       0.000    
    6760   4.298      0.6349E-03 SPRIN          1   0.0%  0.1862E+05  0.7800      0.8505E-03  0.1862E+05   0.000       1.000       0.000    
    6770   4.304      0.6349E-03 SPRIN          1   0.0%  0.1866E+05  0.7772      0.6602E-03  0.1866E+05   0.000       1.000       0.000    
    6780   4.310      0.6349E-03 SPRIN          1   0.0%  0.1869E+05  0.7760      0.4621E-03  0.1869E+05   0.000       1.000       0.000    
    6790   4.317      0.6349E-03 SPRIN          1   0.0%  0.1873E+05  0.7815      0.3046E-03  0.1873E+05   0.000       1.000       0.000    
    6800   4.323      0.6349E-03 SPRIN          1   0.0%  0.1876E+05  0.7850      0.1633E-03  0.1876E+05   0.000       1.000       0.000    
    6810   4.329      0.6349E-03 SPRIN          1   0.0%  0.1880E+05  0.7819      0.6982E-04  0.1880E+05   0.000       1.000       0.000    
    6820   4.336      0.6349E-03 SPRIN          1   0.0%  0.1883E+05  0.7813      0.1163E-04  0.1883E+05   0.000       1.000       0.000    
    6830   4.342      0.6349E-03 SPRIN          1   0.0%  0.1887E+05  0.7871      0.1347E-05  0.1887E+05   0.000       1.000       0.000    
    6840   4.348      0.6349E-03 SPRIN          1   0.0%  0.1890E+05  0.7901      0.3758E-04  0.1891E+05   0.000       1.000       0.000    
    6850   4.355      0.6349E-03 SPRIN          1   0.0%  0.1894E+05  0.7868      0.1127E-03  0.1894E+05   0.000       1.000       0.000    
    6860   4.361      0.6349E-03 SPRIN          1   0.0%  0.1898E+05  0.7867      0.2370E-03  0.1898E+05   0.000       1.000       0.000    
    6870   4.367      0.6349E-03 SPRIN          1   0.0%  0.1901E+05  0.7926      0.3827E-03  0.1901E+05   0.000       1.000       0.000    
    6880   4.374      0.6349E-03 SPRIN          1   0.0%  0.1905E+05  0.7953      0.5714E-03  0.1905E+05   0.000       1.000       0.000    
    6890   4.380      0.6348E-03 SPRIN          1   0.0%  0.1908E+05  0.7919      0.7585E-03  0.1908E+05   0.000       1.000       0.000    
    6900   4.387      0.6348E-03 SPRIN          1   0.0%  0.1912E+05  0.7921      0.9770E-03  0.1912E+05   0.000       1.000       0.000    
    6910   4.393      0.6348E-03 SPRIN          1   0.0%  0.1915E+05  0.7982      0.1167E-02  0.1915E+05   0.000       1.000       0.000    
    6920   4.399      0.6348E-03 SPRIN          1   0.0%  0.1919E+05  0.8006      0.1374E-02  0.1919E+05   0.000       1.000       0.000    
    6930   4.406      0.6348E-03 SPRIN          1   0.0%  0.1922E+05  0.7972      0.1528E-02  0.1922E+05   0.000       1.000       0.000    
    6940   4.412      0.6348E-03 SPRIN          1   0.0%  0.1926E+05  0.7977      0.1685E-02  0.1926E+05   0.000       1.000       0.000    
    6950   4.418      0.6348E-03 SPRIN          1  -0.0%  0.1930E+05  0.8039      0.1771E-02  0.1930E+05   0.000       1.000       0.000    
    6960   4.425      0.6348E-03 SPRIN          1  -0.0%  0.1933E+05  0.8060      0.1849E-02  0.1933E+05   0.000       1.000       0.000    
    6970   4.431      0.6348E-03 SPRIN          1  -0.0%  0.1937E+05  0.8026      0.1846E-02  0.1937E+05   0.000       1.000       0.000    
    6980   4.437      0.6348E-03 SPRIN          1  -0.0%  0.1940E+05  0.8033      0.1833E-02  0.1940E+05   0.000       1.000       0.000    
    6990   4.444      0.6348E-03 SPRIN          1  -0.0%  0.1944E+05  0.8096      0.1739E-02  0.1944E+05   0.000       1.000       0.000    
    7000   4.450      0.6348E-03 SPRIN          1   0.0%  0.1947E+05  0.8116      0.1639E-02  0.1947E+05   0.000       1.000       0.000    
    7010   4.456      0.6348E-03 SPRIN          1   0.0%  0.1951E+05  0.8082      0.1470E-02  0.1951E+05   0.000       1.000       0.000    
    7020   4.463      0.6348E-03 SPRIN          1   0.0%  0.1955E+05  0.8090      0.1307E-02  0.1955E+05   0.000       1.000       0.000    
    7030   4.469      0.6348E-03 SPRIN          1   0.0%  0.1958E+05  0.8153      0.1093E-02  0.1958E+05   0.000       1.000       0.000    
    7040   4.475      0.6348E-03 SPRIN          1   0.0%  0.1962E+05  0.8174      0.8991E-03  0.1962E+05   0.000       1.000       0.000    
    7050   4.482      0.6348E-03 SPRIN          1   0.0%  0.1965E+05  0.8139      0.6815E-03  0.1965E+05   0.000       1.000       0.000    
    7060   4.488      0.6348E-03 SPRIN          1   0.0%  0.1969E+05  0.8147      0.4984E-03  0.1969E+05   0.000       1.000       0.000    
    7070   4.494      0.6348E-03 SPRIN          1   0.0%  0.1973E+05  0.8211      0.3178E-03  0.1973E+05   0.000       1.000       0.000    
    7080   4.501      0.6348E-03 SPRIN          1   0.0%  0.1976E+05  0.8233      0.1829E-03  0.1976E+05   0.000       1.000       0.000    
    7090   4.507      0.6348E-03 SPRIN          1   0.0%  0.1980E+05  0.8199      0.7441E-04  0.1980E+05   0.000       1.000       0.000    
    7100   4.513      0.6348E-03 SPRIN          1   0.0%  0.1983E+05  0.8205      0.1638E-04  0.1984E+05   0.000       1.000       0.000    
    7110   4.520      0.6348E-03 SPRIN          1   0.0%  0.1987E+05  0.8269      0.1037E-05  0.1987E+05   0.000       1.000       0.000    
    7120   4.526      0.6348E-03 SPRIN          1   0.0%  0.1991E+05  0.8294      0.3192E-04  0.1991E+05   0.000       1.000       0.000    
    7130   4.533      0.6348E-03 SPRIN          1   0.0%  0.1994E+05  0.8260      0.1131E-03  0.1994E+05   0.000       1.000       0.000    
    7140   4.539      0.6348E-03 SPRIN          1   0.0%  0.1998E+05  0.8264      0.2266E-03  0.1998E+05   0.000       1.000       0.000    
   CYCLE    TIME      TIME-STEP  ELEMENT          ERROR  I-ENERGY    K-ENERGY T  K-ENERGY R  EXT-WORK     MAS.ERR     TOTAL MASS  MASS ADDED
    7150   4.545      0.6347E-03 SPRIN          1   0.0%  0.2002E+05  0.8328      0.3889E-03  0.2002E+05   0.000       1.000       0.000    
    7160   4.552      0.6347E-03 SPRIN          1   0.0%  0.2005E+05  0.8356      0.5622E-03  0.2005E+05   0.000       1.000       0.000    
    7170   4.558      0.6347E-03 SPRIN          1   0.0%  0.2009E+05  0.8323      0.7742E-03  0.2009E+05   0.000       1.000       0.000    
    7180   4.564      0.6347E-03 SPRIN          1   0.0%  0.2013E+05  0.8324      0.9703E-03  0.2013E+05   0.000       1.000       0.000    
    7190   4.571      0.6347E-03 SPRIN          1   0.0%  0.2016E+05  0.8387      0.1191E-02  0.2016E+05   0.000       1.000       0.000    
    7200   4.577      0.6347E-03 SPRIN          1   0.0%  0.2020E+05  0.8420      0.1370E-02  0.2020E+05   0.000       1.000       0.000    
    7210   4.583      0.6347E-03 SPRIN          1   0.0%  0.2024E+05  0.8389      0.1557E-02  0.2024E+05   0.000       1.000       0.000    
    7220   4.590      0.6347E-03 SPRIN          1  -0.0%  0.2027E+05  0.8385      0.1679E-02  0.2027E+05   0.000       1.000       0.000    
    7230   4.596      0.6347E-03 SPRIN          1  -0.0%  0.2031E+05  0.8446      0.1797E-02  0.2031E+05   0.000       1.000       0.000    
    7240   4.602      0.6347E-03 SPRIN          1  -0.0%  0.2035E+05  0.8485      0.1835E-02  0.2035E+05   0.000       1.000       0.000    
    7250   4.609      0.6347E-03 SPRIN          1  -0.0%  0.2038E+05  0.8457      0.1863E-02  0.2038E+05   0.000       1.000       0.000    
    7260   4.615      0.6347E-03 SPRIN          1  -0.0%  0.2042E+05  0.8447      0.1805E-02  0.2042E+05   0.000       1.000       0.000    
    7270   4.621      0.6347E-03 SPRIN          1  -0.0%  0.2046E+05  0.8506      0.1740E-02  0.2046E+05   0.000       1.000       0.000    
    7280   4.628      0.6347E-03 SPRIN          1   0.0%  0.2049E+05  0.8551      0.1596E-02  0.2049E+05   0.000       1.000       0.000    
    7290   4.634      0.6347E-03 SPRIN          1   0.0%  0.2053E+05  0.8527      0.1453E-02  0.2053E+05   0.000       1.000       0.000    
    7300   4.640      0.6347E-03 SPRIN          1   0.0%  0.2057E+05  0.8511      0.1249E-02  0.2057E+05   0.000       1.000       0.000    
    7310   4.647      0.6347E-03 SPRIN          1   0.0%  0.2060E+05  0.8565      0.1059E-02  0.2060E+05   0.000       1.000       0.000    
    7320   4.653      0.6347E-03 SPRIN          1   0.0%  0.2064E+05  0.8618      0.8347E-03  0.2064E+05   0.000       1.000       0.000    
    7330   4.659      0.6347E-03 SPRIN          1   0.0%  0.2068E+05  0.8599      0.6397E-03  0.2068E+05   0.000       1.000       0.000    
    7340   4.666      0.6347E-03 SPRIN          1   0.0%  0.2071E+05  0.8578      0.4377E-03  0.2072E+05   0.000       1.000       0.000    
    7350   4.672      0.6347E-03 SPRIN          1   0.0%  0.2075E+05  0.8626      0.2796E-03  0.2075E+05   0.000       1.000       0.000    
    7360   4.678      0.6347E-03 SPRIN          1   0.0%  0.2079E+05  0.8684      0.1407E-03  0.2079E+05   0.000       1.000       0.000    
    7370   4.685      0.6347E-03 SPRIN          1   0.0%  0.2083E+05  0.8674      0.5294E-04  0.2083E+05   0.000       1.000       0.000    
    7380   4.691      0.6347E-03 SPRIN          1   0.0%  0.2086E+05  0.8647      0.4634E-05  0.2086E+05   0.000       1.000       0.000    
    7390   4.698      0.6346E-03 SPRIN          1   0.0%  0.2090E+05  0.8686      0.6513E-05  0.2090E+05   0.000       1.000       0.000    
    7400   4.704      0.6346E-03 SPRIN          1   0.0%  0.2094E+05  0.8751      0.5886E-04  0.2094E+05   0.000       1.000       0.000    
    7410   4.710      0.6346E-03 SPRIN          1   0.0%  0.2098E+05  0.8751      0.1502E-03  0.2098E+05   0.000       1.000       0.000    
    7420   4.717      0.6346E-03 SPRIN          1   0.0%  0.2101E+05  0.8719      0.2932E-03  0.2101E+05   0.000       1.000       0.000    
    7430   4.723      0.6346E-03 SPRIN          1   0.0%  0.2105E+05  0.8748      0.4545E-03  0.2105E+05   0.000       1.000       0.000    
    7440   4.729      0.6346E-03 SPRIN          1   0.0%  0.2109E+05  0.8817      0.6596E-03  0.2109E+05   0.000       1.000       0.000    
    7450   4.736      0.6346E-03 SPRIN          1   0.0%  0.2113E+05  0.8829      0.8568E-03  0.2113E+05   0.000       1.000       0.000    
    7460   4.742      0.6346E-03 SPRIN          1   0.0%  0.2116E+05  0.8796      0.1084E-02  0.2116E+05   0.000       1.000       0.000    
    7470   4.748      0.6346E-03 SPRIN          1   0.0%  0.2120E+05  0.8812      0.1273E-02  0.2120E+05   0.000       1.000       0.000    
    7480   4.755      0.6346E-03 SPRIN          1   0.0%  0.2124E+05  0.8881      0.1476E-02  0.2124E+05   0.000       1.000       0.000    
    7490   4.761      0.6346E-03 SPRIN          1   0.0%  0.2128E+05  0.8908      0.1617E-02  0.2128E+05   0.000       1.000       0.000    
    7500   4.767      0.6346E-03 SPRIN          1  -0.0%  0.2131E+05  0.8876      0.1757E-02  0.2132E+05   0.000       1.000       0.000    
    7510   4.774      0.6346E-03 SPRIN          1  -0.0%  0.2135E+05  0.8879      0.1815E-02  0.2135E+05   0.000       1.000       0.000    
    7520   4.780      0.6346E-03 SPRIN          1  -0.0%  0.2139E+05  0.8945      0.1865E-02  0.2139E+05   0.000       1.000       0.000    
    7530   4.786      0.6346E-03 SPRIN          1  -0.0%  0.2143E+05  0.8987      0.1827E-02  0.2143E+05   0.000       1.000       0.000    
    7540   4.793      0.6346E-03 SPRIN          1  -0.0%  0.2147E+05  0.8961      0.1779E-02  0.2147E+05   0.000       1.000       0.000    
    7550   4.799      0.6346E-03 SPRIN          1  -0.0%  0.2150E+05  0.8949      0.1648E-02  0.2151E+05   0.000       1.000       0.000    
    7560   4.805      0.6346E-03 SPRIN          1   0.0%  0.2154E+05  0.9008      0.1515E-02  0.2154E+05   0.000       1.000       0.000    
    7570   4.812      0.6346E-03 SPRIN          1   0.0%  0.2158E+05  0.9064      0.1316E-02  0.2158E+05   0.000       1.000       0.000    
    7580   4.818      0.6346E-03 SPRIN          1   0.0%  0.2162E+05  0.9049      0.1129E-02  0.2162E+05   0.000       1.000       0.000    
    7590   4.824      0.6346E-03 SPRIN          1   0.0%  0.2166E+05  0.9026      0.9004E-03  0.2166E+05   0.000       1.000       0.000    
    7600   4.831      0.6346E-03 SPRIN          1   0.0%  0.2170E+05  0.9071      0.7008E-03  0.2170E+05   0.000       1.000       0.000    
    7610   4.837      0.6346E-03 SPRIN          1   0.0%  0.2173E+05  0.9138      0.4894E-03  0.2173E+05   0.000       1.000       0.000    
    7620   4.843      0.6345E-03 SPRIN          1   0.0%  0.2177E+05  0.9139      0.3212E-03  0.2177E+05   0.000       1.000       0.000    
    7630   4.850      0.6345E-03 SPRIN          1   0.0%  0.2181E+05  0.9108      0.1696E-03  0.2181E+05   0.000       1.000       0.000    
    7640   4.856      0.6345E-03 SPRIN          1   0.0%  0.2185E+05  0.9137      0.7069E-04  0.2185E+05   0.000       1.000       0.000    
    7650   4.863      0.6345E-03 SPRIN          1   0.0%  0.2189E+05  0.9209      0.1032E-04  0.2189E+05   0.000       1.000       0.000    
    7660   4.869      0.6345E-03 SPRIN          1   0.0%  0.2193E+05  0.9230      0.2477E-05  0.2193E+05   0.000       1.000       0.000    
    7670   4.875      0.6345E-03 SPRIN          1   0.0%  0.2196E+05  0.9197      0.4620E-04  0.2197E+05   0.000       1.000       0.000    
    7680   4.882      0.6345E-03 SPRIN          1   0.0%  0.2200E+05  0.9206      0.1315E-03  0.2200E+05   0.000       1.000       0.000    
    7690   4.888      0.6345E-03 SPRIN          1   0.0%  0.2204E+05  0.9276      0.2706E-03  0.2204E+05   0.000       1.000       0.000    
   CYCLE    TIME      TIME-STEP  ELEMENT          ERROR  I-ENERGY    K-ENERGY T  K-ENERGY R  EXT-WORK     MAS.ERR     TOTAL MASS  MASS ADDED
    7700   4.894      0.6345E-03 SPRIN          1   0.0%  0.2208E+05  0.9318      0.4308E-03  0.2208E+05   0.000       1.000       0.000    
    7710   4.901      0.6345E-03 SPRIN          1   0.0%  0.2212E+05  0.9293      0.6368E-03  0.2212E+05   0.000       1.000       0.000    
    7720   4.907      0.6345E-03 SPRIN          1   0.0%  0.2216E+05  0.9282      0.8357E-03  0.2216E+05   0.000       1.000       0.000    
    7730   4.913      0.6345E-03 SPRIN          1   0.0%  0.2220E+05  0.9342      0.1067E-02  0.2220E+05   0.000       1.000       0.000    
    7740   4.920      0.6345E-03 SPRIN          1   0.0%  0.2224E+05  0.9403      0.1261E-02  0.2224E+05   0.000       1.000       0.000    
    7750   4.926      0.6345E-03 SPRIN          1   0.0%  0.2227E+05  0.9393      0.1469E-02  0.2228E+05   0.000       1.000       0.000    
    7760   4.932      0.6345E-03 SPRIN          1   0.0%  0.2231E+05  0.9368      0.1612E-02  0.2231E+05   0.000       1.000       0.000    
    7770   4.939      0.6345E-03 SPRIN          1  -0.0%  0.2235E+05  0.9408      0.1756E-02  0.2235E+05   0.000       1.000       0.000    
    7780   4.945      0.6345E-03 SPRIN          1  -0.0%  0.2239E+05  0.9481      0.1816E-02  0.2239E+05   0.000       1.000       0.000    
    7790   4.951      0.6345E-03 SPRIN          1  -0.0%  0.2243E+05  0.9495      0.1866E-02  0.2243E+05   0.000       1.000       0.000    
    7800   4.958      0.6345E-03 SPRIN          1  -0.0%  0.2247E+05  0.9463      0.1825E-02  0.2247E+05   0.000       1.000       0.000    
    7810   4.964      0.6345E-03 SPRIN          1  -0.0%  0.2251E+05  0.9479      0.1774E-02  0.2251E+05   0.000       1.000       0.000    
    7820   4.970      0.6345E-03 SPRIN          1  -0.0%  0.2255E+05  0.9553      0.1638E-02  0.2255E+05   0.000       1.000       0.000    
    7830   4.977      0.6344E-03 SPRIN          1   0.0%  0.2259E+05  0.9593      0.1500E-02  0.2259E+05   0.000       1.000       0.000    
    7840   4.983      0.6344E-03 SPRIN          1   0.0%  0.2263E+05  0.9568      0.1295E-02  0.2263E+05   0.000       1.000       0.000    
    7850   4.989      0.6344E-03 SPRIN          1   0.0%  0.2267E+05  0.9559      0.1103E-02  0.2267E+05   0.000       1.000       0.000    
    7860   4.996      0.6344E-03 SPRIN          1   0.0%  0.2271E+05  0.9621      0.8695E-03  0.2271E+05   0.000       1.000       0.000    
    7870   5.002      0.6344E-03 SPRIN          1   0.0%  0.2275E+05  0.9684      0.6672E-03  0.2275E+05   0.000       1.000       0.000    
    7880   5.008      0.6344E-03 SPRIN          1   0.0%  0.2279E+05  0.9678      0.4555E-03  0.2279E+05   0.000       1.000       0.000    

     RESTART FILES: SPR250_0001_[0001-0004].rst WRITTEN
     -------------

     ANIMATION FILE: SPR250A004 WRITTEN
  
                           ** CPU USER TIME **
  
  
                        ** SUMMARY **
  
 #PROC  ELEMENT   KINCOND   INTEG     IO        T0        ASM       RESOL    
   1   .1497E+00 .1406E+00 .9179E-01 .2838E+00 .2562E+00 .4941E-01 .1476E+01
   2   .9903E-01 .1057E+00 .8960E-01 .2367E+00 .3892E+00 .4663E-01 .1511E+01
   3   .1001E+00 .1065E+00 .9069E-01 .2308E+00 .3798E+00 .4623E-01 .1492E+01
   4   .9709E-01 .1035E+00 .8712E-01 .2303E+00 .4042E+00 .4434E-01 .1503E+01
  
                 ** SPMD COM. TIME **
  
 #PROC  FORCES    RBYFOR    RBYVEL    VEL       TOT       %        
   1   .2607E-01 .0000E+00 .0000E+00 .2902E-01 .5510E-01 .3734E+01
   2   .2763E-01 .0000E+00 .0000E+00 .3021E-01 .5784E-01 .3827E+01
   3   .2840E-01 .0000E+00 .0000E+00 .3046E-01 .5887E-01 .3944E+01
   4   .2833E-01 .0000E+00 .0000E+00 .3003E-01 .5836E-01 .3884E+01
  
 
                   ** CUMULATIVE CPU TIME SUMMARY **
  
 CONTACT SORTING.............: .0000E+00     0.00 % 
 CONTACT FORCES..............: .4212E-01     0.70 % 
 ELEMENT FORCES..............: .4459E+00     7.45 % 
 KINEMATIC COND..............: .4562E+00     7.63 % 
 INTEGRATION.................: .3592E+00     6.00 % 
 ASSEMBLING..................: .1866E+00     3.12 % 
 OTHERS (including I/O)......: .4492E+01    75.09 % 
 TOTAL.......................: .5982E+01   100.00 % 
  
  
                           ** ELAPSED TIME **
  
  
                        ** SUMMARY **
  
 #PROC  ELEMENT   KINCOND   INTEG     IO        T0        ASM       RESOL    
   1   .1002E+00 .9364E-01 .6091E-01 .1952E+00 .1710E+00 .3288E-01 .9832E+00
   2   .6520E-01 .6931E-01 .5854E-01 .1558E+00 .2546E+00 .3051E-01 .9858E+00
   3   .6725E-01 .7079E-01 .6004E-01 .1533E+00 .2516E+00 .3063E-01 .9844E+00
   4   .6415E-01 .6821E-01 .5704E-01 .1528E+00 .2661E+00 .2915E-01 .9858E+00
  
        ELEMENT   KINCOND   INTEG     IO        T0        ASM       RESOL    
 MIN   .6415E-01 .6821E-01 .5704E-01 .1528E+00 .1710E+00 .2915E-01 .9832E+00
 MAX   .1002E+00 .9364E-01 .6091E-01 .1952E+00 .2661E+00 .3288E-01 .9858E+00
 AVG   .7421E-01 .7549E-01 .5913E-01 .1643E+00 .2358E+00 .3079E-01 .9848E+00
  
                 ** SPMD COM. TIME **
  
 #PROC  FORCES    RBYFOR    RBYVEL    VEL       TOT       %        
   1   .1729E-01 .0000E+00 .0000E+00 .1957E-01 .3686E-01 .3750E+01
   2   .1803E-01 .0000E+00 .0000E+00 .1994E-01 .3797E-01 .3852E+01
   3   .1886E-01 .0000E+00 .0000E+00 .2035E-01 .3920E-01 .3983E+01
   4   .1861E-01 .0000E+00 .0000E+00 .1990E-01 .3852E-01 .3907E+01
  
        FORCES    RBYFOR    RBYVEL    VEL       TOT       %        
 MIN   .1729E-01 .0000E+00 .0000E+00 .1957E-01 .3686E-01 .3750E+01
 MAX   .1886E-01 .0000E+00 .0000E+00 .2035E-01 .3920E-01 .3983E+01
 AVG   .1820E-01 .0000E+00 .0000E+00 .1994E-01 .3814E-01 .3873E+01
  
                   ** MEMORY USAGE STATISTICS **
  
 TOTAL MEMORY USED .........................:      228 MB
 MAXIMUM MEMORY PER PROCESSOR...............:       57 MB
 MINIMUM MEMORY PER PROCESSOR...............:       57 MB
 AVERAGE MEMORY PER PROCESSOR...............:       57 MB
  
                   ** DISK USAGE STATISTICS **
  
 TOTAL DISK SPACE USED .....................:          1 MB
 ANIMATION/H3D/TH/OUTP SIZE ................:          0 MB
 RESTART FILE SIZE .........................:          1 MB
  
                   ** COMPUTE TIME INFORMATION **
                        ** CURRENT ENGINE **
  
 EXECUTION STARTED .........................:      2022/11/23  16:22:56
 EXECUTION COMPLETED .......................:      2022/11/23  16:22:57
  
 ELAPSED TIME     =          1.07 s
                          0:00:01
 ESTIMATED SPEEDUP=          5.60



     NORMAL TERMINATION      



     TOTAL NUMBER OF CYCLES  :    7884

  
                   ** COMPUTE RUNTIME INFORMATION SUMMARY **
  
        STARTER RUNTIME =          0.57s (00:00:00)
 # 001   ENGINE RUNTIME =          1.07s (00:00:01)
 ------------------------------ 
 STARTER+ENGINE RUNTIME =          1.64s (00:00:01)
  
