 model_0001.out
************************************************************************
**                                                                    **
**                                                                    **
**                      RADIOSS ENGINE MAINLINE                       **
**                                                                    **
**            Non-linear Finite Element Analysis Software             **
**                   from Altair Engineering, Inc.                    **
**                                                                    **
**                                                                    **
**              Linux 64 bits, Intel compiler, Intel MPI              **
**                                                                    **
**                                                                    **
**                                                                    **
** Build tag: 0742056_087sesevot__2070_0032401_10                     **
************************************************************************
**  COPYRIGHT (C) 1986-2014                 Altair Engineering, Inc.  **
** All Rights Reserved.  Copyright notice does not imply publication. **
** Contains trade secrets of Altair Engineering Inc.                  **
** Decompilation or disassembly of this software strictly prohibited. **
************************************************************************
 
 NUMBER OF SPMD DOMAINS           4
 NUMBER OF THREADS PER DOMAIN     1
 NUMBER OF HMPP PROCESSES         4
  
 COMPUTATION HARDWARE DESCRIPTION
  
 CPU#  HOSTNAME     CPU TYPE, FREQUENCY AND MEMORY
   1   fradf-mariner1.europe.altair.com   Intel(R) Xeon(R) CPU E5-4640 0 @ 2.40GHz (x86_64), 2400 MHz,  16080 MB RAM,  16383 MB swap
   2   fradf-mariner1.europe.altair.com   Intel(R) Xeon(R) CPU E5-4640 0 @ 2.40GHz (x86_64), 2400 MHz,  16080 MB RAM,  16383 MB swap
   3   fradf-mariner1.europe.altair.com   Intel(R) Xeon(R) CPU E5-4640 0 @ 2.40GHz (x86_64), 2400 MHz,  16080 MB RAM,  16383 MB swap
   4   fradf-mariner1.europe.altair.com   Intel(R) Xeon(R) CPU E5-4640 0 @ 2.40GHz (x86_64), 2400 MHz,  16080 MB RAM,  16383 MB swap
  
************************************************************************


 modelD01                                                                        


 FINAL TIME . . . . . . . . . . . . . . . . . . .   100.1000    

 TIME INTERVAL FOR TIME HISTORY PLOTS . . . . . .  0.1000000    

 TIME STEP SCALE FACTOR . . . . . . . . . . . . .  0.9000000    

 MINIMUM TIME STEP  . . . . . . . . . . . . . . .   0.000000    


 BRICK TIME STEP SCALE FACTOR . . . . . . . . . .  0.9000000    
 BRICK MINIMUM TIME STEP. . . . . . . . . . . . .   0.000000    
 MIN. TIME STEP FLAG (1:STOP RUN, 2:DELETE BRICK)     1

 QUAD TIME STEP SCALE FACTOR. . . . . . . . . . .  0.9000000    
 QUAD MINIMUM TIME STEP . . . . . . . . . . . . .   0.000000    
 MIN. TIME STEP FLAG (1:STOP RUN, 2:DELETE QUAD).     1

 SHELL TIME STEP SCALE FACTOR . . . . . . . . . .  0.9000000    
 SHELL MINIMUM TIME STEP. . . . . . . . . . . . .   0.000000    
 MIN. TIME FLAG (1:STOP, 2:DELETE, 3:SMALL STRAIN)    2

 TRUSS TIME STEP SCALE FACTOR . . . . . . . . . .  0.9000000    
 TRUSS MINIMUM TIME STEP. . . . . . . . . . . . .   0.000000    
 MIN. TIME FLAG (1:STOP, 2:DELETE). . . . . . . .     0

 BEAM TIME STEP SCALE FACTOR. . . . . . . . . . .  0.9000000    
 BEAM MINIMUM TIME STEP . . . . . . . . . . . . .   0.000000    
 MIN. TIME FLAG (1:STOP, 2:DELETE). . . . . . . .     0

 SPRING TIME STEP SCALE FACTOR. . . . . . . . . .  0.9000000    
 SPRING MINIMUM TIME STEP . . . . . . . . . . . .   0.000000    
 MIN. TIME FLAG (1:STOP, 2:DELETE). . . . . . . .     0

 AIRBAG TIME STEP SCALE FACTOR. . . . . . . . . .  0.9000000    
 AIRBAG MINIMUM TIME STEP . . . . . . . . . . . .   0.000000    
 MIN. TIME FLAG (1:STOP). . . . . . . . . . . . .     0

 INTERFACE TYPE 7 TIME STEP SCALE FACTOR. . . . .  0.9000000    
 INTERFACE TYPE 7 MINIMUM TIME STEP . . . . . . .   0.000000    
 MIN. TIME FLAG(1:STOP, 2:REMOVE NODE FROM INTERF)    0

 FVMBAG TIME STEP SCALE FACTOR. . . . . . . . . .  0.9000000    
 FVMBAG MINIMUM TIME STEP . . . . . . . . . . . .   0.000000    

 PRINTOUT CYCLE FREQUENCY . . . . . . . . . . . .  -100

 RESTART CYCLE FREQUENCY. . . . . . . . . . . . .       5000

 MAXIMUM RESTART WRITE BEFORE OVERWRITE . . . . .     0

 INVERS: INPUT DECK VERSION . . . . . . . . . . .   101
 ITTYP : FLAG FOR TYPE OF T-FILE. . . . . . . . .     4

 TIME FOR FIRST ANIMATION-FILE PLOT . . . . . . .   0.000000    
 TIME INTERVAL FOR ANIMATION-FILE PLOTS . . . . .   10.00000    
 SENSOR FOR ANIMATION-FILE PLOTS. . . . . . . . .          0
 TIME INTERVAL FOR SENSOR ANIMATION-FILE PLOTS. .   0.000000    

 VARIABLE SAVED ON ANIMATION FILES (1: YES) :
      PLASTIC STRAIN. . . . . .     0
      DENSITY     (SOLID ONLY).     0
      SPECIFIC ENERGY . . . . .     1
      HOURGLASS ENERGY. . . . .     0
      TEMPERATURE (SOLID ONLY).     0
      THICKNESS   (SHELL ONLY).     0
      PRESSURE    (SOLID ONLY).     0
      VON MISES . . . . . . . .     0
      TURBULENT ENERGY (FLUID).     0
      TURBULENT VISCOSITY(FLUID)    0
      VORTICITY (FLUID) . . . .     0
 VECTOR SAVED ON ANIMATION FILES (1: YES) :
      VELOCITY VECTOR . . . . .     1
      DISPLACEMENT VECTOR . . .     0
      ACCELERATION VECTOR . . .     0
      CONTACT FORCES. . . . . .     1
      INTERNAL FORCES . . . . .     0
      EXTERNAL FORCES . . . . .     0
      SECTION RBY RWALL FORCES.     0
      ROTATIONAL VELOCITY VECTOR    0
      CONTACT PRESSURE (VECTORS)    1
 SHELL TENSOR SAVED ON ANIMATION FILES (1: YES) :
      MEMBRANE STRESS . . . . .     0
      BENDING STRESS(MOMENT/T^2)    0
      UPPER LAYER STRESS. . . .     0
      LOWER LAYER STRESS. . . .     0
      MEMBRANE STRAIN . . . . .     0
      CURVATURE . . . . . . . .     0
      UPPER LAYER STRAIN. . . .     0
      LOWER LAYER STRAIN. . . .     0
 NODAL MASS SAVED ON ANIMATION FILES (1: YES) :    0
 KEEP DELETED ELEMENT (1: YES) :    0


 INITIAL TIME STEP. . . . . . . . . . . . . . . .   0.000000    
 MAXIMUM TIME STEP. . . . . . . . . . . . . . . .  0.1000000E+31

 PARALLEL ARITHMETIC ON

 ALE GRID FORMULATION                    
 --------------------                    
 NUMBER OF INTERFACES TO BE ELIMINATED. . . . . .        0

 NUMBER OF SOLID  ELEMENT BLOCKS TO BE ELIMINATED        0

 NUMBER OF QUAD   ELEMENT BLOCKS TO BE ELIMINATED        0

 NUMBER OF SHELL  ELEMENT BLOCKS TO BE ELIMINATED        0

 NUMBER OF TRUSS  ELEMENT BLOCKS TO BE ELIMINATED        0

 NUMBER OF BEAM   ELEMENT BLOCKS TO BE ELIMINATED        0

 NUMBER OF SPRING ELEMENT BLOCKS TO BE ELIMINATED        0

 NUMBER OF SH_3N  ELEMENT BLOCKS TO BE ELIMINATED        0

 NUMBER OF  SPH PARTICLES BLOCKS TO BE ELIMINATED        0

 NUMBER OF RIGID LINKS. . . . . . . . . . . . . .        0

 NUMBER OF ALE LINKS. . . . . . . . . . . . . . .        0

 NUMBER OF NEW BOUNDARY CONDITIONS. . . . . . . .        0

 19/11/2014
 CYCLE    TIME      TIME-STEP  ELEMENT          ERROR  I-ENERGY    K-ENERGY T  K-ENERGY R  EXT-WORK MAS.ERR
     0   0.000      0.5172E-02 SHELL         28   0.0%   0.000       0.000       0.000       0.000       0.000    
     ANIMATION FILE: modelA001 WRITTEN
   100  0.5172      0.5172E-02 SHELL         28   0.0%   0.000      0.1897E-08   0.000      0.1897E-08   0.000    
   200   1.034      0.5172E-02 SHELL         28   0.0%   0.000      0.1897E-08   0.000      0.1897E-08   0.000    
   300   1.552      0.5172E-02 SHELL         28   0.0%   0.000      0.1897E-08   0.000      0.1897E-08   0.000    
   400   2.069      0.5172E-02 SHELL         28   0.0%   0.000      0.1898E-08   0.000      0.1898E-08   0.000    
   500   2.586      0.5172E-02 SHELL         28   0.0%   0.000      0.1898E-08   0.000      0.1898E-08   0.000    
   600   3.103      0.5172E-02 SHELL         28   0.0%   0.000      0.1898E-08   0.000      0.1898E-08   0.000    
   700   3.620      0.5172E-02 SHELL         28   0.0%   0.000      0.1897E-08   0.000      0.1897E-08   0.000    
   800   4.138      0.5172E-02 SHELL         28   0.0%   0.000      0.1897E-08   0.000      0.1897E-08   0.000    
   900   4.655      0.5172E-02 SHELL         28   0.0%   0.000      0.1897E-08   0.000      0.1897E-08   0.000    
  1000   5.172      0.5172E-02 SHELL         28   0.0%   0.000      0.1897E-08   0.000      0.1897E-08   0.000    
  1100   5.689      0.5172E-02 SHELL         28   0.0%   0.000      0.1897E-08   0.000      0.1897E-08   0.000    
  1200   6.206      0.5172E-02 SHELL         28   0.0%   0.000      0.1897E-08   0.000      0.1897E-08   0.000    
  1300   6.724      0.5172E-02 SHELL         28   0.0%   0.000      0.1897E-08   0.000      0.1897E-08   0.000    
  1400   7.241      0.5172E-02 SHELL         28   0.0%   0.000      0.1897E-08   0.000      0.1897E-08   0.000    
  1500   7.758      0.5172E-02 SHELL         28   0.0%   0.000      0.1897E-08   0.000      0.1897E-08   0.000    
  1600   8.275      0.5172E-02 SHELL         28   0.0%   0.000      0.1897E-08   0.000      0.1897E-08   0.000    
  1700   8.792      0.5172E-02 SHELL         28   0.0%   0.000      0.1897E-08   0.000      0.1897E-08   0.000    
  1800   9.310      0.5172E-02 SHELL         28   0.0%   0.000      0.1897E-08   0.000      0.1897E-08   0.000    
  1900   9.827      0.5172E-02 SHELL         28   0.0%   0.000      0.1897E-08   0.000      0.1897E-08   0.000    
     ANIMATION FILE: modelA002 WRITTEN
  2000   10.34      0.5172E-02 SHELL         28   0.0%   0.000      0.1898E-08   0.000      0.1898E-08   0.000    
  2100   10.86      0.5172E-02 SHELL         28   0.0%   0.000      0.1898E-08   0.000      0.1898E-08   0.000    
  2200   11.38      0.5172E-02 SHELL         28   0.0%   0.000      0.1898E-08   0.000      0.1898E-08   0.000    
  2300   11.90      0.5172E-02 SHELL         28   0.0%   0.000      0.1898E-08   0.000      0.1898E-08   0.000    
  2400   12.41      0.5172E-02 SHELL         28   0.0%   0.000      0.1898E-08   0.000      0.1898E-08   0.000    
  2500   12.93      0.5172E-02 SHELL         28   0.0%   0.000      0.1898E-08   0.000      0.1898E-08   0.000    
  2600   13.45      0.5172E-02 SHELL         28   0.0%   0.000      0.1898E-08   0.000      0.1898E-08   0.000    
  2700   13.96      0.5172E-02 SHELL         28   0.0%   0.000      0.1898E-08   0.000      0.1898E-08   0.000    
  2800   14.48      0.5172E-02 SHELL         28   0.0%   0.000      0.1898E-08   0.000      0.1898E-08   0.000    
  2900   15.00      0.5172E-02 SHELL         28   0.0%   0.000      0.1898E-08   0.000      0.1898E-08   0.000    
  3000   15.52      0.5172E-02 SHELL         28   0.0%   0.000      0.1898E-08   0.000      0.1898E-08   0.000    
  3100   16.03      0.5172E-02 SHELL         28   0.0%   0.000      0.1898E-08   0.000      0.1898E-08   0.000    
  3200   16.55      0.5172E-02 SHELL         28   0.0%   0.000      0.1898E-08   0.000      0.1898E-08   0.000    
  3300   17.07      0.5172E-02 SHELL         28   0.0%   0.000      0.1898E-08   0.000      0.1898E-08   0.000    
  3400   17.58      0.5172E-02 SHELL         28   0.0%   0.000      0.1898E-08   0.000      0.1898E-08   0.000    
  3500   18.10      0.5172E-02 SHELL         28   0.0%   0.000      0.1898E-08   0.000      0.1898E-08   0.000    
  3600   18.62      0.5172E-02 SHELL         28   0.0%   0.000      0.1898E-08   0.000      0.1898E-08   0.000    
  3700   19.14      0.5172E-02 SHELL         28   0.0%   0.000      0.1898E-08   0.000      0.1898E-08   0.000    
  3800   19.65      0.5172E-02 SHELL         28   0.0%   0.000      0.1898E-08   0.000      0.1898E-08   0.000    
     ANIMATION FILE: modelA003 WRITTEN
  3900   20.17      0.5172E-02 SHELL         28   0.0%   0.000      0.1898E-08   0.000      0.1898E-08   0.000    
  4000   20.69      0.5172E-02 SHELL         28   0.0%   0.000      0.1898E-08   0.000      0.1898E-08   0.000    
  4100   21.21      0.5172E-02 SHELL         28   0.0%   0.000      0.1898E-08   0.000      0.1898E-08   0.000    
  4200   21.72      0.5172E-02 SHELL         28   0.0%   0.000      0.1898E-08   0.000      0.1898E-08   0.000    
  4300   22.24      0.5172E-02 SHELL         28   0.0%   0.000      0.1898E-08   0.000      0.1898E-08   0.000    
  4400   22.76      0.5172E-02 SHELL         28   0.0%   0.000      0.1898E-08   0.000      0.1898E-08   0.000    
  4500   23.27      0.5172E-02 SHELL         28   0.0%   0.000      0.1898E-08   0.000      0.1898E-08   0.000    
  4600   23.79      0.5172E-02 SHELL         28   0.0%   0.000      0.1898E-08   0.000      0.1898E-08   0.000    
  4700   24.31      0.5172E-02 SHELL         28   0.0%   0.000      0.1898E-08   0.000      0.1898E-08   0.000    
  4800   24.83      0.5172E-02 SHELL         28   0.0%   0.000      0.1898E-08   0.000      0.1898E-08   0.000    
  4900   25.34      0.5172E-02 SHELL         28   0.0%   0.000      0.1897E-08   0.000      0.1897E-08   0.000    

     RESTART FILES: model_0001_[0001-0004].rst WRITTEN
     -------------

  5000   25.86      0.5172E-02 SHELL         28   0.0%   0.000      0.1897E-08   0.000      0.1897E-08   0.000    
  5100   26.38      0.5172E-02 SHELL         28   0.0%   0.000      0.1897E-08   0.000      0.1897E-08   0.000    
  5200   26.89      0.5172E-02 SHELL         28   0.0%   0.000      0.1897E-08   0.000      0.1897E-08   0.000    
  5300   27.41      0.5172E-02 SHELL         28   0.0%   0.000      0.1897E-08   0.000      0.1897E-08   0.000    
  5400   27.93      0.5172E-02 SHELL         28   0.0%   0.000      0.1897E-08   0.000      0.1897E-08   0.000    
 CYCLE    TIME      TIME-STEP  ELEMENT          ERROR  I-ENERGY    K-ENERGY T  K-ENERGY R  EXT-WORK MAS.ERR
  5500   28.45      0.5172E-02 SHELL         28   0.0%   0.000      0.1897E-08   0.000      0.1897E-08   0.000    
  5600   28.96      0.5172E-02 SHELL         28   0.0%   0.000      0.1897E-08   0.000      0.1897E-08   0.000    
  5700   29.48      0.5172E-02 SHELL         28   0.0%   0.000      0.1897E-08   0.000      0.1897E-08   0.000    
  5800   30.00      0.5172E-02 SHELL         28   0.0%   0.000      0.1897E-08   0.000      0.1897E-08   0.000    
     ANIMATION FILE: modelA004 WRITTEN
  5900   30.51      0.5172E-02 SHELL         28   0.0%   0.000      0.1897E-08   0.000      0.1897E-08   0.000    
  6000   31.03      0.5172E-02 SHELL         28   0.0%   0.000      0.1897E-08   0.000      0.1897E-08   0.000    
  6100   31.55      0.5172E-02 SHELL         28   0.0%   0.000      0.1897E-08   0.000      0.1897E-08   0.000    
  6200   32.07      0.5172E-02 SHELL         28   0.0%   0.000      0.1897E-08   0.000      0.1897E-08   0.000    
  6300   32.58      0.5172E-02 SHELL         28   0.0%   0.000      0.1897E-08   0.000      0.1897E-08   0.000    
  6400   33.10      0.5172E-02 SHELL         28   0.0%   0.000      0.1897E-08   0.000      0.1897E-08   0.000    
  6500   33.62      0.5172E-02 SHELL         28   0.0%   0.000      0.1897E-08   0.000      0.1897E-08   0.000    
  6600   34.13      0.5172E-02 SHELL         28   0.0%   0.000      0.1897E-08   0.000      0.1897E-08   0.000    
  6700   34.65      0.5172E-02 SHELL         28   0.0%   0.000      0.1897E-08   0.000      0.1897E-08   0.000    
  6800   35.17      0.5172E-02 SHELL         28   0.0%   0.000      0.1897E-08   0.000      0.1897E-08   0.000    
  6900   35.69      0.5172E-02 SHELL         28   0.0%   0.000      0.1897E-08   0.000      0.1897E-08   0.000    
  7000   36.20      0.5172E-02 SHELL         28   0.0%   0.000      0.1897E-08   0.000      0.1897E-08   0.000    
  7100   36.72      0.5172E-02 SHELL         28   0.0%   0.000      0.1897E-08   0.000      0.1897E-08   0.000    
  7200   37.24      0.5172E-02 SHELL         28   0.0%   0.000      0.1897E-08   0.000      0.1897E-08   0.000    
  7300   37.76      0.5172E-02 SHELL         28   0.0%   0.000      0.1897E-08   0.000      0.1897E-08   0.000    
  7400   38.27      0.5172E-02 SHELL         28   0.0%   0.000      0.1897E-08   0.000      0.1897E-08   0.000    
  7500   38.79      0.5172E-02 SHELL         28   0.0%   0.000      0.1897E-08   0.000      0.1897E-08   0.000    
  7600   39.31      0.5172E-02 SHELL         28   0.0%   0.000      0.1897E-08   0.000      0.1897E-08   0.000    
  7700   39.82      0.5172E-02 SHELL         28   0.0%   0.000      0.1897E-08   0.000      0.1897E-08   0.000    
     ANIMATION FILE: modelA005 WRITTEN
  7800   40.34      0.5172E-02 SHELL         28   0.0%   0.000      0.1897E-08   0.000      0.1897E-08   0.000    
  7900   40.86      0.5172E-02 SHELL         28   0.0%   0.000      0.1897E-08   0.000      0.1897E-08   0.000    
  8000   41.38      0.5172E-02 SHELL         28   0.0%   0.000      0.1897E-08   0.000      0.1897E-08   0.000    
  8100   41.89      0.5172E-02 SHELL         28   0.0%   0.000      0.1897E-08   0.000      0.1897E-08   0.000    
  8200   42.41      0.5172E-02 SHELL         28   0.0%   0.000      0.1897E-08   0.000      0.1897E-08   0.000    
  8300   42.93      0.5172E-02 SHELL         28   0.0%   0.000      0.1897E-08   0.000      0.1897E-08   0.000    
  8400   43.44      0.5172E-02 SHELL         28   0.0%   0.000      0.1897E-08   0.000      0.1897E-08   0.000    
  8500   43.96      0.5172E-02 SHELL         28   0.0%   0.000      0.1897E-08   0.000      0.1897E-08   0.000    
  8600   44.48      0.5172E-02 SHELL         28   0.0%   0.000      0.1897E-08   0.000      0.1897E-08   0.000    
  8700   45.00      0.5172E-02 SHELL         28   0.0%   0.000      0.1897E-08   0.000      0.1897E-08   0.000    
  8800   45.51      0.5172E-02 SHELL         28   0.0%   0.000      0.1897E-08   0.000      0.1897E-08   0.000    
  8900   46.03      0.5172E-02 SHELL         28   0.0%   0.000      0.1897E-08   0.000      0.1897E-08   0.000    
  9000   46.55      0.5172E-02 SHELL         28   0.0%   0.000      0.1897E-08   0.000      0.1897E-08   0.000    
  9100   47.06      0.5172E-02 SHELL         28   0.0%   0.000      0.1897E-08   0.000      0.1897E-08   0.000    
  9200   47.58      0.5172E-02 SHELL         28   0.0%   0.000      0.1897E-08   0.000      0.1897E-08   0.000    
  9300   48.10      0.5172E-02 SHELL         28   0.0%   0.000      0.1897E-08   0.000      0.1897E-08   0.000    
  9400   48.62      0.5172E-02 SHELL         28   0.0%   0.000      0.1897E-08   0.000      0.1897E-08   0.000    
  9500   49.13      0.5172E-02 SHELL         28   0.0%   0.000      0.1897E-08   0.000      0.1897E-08   0.000    
  9600   49.65      0.5172E-02 SHELL         28   0.0%   0.000      0.1897E-08   0.000      0.1897E-08   0.000    
     ANIMATION FILE: modelA006 WRITTEN
  9700   50.17      0.5172E-02 SHELL         28   0.0%   0.000      0.1897E-08   0.000      0.1897E-08   0.000    
  9800   50.69      0.5172E-02 SHELL         28   0.0%   0.000      0.1897E-08   0.000      0.1897E-08   0.000    
  9900   51.20      0.5172E-02 SHELL         28   0.0%   0.000      0.1897E-08   0.000      0.1897E-08   0.000    

     RESTART FILES: model_0001_[0001-0004].rst WRITTEN
     -------------

 10000   51.72      0.5172E-02 SHELL         28   0.0%   0.000      0.1897E-08   0.000      0.1897E-08   0.000    
 10100   52.24      0.5172E-02 SHELL         28   0.0%   0.000      0.1897E-08   0.000      0.1897E-08   0.000    
 10200   52.75      0.5172E-02 SHELL         28   0.0%   0.000      0.1897E-08   0.000      0.1897E-08   0.000    
 10300   53.27      0.5172E-02 SHELL         28   0.0%   0.000      0.1897E-08   0.000      0.1897E-08   0.000    
 10400   53.79      0.5172E-02 SHELL         28   0.0%   0.000      0.1897E-08   0.000      0.1897E-08   0.000    
 10500   54.31      0.5172E-02 SHELL         28   0.0%   0.000      0.1897E-08   0.000      0.1897E-08   0.000    
 10600   54.82      0.5172E-02 SHELL         28   0.0%   0.000      0.1897E-08   0.000      0.1897E-08   0.000    
 10700   55.34      0.5172E-02 SHELL         28   0.0%   0.000      0.1897E-08   0.000      0.1897E-08   0.000    
 10800   55.86      0.5172E-02 SHELL         28   0.0%   0.000      0.1897E-08   0.000      0.1897E-08   0.000    
 10900   56.37      0.5172E-02 SHELL         28   0.0%   0.000      0.1897E-08   0.000      0.1897E-08   0.000    
 CYCLE    TIME      TIME-STEP  ELEMENT          ERROR  I-ENERGY    K-ENERGY T  K-ENERGY R  EXT-WORK MAS.ERR
 11000   56.89      0.5172E-02 SHELL         28   0.0%   0.000      0.1897E-08   0.000      0.1897E-08   0.000    
 11100   57.41      0.5172E-02 SHELL         28   0.0%   0.000      0.1897E-08   0.000      0.1897E-08   0.000    
 11200   57.93      0.5172E-02 SHELL         28   0.0%   0.000      0.1897E-08   0.000      0.1897E-08   0.000    
 11300   58.44      0.5172E-02 SHELL         28   0.0%   0.000      0.1897E-08   0.000      0.1897E-08   0.000    
 11400   58.96      0.5172E-02 SHELL         28   0.0%   0.000      0.1897E-08   0.000      0.1897E-08   0.000    
 11500   59.48      0.5172E-02 SHELL         28   0.0%   0.000      0.1897E-08   0.000      0.1897E-08   0.000    
 11600   59.99      0.5172E-02 SHELL         28   0.0%   0.000      0.1897E-08   0.000      0.1897E-08   0.000    
     ANIMATION FILE: modelA007 WRITTEN
 11700   60.51      0.5172E-02 SHELL         28   0.0%   0.000      0.1897E-08   0.000      0.1897E-08   0.000    
 11800   61.03      0.5172E-02 SHELL         28   0.0%   0.000      0.1897E-08   0.000      0.1897E-08   0.000    
 11900   61.55      0.5172E-02 SHELL         28   0.0%   0.000      0.1897E-08   0.000      0.1897E-08   0.000    
 12000   62.06      0.5172E-02 SHELL         28   0.0%   0.000      0.1897E-08   0.000      0.1897E-08   0.000    
 12100   62.58      0.5172E-02 SHELL         28   0.0%   0.000      0.1897E-08   0.000      0.1897E-08   0.000    
 12200   63.10      0.5172E-02 SHELL         28   0.0%   0.000      0.1897E-08   0.000      0.1897E-08   0.000    
 12300   63.62      0.5172E-02 SHELL         28   0.0%   0.000      0.1897E-08   0.000      0.1897E-08   0.000    
 12400   64.13      0.5172E-02 SHELL         28   0.0%   0.000      0.1898E-08   0.000      0.1898E-08   0.000    
 12500   64.65      0.5172E-02 SHELL         28   0.0%   0.000      0.1898E-08   0.000      0.1898E-08   0.000    
 12600   65.17      0.5172E-02 SHELL         28   0.0%   0.000      0.1898E-08   0.000      0.1898E-08   0.000    
 12700   65.68      0.5172E-02 SHELL         28   0.0%   0.000      0.1898E-08   0.000      0.1898E-08   0.000    
 12800   66.20      0.5172E-02 SHELL         28   0.0%   0.000      0.1898E-08   0.000      0.1898E-08   0.000    
 12900   66.72      0.5172E-02 SHELL         28   0.0%   0.000      0.1898E-08   0.000      0.1898E-08   0.000    
 13000   67.24      0.5172E-02 SHELL         28   0.0%   0.000      0.1898E-08   0.000      0.1898E-08   0.000    
 13100   67.75      0.5172E-02 SHELL         28   0.0%   0.000      0.1898E-08   0.000      0.1898E-08   0.000    
 13200   68.27      0.5172E-02 SHELL         28   0.0%   0.000      0.1898E-08   0.000      0.1898E-08   0.000    
 13300   68.79      0.5172E-02 SHELL         28   0.0%   0.000      0.1898E-08   0.000      0.1898E-08   0.000    
 13400   69.30      0.5172E-02 SHELL         28   0.0%   0.000      0.1898E-08   0.000      0.1898E-08   0.000    
 13500   69.82      0.5172E-02 SHELL         28   0.0%   0.000      0.1898E-08   0.000      0.1898E-08   0.000    
     ANIMATION FILE: modelA008 WRITTEN
 13600   70.34      0.5172E-02 SHELL         28   0.0%   0.000      0.1898E-08   0.000      0.1898E-08   0.000    
 13700   70.86      0.5172E-02 SHELL         28   0.0%   0.000      0.1898E-08   0.000      0.1898E-08   0.000    
 13800   71.37      0.5172E-02 SHELL         28   0.0%   0.000      0.1898E-08   0.000      0.1898E-08   0.000    
 13900   71.89      0.5172E-02 SHELL         28   0.0%   0.000      0.1898E-08   0.000      0.1898E-08   0.000    
 14000   72.41      0.5172E-02 SHELL         28   0.0%   0.000      0.1898E-08   0.000      0.1898E-08   0.000    
 14100   72.92      0.5172E-02 SHELL         28   0.0%   0.000      0.1898E-08   0.000      0.1898E-08   0.000    
 14200   73.44      0.5172E-02 SHELL         28   0.0%   0.000      0.1898E-08   0.000      0.1898E-08   0.000    
 14300   73.96      0.5172E-02 SHELL         28   0.0%   0.000      0.1898E-08   0.000      0.1898E-08   0.000    
 14400   74.48      0.5172E-02 SHELL         28   0.0%   0.000      0.1898E-08   0.000      0.1898E-08   0.000    
 14500   74.99      0.5172E-02 SHELL         28   0.0%   0.000      0.1898E-08   0.000      0.1898E-08   0.000    
 14600   75.51      0.5172E-02 SHELL         28   0.0%   0.000      0.1898E-08   0.000      0.1898E-08   0.000    
 14700   76.03      0.5172E-02 SHELL         28   0.0%   0.000      0.1898E-08   0.000      0.1898E-08   0.000    
 14800   76.55      0.5172E-02 SHELL         28   0.0%   0.000      0.1898E-08   0.000      0.1898E-08   0.000    
 14900   77.06      0.5172E-02 SHELL         28   0.0%   0.000      0.1898E-08   0.000      0.1898E-08   0.000    

     RESTART FILES: model_0001_[0001-0004].rst WRITTEN
     -------------

 15000   77.58      0.5172E-02 SHELL         28   0.0%   0.000      0.1898E-08   0.000      0.1898E-08   0.000    
 15100   78.10      0.5172E-02 SHELL         28   0.0%   0.000      0.1898E-08   0.000      0.1898E-08   0.000    
 15200   78.61      0.5172E-02 SHELL         28   0.0%   0.000      0.1898E-08   0.000      0.1898E-08   0.000    
 15300   79.13      0.5172E-02 SHELL         28   0.0%   0.000      0.1898E-08   0.000      0.1898E-08   0.000    
 15400   79.65      0.5172E-02 SHELL         28   0.0%   0.000      0.1898E-08   0.000      0.1898E-08   0.000    
     ANIMATION FILE: modelA009 WRITTEN
 15500   80.17      0.5172E-02 SHELL         28   0.0%   0.000      0.1898E-08   0.000      0.1898E-08   0.000    
 15600   80.68      0.5172E-02 SHELL         28   0.0%   0.000      0.1898E-08   0.000      0.1898E-08   0.000    
 15700   81.20      0.5172E-02 SHELL         28   0.0%   0.000      0.1898E-08   0.000      0.1898E-08   0.000    
 15800   81.72      0.5172E-02 SHELL         28   0.0%   0.000      0.1898E-08   0.000      0.1898E-08   0.000    
 15900   82.23      0.5172E-02 SHELL         28   0.0%   0.000      0.1898E-08   0.000      0.1898E-08   0.000    
 16000   82.75      0.5172E-02 SHELL         28   0.0%   0.000      0.1898E-08   0.000      0.1898E-08   0.000    
 16100   83.27      0.5172E-02 SHELL         28   0.0%   0.000      0.1898E-08   0.000      0.1898E-08   0.000    
 16200   83.79      0.5172E-02 SHELL         28   0.0%   0.000      0.1898E-08   0.000      0.1898E-08   0.000    
 16300   84.30      0.5172E-02 SHELL         28   0.0%   0.000      0.1898E-08   0.000      0.1898E-08   0.000    
 16400   84.82      0.5172E-02 SHELL         28   0.0%   0.000      0.1898E-08   0.000      0.1898E-08   0.000    
 CYCLE    TIME      TIME-STEP  ELEMENT          ERROR  I-ENERGY    K-ENERGY T  K-ENERGY R  EXT-WORK MAS.ERR
 16500   85.34      0.5172E-02 SHELL         28   0.0%   0.000      0.1898E-08   0.000      0.1898E-08   0.000    
 16600   85.85      0.5172E-02 SHELL         28   0.0%   0.000      0.1898E-08   0.000      0.1898E-08   0.000    
 16700   86.37      0.5172E-02 SHELL         28   0.0%   0.000      0.1898E-08   0.000      0.1898E-08   0.000    
 16800   86.89      0.5172E-02 SHELL         28   0.0%   0.000      0.1898E-08   0.000      0.1898E-08   0.000    
 16900   87.41      0.5172E-02 SHELL         28   0.0%   0.000      0.1898E-08   0.000      0.1898E-08   0.000    
 17000   87.92      0.5172E-02 SHELL         28   0.0%   0.000      0.1898E-08   0.000      0.1898E-08   0.000    
 17100   88.44      0.5172E-02 SHELL         28   0.0%   0.000      0.1898E-08   0.000      0.1898E-08   0.000    
 17200   88.96      0.5172E-02 SHELL         28   0.0%   0.000      0.1898E-08   0.000      0.1898E-08   0.000    
 17300   89.48      0.5172E-02 SHELL         28   0.0%   0.000      0.1898E-08   0.000      0.1898E-08   0.000    
 17400   89.99      0.5172E-02 SHELL         28   0.0%   0.000      0.1898E-08   0.000      0.1898E-08   0.000    
     ANIMATION FILE: modelA010 WRITTEN
 17500   90.51      0.5172E-02 SHELL         28   0.0%   0.000      0.1898E-08   0.000      0.1898E-08   0.000    
 17600   91.03      0.5172E-02 SHELL         28   0.0%   0.000      0.1898E-08   0.000      0.1898E-08   0.000    
 17700   91.54      0.5172E-02 SHELL         28   0.0%   0.000      0.1898E-08   0.000      0.1898E-08   0.000    
 17800   92.06      0.5172E-02 SHELL         28   0.0%   0.000      0.1898E-08   0.000      0.1898E-08   0.000    
 17900   92.58      0.5172E-02 SHELL         28   0.0%   0.000      0.1898E-08   0.000      0.1898E-08   0.000    
 18000   93.10      0.5172E-02 SHELL         28   0.0%   0.000      0.1898E-08   0.000      0.1898E-08   0.000    
 18100   93.61      0.5172E-02 SHELL         28   0.0%   0.000      0.1898E-08   0.000      0.1898E-08   0.000    
 18200   94.13      0.5172E-02 SHELL         28   0.0%   0.000      0.1898E-08   0.000      0.1898E-08   0.000    
 18300   94.65      0.5172E-02 SHELL         28   0.0%   0.000      0.1898E-08   0.000      0.1898E-08   0.000    
 18400   95.16      0.5172E-02 SHELL         28   0.0%   0.000      0.1898E-08   0.000      0.1898E-08   0.000    
 18500   95.68      0.5172E-02 SHELL         28   0.0%   0.000      0.1898E-08   0.000      0.1898E-08   0.000    
 18600   96.20      0.5172E-02 SHELL         28   0.0%   0.000      0.1898E-08   0.000      0.1898E-08   0.000    
 18700   96.72      0.5172E-02 SHELL         28   0.0%   0.000      0.1898E-08   0.000      0.1898E-08   0.000    
 18800   97.23      0.5172E-02 SHELL         28   0.0%   0.000      0.1898E-08   0.000      0.1898E-08   0.000    
 18900   97.75      0.5172E-02 SHELL         28   0.0%   0.000      0.1898E-08   0.000      0.1898E-08   0.000    
 19000   98.27      0.5172E-02 SHELL         28   0.0%   0.000      0.1898E-08   0.000      0.1898E-08   0.000    
 19100   98.78      0.5172E-02 SHELL         28   0.0%   0.000      0.1898E-08   0.000      0.1898E-08   0.000    
 19200   99.30      0.5172E-02 SHELL         28   0.0%   0.000      0.1898E-08   0.000      0.1898E-08   0.000    
 19300   99.82      0.5172E-02 SHELL         28   0.0%   0.000      0.1898E-08   0.000      0.1898E-08   0.000    
     ANIMATION FILE: modelA011 WRITTEN

     RESTART FILES: model_0001_[0001-0004].rst WRITTEN
     -------------

  
                           ** CPU USER TIME **
  
 #PROC  CONT.SORT  CONT. F   ELEMENT  KIN.COND.  INTEGR.    I/O     TASK0     ASSEMB.   RESOL  
   1   .2200E+00 .1800E-01 .7399E-01 .2999E-02 .1100E-01 .7698E-01 .1993E+01 .1100E-01 .2872E+01
   2   .5489E+00 .9999E-02 .1750E+00 .1300E-01 .6999E-02 .3779E+00 .7079E+00 .9999E-03 .3037E+01
   3   .6349E+00 .6000E-02 .2899E-01 .9999E-03 .9998E-02 .1900E+00 .6479E+00 .9999E-03 .2889E+01
   4   .6029E+00 .4000E-02 .3500E-01 .3000E-02 .7000E-02 .2299E+00 .8208E+00 .1999E-02 .2932E+01
  
                          ** SPMD COMM. TIME **
  
 #PROC  FORCES    RBY.FOR.  RBY.VEL.  VELOCITIES   TOTAL   % CPU
   1   .3599E+00 .0000E+00 .0000E+00 .5000E-02 .3649E+00   12.71
   2   .5599E+00 .0000E+00 .0000E+00 .2998E-02 .5629E+00   18.54
   3   .8998E+00 .0000E+00 .0000E+00 .5000E-02 .9048E+00   31.32
   4   .5409E+00 .0000E+00 .0000E+00 .1000E-02 .5419E+00   18.48
  
                   ** CUMULATIVE CPU TIME SUMMARY **
  
 CONTACT SORTING.............: .2007E+01    17.11 % 
 CONTACT FORCES..............: .3800E-01     0.32 % 
 ELEMENT FORCES..............: .3129E+00     2.67 % 
 KINEMATIC COND..............: .2000E-01     0.17 % 
 INTEGRATION.................: .3500E-01     0.30 % 
 ASSEMBLING..................: .1500E-01     0.13 % 
 OTHERS (including I/O)......: .9301E+01    79.30 % 
 TOTAL.......................: .1173E+02   100.00 % 
  
  
                   ** MEMORY USAGE STATISTICS **
  
 TOTAL MEMORY USED .........................:      560 MB
 MAXIMUM MEMORY PER PROCESSOR...............:      140 MB
 MINIMUM MEMORY PER PROCESSOR...............:      140 MB
 AVERAGE MEMORY PER PROCESSOR...............:      140 MB
  
                   ** DISK USAGE STATISTICS **
  
 TOTAL DISK SPACE USED .....................:      675 KB
 ANIMATION/TH/OUTP SIZE ....................:      236 KB
 RESTART FILE SIZE .........................:      439 KB
  
 ELAPSED TIME     =          3.87 s
                          0:00:03
 ESTIMATED SPEEDUP=          3.03
  



     NORMAL TERMINATION      



     TOTAL NUMBER OF CYCLES  :   19355

