 THFRAME_0001.out
************************************************************************
**                                                                    **
**                                                                    **
**                         OpenRadioss Engine                         **
**                                                                    **
**            Non-linear Finite Element Analysis Software             **
**                                                                    **
**                                                                    **
**                                                                    **
**                Linux 64 bits, GNU compiler, OpenMPI                **
**                                                                    **
**                                                                    **
**                                                                    **
** CommitID: 440deeba848d606665f88afb8302e85b1ecf72bf                 **
************************************************************************
** OpenRadioss Software                                               **
** COPYRIGHT (C) 1986-2022 Altair Engineering, Inc.                   **
** Licensed under GNU Affero General Public License.                  **
** See License file.                                                  **
************************************************************************
 
 NUMBER OF SPMD DOMAINS           4
 NUMBER OF THREADS PER DOMAIN     2
 NUMBER OF HMPP PROCESSES         8
  
 COMPUTATION HARDWARE DESCRIPTION
  
 CPU#  HOSTNAME     CPU TYPE, FREQUENCY AND MEMORY
   1   fr-shady.europe.altair.com   Intel(R) Xeon(R) CPU           X5680  @ 3.33GHz (x86_64), 1596 MHz,  20012 MB RAM,  49126 MB swap
   2   fr-shady.europe.altair.com   Intel(R) Xeon(R) CPU           X5680  @ 3.33GHz (x86_64), 1596 MHz,  20012 MB RAM,  49126 MB swap
   3   fr-shady.europe.altair.com   Intel(R) Xeon(R) CPU           X5680  @ 3.33GHz (x86_64), 1596 MHz,  20012 MB RAM,  49126 MB swap
   4   fr-shady.europe.altair.com   Intel(R) Xeon(R) CPU           X5680  @ 3.33GHz (x86_64), 1596 MHz,  20012 MB RAM,  49126 MB swap
  
************************************************************************


 THFRAMED01                                                                      


 FINAL TIME . . . . . . . . . . . . . . . . . . .   6.290000    

 TIME INTERVAL FOR TIME HISTORY PLOTS . . . . . .  0.1000000E-01

 TIME STEP SCALE FACTOR . . . . . . . . . . . . .  0.9000000    

 MINIMUM TIME STEP  . . . . . . . . . . . . . . .   0.000000    


 BRICK TIME STEP SCALE FACTOR . . . . . . . . . .  0.9000000    
 BRICK MINIMUM TIME STEP. . . . . . . . . . . . .   0.000000    
 MIN. TIME STEP FLAG (1:STOP RUN, 2:DELETE BRICK)     1

 QUAD TIME STEP SCALE FACTOR. . . . . . . . . . .  0.9000000    
 QUAD MINIMUM TIME STEP . . . . . . . . . . . . .   0.000000    
 MIN. TIME STEP FLAG (1:STOP RUN, 2:DELETE QUAD).     1

 SHELL TIME STEP SCALE FACTOR . . . . . . . . . .  0.9000000    
 SHELL MINIMUM TIME STEP. . . . . . . . . . . . .   0.000000    
 MIN. TIME FLAG (1:STOP, 2:DELETE, 3:SMALL STRAIN)    2

 TRUSS TIME STEP SCALE FACTOR . . . . . . . . . .  0.9000000    
 TRUSS MINIMUM TIME STEP. . . . . . . . . . . . .   0.000000    
 MIN. TIME FLAG (1:STOP, 2:DELETE). . . . . . . .     0

 BEAM TIME STEP SCALE FACTOR. . . . . . . . . . .  0.9000000    
 BEAM MINIMUM TIME STEP . . . . . . . . . . . . .   0.000000    
 MIN. TIME FLAG (1:STOP, 2:DELETE). . . . . . . .     0

 SPRING TIME STEP SCALE FACTOR. . . . . . . . . .  0.9000000    
 SPRING MINIMUM TIME STEP . . . . . . . . . . . .   0.000000    
 MIN. TIME FLAG (1:STOP, 2:DELETE). . . . . . . .     0

 AIRBAG TIME STEP SCALE FACTOR. . . . . . . . . .  0.9000000    
 AIRBAG MINIMUM TIME STEP . . . . . . . . . . . .   0.000000    
 MIN. TIME FLAG (1:STOP). . . . . . . . . . . . .     0

 CONTACT TIME STEP SCALE FACTOR . . . . . . . . .  0.9000000    
 CONTACT MINIMUM TIME STEP. . . . . . . . . . . .   0.000000    
 MIN. TIME FLAG(1:STOP, 2:REMOVE NODE FROM INTERF)    0

 PRINTOUT CYCLE FREQUENCY . . . . . . . . . . . .    -1

 RESTART CYCLE FREQUENCY. . . . . . . . . . . . .   10000000

 MAXIMUM RESTART WRITE BEFORE OVERWRITE . . . . .     0

 INVERS: INPUT DECK VERSION . . . . . . . . . . .  2019
 ITTYP : FLAG FOR TYPE OF T-FILE. . . . . . . . .     4


 TIME FOR FIRST ANIMATION-FILE PLOT . . . . . . .  0.1000000E+31
 TIME INTERVAL FOR ANIMATION-FILE PLOTS . . . . .   0.000000    
 SENSOR FOR ANIMATION-FILE PLOTS. . . . . . . . .          0
 TIME INTERVAL FOR SENSOR ANIMATION-FILE PLOTS. .   0.000000    

 VARIABLE SAVED ON ANIMATION FILES (1: YES) :
      PLASTIC STRAIN. . . . . .     0
      DENSITY     (SOLID ONLY).     0
      SPECIFIC ENERGY . . . . .     0
      HOURGLASS ENERGY. . . . .     0
      TEMPERATURE (SOLID ONLY).     0
      THICKNESS   (SHELL ONLY).     0
      PRESSURE    (SOLID ONLY).     0
      VON MISES . . . . . . . .     0
      TURBULENT ENERGY (FLUID).     0
      TURBULENT VISCOSITY(FLUID)    0
      VORTICITY (FLUID) . . . .     0
 NODAL VALUES SAVED ON ANIMATION FILES (1: YES) :
      PRESSURE. . . . . . . . .     0
      DENSITY . . . . . . . . .     0
      TEMPERATURE . . . . . . .     0
 VECTOR SAVED ON ANIMATION FILES (1: YES) :
      VELOCITY VECTOR . . . . .     0
      DISPLACEMENT VECTOR . . .     0
      ACCELERATION VECTOR . . .     0
      CONTACT FORCES. . . . . .     0
      INTERNAL FORCES . . . . .     0
      EXTERNAL FORCES . . . . .     0
      SECTION RBY RWALL FORCES.     0
      ROTATIONAL VELOCITY VECTOR    0
      CONTACT PRESSURE (VECTORS)    0
 SHELL TENSOR SAVED ON ANIMATION FILES (1: YES) :
      MEMBRANE STRESS . . . . .     0
      BENDING STRESS(MOMENT/T^2)    0
      UPPER LAYER STRESS. . . .     0
      LOWER LAYER STRESS. . . .     0
      MEMBRANE STRAIN . . . . .     0
      CURVATURE . . . . . . . .     0
      UPPER LAYER STRAIN. . . .     0
      LOWER LAYER STRAIN. . . .     0
 NODAL MASS SAVED ON ANIMATION FILES (1: YES) :    0
 KEEP DELETED ELEMENT (1: YES) :    0


 INITIAL TIME STEP. . . . . . . . . . . . . . . .  0.1000000E-01
 MAXIMUM TIME STEP. . . . . . . . . . . . . . . .  0.1000000E-01

 PARALLEL ARITHMETIC ON
 NUMBER OF INTERFACES TO BE ELIMINATED. . . . . .        0

 NUMBER OF SOLID  ELEMENT BLOCKS TO BE ELIMINATED        0

 NUMBER OF QUAD   ELEMENT BLOCKS TO BE ELIMINATED        0

 NUMBER OF SHELL  ELEMENT BLOCKS TO BE ELIMINATED        0

 NUMBER OF TRUSS  ELEMENT BLOCKS TO BE ELIMINATED        0

 NUMBER OF BEAM   ELEMENT BLOCKS TO BE ELIMINATED        0

 NUMBER OF SPRING ELEMENT BLOCKS TO BE ELIMINATED        0

 NUMBER OF SH_3N  ELEMENT BLOCKS TO BE ELIMINATED        0

 NUMBER OF  SPH PARTICLES BLOCKS TO BE ELIMINATED        0

 NUMBER OF RIGID LINKS. . . . . . . . . . . . . .        0

 NUMBER OF NEW BOUNDARY CONDITIONS. . . . . . . .        0

 23/11/2022
   CYCLE    TIME      TIME-STEP  ELEMENT          ERROR  I-ENERGY    K-ENERGY T  K-ENERGY R  EXT-WORK     MAS.ERR     TOTAL MASS  MASS ADDED
       0   0.000      0.1000E-01 FIXED          0   0.0%   0.000       0.000      0.5000       0.000       0.000       10.00       0.000    
       1  0.1000E-01  0.1000E-01 FIXED          0   0.0%   0.000       0.000      0.5000       0.000       0.000       10.00       0.000    
       2  0.2000E-01  0.1000E-01 FIXED          0   0.0%   0.000       0.000      0.5000       0.000       0.000       10.00       0.000    
       3  0.3000E-01  0.1000E-01 FIXED          0  -0.0%   0.000       0.000      0.5000       0.000       0.000       10.00       0.000    
       4  0.4000E-01  0.1000E-01 FIXED          0   0.0%   0.000       0.000      0.5000       0.000       0.000       10.00       0.000    
       5  0.5000E-01  0.1000E-01 FIXED          0  -0.0%   0.000       0.000      0.5000       0.000       0.000       10.00       0.000    
       6  0.6000E-01  0.1000E-01 FIXED          0   0.0%   0.000       0.000      0.5000       0.000       0.000       10.00       0.000    
       7  0.7000E-01  0.1000E-01 FIXED          0  -0.0%   0.000       0.000      0.5000       0.000       0.000       10.00       0.000    
       8  0.8000E-01  0.1000E-01 FIXED          0  -0.0%   0.000       0.000      0.5000       0.000       0.000       10.00       0.000    
       9  0.9000E-01  0.1000E-01 FIXED          0   0.0%   0.000       0.000      0.5000       0.000       0.000       10.00       0.000    
      10  0.1000      0.1000E-01 FIXED          0   0.0%   0.000       0.000      0.5000       0.000       0.000       10.00       0.000    
      11  0.1100      0.1000E-01 FIXED          0   0.0%   0.000       0.000      0.5000       0.000       0.000       10.00       0.000    
      12  0.1200      0.1000E-01 FIXED          0   0.0%   0.000       0.000      0.5000       0.000       0.000       10.00       0.000    
      13  0.1300      0.1000E-01 FIXED          0   0.0%   0.000       0.000      0.5000       0.000       0.000       10.00       0.000    
      14  0.1400      0.1000E-01 FIXED          0   0.0%   0.000       0.000      0.5000       0.000       0.000       10.00       0.000    
      15  0.1500      0.1000E-01 FIXED          0   0.0%   0.000       0.000      0.5000       0.000       0.000       10.00       0.000    
      16  0.1600      0.1000E-01 FIXED          0  -0.0%   0.000       0.000      0.5000       0.000       0.000       10.00       0.000    
      17  0.1700      0.1000E-01 FIXED          0   0.0%   0.000       0.000      0.5000       0.000       0.000       10.00       0.000    
      18  0.1800      0.1000E-01 FIXED          0   0.0%   0.000       0.000      0.5000       0.000       0.000       10.00       0.000    
      19  0.1900      0.1000E-01 FIXED          0   0.0%   0.000       0.000      0.5000       0.000       0.000       10.00       0.000    
      20  0.2000      0.1000E-01 FIXED          0   0.0%   0.000       0.000      0.5000       0.000       0.000       10.00       0.000    
      21  0.2100      0.1000E-01 FIXED          0   0.0%   0.000       0.000      0.5000       0.000       0.000       10.00       0.000    
      22  0.2200      0.1000E-01 FIXED          0   0.0%   0.000       0.000      0.5000       0.000       0.000       10.00       0.000    
      23  0.2300      0.1000E-01 FIXED          0   0.0%   0.000       0.000      0.5000       0.000       0.000       10.00       0.000    
      24  0.2400      0.1000E-01 FIXED          0  -0.0%   0.000       0.000      0.5000       0.000       0.000       10.00       0.000    
      25  0.2500      0.1000E-01 FIXED          0  -0.0%   0.000       0.000      0.5000       0.000       0.000       10.00       0.000    
      26  0.2600      0.1000E-01 FIXED          0   0.0%   0.000       0.000      0.5000       0.000       0.000       10.00       0.000    
      27  0.2700      0.1000E-01 FIXED          0   0.0%   0.000       0.000      0.5000       0.000       0.000       10.00       0.000    
      28  0.2800      0.1000E-01 FIXED          0  -0.0%   0.000       0.000      0.5000       0.000       0.000       10.00       0.000    
      29  0.2900      0.1000E-01 FIXED          0  -0.0%   0.000       0.000      0.5000       0.000       0.000       10.00       0.000    
      30  0.3000      0.1000E-01 FIXED          0   0.0%   0.000       0.000      0.5000       0.000       0.000       10.00       0.000    
      31  0.3100      0.1000E-01 FIXED          0   0.0%   0.000       0.000      0.5000       0.000       0.000       10.00       0.000    
      32  0.3200      0.1000E-01 FIXED          0   0.0%   0.000       0.000      0.5000       0.000       0.000       10.00       0.000    
      33  0.3300      0.1000E-01 FIXED          0  -0.0%   0.000       0.000      0.5000       0.000       0.000       10.00       0.000    
      34  0.3400      0.1000E-01 FIXED          0   0.0%   0.000       0.000      0.5000       0.000       0.000       10.00       0.000    
      35  0.3500      0.1000E-01 FIXED          0   0.0%   0.000       0.000      0.5000       0.000       0.000       10.00       0.000    
      36  0.3600      0.1000E-01 FIXED          0   0.0%   0.000       0.000      0.5000       0.000       0.000       10.00       0.000    
      37  0.3700      0.1000E-01 FIXED          0  -0.0%   0.000       0.000      0.5000       0.000       0.000       10.00       0.000    
      38  0.3800      0.1000E-01 FIXED          0   0.0%   0.000       0.000      0.5000       0.000       0.000       10.00       0.000    
      39  0.3900      0.1000E-01 FIXED          0  -0.0%   0.000       0.000      0.5000       0.000       0.000       10.00       0.000    
      40  0.4000      0.1000E-01 FIXED          0  -0.0%   0.000       0.000      0.5000       0.000       0.000       10.00       0.000    
      41  0.4100      0.1000E-01 FIXED          0   0.0%   0.000       0.000      0.5000       0.000       0.000       10.00       0.000    
      42  0.4200      0.1000E-01 FIXED          0   0.0%   0.000       0.000      0.5000       0.000       0.000       10.00       0.000    
      43  0.4300      0.1000E-01 FIXED          0   0.0%   0.000       0.000      0.5000       0.000       0.000       10.00       0.000    
      44  0.4400      0.1000E-01 FIXED          0  -0.0%   0.000       0.000      0.5000       0.000       0.000       10.00       0.000    
      45  0.4500      0.1000E-01 FIXED          0   0.0%   0.000       0.000      0.5000       0.000       0.000       10.00       0.000    
      46  0.4600      0.1000E-01 FIXED          0   0.0%   0.000       0.000      0.5000       0.000       0.000       10.00       0.000    
      47  0.4700      0.1000E-01 FIXED          0   0.0%   0.000       0.000      0.5000       0.000       0.000       10.00       0.000    
      48  0.4800      0.1000E-01 FIXED          0  -0.0%   0.000       0.000      0.5000       0.000       0.000       10.00       0.000    
      49  0.4900      0.1000E-01 FIXED          0   0.0%   0.000       0.000      0.5000       0.000       0.000       10.00       0.000    
      50  0.5000      0.1000E-01 FIXED          0   0.0%   0.000       0.000      0.5000       0.000       0.000       10.00       0.000    
      51  0.5100      0.1000E-01 FIXED          0   0.0%   0.000       0.000      0.5000       0.000       0.000       10.00       0.000    
      52  0.5200      0.1000E-01 FIXED          0   0.0%   0.000       0.000      0.5000       0.000       0.000       10.00       0.000    
      53  0.5300      0.1000E-01 FIXED          0   0.0%   0.000       0.000      0.5000       0.000       0.000       10.00       0.000    
      54  0.5400      0.1000E-01 FIXED          0   0.0%   0.000       0.000      0.5000       0.000       0.000       10.00       0.000    
   CYCLE    TIME      TIME-STEP  ELEMENT          ERROR  I-ENERGY    K-ENERGY T  K-ENERGY R  EXT-WORK     MAS.ERR     TOTAL MASS  MASS ADDED
      55  0.5500      0.1000E-01 FIXED          0  -0.0%   0.000       0.000      0.5000       0.000       0.000       10.00       0.000    
      56  0.5600      0.1000E-01 FIXED          0   0.0%   0.000       0.000      0.5000       0.000       0.000       10.00       0.000    
      57  0.5700      0.1000E-01 FIXED          0  -0.0%   0.000       0.000      0.5000       0.000       0.000       10.00       0.000    
      58  0.5800      0.1000E-01 FIXED          0  -0.0%   0.000       0.000      0.5000       0.000       0.000       10.00       0.000    
      59  0.5900      0.1000E-01 FIXED          0   0.0%   0.000       0.000      0.5000       0.000       0.000       10.00       0.000    
      60  0.6000      0.1000E-01 FIXED          0   0.0%   0.000       0.000      0.5000       0.000       0.000       10.00       0.000    
      61  0.6100      0.1000E-01 FIXED          0  -0.0%   0.000       0.000      0.5000       0.000       0.000       10.00       0.000    
      62  0.6200      0.1000E-01 FIXED          0   0.0%   0.000       0.000      0.5000       0.000       0.000       10.00       0.000    
      63  0.6300      0.1000E-01 FIXED          0   0.0%   0.000       0.000      0.5000       0.000       0.000       10.00       0.000    
      64  0.6400      0.1000E-01 FIXED          0  -0.0%   0.000       0.000      0.5000       0.000       0.000       10.00       0.000    
      65  0.6500      0.1000E-01 FIXED          0   0.0%   0.000       0.000      0.5000       0.000       0.000       10.00       0.000    
      66  0.6600      0.1000E-01 FIXED          0  -0.0%   0.000       0.000      0.5000       0.000       0.000       10.00       0.000    
      67  0.6700      0.1000E-01 FIXED          0  -0.0%   0.000       0.000      0.5000       0.000       0.000       10.00       0.000    
      68  0.6800      0.1000E-01 FIXED          0   0.0%   0.000       0.000      0.5000       0.000       0.000       10.00       0.000    
      69  0.6900      0.1000E-01 FIXED          0   0.0%   0.000       0.000      0.5000       0.000       0.000       10.00       0.000    
      70  0.7000      0.1000E-01 FIXED          0   0.0%   0.000       0.000      0.5000       0.000       0.000       10.00       0.000    
      71  0.7100      0.1000E-01 FIXED          0   0.0%   0.000       0.000      0.5000       0.000       0.000       10.00       0.000    
      72  0.7200      0.1000E-01 FIXED          0   0.0%   0.000       0.000      0.5000       0.000       0.000       10.00       0.000    
      73  0.7300      0.1000E-01 FIXED          0   0.0%   0.000       0.000      0.5000       0.000       0.000       10.00       0.000    
      74  0.7400      0.1000E-01 FIXED          0  -0.0%   0.000       0.000      0.5000       0.000       0.000       10.00       0.000    
      75  0.7500      0.1000E-01 FIXED          0   0.0%   0.000       0.000      0.5000       0.000       0.000       10.00       0.000    
      76  0.7600      0.1000E-01 FIXED          0   0.0%   0.000       0.000      0.5000       0.000       0.000       10.00       0.000    
      77  0.7700      0.1000E-01 FIXED          0  -0.0%   0.000       0.000      0.5000       0.000       0.000       10.00       0.000    
      78  0.7800      0.1000E-01 FIXED          0   0.0%   0.000       0.000      0.5000       0.000       0.000       10.00       0.000    
      79  0.7900      0.1000E-01 FIXED          0   0.0%   0.000       0.000      0.5000       0.000       0.000       10.00       0.000    
      80  0.8000      0.1000E-01 FIXED          0   0.0%   0.000       0.000      0.5000       0.000       0.000       10.00       0.000    
      81  0.8100      0.1000E-01 FIXED          0   0.0%   0.000       0.000      0.5000       0.000       0.000       10.00       0.000    
      82  0.8200      0.1000E-01 FIXED          0   0.0%   0.000       0.000      0.5000       0.000       0.000       10.00       0.000    
      83  0.8300      0.1000E-01 FIXED          0   0.0%   0.000       0.000      0.5000       0.000       0.000       10.00       0.000    
      84  0.8400      0.1000E-01 FIXED          0   0.0%   0.000       0.000      0.5000       0.000       0.000       10.00       0.000    
      85  0.8500      0.1000E-01 FIXED          0   0.0%   0.000       0.000      0.5000       0.000       0.000       10.00       0.000    
      86  0.8600      0.1000E-01 FIXED          0  -0.0%   0.000       0.000      0.5000       0.000       0.000       10.00       0.000    
      87  0.8700      0.1000E-01 FIXED          0   0.0%   0.000       0.000      0.5000       0.000       0.000       10.00       0.000    
      88  0.8800      0.1000E-01 FIXED          0  -0.0%   0.000       0.000      0.5000       0.000       0.000       10.00       0.000    
      89  0.8900      0.1000E-01 FIXED          0   0.0%   0.000       0.000      0.5000       0.000       0.000       10.00       0.000    
      90  0.9000      0.1000E-01 FIXED          0   0.0%   0.000       0.000      0.5000       0.000       0.000       10.00       0.000    
      91  0.9100      0.1000E-01 FIXED          0  -0.0%   0.000       0.000      0.5000       0.000       0.000       10.00       0.000    
      92  0.9200      0.1000E-01 FIXED          0   0.0%   0.000       0.000      0.5000       0.000       0.000       10.00       0.000    
      93  0.9300      0.1000E-01 FIXED          0  -0.0%   0.000       0.000      0.5000       0.000       0.000       10.00       0.000    
      94  0.9400      0.1000E-01 FIXED          0   0.0%   0.000       0.000      0.5000       0.000       0.000       10.00       0.000    
      95  0.9500      0.1000E-01 FIXED          0   0.0%   0.000       0.000      0.5000       0.000       0.000       10.00       0.000    
      96  0.9600      0.1000E-01 FIXED          0   0.0%   0.000       0.000      0.5000       0.000       0.000       10.00       0.000    
      97  0.9700      0.1000E-01 FIXED          0  -0.0%   0.000       0.000      0.5000       0.000       0.000       10.00       0.000    
      98  0.9800      0.1000E-01 FIXED          0   0.0%   0.000       0.000      0.5000       0.000       0.000       10.00       0.000    
      99  0.9900      0.1000E-01 FIXED          0   0.0%   0.000       0.000      0.5000       0.000       0.000       10.00       0.000    
     100   1.000      0.1000E-01 FIXED          0  -0.0%   0.000       0.000      0.5000       0.000       0.000       10.00       0.000    
     101   1.010      0.1000E-01 FIXED          0   0.0%   0.000       0.000      0.5000       0.000       0.000       10.00       0.000    
     102   1.020      0.1000E-01 FIXED          0  -0.0%   0.000       0.000      0.5000       0.000       0.000       10.00       0.000    
     103   1.030      0.1000E-01 FIXED          0   0.0%   0.000       0.000      0.5000       0.000       0.000       10.00       0.000    
     104   1.040      0.1000E-01 FIXED          0  -0.0%   0.000       0.000      0.5000       0.000       0.000       10.00       0.000    
     105   1.050      0.1000E-01 FIXED          0  -0.0%   0.000       0.000      0.5000       0.000       0.000       10.00       0.000    
     106   1.060      0.1000E-01 FIXED          0   0.0%   0.000       0.000      0.5000       0.000       0.000       10.00       0.000    
     107   1.070      0.1000E-01 FIXED          0   0.0%   0.000       0.000      0.5000       0.000       0.000       10.00       0.000    
     108   1.080      0.1000E-01 FIXED          0   0.0%   0.000       0.000      0.5000       0.000       0.000       10.00       0.000    
     109   1.090      0.1000E-01 FIXED          0  -0.0%   0.000       0.000      0.5000       0.000       0.000       10.00       0.000    
   CYCLE    TIME      TIME-STEP  ELEMENT          ERROR  I-ENERGY    K-ENERGY T  K-ENERGY R  EXT-WORK     MAS.ERR     TOTAL MASS  MASS ADDED
     110   1.100      0.1000E-01 FIXED          0   0.0%   0.000       0.000      0.5000       0.000       0.000       10.00       0.000    
     111   1.110      0.1000E-01 FIXED          0  -0.0%   0.000       0.000      0.5000       0.000       0.000       10.00       0.000    
     112   1.120      0.1000E-01 FIXED          0   0.0%   0.000       0.000      0.5000       0.000       0.000       10.00       0.000    
     113   1.130      0.1000E-01 FIXED          0  -0.0%   0.000       0.000      0.5000       0.000       0.000       10.00       0.000    
     114   1.140      0.1000E-01 FIXED          0   0.0%   0.000       0.000      0.5000       0.000       0.000       10.00       0.000    
     115   1.150      0.1000E-01 FIXED          0   0.0%   0.000       0.000      0.5000       0.000       0.000       10.00       0.000    
     116   1.160      0.1000E-01 FIXED          0   0.0%   0.000       0.000      0.5000       0.000       0.000       10.00       0.000    
     117   1.170      0.1000E-01 FIXED          0   0.0%   0.000       0.000      0.5000       0.000       0.000       10.00       0.000    
     118   1.180      0.1000E-01 FIXED          0   0.0%   0.000       0.000      0.5000       0.000       0.000       10.00       0.000    
     119   1.190      0.1000E-01 FIXED          0   0.0%   0.000       0.000      0.5000       0.000       0.000       10.00       0.000    
     120   1.200      0.1000E-01 FIXED          0   0.0%   0.000       0.000      0.5000       0.000       0.000       10.00       0.000    
     121   1.210      0.1000E-01 FIXED          0   0.0%   0.000       0.000      0.5000       0.000       0.000       10.00       0.000    
     122   1.220      0.1000E-01 FIXED          0   0.0%   0.000       0.000      0.5000       0.000       0.000       10.00       0.000    
     123   1.230      0.1000E-01 FIXED          0   0.0%   0.000       0.000      0.5000       0.000       0.000       10.00       0.000    
     124   1.240      0.1000E-01 FIXED          0   0.0%   0.000       0.000      0.5000       0.000       0.000       10.00       0.000    
     125   1.250      0.1000E-01 FIXED          0   0.0%   0.000       0.000      0.5000       0.000       0.000       10.00       0.000    
     126   1.260      0.1000E-01 FIXED          0   0.0%   0.000       0.000      0.5000       0.000       0.000       10.00       0.000    
     127   1.270      0.1000E-01 FIXED          0  -0.0%   0.000       0.000      0.5000       0.000       0.000       10.00       0.000    
     128   1.280      0.1000E-01 FIXED          0   0.0%   0.000       0.000      0.5000       0.000       0.000       10.00       0.000    
     129   1.290      0.1000E-01 FIXED          0   0.0%   0.000       0.000      0.5000       0.000       0.000       10.00       0.000    
     130   1.300      0.1000E-01 FIXED          0  -0.0%   0.000       0.000      0.5000       0.000       0.000       10.00       0.000    
     131   1.310      0.1000E-01 FIXED          0  -0.0%   0.000       0.000      0.5000       0.000       0.000       10.00       0.000    
     132   1.320      0.1000E-01 FIXED          0   0.0%   0.000       0.000      0.5000       0.000       0.000       10.00       0.000    
     133   1.330      0.1000E-01 FIXED          0   0.0%   0.000       0.000      0.5000       0.000       0.000       10.00       0.000    
     134   1.340      0.1000E-01 FIXED          0  -0.0%   0.000       0.000      0.5000       0.000       0.000       10.00       0.000    
     135   1.350      0.1000E-01 FIXED          0  -0.0%   0.000       0.000      0.5000       0.000       0.000       10.00       0.000    
     136   1.360      0.1000E-01 FIXED          0   0.0%   0.000       0.000      0.5000       0.000       0.000       10.00       0.000    
     137   1.370      0.1000E-01 FIXED          0   0.0%   0.000       0.000      0.5000       0.000       0.000       10.00       0.000    
     138   1.380      0.1000E-01 FIXED          0   0.0%   0.000       0.000      0.5000       0.000       0.000       10.00       0.000    
     139   1.390      0.1000E-01 FIXED          0   0.0%   0.000       0.000      0.5000       0.000       0.000       10.00       0.000    
     140   1.400      0.1000E-01 FIXED          0   0.0%   0.000       0.000      0.5000       0.000       0.000       10.00       0.000    
     141   1.410      0.1000E-01 FIXED          0  -0.0%   0.000       0.000      0.5000       0.000       0.000       10.00       0.000    
     142   1.420      0.1000E-01 FIXED          0   0.0%   0.000       0.000      0.5000       0.000       0.000       10.00       0.000    
     143   1.430      0.1000E-01 FIXED          0   0.0%   0.000       0.000      0.5000       0.000       0.000       10.00       0.000    
     144   1.440      0.1000E-01 FIXED          0   0.0%   0.000       0.000      0.5000       0.000       0.000       10.00       0.000    
     145   1.450      0.1000E-01 FIXED          0   0.0%   0.000       0.000      0.5000       0.000       0.000       10.00       0.000    
     146   1.460      0.1000E-01 FIXED          0  -0.0%   0.000       0.000      0.5000       0.000       0.000       10.00       0.000    
     147   1.470      0.1000E-01 FIXED          0   0.0%   0.000       0.000      0.5000       0.000       0.000       10.00       0.000    
     148   1.480      0.1000E-01 FIXED          0   0.0%   0.000       0.000      0.5000       0.000       0.000       10.00       0.000    
     149   1.490      0.1000E-01 FIXED          0  -0.0%   0.000       0.000      0.5000       0.000       0.000       10.00       0.000    
     150   1.500      0.1000E-01 FIXED          0   0.0%   0.000       0.000      0.5000       0.000       0.000       10.00       0.000    
     151   1.510      0.1000E-01 FIXED          0   0.0%   0.000       0.000      0.5000       0.000       0.000       10.00       0.000    
     152   1.520      0.1000E-01 FIXED          0   0.0%   0.000       0.000      0.5000       0.000       0.000       10.00       0.000    
     153   1.530      0.1000E-01 FIXED          0   0.0%   0.000       0.000      0.5000       0.000       0.000       10.00       0.000    
     154   1.540      0.1000E-01 FIXED          0  -0.0%   0.000       0.000      0.5000       0.000       0.000       10.00       0.000    
     155   1.550      0.1000E-01 FIXED          0  -0.0%   0.000       0.000      0.5000       0.000       0.000       10.00       0.000    
     156   1.560      0.1000E-01 FIXED          0   0.0%   0.000       0.000      0.5000       0.000       0.000       10.00       0.000    
     157   1.570      0.1000E-01 FIXED          0   0.0%   0.000       0.000      0.5000       0.000       0.000       10.00       0.000    
     158   1.580      0.1000E-01 FIXED          0   0.0%   0.000       0.000      0.5000       0.000       0.000       10.00       0.000    
     159   1.590      0.1000E-01 FIXED          0   0.0%   0.000       0.000      0.5000       0.000       0.000       10.00       0.000    
     160   1.600      0.1000E-01 FIXED          0  -0.0%   0.000       0.000      0.5000       0.000       0.000       10.00       0.000    
     161   1.610      0.1000E-01 FIXED          0  -0.0%   0.000       0.000      0.5000       0.000       0.000       10.00       0.000    
     162   1.620      0.1000E-01 FIXED          0  -0.0%   0.000       0.000      0.5000       0.000       0.000       10.00       0.000    
     163   1.630      0.1000E-01 FIXED          0  -0.0%   0.000       0.000      0.5000       0.000       0.000       10.00       0.000    
     164   1.640      0.1000E-01 FIXED          0   0.0%   0.000       0.000      0.5000       0.000       0.000       10.00       0.000    
   CYCLE    TIME      TIME-STEP  ELEMENT          ERROR  I-ENERGY    K-ENERGY T  K-ENERGY R  EXT-WORK     MAS.ERR     TOTAL MASS  MASS ADDED
     165   1.650      0.1000E-01 FIXED          0   0.0%   0.000       0.000      0.5000       0.000       0.000       10.00       0.000    
     166   1.660      0.1000E-01 FIXED          0  -0.0%   0.000       0.000      0.5000       0.000       0.000       10.00       0.000    
     167   1.670      0.1000E-01 FIXED          0  -0.0%   0.000       0.000      0.5000       0.000       0.000       10.00       0.000    
     168   1.680      0.1000E-01 FIXED          0  -0.0%   0.000       0.000      0.5000       0.000       0.000       10.00       0.000    
     169   1.690      0.1000E-01 FIXED          0  -0.0%   0.000       0.000      0.5000       0.000       0.000       10.00       0.000    
     170   1.700      0.1000E-01 FIXED          0   0.0%   0.000       0.000      0.5000       0.000       0.000       10.00       0.000    
     171   1.710      0.1000E-01 FIXED          0   0.0%   0.000       0.000      0.5000       0.000       0.000       10.00       0.000    
     172   1.720      0.1000E-01 FIXED          0  -0.0%   0.000       0.000      0.5000       0.000       0.000       10.00       0.000    
     173   1.730      0.1000E-01 FIXED          0   0.0%   0.000       0.000      0.5000       0.000       0.000       10.00       0.000    
     174   1.740      0.1000E-01 FIXED          0   0.0%   0.000       0.000      0.5000       0.000       0.000       10.00       0.000    
     175   1.750      0.1000E-01 FIXED          0   0.0%   0.000       0.000      0.5000       0.000       0.000       10.00       0.000    
     176   1.760      0.1000E-01 FIXED          0  -0.0%   0.000       0.000      0.5000       0.000       0.000       10.00       0.000    
     177   1.770      0.1000E-01 FIXED          0   0.0%   0.000       0.000      0.5000       0.000       0.000       10.00       0.000    
     178   1.780      0.1000E-01 FIXED          0   0.0%   0.000       0.000      0.5000       0.000       0.000       10.00       0.000    
     179   1.790      0.1000E-01 FIXED          0   0.0%   0.000       0.000      0.5000       0.000       0.000       10.00       0.000    
     180   1.800      0.1000E-01 FIXED          0   0.0%   0.000       0.000      0.5000       0.000       0.000       10.00       0.000    
     181   1.810      0.1000E-01 FIXED          0   0.0%   0.000       0.000      0.5000       0.000       0.000       10.00       0.000    
     182   1.820      0.1000E-01 FIXED          0   0.0%   0.000       0.000      0.5000       0.000       0.000       10.00       0.000    
     183   1.830      0.1000E-01 FIXED          0  -0.0%   0.000       0.000      0.5000       0.000       0.000       10.00       0.000    
     184   1.840      0.1000E-01 FIXED          0  -0.0%   0.000       0.000      0.5000       0.000       0.000       10.00       0.000    
     185   1.850      0.1000E-01 FIXED          0  -0.0%   0.000       0.000      0.5000       0.000       0.000       10.00       0.000    
     186   1.860      0.1000E-01 FIXED          0  -0.0%   0.000       0.000      0.5000       0.000       0.000       10.00       0.000    
     187   1.870      0.1000E-01 FIXED          0  -0.0%   0.000       0.000      0.5000       0.000       0.000       10.00       0.000    
     188   1.880      0.1000E-01 FIXED          0   0.0%   0.000       0.000      0.5000       0.000       0.000       10.00       0.000    
     189   1.890      0.1000E-01 FIXED          0   0.0%   0.000       0.000      0.5000       0.000       0.000       10.00       0.000    
     190   1.900      0.1000E-01 FIXED          0  -0.0%   0.000       0.000      0.5000       0.000       0.000       10.00       0.000    
     191   1.910      0.1000E-01 FIXED          0   0.0%   0.000       0.000      0.5000       0.000       0.000       10.00       0.000    
     192   1.920      0.1000E-01 FIXED          0   0.0%   0.000       0.000      0.5000       0.000       0.000       10.00       0.000    
     193   1.930      0.1000E-01 FIXED          0   0.0%   0.000       0.000      0.5000       0.000       0.000       10.00       0.000    
     194   1.940      0.1000E-01 FIXED          0   0.0%   0.000       0.000      0.5000       0.000       0.000       10.00       0.000    
     195   1.950      0.1000E-01 FIXED          0   0.0%   0.000       0.000      0.5000       0.000       0.000       10.00       0.000    
     196   1.960      0.1000E-01 FIXED          0   0.0%   0.000       0.000      0.5000       0.000       0.000       10.00       0.000    
     197   1.970      0.1000E-01 FIXED          0  -0.0%   0.000       0.000      0.5000       0.000       0.000       10.00       0.000    
     198   1.980      0.1000E-01 FIXED          0   0.0%   0.000       0.000      0.5000       0.000       0.000       10.00       0.000    
     199   1.990      0.1000E-01 FIXED          0   0.0%   0.000       0.000      0.5000       0.000       0.000       10.00       0.000    
     200   2.000      0.1000E-01 FIXED          0  -0.0%   0.000       0.000      0.5000       0.000       0.000       10.00       0.000    
     201   2.010      0.1000E-01 FIXED          0   0.0%   0.000       0.000      0.5000       0.000       0.000       10.00       0.000    
     202   2.020      0.1000E-01 FIXED          0   0.0%   0.000       0.000      0.5000       0.000       0.000       10.00       0.000    
     203   2.030      0.1000E-01 FIXED          0  -0.0%   0.000       0.000      0.5000       0.000       0.000       10.00       0.000    
     204   2.040      0.1000E-01 FIXED          0   0.0%   0.000       0.000      0.5000       0.000       0.000       10.00       0.000    
     205   2.050      0.1000E-01 FIXED          0   0.0%   0.000       0.000      0.5000       0.000       0.000       10.00       0.000    
     206   2.060      0.1000E-01 FIXED          0   0.0%   0.000       0.000      0.5000       0.000       0.000       10.00       0.000    
     207   2.070      0.1000E-01 FIXED          0   0.0%   0.000       0.000      0.5000       0.000       0.000       10.00       0.000    
     208   2.080      0.1000E-01 FIXED          0   0.0%   0.000       0.000      0.5000       0.000       0.000       10.00       0.000    
     209   2.090      0.1000E-01 FIXED          0  -0.0%   0.000       0.000      0.5000       0.000       0.000       10.00       0.000    
     210   2.100      0.1000E-01 FIXED          0   0.0%   0.000       0.000      0.5000       0.000       0.000       10.00       0.000    
     211   2.110      0.1000E-01 FIXED          0   0.0%   0.000       0.000      0.5000       0.000       0.000       10.00       0.000    
     212   2.120      0.1000E-01 FIXED          0  -0.0%   0.000       0.000      0.5000       0.000       0.000       10.00       0.000    
     213   2.130      0.1000E-01 FIXED          0  -0.0%   0.000       0.000      0.5000       0.000       0.000       10.00       0.000    
     214   2.140      0.1000E-01 FIXED          0  -0.0%   0.000       0.000      0.5000       0.000       0.000       10.00       0.000    
     215   2.150      0.1000E-01 FIXED          0   0.0%   0.000       0.000      0.5000       0.000       0.000       10.00       0.000    
     216   2.160      0.1000E-01 FIXED          0  -0.0%   0.000       0.000      0.5000       0.000       0.000       10.00       0.000    
     217   2.170      0.1000E-01 FIXED          0  -0.0%   0.000       0.000      0.5000       0.000       0.000       10.00       0.000    
     218   2.180      0.1000E-01 FIXED          0  -0.0%   0.000       0.000      0.5000       0.000       0.000       10.00       0.000    
     219   2.190      0.1000E-01 FIXED          0  -0.0%   0.000       0.000      0.5000       0.000       0.000       10.00       0.000    
   CYCLE    TIME      TIME-STEP  ELEMENT          ERROR  I-ENERGY    K-ENERGY T  K-ENERGY R  EXT-WORK     MAS.ERR     TOTAL MASS  MASS ADDED
     220   2.200      0.1000E-01 FIXED          0   0.0%   0.000       0.000      0.5000       0.000       0.000       10.00       0.000    
     221   2.210      0.1000E-01 FIXED          0   0.0%   0.000       0.000      0.5000       0.000       0.000       10.00       0.000    
     222   2.220      0.1000E-01 FIXED          0   0.0%   0.000       0.000      0.5000       0.000       0.000       10.00       0.000    
     223   2.230      0.1000E-01 FIXED          0  -0.0%   0.000       0.000      0.5000       0.000       0.000       10.00       0.000    
     224   2.240      0.1000E-01 FIXED          0   0.0%   0.000       0.000      0.5000       0.000       0.000       10.00       0.000    
     225   2.250      0.1000E-01 FIXED          0   0.0%   0.000       0.000      0.5000       0.000       0.000       10.00       0.000    
     226   2.260      0.1000E-01 FIXED          0   0.0%   0.000       0.000      0.5000       0.000       0.000       10.00       0.000    
     227   2.270      0.1000E-01 FIXED          0   0.0%   0.000       0.000      0.5000       0.000       0.000       10.00       0.000    
     228   2.280      0.1000E-01 FIXED          0   0.0%   0.000       0.000      0.5000       0.000       0.000       10.00       0.000    
     229   2.290      0.1000E-01 FIXED          0  -0.0%   0.000       0.000      0.5000       0.000       0.000       10.00       0.000    
     230   2.300      0.1000E-01 FIXED          0   0.0%   0.000       0.000      0.5000       0.000       0.000       10.00       0.000    
     231   2.310      0.1000E-01 FIXED          0   0.0%   0.000       0.000      0.5000       0.000       0.000       10.00       0.000    
     232   2.320      0.1000E-01 FIXED          0   0.0%   0.000       0.000      0.5000       0.000       0.000       10.00       0.000    
     233   2.330      0.1000E-01 FIXED          0   0.0%   0.000       0.000      0.5000       0.000       0.000       10.00       0.000    
     234   2.340      0.1000E-01 FIXED          0   0.0%   0.000       0.000      0.5000       0.000       0.000       10.00       0.000    
     235   2.350      0.1000E-01 FIXED          0  -0.0%   0.000       0.000      0.5000       0.000       0.000       10.00       0.000    
     236   2.360      0.1000E-01 FIXED          0   0.0%   0.000       0.000      0.5000       0.000       0.000       10.00       0.000    
     237   2.370      0.1000E-01 FIXED          0   0.0%   0.000       0.000      0.5000       0.000       0.000       10.00       0.000    
     238   2.380      0.1000E-01 FIXED          0   0.0%   0.000       0.000      0.5000       0.000       0.000       10.00       0.000    
     239   2.390      0.1000E-01 FIXED          0   0.0%   0.000       0.000      0.5000       0.000       0.000       10.00       0.000    
     240   2.400      0.1000E-01 FIXED          0   0.0%   0.000       0.000      0.5000       0.000       0.000       10.00       0.000    
     241   2.410      0.1000E-01 FIXED          0   0.0%   0.000       0.000      0.5000       0.000       0.000       10.00       0.000    
     242   2.420      0.1000E-01 FIXED          0   0.0%   0.000       0.000      0.5000       0.000       0.000       10.00       0.000    
     243   2.430      0.1000E-01 FIXED          0  -0.0%   0.000       0.000      0.5000       0.000       0.000       10.00       0.000    
     244   2.440      0.1000E-01 FIXED          0   0.0%   0.000       0.000      0.5000       0.000       0.000       10.00       0.000    
     245   2.450      0.1000E-01 FIXED          0   0.0%   0.000       0.000      0.5000       0.000       0.000       10.00       0.000    
     246   2.460      0.1000E-01 FIXED          0   0.0%   0.000       0.000      0.5000       0.000       0.000       10.00       0.000    
     247   2.470      0.1000E-01 FIXED          0  -0.0%   0.000       0.000      0.5000       0.000       0.000       10.00       0.000    
     248   2.480      0.1000E-01 FIXED          0   0.0%   0.000       0.000      0.5000       0.000       0.000       10.00       0.000    
     249   2.490      0.1000E-01 FIXED          0   0.0%   0.000       0.000      0.5000       0.000       0.000       10.00       0.000    
     250   2.500      0.1000E-01 FIXED          0   0.0%   0.000       0.000      0.5000       0.000       0.000       10.00       0.000    
     251   2.510      0.1000E-01 FIXED          0   0.0%   0.000       0.000      0.5000       0.000       0.000       10.00       0.000    
     252   2.520      0.1000E-01 FIXED          0   0.0%   0.000       0.000      0.5000       0.000       0.000       10.00       0.000    
     253   2.530      0.1000E-01 FIXED          0   0.0%   0.000       0.000      0.5000       0.000       0.000       10.00       0.000    
     254   2.540      0.1000E-01 FIXED          0   0.0%   0.000       0.000      0.5000       0.000       0.000       10.00       0.000    
     255   2.550      0.1000E-01 FIXED          0   0.0%   0.000       0.000      0.5000       0.000       0.000       10.00       0.000    
     256   2.560      0.1000E-01 FIXED          0  -0.0%   0.000       0.000      0.5000       0.000       0.000       10.00       0.000    
     257   2.570      0.1000E-01 FIXED          0   0.0%   0.000       0.000      0.5000       0.000       0.000       10.00       0.000    
     258   2.580      0.1000E-01 FIXED          0   0.0%   0.000       0.000      0.5000       0.000       0.000       10.00       0.000    
     259   2.590      0.1000E-01 FIXED          0   0.0%   0.000       0.000      0.5000       0.000       0.000       10.00       0.000    
     260   2.600      0.1000E-01 FIXED          0   0.0%   0.000       0.000      0.5000       0.000       0.000       10.00       0.000    
     261   2.610      0.1000E-01 FIXED          0  -0.0%   0.000       0.000      0.5000       0.000       0.000       10.00       0.000    
     262   2.620      0.1000E-01 FIXED          0  -0.0%   0.000       0.000      0.5000       0.000       0.000       10.00       0.000    
     263   2.630      0.1000E-01 FIXED          0   0.0%   0.000       0.000      0.5000       0.000       0.000       10.00       0.000    
     264   2.640      0.1000E-01 FIXED          0  -0.0%   0.000       0.000      0.5000       0.000       0.000       10.00       0.000    
     265   2.650      0.1000E-01 FIXED          0  -0.0%   0.000       0.000      0.5000       0.000       0.000       10.00       0.000    
     266   2.660      0.1000E-01 FIXED          0   0.0%   0.000       0.000      0.5000       0.000       0.000       10.00       0.000    
     267   2.670      0.1000E-01 FIXED          0   0.0%   0.000       0.000      0.5000       0.000       0.000       10.00       0.000    
     268   2.680      0.1000E-01 FIXED          0  -0.0%   0.000       0.000      0.5000       0.000       0.000       10.00       0.000    
     269   2.690      0.1000E-01 FIXED          0   0.0%   0.000       0.000      0.5000       0.000       0.000       10.00       0.000    
     270   2.700      0.1000E-01 FIXED          0   0.0%   0.000       0.000      0.5000       0.000       0.000       10.00       0.000    
     271   2.710      0.1000E-01 FIXED          0   0.0%   0.000       0.000      0.5000       0.000       0.000       10.00       0.000    
     272   2.720      0.1000E-01 FIXED          0  -0.0%   0.000       0.000      0.5000       0.000       0.000       10.00       0.000    
     273   2.730      0.1000E-01 FIXED          0  -0.0%   0.000       0.000      0.5000       0.000       0.000       10.00       0.000    
     274   2.740      0.1000E-01 FIXED          0   0.0%   0.000       0.000      0.5000       0.000       0.000       10.00       0.000    
   CYCLE    TIME      TIME-STEP  ELEMENT          ERROR  I-ENERGY    K-ENERGY T  K-ENERGY R  EXT-WORK     MAS.ERR     TOTAL MASS  MASS ADDED
     275   2.750      0.1000E-01 FIXED          0   0.0%   0.000       0.000      0.5000       0.000       0.000       10.00       0.000    
     276   2.760      0.1000E-01 FIXED          0   0.0%   0.000       0.000      0.5000       0.000       0.000       10.00       0.000    
     277   2.770      0.1000E-01 FIXED          0  -0.0%   0.000       0.000      0.5000       0.000       0.000       10.00       0.000    
     278   2.780      0.1000E-01 FIXED          0   0.0%   0.000       0.000      0.5000       0.000       0.000       10.00       0.000    
     279   2.790      0.1000E-01 FIXED          0   0.0%   0.000       0.000      0.5000       0.000       0.000       10.00       0.000    
     280   2.800      0.1000E-01 FIXED          0   0.0%   0.000       0.000      0.5000       0.000       0.000       10.00       0.000    
     281   2.810      0.1000E-01 FIXED          0   0.0%   0.000       0.000      0.5000       0.000       0.000       10.00       0.000    
     282   2.820      0.1000E-01 FIXED          0   0.0%   0.000       0.000      0.5000       0.000       0.000       10.00       0.000    
     283   2.830      0.1000E-01 FIXED          0   0.0%   0.000       0.000      0.5000       0.000       0.000       10.00       0.000    
     284   2.840      0.1000E-01 FIXED          0   0.0%   0.000       0.000      0.5000       0.000       0.000       10.00       0.000    
     285   2.850      0.1000E-01 FIXED          0   0.0%   0.000       0.000      0.5000       0.000       0.000       10.00       0.000    
     286   2.860      0.1000E-01 FIXED          0   0.0%   0.000       0.000      0.5000       0.000       0.000       10.00       0.000    
     287   2.870      0.1000E-01 FIXED          0  -0.0%   0.000       0.000      0.5000       0.000       0.000       10.00       0.000    
     288   2.880      0.1000E-01 FIXED          0   0.0%   0.000       0.000      0.5000       0.000       0.000       10.00       0.000    
     289   2.890      0.1000E-01 FIXED          0   0.0%   0.000       0.000      0.5000       0.000       0.000       10.00       0.000    
     290   2.900      0.1000E-01 FIXED          0   0.0%   0.000       0.000      0.5000       0.000       0.000       10.00       0.000    
     291   2.910      0.1000E-01 FIXED          0   0.0%   0.000       0.000      0.5000       0.000       0.000       10.00       0.000    
     292   2.920      0.1000E-01 FIXED          0   0.0%   0.000       0.000      0.5000       0.000       0.000       10.00       0.000    
     293   2.930      0.1000E-01 FIXED          0   0.0%   0.000       0.000      0.5000       0.000       0.000       10.00       0.000    
     294   2.940      0.1000E-01 FIXED          0   0.0%   0.000       0.000      0.5000       0.000       0.000       10.00       0.000    
     295   2.950      0.1000E-01 FIXED          0  -0.0%   0.000       0.000      0.5000       0.000       0.000       10.00       0.000    
     296   2.960      0.1000E-01 FIXED          0  -0.0%   0.000       0.000      0.5000       0.000       0.000       10.00       0.000    
     297   2.970      0.1000E-01 FIXED          0  -0.0%   0.000       0.000      0.5000       0.000       0.000       10.00       0.000    
     298   2.980      0.1000E-01 FIXED          0   0.0%   0.000       0.000      0.5000       0.000       0.000       10.00       0.000    
     299   2.990      0.1000E-01 FIXED          0   0.0%   0.000       0.000      0.5000       0.000       0.000       10.00       0.000    
     300   3.000      0.1000E-01 FIXED          0   0.0%   0.000       0.000      0.5000       0.000       0.000       10.00       0.000    
     301   3.010      0.1000E-01 FIXED          0   0.0%   0.000       0.000      0.5000       0.000       0.000       10.00       0.000    
     302   3.020      0.1000E-01 FIXED          0   0.0%   0.000       0.000      0.5000       0.000       0.000       10.00       0.000    
     303   3.030      0.1000E-01 FIXED          0  -0.0%   0.000       0.000      0.5000       0.000       0.000       10.00       0.000    
     304   3.040      0.1000E-01 FIXED          0   0.0%   0.000       0.000      0.5000       0.000       0.000       10.00       0.000    
     305   3.050      0.1000E-01 FIXED          0  -0.0%   0.000       0.000      0.5000       0.000       0.000       10.00       0.000    
     306   3.060      0.1000E-01 FIXED          0  -0.0%   0.000       0.000      0.5000       0.000       0.000       10.00       0.000    
     307   3.070      0.1000E-01 FIXED          0  -0.0%   0.000       0.000      0.5000       0.000       0.000       10.00       0.000    
     308   3.080      0.1000E-01 FIXED          0   0.0%   0.000       0.000      0.5000       0.000       0.000       10.00       0.000    
     309   3.090      0.1000E-01 FIXED          0   0.0%   0.000       0.000      0.5000       0.000       0.000       10.00       0.000    
     310   3.100      0.1000E-01 FIXED          0  -0.0%   0.000       0.000      0.5000       0.000       0.000       10.00       0.000    
     311   3.110      0.1000E-01 FIXED          0   0.0%   0.000       0.000      0.5000       0.000       0.000       10.00       0.000    
     312   3.120      0.1000E-01 FIXED          0   0.0%   0.000       0.000      0.5000       0.000       0.000       10.00       0.000    
     313   3.130      0.1000E-01 FIXED          0  -0.0%   0.000       0.000      0.5000       0.000       0.000       10.00       0.000    
     314   3.140      0.1000E-01 FIXED          0  -0.0%   0.000       0.000      0.5000       0.000       0.000       10.00       0.000    
     315   3.150      0.1000E-01 FIXED          0  -0.0%   0.000       0.000      0.5000       0.000       0.000       10.00       0.000    
     316   3.160      0.1000E-01 FIXED          0   0.0%   0.000       0.000      0.5000       0.000       0.000       10.00       0.000    
     317   3.170      0.1000E-01 FIXED          0  -0.0%   0.000       0.000      0.5000       0.000       0.000       10.00       0.000    
     318   3.180      0.1000E-01 FIXED          0   0.0%   0.000       0.000      0.5000       0.000       0.000       10.00       0.000    
     319   3.190      0.1000E-01 FIXED          0  -0.0%   0.000       0.000      0.5000       0.000       0.000       10.00       0.000    
     320   3.200      0.1000E-01 FIXED          0  -0.0%   0.000       0.000      0.5000       0.000       0.000       10.00       0.000    
     321   3.210      0.1000E-01 FIXED          0   0.0%   0.000       0.000      0.5000       0.000       0.000       10.00       0.000    
     322   3.220      0.1000E-01 FIXED          0   0.0%   0.000       0.000      0.5000       0.000       0.000       10.00       0.000    
     323   3.230      0.1000E-01 FIXED          0  -0.0%   0.000       0.000      0.5000       0.000       0.000       10.00       0.000    
     324   3.240      0.1000E-01 FIXED          0  -0.0%   0.000       0.000      0.5000       0.000       0.000       10.00       0.000    
     325   3.250      0.1000E-01 FIXED          0  -0.0%   0.000       0.000      0.5000       0.000       0.000       10.00       0.000    
     326   3.260      0.1000E-01 FIXED          0   0.0%   0.000       0.000      0.5000       0.000       0.000       10.00       0.000    
     327   3.270      0.1000E-01 FIXED          0  -0.0%   0.000       0.000      0.5000       0.000       0.000       10.00       0.000    
     328   3.280      0.1000E-01 FIXED          0   0.0%   0.000       0.000      0.5000       0.000       0.000       10.00       0.000    
     329   3.290      0.1000E-01 FIXED          0   0.0%   0.000       0.000      0.5000       0.000       0.000       10.00       0.000    
   CYCLE    TIME      TIME-STEP  ELEMENT          ERROR  I-ENERGY    K-ENERGY T  K-ENERGY R  EXT-WORK     MAS.ERR     TOTAL MASS  MASS ADDED
     330   3.300      0.1000E-01 FIXED          0  -0.0%   0.000       0.000      0.5000       0.000       0.000       10.00       0.000    
     331   3.310      0.1000E-01 FIXED          0  -0.0%   0.000       0.000      0.5000       0.000       0.000       10.00       0.000    
     332   3.320      0.1000E-01 FIXED          0   0.0%   0.000       0.000      0.5000       0.000       0.000       10.00       0.000    
     333   3.330      0.1000E-01 FIXED          0   0.0%   0.000       0.000      0.5000       0.000       0.000       10.00       0.000    
     334   3.340      0.1000E-01 FIXED          0  -0.0%   0.000       0.000      0.5000       0.000       0.000       10.00       0.000    
     335   3.350      0.1000E-01 FIXED          0   0.0%   0.000       0.000      0.5000       0.000       0.000       10.00       0.000    
     336   3.360      0.1000E-01 FIXED          0   0.0%   0.000       0.000      0.5000       0.000       0.000       10.00       0.000    
     337   3.370      0.1000E-01 FIXED          0   0.0%   0.000       0.000      0.5000       0.000       0.000       10.00       0.000    
     338   3.380      0.1000E-01 FIXED          0   0.0%   0.000       0.000      0.5000       0.000       0.000       10.00       0.000    
     339   3.390      0.1000E-01 FIXED          0   0.0%   0.000       0.000      0.5000       0.000       0.000       10.00       0.000    
     340   3.400      0.1000E-01 FIXED          0   0.0%   0.000       0.000      0.5000       0.000       0.000       10.00       0.000    
     341   3.410      0.1000E-01 FIXED          0  -0.0%   0.000       0.000      0.5000       0.000       0.000       10.00       0.000    
     342   3.420      0.1000E-01 FIXED          0   0.0%   0.000       0.000      0.5000       0.000       0.000       10.00       0.000    
     343   3.430      0.1000E-01 FIXED          0   0.0%   0.000       0.000      0.5000       0.000       0.000       10.00       0.000    
     344   3.440      0.1000E-01 FIXED          0   0.0%   0.000       0.000      0.5000       0.000       0.000       10.00       0.000    
     345   3.450      0.1000E-01 FIXED          0   0.0%   0.000       0.000      0.5000       0.000       0.000       10.00       0.000    
     346   3.460      0.1000E-01 FIXED          0   0.0%   0.000       0.000      0.5000       0.000       0.000       10.00       0.000    
     347   3.470      0.1000E-01 FIXED          0  -0.0%   0.000       0.000      0.5000       0.000       0.000       10.00       0.000    
     348   3.480      0.1000E-01 FIXED          0   0.0%   0.000       0.000      0.5000       0.000       0.000       10.00       0.000    
     349   3.490      0.1000E-01 FIXED          0   0.0%   0.000       0.000      0.5000       0.000       0.000       10.00       0.000    
     350   3.500      0.1000E-01 FIXED          0   0.0%   0.000       0.000      0.5000       0.000       0.000       10.00       0.000    
     351   3.510      0.1000E-01 FIXED          0   0.0%   0.000       0.000      0.5000       0.000       0.000       10.00       0.000    
     352   3.520      0.1000E-01 FIXED          0  -0.0%   0.000       0.000      0.5000       0.000       0.000       10.00       0.000    
     353   3.530      0.1000E-01 FIXED          0  -0.0%   0.000       0.000      0.5000       0.000       0.000       10.00       0.000    
     354   3.540      0.1000E-01 FIXED          0  -0.0%   0.000       0.000      0.5000       0.000       0.000       10.00       0.000    
     355   3.550      0.1000E-01 FIXED          0  -0.0%   0.000       0.000      0.5000       0.000       0.000       10.00       0.000    
     356   3.560      0.1000E-01 FIXED          0  -0.0%   0.000       0.000      0.5000       0.000       0.000       10.00       0.000    
     357   3.570      0.1000E-01 FIXED          0   0.0%   0.000       0.000      0.5000       0.000       0.000       10.00       0.000    
     358   3.580      0.1000E-01 FIXED          0  -0.0%   0.000       0.000      0.5000       0.000       0.000       10.00       0.000    
     359   3.590      0.1000E-01 FIXED          0  -0.0%   0.000       0.000      0.5000       0.000       0.000       10.00       0.000    
     360   3.600      0.1000E-01 FIXED          0  -0.0%   0.000       0.000      0.5000       0.000       0.000       10.00       0.000    
     361   3.610      0.1000E-01 FIXED          0  -0.0%   0.000       0.000      0.5000       0.000       0.000       10.00       0.000    
     362   3.620      0.1000E-01 FIXED          0   0.0%   0.000       0.000      0.5000       0.000       0.000       10.00       0.000    
     363   3.630      0.1000E-01 FIXED          0   0.0%   0.000       0.000      0.5000       0.000       0.000       10.00       0.000    
     364   3.640      0.1000E-01 FIXED          0  -0.0%   0.000       0.000      0.5000       0.000       0.000       10.00       0.000    
     365   3.650      0.1000E-01 FIXED          0  -0.0%   0.000       0.000      0.5000       0.000       0.000       10.00       0.000    
     366   3.660      0.1000E-01 FIXED          0  -0.0%   0.000       0.000      0.5000       0.000       0.000       10.00       0.000    
     367   3.670      0.1000E-01 FIXED          0   0.0%   0.000       0.000      0.5000       0.000       0.000       10.00       0.000    
     368   3.680      0.1000E-01 FIXED          0   0.0%   0.000       0.000      0.5000       0.000       0.000       10.00       0.000    
     369   3.690      0.1000E-01 FIXED          0   0.0%   0.000       0.000      0.5000       0.000       0.000       10.00       0.000    
     370   3.700      0.1000E-01 FIXED          0  -0.0%   0.000       0.000      0.5000       0.000       0.000       10.00       0.000    
     371   3.710      0.1000E-01 FIXED          0   0.0%   0.000       0.000      0.5000       0.000       0.000       10.00       0.000    
     372   3.720      0.1000E-01 FIXED          0   0.0%   0.000       0.000      0.5000       0.000       0.000       10.00       0.000    
     373   3.730      0.1000E-01 FIXED          0   0.0%   0.000       0.000      0.5000       0.000       0.000       10.00       0.000    
     374   3.740      0.1000E-01 FIXED          0   0.0%   0.000       0.000      0.5000       0.000       0.000       10.00       0.000    
     375   3.750      0.1000E-01 FIXED          0   0.0%   0.000       0.000      0.5000       0.000       0.000       10.00       0.000    
     376   3.760      0.1000E-01 FIXED          0  -0.0%   0.000       0.000      0.5000       0.000       0.000       10.00       0.000    
     377   3.770      0.1000E-01 FIXED          0   0.0%   0.000       0.000      0.5000       0.000       0.000       10.00       0.000    
     378   3.780      0.1000E-01 FIXED          0   0.0%   0.000       0.000      0.5000       0.000       0.000       10.00       0.000    
     379   3.790      0.1000E-01 FIXED          0  -0.0%   0.000       0.000      0.5000       0.000       0.000       10.00       0.000    
     380   3.800      0.1000E-01 FIXED          0   0.0%   0.000       0.000      0.5000       0.000       0.000       10.00       0.000    
     381   3.810      0.1000E-01 FIXED          0  -0.0%   0.000       0.000      0.5000       0.000       0.000       10.00       0.000    
     382   3.820      0.1000E-01 FIXED          0   0.0%   0.000       0.000      0.5000       0.000       0.000       10.00       0.000    
     383   3.830      0.1000E-01 FIXED          0   0.0%   0.000       0.000      0.5000       0.000       0.000       10.00       0.000    
     384   3.840      0.1000E-01 FIXED          0  -0.0%   0.000       0.000      0.5000       0.000       0.000       10.00       0.000    
   CYCLE    TIME      TIME-STEP  ELEMENT          ERROR  I-ENERGY    K-ENERGY T  K-ENERGY R  EXT-WORK     MAS.ERR     TOTAL MASS  MASS ADDED
     385   3.850      0.1000E-01 FIXED          0   0.0%   0.000       0.000      0.5000       0.000       0.000       10.00       0.000    
     386   3.860      0.1000E-01 FIXED          0   0.0%   0.000       0.000      0.5000       0.000       0.000       10.00       0.000    
     387   3.870      0.1000E-01 FIXED          0   0.0%   0.000       0.000      0.5000       0.000       0.000       10.00       0.000    
     388   3.880      0.1000E-01 FIXED          0   0.0%   0.000       0.000      0.5000       0.000       0.000       10.00       0.000    
     389   3.890      0.1000E-01 FIXED          0   0.0%   0.000       0.000      0.5000       0.000       0.000       10.00       0.000    
     390   3.900      0.1000E-01 FIXED          0  -0.0%   0.000       0.000      0.5000       0.000       0.000       10.00       0.000    
     391   3.910      0.1000E-01 FIXED          0  -0.0%   0.000       0.000      0.5000       0.000       0.000       10.00       0.000    
     392   3.920      0.1000E-01 FIXED          0  -0.0%   0.000       0.000      0.5000       0.000       0.000       10.00       0.000    
     393   3.930      0.1000E-01 FIXED          0   0.0%   0.000       0.000      0.5000       0.000       0.000       10.00       0.000    
     394   3.940      0.1000E-01 FIXED          0   0.0%   0.000       0.000      0.5000       0.000       0.000       10.00       0.000    
     395   3.950      0.1000E-01 FIXED          0   0.0%   0.000       0.000      0.5000       0.000       0.000       10.00       0.000    
     396   3.960      0.1000E-01 FIXED          0  -0.0%   0.000       0.000      0.5000       0.000       0.000       10.00       0.000    
     397   3.970      0.1000E-01 FIXED          0   0.0%   0.000       0.000      0.5000       0.000       0.000       10.00       0.000    
     398   3.980      0.1000E-01 FIXED          0   0.0%   0.000       0.000      0.5000       0.000       0.000       10.00       0.000    
     399   3.990      0.1000E-01 FIXED          0   0.0%   0.000       0.000      0.5000       0.000       0.000       10.00       0.000    
     400   4.000      0.1000E-01 FIXED          0  -0.0%   0.000       0.000      0.5000       0.000       0.000       10.00       0.000    
     401   4.010      0.1000E-01 FIXED          0   0.0%   0.000       0.000      0.5000       0.000       0.000       10.00       0.000    
     402   4.020      0.1000E-01 FIXED          0   0.0%   0.000       0.000      0.5000       0.000       0.000       10.00       0.000    
     403   4.030      0.1000E-01 FIXED          0   0.0%   0.000       0.000      0.5000       0.000       0.000       10.00       0.000    
     404   4.040      0.1000E-01 FIXED          0   0.0%   0.000       0.000      0.5000       0.000       0.000       10.00       0.000    
     405   4.050      0.1000E-01 FIXED          0  -0.0%   0.000       0.000      0.5000       0.000       0.000       10.00       0.000    
     406   4.060      0.1000E-01 FIXED          0   0.0%   0.000       0.000      0.5000       0.000       0.000       10.00       0.000    
     407   4.070      0.1000E-01 FIXED          0   0.0%   0.000       0.000      0.5000       0.000       0.000       10.00       0.000    
     408   4.080      0.1000E-01 FIXED          0   0.0%   0.000       0.000      0.5000       0.000       0.000       10.00       0.000    
     409   4.090      0.1000E-01 FIXED          0   0.0%   0.000       0.000      0.5000       0.000       0.000       10.00       0.000    
     410   4.100      0.1000E-01 FIXED          0   0.0%   0.000       0.000      0.5000       0.000       0.000       10.00       0.000    
     411   4.110      0.1000E-01 FIXED          0   0.0%   0.000       0.000      0.5000       0.000       0.000       10.00       0.000    
     412   4.120      0.1000E-01 FIXED          0   0.0%   0.000       0.000      0.5000       0.000       0.000       10.00       0.000    
     413   4.130      0.1000E-01 FIXED          0   0.0%   0.000       0.000      0.5000       0.000       0.000       10.00       0.000    
     414   4.140      0.1000E-01 FIXED          0   0.0%   0.000       0.000      0.5000       0.000       0.000       10.00       0.000    
     415   4.150      0.1000E-01 FIXED          0   0.0%   0.000       0.000      0.5000       0.000       0.000       10.00       0.000    
     416   4.160      0.1000E-01 FIXED          0   0.0%   0.000       0.000      0.5000       0.000       0.000       10.00       0.000    
     417   4.170      0.1000E-01 FIXED          0   0.0%   0.000       0.000      0.5000       0.000       0.000       10.00       0.000    
     418   4.180      0.1000E-01 FIXED          0  -0.0%   0.000       0.000      0.5000       0.000       0.000       10.00       0.000    
     419   4.190      0.1000E-01 FIXED          0   0.0%   0.000       0.000      0.5000       0.000       0.000       10.00       0.000    
     420   4.200      0.1000E-01 FIXED          0   0.0%   0.000       0.000      0.5000       0.000       0.000       10.00       0.000    
     421   4.210      0.1000E-01 FIXED          0  -0.0%   0.000       0.000      0.5000       0.000       0.000       10.00       0.000    
     422   4.220      0.1000E-01 FIXED          0   0.0%   0.000       0.000      0.5000       0.000       0.000       10.00       0.000    
     423   4.230      0.1000E-01 FIXED          0   0.0%   0.000       0.000      0.5000       0.000       0.000       10.00       0.000    
     424   4.240      0.1000E-01 FIXED          0   0.0%   0.000       0.000      0.5000       0.000       0.000       10.00       0.000    
     425   4.250      0.1000E-01 FIXED          0   0.0%   0.000       0.000      0.5000       0.000       0.000       10.00       0.000    
     426   4.260      0.1000E-01 FIXED          0  -0.0%   0.000       0.000      0.5000       0.000       0.000       10.00       0.000    
     427   4.270      0.1000E-01 FIXED          0  -0.0%   0.000       0.000      0.5000       0.000       0.000       10.00       0.000    
     428   4.280      0.1000E-01 FIXED          0  -0.0%   0.000       0.000      0.5000       0.000       0.000       10.00       0.000    
     429   4.290      0.1000E-01 FIXED          0   0.0%   0.000       0.000      0.5000       0.000       0.000       10.00       0.000    
     430   4.300      0.1000E-01 FIXED          0   0.0%   0.000       0.000      0.5000       0.000       0.000       10.00       0.000    
     431   4.310      0.1000E-01 FIXED          0  -0.0%   0.000       0.000      0.5000       0.000       0.000       10.00       0.000    
     432   4.320      0.1000E-01 FIXED          0   0.0%   0.000       0.000      0.5000       0.000       0.000       10.00       0.000    
     433   4.330      0.1000E-01 FIXED          0  -0.0%   0.000       0.000      0.5000       0.000       0.000       10.00       0.000    
     434   4.340      0.1000E-01 FIXED          0   0.0%   0.000       0.000      0.5000       0.000       0.000       10.00       0.000    
     435   4.350      0.1000E-01 FIXED          0   0.0%   0.000       0.000      0.5000       0.000       0.000       10.00       0.000    
     436   4.360      0.1000E-01 FIXED          0   0.0%   0.000       0.000      0.5000       0.000       0.000       10.00       0.000    
     437   4.370      0.1000E-01 FIXED          0  -0.0%   0.000       0.000      0.5000       0.000       0.000       10.00       0.000    
     438   4.380      0.1000E-01 FIXED          0   0.0%   0.000       0.000      0.5000       0.000       0.000       10.00       0.000    
     439   4.390      0.1000E-01 FIXED          0   0.0%   0.000       0.000      0.5000       0.000       0.000       10.00       0.000    
   CYCLE    TIME      TIME-STEP  ELEMENT          ERROR  I-ENERGY    K-ENERGY T  K-ENERGY R  EXT-WORK     MAS.ERR     TOTAL MASS  MASS ADDED
     440   4.400      0.1000E-01 FIXED          0   0.0%   0.000       0.000      0.5000       0.000       0.000       10.00       0.000    
     441   4.410      0.1000E-01 FIXED          0   0.0%   0.000       0.000      0.5000       0.000       0.000       10.00       0.000    
     442   4.420      0.1000E-01 FIXED          0  -0.0%   0.000       0.000      0.5000       0.000       0.000       10.00       0.000    
     443   4.430      0.1000E-01 FIXED          0  -0.0%   0.000       0.000      0.5000       0.000       0.000       10.00       0.000    
     444   4.440      0.1000E-01 FIXED          0   0.0%   0.000       0.000      0.5000       0.000       0.000       10.00       0.000    
     445   4.450      0.1000E-01 FIXED          0  -0.0%   0.000       0.000      0.5000       0.000       0.000       10.00       0.000    
     446   4.460      0.1000E-01 FIXED          0   0.0%   0.000       0.000      0.5000       0.000       0.000       10.00       0.000    
     447   4.470      0.1000E-01 FIXED          0  -0.0%   0.000       0.000      0.5000       0.000       0.000       10.00       0.000    
     448   4.480      0.1000E-01 FIXED          0   0.0%   0.000       0.000      0.5000       0.000       0.000       10.00       0.000    
     449   4.490      0.1000E-01 FIXED          0   0.0%   0.000       0.000      0.5000       0.000       0.000       10.00       0.000    
     450   4.500      0.1000E-01 FIXED          0   0.0%   0.000       0.000      0.5000       0.000       0.000       10.00       0.000    
     451   4.510      0.1000E-01 FIXED          0   0.0%   0.000       0.000      0.5000       0.000       0.000       10.00       0.000    
     452   4.520      0.1000E-01 FIXED          0   0.0%   0.000       0.000      0.5000       0.000       0.000       10.00       0.000    
     453   4.530      0.1000E-01 FIXED          0   0.0%   0.000       0.000      0.5000       0.000       0.000       10.00       0.000    
     454   4.540      0.1000E-01 FIXED          0  -0.0%   0.000       0.000      0.5000       0.000       0.000       10.00       0.000    
     455   4.550      0.1000E-01 FIXED          0   0.0%   0.000       0.000      0.5000       0.000       0.000       10.00       0.000    
     456   4.560      0.1000E-01 FIXED          0   0.0%   0.000       0.000      0.5000       0.000       0.000       10.00       0.000    
     457   4.570      0.1000E-01 FIXED          0   0.0%   0.000       0.000      0.5000       0.000       0.000       10.00       0.000    
     458   4.580      0.1000E-01 FIXED          0   0.0%   0.000       0.000      0.5000       0.000       0.000       10.00       0.000    
     459   4.590      0.1000E-01 FIXED          0   0.0%   0.000       0.000      0.5000       0.000       0.000       10.00       0.000    
     460   4.600      0.1000E-01 FIXED          0   0.0%   0.000       0.000      0.5000       0.000       0.000       10.00       0.000    
     461   4.610      0.1000E-01 FIXED          0  -0.0%   0.000       0.000      0.5000       0.000       0.000       10.00       0.000    
     462   4.620      0.1000E-01 FIXED          0   0.0%   0.000       0.000      0.5000       0.000       0.000       10.00       0.000    
     463   4.630      0.1000E-01 FIXED          0   0.0%   0.000       0.000      0.5000       0.000       0.000       10.00       0.000    
     464   4.640      0.1000E-01 FIXED          0   0.0%   0.000       0.000      0.5000       0.000       0.000       10.00       0.000    
     465   4.650      0.1000E-01 FIXED          0   0.0%   0.000       0.000      0.5000       0.000       0.000       10.00       0.000    
     466   4.660      0.1000E-01 FIXED          0  -0.0%   0.000       0.000      0.5000       0.000       0.000       10.00       0.000    
     467   4.670      0.1000E-01 FIXED          0  -0.0%   0.000       0.000      0.5000       0.000       0.000       10.00       0.000    
     468   4.680      0.1000E-01 FIXED          0   0.0%   0.000       0.000      0.5000       0.000       0.000       10.00       0.000    
     469   4.690      0.1000E-01 FIXED          0   0.0%   0.000       0.000      0.5000       0.000       0.000       10.00       0.000    
     470   4.700      0.1000E-01 FIXED          0   0.0%   0.000       0.000      0.5000       0.000       0.000       10.00       0.000    
     471   4.710      0.1000E-01 FIXED          0   0.0%   0.000       0.000      0.5000       0.000       0.000       10.00       0.000    
     472   4.720      0.1000E-01 FIXED          0  -0.0%   0.000       0.000      0.5000       0.000       0.000       10.00       0.000    
     473   4.730      0.1000E-01 FIXED          0  -0.0%   0.000       0.000      0.5000       0.000       0.000       10.00       0.000    
     474   4.740      0.1000E-01 FIXED          0   0.0%   0.000       0.000      0.5000       0.000       0.000       10.00       0.000    
     475   4.750      0.1000E-01 FIXED          0  -0.0%   0.000       0.000      0.5000       0.000       0.000       10.00       0.000    
     476   4.760      0.1000E-01 FIXED          0   0.0%   0.000       0.000      0.5000       0.000       0.000       10.00       0.000    
     477   4.770      0.1000E-01 FIXED          0   0.0%   0.000       0.000      0.5000       0.000       0.000       10.00       0.000    
     478   4.780      0.1000E-01 FIXED          0   0.0%   0.000       0.000      0.5000       0.000       0.000       10.00       0.000    
     479   4.790      0.1000E-01 FIXED          0   0.0%   0.000       0.000      0.5000       0.000       0.000       10.00       0.000    
     480   4.800      0.1000E-01 FIXED          0   0.0%   0.000       0.000      0.5000       0.000       0.000       10.00       0.000    
     481   4.810      0.1000E-01 FIXED          0   0.0%   0.000       0.000      0.5000       0.000       0.000       10.00       0.000    
     482   4.820      0.1000E-01 FIXED          0   0.0%   0.000       0.000      0.5000       0.000       0.000       10.00       0.000    
     483   4.830      0.1000E-01 FIXED          0   0.0%   0.000       0.000      0.5000       0.000       0.000       10.00       0.000    
     484   4.840      0.1000E-01 FIXED          0   0.0%   0.000       0.000      0.5000       0.000       0.000       10.00       0.000    
     485   4.850      0.1000E-01 FIXED          0   0.0%   0.000       0.000      0.5000       0.000       0.000       10.00       0.000    
     486   4.860      0.1000E-01 FIXED          0   0.0%   0.000       0.000      0.5000       0.000       0.000       10.00       0.000    
     487   4.870      0.1000E-01 FIXED          0   0.0%   0.000       0.000      0.5000       0.000       0.000       10.00       0.000    
     488   4.880      0.1000E-01 FIXED          0   0.0%   0.000       0.000      0.5000       0.000       0.000       10.00       0.000    
     489   4.890      0.1000E-01 FIXED          0   0.0%   0.000       0.000      0.5000       0.000       0.000       10.00       0.000    
     490   4.900      0.1000E-01 FIXED          0   0.0%   0.000       0.000      0.5000       0.000       0.000       10.00       0.000    
     491   4.910      0.1000E-01 FIXED          0  -0.0%   0.000       0.000      0.5000       0.000       0.000       10.00       0.000    
     492   4.920      0.1000E-01 FIXED          0  -0.0%   0.000       0.000      0.5000       0.000       0.000       10.00       0.000    
     493   4.930      0.1000E-01 FIXED          0   0.0%   0.000       0.000      0.5000       0.000       0.000       10.00       0.000    
     494   4.940      0.1000E-01 FIXED          0   0.0%   0.000       0.000      0.5000       0.000       0.000       10.00       0.000    
   CYCLE    TIME      TIME-STEP  ELEMENT          ERROR  I-ENERGY    K-ENERGY T  K-ENERGY R  EXT-WORK     MAS.ERR     TOTAL MASS  MASS ADDED
     495   4.950      0.1000E-01 FIXED          0   0.0%   0.000       0.000      0.5000       0.000       0.000       10.00       0.000    
     496   4.960      0.1000E-01 FIXED          0   0.0%   0.000       0.000      0.5000       0.000       0.000       10.00       0.000    
     497   4.970      0.1000E-01 FIXED          0   0.0%   0.000       0.000      0.5000       0.000       0.000       10.00       0.000    
     498   4.980      0.1000E-01 FIXED          0   0.0%   0.000       0.000      0.5000       0.000       0.000       10.00       0.000    
     499   4.990      0.1000E-01 FIXED          0   0.0%   0.000       0.000      0.5000       0.000       0.000       10.00       0.000    
     500   5.000      0.1000E-01 FIXED          0  -0.0%   0.000       0.000      0.5000       0.000       0.000       10.00       0.000    
     501   5.010      0.1000E-01 FIXED          0   0.0%   0.000       0.000      0.5000       0.000       0.000       10.00       0.000    
     502   5.020      0.1000E-01 FIXED          0  -0.0%   0.000       0.000      0.5000       0.000       0.000       10.00       0.000    
     503   5.030      0.1000E-01 FIXED          0   0.0%   0.000       0.000      0.5000       0.000       0.000       10.00       0.000    
     504   5.040      0.1000E-01 FIXED          0  -0.0%   0.000       0.000      0.5000       0.000       0.000       10.00       0.000    
     505   5.050      0.1000E-01 FIXED          0   0.0%   0.000       0.000      0.5000       0.000       0.000       10.00       0.000    
     506   5.060      0.1000E-01 FIXED          0   0.0%   0.000       0.000      0.5000       0.000       0.000       10.00       0.000    
     507   5.070      0.1000E-01 FIXED          0   0.0%   0.000       0.000      0.5000       0.000       0.000       10.00       0.000    
     508   5.080      0.1000E-01 FIXED          0   0.0%   0.000       0.000      0.5000       0.000       0.000       10.00       0.000    
     509   5.090      0.1000E-01 FIXED          0   0.0%   0.000       0.000      0.5000       0.000       0.000       10.00       0.000    
     510   5.100      0.1000E-01 FIXED          0   0.0%   0.000       0.000      0.5000       0.000       0.000       10.00       0.000    
     511   5.110      0.1000E-01 FIXED          0  -0.0%   0.000       0.000      0.5000       0.000       0.000       10.00       0.000    
     512   5.120      0.1000E-01 FIXED          0  -0.0%   0.000       0.000      0.5000       0.000       0.000       10.00       0.000    
     513   5.130      0.1000E-01 FIXED          0   0.0%   0.000       0.000      0.5000       0.000       0.000       10.00       0.000    
     514   5.140      0.1000E-01 FIXED          0  -0.0%   0.000       0.000      0.5000       0.000       0.000       10.00       0.000    
     515   5.150      0.1000E-01 FIXED          0  -0.0%   0.000       0.000      0.5000       0.000       0.000       10.00       0.000    
     516   5.160      0.1000E-01 FIXED          0   0.0%   0.000       0.000      0.5000       0.000       0.000       10.00       0.000    
     517   5.170      0.1000E-01 FIXED          0   0.0%   0.000       0.000      0.5000       0.000       0.000       10.00       0.000    
     518   5.180      0.1000E-01 FIXED          0   0.0%   0.000       0.000      0.5000       0.000       0.000       10.00       0.000    
     519   5.190      0.1000E-01 FIXED          0   0.0%   0.000       0.000      0.5000       0.000       0.000       10.00       0.000    
     520   5.200      0.1000E-01 FIXED          0   0.0%   0.000       0.000      0.5000       0.000       0.000       10.00       0.000    
     521   5.210      0.1000E-01 FIXED          0   0.0%   0.000       0.000      0.5000       0.000       0.000       10.00       0.000    
     522   5.220      0.1000E-01 FIXED          0   0.0%   0.000       0.000      0.5000       0.000       0.000       10.00       0.000    
     523   5.230      0.1000E-01 FIXED          0   0.0%   0.000       0.000      0.5000       0.000       0.000       10.00       0.000    
     524   5.240      0.1000E-01 FIXED          0   0.0%   0.000       0.000      0.5000       0.000       0.000       10.00       0.000    
     525   5.250      0.1000E-01 FIXED          0   0.0%   0.000       0.000      0.5000       0.000       0.000       10.00       0.000    
     526   5.260      0.1000E-01 FIXED          0  -0.0%   0.000       0.000      0.5000       0.000       0.000       10.00       0.000    
     527   5.270      0.1000E-01 FIXED          0   0.0%   0.000       0.000      0.5000       0.000       0.000       10.00       0.000    
     528   5.280      0.1000E-01 FIXED          0  -0.0%   0.000       0.000      0.5000       0.000       0.000       10.00       0.000    
     529   5.290      0.1000E-01 FIXED          0   0.0%   0.000       0.000      0.5000       0.000       0.000       10.00       0.000    
     530   5.300      0.1000E-01 FIXED          0   0.0%   0.000       0.000      0.5000       0.000       0.000       10.00       0.000    
     531   5.310      0.1000E-01 FIXED          0   0.0%   0.000       0.000      0.5000       0.000       0.000       10.00       0.000    
     532   5.320      0.1000E-01 FIXED          0   0.0%   0.000       0.000      0.5000       0.000       0.000       10.00       0.000    
     533   5.330      0.1000E-01 FIXED          0   0.0%   0.000       0.000      0.5000       0.000       0.000       10.00       0.000    
     534   5.340      0.1000E-01 FIXED          0   0.0%   0.000       0.000      0.5000       0.000       0.000       10.00       0.000    
     535   5.350      0.1000E-01 FIXED          0  -0.0%   0.000       0.000      0.5000       0.000       0.000       10.00       0.000    
     536   5.360      0.1000E-01 FIXED          0   0.0%   0.000       0.000      0.5000       0.000       0.000       10.00       0.000    
     537   5.370      0.1000E-01 FIXED          0  -0.0%   0.000       0.000      0.5000       0.000       0.000       10.00       0.000    
     538   5.380      0.1000E-01 FIXED          0   0.0%   0.000       0.000      0.5000       0.000       0.000       10.00       0.000    
     539   5.390      0.1000E-01 FIXED          0   0.0%   0.000       0.000      0.5000       0.000       0.000       10.00       0.000    
     540   5.400      0.1000E-01 FIXED          0   0.0%   0.000       0.000      0.5000       0.000       0.000       10.00       0.000    
     541   5.410      0.1000E-01 FIXED          0   0.0%   0.000       0.000      0.5000       0.000       0.000       10.00       0.000    
     542   5.420      0.1000E-01 FIXED          0  -0.0%   0.000       0.000      0.5000       0.000       0.000       10.00       0.000    
     543   5.430      0.1000E-01 FIXED          0   0.0%   0.000       0.000      0.5000       0.000       0.000       10.00       0.000    
     544   5.440      0.1000E-01 FIXED          0   0.0%   0.000       0.000      0.5000       0.000       0.000       10.00       0.000    
     545   5.450      0.1000E-01 FIXED          0   0.0%   0.000       0.000      0.5000       0.000       0.000       10.00       0.000    
     546   5.460      0.1000E-01 FIXED          0   0.0%   0.000       0.000      0.5000       0.000       0.000       10.00       0.000    
     547   5.470      0.1000E-01 FIXED          0   0.0%   0.000       0.000      0.5000       0.000       0.000       10.00       0.000    
     548   5.480      0.1000E-01 FIXED          0  -0.0%   0.000       0.000      0.5000       0.000       0.000       10.00       0.000    
     549   5.490      0.1000E-01 FIXED          0   0.0%   0.000       0.000      0.5000       0.000       0.000       10.00       0.000    
   CYCLE    TIME      TIME-STEP  ELEMENT          ERROR  I-ENERGY    K-ENERGY T  K-ENERGY R  EXT-WORK     MAS.ERR     TOTAL MASS  MASS ADDED
     550   5.500      0.1000E-01 FIXED          0   0.0%   0.000       0.000      0.5000       0.000       0.000       10.00       0.000    
     551   5.510      0.1000E-01 FIXED          0   0.0%   0.000       0.000      0.5000       0.000       0.000       10.00       0.000    
     552   5.520      0.1000E-01 FIXED          0   0.0%   0.000       0.000      0.5000       0.000       0.000       10.00       0.000    
     553   5.530      0.1000E-01 FIXED          0   0.0%   0.000       0.000      0.5000       0.000       0.000       10.00       0.000    
     554   5.540      0.1000E-01 FIXED          0   0.0%   0.000       0.000      0.5000       0.000       0.000       10.00       0.000    
     555   5.550      0.1000E-01 FIXED          0   0.0%   0.000       0.000      0.5000       0.000       0.000       10.00       0.000    
     556   5.560      0.1000E-01 FIXED          0   0.0%   0.000       0.000      0.5000       0.000       0.000       10.00       0.000    
     557   5.570      0.1000E-01 FIXED          0   0.0%   0.000       0.000      0.5000       0.000       0.000       10.00       0.000    
     558   5.580      0.1000E-01 FIXED          0  -0.0%   0.000       0.000      0.5000       0.000       0.000       10.00       0.000    
     559   5.590      0.1000E-01 FIXED          0   0.0%   0.000       0.000      0.5000       0.000       0.000       10.00       0.000    
     560   5.600      0.1000E-01 FIXED          0   0.0%   0.000       0.000      0.5000       0.000       0.000       10.00       0.000    
     561   5.610      0.1000E-01 FIXED          0   0.0%   0.000       0.000      0.5000       0.000       0.000       10.00       0.000    
     562   5.620      0.1000E-01 FIXED          0   0.0%   0.000       0.000      0.5000       0.000       0.000       10.00       0.000    
     563   5.630      0.1000E-01 FIXED          0   0.0%   0.000       0.000      0.5000       0.000       0.000       10.00       0.000    
     564   5.640      0.1000E-01 FIXED          0   0.0%   0.000       0.000      0.5000       0.000       0.000       10.00       0.000    
     565   5.650      0.1000E-01 FIXED          0   0.0%   0.000       0.000      0.5000       0.000       0.000       10.00       0.000    
     566   5.660      0.1000E-01 FIXED          0  -0.0%   0.000       0.000      0.5000       0.000       0.000       10.00       0.000    
     567   5.670      0.1000E-01 FIXED          0  -0.0%   0.000       0.000      0.5000       0.000       0.000       10.00       0.000    
     568   5.680      0.1000E-01 FIXED          0  -0.0%   0.000       0.000      0.5000       0.000       0.000       10.00       0.000    
     569   5.690      0.1000E-01 FIXED          0   0.0%   0.000       0.000      0.5000       0.000       0.000       10.00       0.000    
     570   5.700      0.1000E-01 FIXED          0   0.0%   0.000       0.000      0.5000       0.000       0.000       10.00       0.000    
     571   5.710      0.1000E-01 FIXED          0  -0.0%   0.000       0.000      0.5000       0.000       0.000       10.00       0.000    
     572   5.720      0.1000E-01 FIXED          0   0.0%   0.000       0.000      0.5000       0.000       0.000       10.00       0.000    
     573   5.730      0.1000E-01 FIXED          0  -0.0%   0.000       0.000      0.5000       0.000       0.000       10.00       0.000    
     574   5.740      0.1000E-01 FIXED          0   0.0%   0.000       0.000      0.5000       0.000       0.000       10.00       0.000    
     575   5.750      0.1000E-01 FIXED          0   0.0%   0.000       0.000      0.5000       0.000       0.000       10.00       0.000    
     576   5.760      0.1000E-01 FIXED          0   0.0%   0.000       0.000      0.5000       0.000       0.000       10.00       0.000    
     577   5.770      0.1000E-01 FIXED          0  -0.0%   0.000       0.000      0.5000       0.000       0.000       10.00       0.000    
     578   5.780      0.1000E-01 FIXED          0   0.0%   0.000       0.000      0.5000       0.000       0.000       10.00       0.000    
     579   5.790      0.1000E-01 FIXED          0   0.0%   0.000       0.000      0.5000       0.000       0.000       10.00       0.000    
     580   5.800      0.1000E-01 FIXED          0   0.0%   0.000       0.000      0.5000       0.000       0.000       10.00       0.000    
     581   5.810      0.1000E-01 FIXED          0   0.0%   0.000       0.000      0.5000       0.000       0.000       10.00       0.000    
     582   5.820      0.1000E-01 FIXED          0   0.0%   0.000       0.000      0.5000       0.000       0.000       10.00       0.000    
     583   5.830      0.1000E-01 FIXED          0  -0.0%   0.000       0.000      0.5000       0.000       0.000       10.00       0.000    
     584   5.840      0.1000E-01 FIXED          0   0.0%   0.000       0.000      0.5000       0.000       0.000       10.00       0.000    
     585   5.850      0.1000E-01 FIXED          0   0.0%   0.000       0.000      0.5000       0.000       0.000       10.00       0.000    
     586   5.860      0.1000E-01 FIXED          0   0.0%   0.000       0.000      0.5000       0.000       0.000       10.00       0.000    
     587   5.870      0.1000E-01 FIXED          0   0.0%   0.000       0.000      0.5000       0.000       0.000       10.00       0.000    
     588   5.880      0.1000E-01 FIXED          0   0.0%   0.000       0.000      0.5000       0.000       0.000       10.00       0.000    
     589   5.890      0.1000E-01 FIXED          0   0.0%   0.000       0.000      0.5000       0.000       0.000       10.00       0.000    
     590   5.900      0.1000E-01 FIXED          0  -0.0%   0.000       0.000      0.5000       0.000       0.000       10.00       0.000    
     591   5.910      0.1000E-01 FIXED          0   0.0%   0.000       0.000      0.5000       0.000       0.000       10.00       0.000    
     592   5.920      0.1000E-01 FIXED          0   0.0%   0.000       0.000      0.5000       0.000       0.000       10.00       0.000    
     593   5.930      0.1000E-01 FIXED          0   0.0%   0.000       0.000      0.5000       0.000       0.000       10.00       0.000    
     594   5.940      0.1000E-01 FIXED          0  -0.0%   0.000       0.000      0.5000       0.000       0.000       10.00       0.000    
     595   5.950      0.1000E-01 FIXED          0  -0.0%   0.000       0.000      0.5000       0.000       0.000       10.00       0.000    
     596   5.960      0.1000E-01 FIXED          0   0.0%   0.000       0.000      0.5000       0.000       0.000       10.00       0.000    
     597   5.970      0.1000E-01 FIXED          0   0.0%   0.000       0.000      0.5000       0.000       0.000       10.00       0.000    
     598   5.980      0.1000E-01 FIXED          0   0.0%   0.000       0.000      0.5000       0.000       0.000       10.00       0.000    
     599   5.990      0.1000E-01 FIXED          0   0.0%   0.000       0.000      0.5000       0.000       0.000       10.00       0.000    
     600   6.000      0.1000E-01 FIXED          0  -0.0%   0.000       0.000      0.5000       0.000       0.000       10.00       0.000    
     601   6.010      0.1000E-01 FIXED          0   0.0%   0.000       0.000      0.5000       0.000       0.000       10.00       0.000    
     602   6.020      0.1000E-01 FIXED          0  -0.0%   0.000       0.000      0.5000       0.000       0.000       10.00       0.000    
     603   6.030      0.1000E-01 FIXED          0   0.0%   0.000       0.000      0.5000       0.000       0.000       10.00       0.000    
     604   6.040      0.1000E-01 FIXED          0   0.0%   0.000       0.000      0.5000       0.000       0.000       10.00       0.000    
   CYCLE    TIME      TIME-STEP  ELEMENT          ERROR  I-ENERGY    K-ENERGY T  K-ENERGY R  EXT-WORK     MAS.ERR     TOTAL MASS  MASS ADDED
     605   6.050      0.1000E-01 FIXED          0   0.0%   0.000       0.000      0.5000       0.000       0.000       10.00       0.000    
     606   6.060      0.1000E-01 FIXED          0   0.0%   0.000       0.000      0.5000       0.000       0.000       10.00       0.000    
     607   6.070      0.1000E-01 FIXED          0   0.0%   0.000       0.000      0.5000       0.000       0.000       10.00       0.000    
     608   6.080      0.1000E-01 FIXED          0   0.0%   0.000       0.000      0.5000       0.000       0.000       10.00       0.000    
     609   6.090      0.1000E-01 FIXED          0   0.0%   0.000       0.000      0.5000       0.000       0.000       10.00       0.000    
     610   6.100      0.1000E-01 FIXED          0   0.0%   0.000       0.000      0.5000       0.000       0.000       10.00       0.000    
     611   6.110      0.1000E-01 FIXED          0  -0.0%   0.000       0.000      0.5000       0.000       0.000       10.00       0.000    
     612   6.120      0.1000E-01 FIXED          0   0.0%   0.000       0.000      0.5000       0.000       0.000       10.00       0.000    
     613   6.130      0.1000E-01 FIXED          0   0.0%   0.000       0.000      0.5000       0.000       0.000       10.00       0.000    
     614   6.140      0.1000E-01 FIXED          0   0.0%   0.000       0.000      0.5000       0.000       0.000       10.00       0.000    
     615   6.150      0.1000E-01 FIXED          0   0.0%   0.000       0.000      0.5000       0.000       0.000       10.00       0.000    
     616   6.160      0.1000E-01 FIXED          0  -0.0%   0.000       0.000      0.5000       0.000       0.000       10.00       0.000    
     617   6.170      0.1000E-01 FIXED          0  -0.0%   0.000       0.000      0.5000       0.000       0.000       10.00       0.000    
     618   6.180      0.1000E-01 FIXED          0   0.0%   0.000       0.000      0.5000       0.000       0.000       10.00       0.000    
     619   6.190      0.1000E-01 FIXED          0   0.0%   0.000       0.000      0.5000       0.000       0.000       10.00       0.000    
     620   6.200      0.1000E-01 FIXED          0   0.0%   0.000       0.000      0.5000       0.000       0.000       10.00       0.000    
     621   6.210      0.1000E-01 FIXED          0   0.0%   0.000       0.000      0.5000       0.000       0.000       10.00       0.000    
     622   6.220      0.1000E-01 FIXED          0   0.0%   0.000       0.000      0.5000       0.000       0.000       10.00       0.000    
     623   6.230      0.1000E-01 FIXED          0  -0.0%   0.000       0.000      0.5000       0.000       0.000       10.00       0.000    
     624   6.240      0.1000E-01 FIXED          0  -0.0%   0.000       0.000      0.5000       0.000       0.000       10.00       0.000    
     625   6.250      0.1000E-01 FIXED          0  -0.0%   0.000       0.000      0.5000       0.000       0.000       10.00       0.000    
     626   6.260      0.1000E-01 FIXED          0   0.0%   0.000       0.000      0.5000       0.000       0.000       10.00       0.000    
     627   6.270      0.1000E-01 FIXED          0   0.0%   0.000       0.000      0.5000       0.000       0.000       10.00       0.000    
     628   6.280      0.1000E-01 FIXED          0  -0.0%   0.000       0.000      0.5000       0.000       0.000       10.00       0.000    
     629   6.290      0.1000E-01 FIXED          0   0.0%   0.000       0.000      0.5000       0.000       0.000       10.00       0.000    

     RESTART FILES: THFRAME_0001_[0001-0004].rst WRITTEN
     -------------

  
                           ** CPU USER TIME **
  
  
                        ** SUMMARY **
  
 #PROC  ELEMENT   KINCOND   INTEG     IO        T0        ASM       RESOL    
   1   .1076E-01 .3060E-01 .9917E-02 .1072E+00 .3930E-01 .5194E-02 .2716E+00
   2   .9810E-02 .2442E-01 .8666E-02 .1182E+00 .6258E-01 .4666E-02 .2994E+00
   3   .1089E-01 .2681E-01 .1004E-01 .1082E+00 .5574E-01 .5089E-02 .2940E+00
   4   .9923E-02 .2396E-01 .9035E-02 .1180E+00 .7260E-01 .4675E-02 .3087E+00
  
                 ** SPMD COM. TIME **
  
 #PROC  FORCES    RBYFOR    RBYVEL    VEL       TOT       %        
   1   .3187E-02 .1752E-02 .0000E+00 .3628E-02 .8567E-02 .3154E+01
   2   .3288E-02 .1717E-02 .0000E+00 .3187E-02 .8192E-02 .2736E+01
   3   .3199E-02 .1876E-02 .0000E+00 .3444E-02 .8519E-02 .2898E+01
   4   .2974E-02 .1746E-02 .0000E+00 .3127E-02 .7847E-02 .2542E+01
  
 
                   ** CUMULATIVE CPU TIME SUMMARY **
  
 CONTACT SORTING.............: .0000E+00     0.00 % 
 CONTACT FORCES..............: .4471E-02     0.38 % 
 ELEMENT FORCES..............: .4139E-01     3.53 % 
 KINEMATIC COND..............: .1058E+00     9.01 % 
 INTEGRATION.................: .3765E-01     3.21 % 
 ASSEMBLING..................: .1962E-01     1.67 % 
 OTHERS (including I/O)......: .9647E+00    82.20 % 
 TOTAL.......................: .1174E+01   100.00 % 
  
  
                           ** ELAPSED TIME **
  
  
                        ** SUMMARY **
  
 #PROC  ELEMENT   KINCOND   INTEG     IO        T0        ASM       RESOL    
   1   .6812E-02 .1935E-01 .6190E-02 .7093E-01 .2457E-01 .3331E-02 .1774E+00
   2   .5795E-02 .1479E-01 .5038E-02 .6904E-01 .3729E-01 .2707E-02 .1804E+00
   3   .6576E-02 .1640E-01 .6054E-02 .6473E-01 .3342E-01 .3150E-02 .1782E+00
   4   .5681E-02 .1384E-01 .5145E-02 .6701E-01 .4121E-01 .2651E-02 .1800E+00
  
        ELEMENT   KINCOND   INTEG     IO        T0        ASM       RESOL    
 MIN   .5681E-02 .1384E-01 .5038E-02 .6473E-01 .2457E-01 .2651E-02 .1774E+00
 MAX   .6812E-02 .1935E-01 .6190E-02 .7093E-01 .4121E-01 .3331E-02 .1804E+00
 AVG   .6216E-02 .1610E-01 .5607E-02 .6793E-01 .3412E-01 .2960E-02 .1790E+00
  
                 ** SPMD COM. TIME **
  
 #PROC  FORCES    RBYFOR    RBYVEL    VEL       TOT       %        
   1   .2024E-02 .1098E-02 .0000E+00 .2366E-02 .5488E-02 .3093E+01
   2   .2108E-02 .8708E-03 .0000E+00 .1854E-02 .4832E-02 .2678E+01
   3   .1937E-02 .1003E-02 .0000E+00 .2112E-02 .5052E-02 .2834E+01
   4   .1697E-02 .8519E-03 .0000E+00 .1826E-02 .4375E-02 .2431E+01
  
        FORCES    RBYFOR    RBYVEL    VEL       TOT       %        
 MIN   .1697E-02 .8519E-03 .0000E+00 .1826E-02 .4375E-02 .2431E+01
 MAX   .2108E-02 .1098E-02 .0000E+00 .2366E-02 .5488E-02 .3093E+01
 AVG   .1942E-02 .9558E-03 .0000E+00 .2039E-02 .4937E-02 .2759E+01
  
                   ** MEMORY USAGE STATISTICS **
  
 TOTAL MEMORY USED .........................:      228 MB
 MAXIMUM MEMORY PER PROCESSOR...............:       57 MB
 MINIMUM MEMORY PER PROCESSOR...............:       57 MB
 AVERAGE MEMORY PER PROCESSOR...............:       57 MB
  
                   ** DISK USAGE STATISTICS **
  
 TOTAL DISK SPACE USED .....................:          1 MB
 ANIMATION/H3D/TH/OUTP SIZE ................:          0 MB
 RESTART FILE SIZE .........................:          1 MB
  
                   ** COMPUTE TIME INFORMATION **
                        ** CURRENT ENGINE **
  
 EXECUTION STARTED .........................:      2022/11/23  16:22:42
 EXECUTION COMPLETED .......................:      2022/11/23  16:22:42
  
 ELAPSED TIME     =          0.28 s
                          0:00:00
 ESTIMATED SPEEDUP=          4.22



     NORMAL TERMINATION      



     TOTAL NUMBER OF CYCLES  :     630

  
                   ** COMPUTE RUNTIME INFORMATION SUMMARY **
  
        STARTER RUNTIME =          0.61s (00:00:00)
 # 001   ENGINE RUNTIME =          0.28s (00:00:00)
 ------------------------------ 
 STARTER+ENGINE RUNTIME =          0.89s (00:00:00)
  
