 CRA2V44_0002.out
************************************************************************
**                                                                    **
**                                                                    **
**                         OpenRadioss Engine                         **
**                                                                    **
**            Non-linear Finite Element Analysis Software             **
**                                                                    **
**                                                                    **
**                                                                    **
**                Linux 64 bits, GNU compiler, OpenMPI                **
**                                                                    **
**                                                                    **
**                                                                    **
** CommitID: 440deeba848d606665f88afb8302e85b1ecf72bf                 **
************************************************************************
** OpenRadioss Software                                               **
** COPYRIGHT (C) 1986-2022 Altair Engineering, Inc.                   **
** Licensed under GNU Affero General Public License.                  **
** See License file.                                                  **
************************************************************************
 
 NUMBER OF SPMD DOMAINS           4
 NUMBER OF THREADS PER DOMAIN     2
 NUMBER OF HMPP PROCESSES         8
  
 COMPUTATION HARDWARE DESCRIPTION
  
 CPU#  HOSTNAME     CPU TYPE, FREQUENCY AND MEMORY
   1   fr-shady.europe.altair.com   Intel(R) Xeon(R) CPU           X5680  @ 3.33GHz (x86_64), 1596 MHz,  20012 MB RAM,  49126 MB swap
   2   fr-shady.europe.altair.com   Intel(R) Xeon(R) CPU           X5680  @ 3.33GHz (x86_64), 1596 MHz,  20012 MB RAM,  49126 MB swap
   3   fr-shady.europe.altair.com   Intel(R) Xeon(R) CPU           X5680  @ 3.33GHz (x86_64), 1596 MHz,  20012 MB RAM,  49126 MB swap
   4   fr-shady.europe.altair.com   Intel(R) Xeon(R) CPU           X5680  @ 3.33GHz (x86_64), 1596 MHz,  20012 MB RAM,  49126 MB swap
  
************************************************************************


 CRA2V44D02                                                                      


 FINAL TIME . . . . . . . . . . . . . . . . . . .   5.000000    

 TIME INTERVAL FOR TIME HISTORY PLOTS . . . . . .  0.5000000E-01

 TIME STEP SCALE FACTOR . . . . . . . . . . . . .  0.9000000    

 MINIMUM TIME STEP  . . . . . . . . . . . . . . .   0.000000    


 BRICK TIME STEP SCALE FACTOR . . . . . . . . . .  0.9000000    
 BRICK MINIMUM TIME STEP. . . . . . . . . . . . .   0.000000    
 MIN. TIME STEP FLAG (1:STOP RUN, 2:DELETE BRICK)     1

 QUAD TIME STEP SCALE FACTOR. . . . . . . . . . .  0.9000000    
 QUAD MINIMUM TIME STEP . . . . . . . . . . . . .   0.000000    
 MIN. TIME STEP FLAG (1:STOP RUN, 2:DELETE QUAD).     1

 SHELL TIME STEP SCALE FACTOR . . . . . . . . . .  0.9000000    
 SHELL MINIMUM TIME STEP. . . . . . . . . . . . .   0.000000    
 MIN. TIME FLAG (1:STOP, 2:DELETE, 3:SMALL STRAIN)    2

 TRUSS TIME STEP SCALE FACTOR . . . . . . . . . .  0.9000000    
 TRUSS MINIMUM TIME STEP. . . . . . . . . . . . .   0.000000    
 MIN. TIME FLAG (1:STOP, 2:DELETE). . . . . . . .     0

 BEAM TIME STEP SCALE FACTOR. . . . . . . . . . .  0.9000000    
 BEAM MINIMUM TIME STEP . . . . . . . . . . . . .   0.000000    
 MIN. TIME FLAG (1:STOP, 2:DELETE). . . . . . . .     0

 SPRING TIME STEP SCALE FACTOR. . . . . . . . . .  0.9000000    
 SPRING MINIMUM TIME STEP . . . . . . . . . . . .   0.000000    
 MIN. TIME FLAG (1:STOP, 2:DELETE). . . . . . . .     0

 AIRBAG TIME STEP SCALE FACTOR. . . . . . . . . .  0.9000000    
 AIRBAG MINIMUM TIME STEP . . . . . . . . . . . .   0.000000    
 MIN. TIME FLAG (1:STOP). . . . . . . . . . . . .     0

 CONTACT TIME STEP SCALE FACTOR . . . . . . . . .  0.9000000    
 CONTACT MINIMUM TIME STEP. . . . . . . . . . . .   0.000000    
 MIN. TIME FLAG(1:STOP, 2:REMOVE NODE FROM INTERF)    0

 PRINTOUT CYCLE FREQUENCY . . . . . . . . . . . .  -100

 RESTART CYCLE FREQUENCY. . . . . . . . . . . . .   10000000

 MAXIMUM RESTART WRITE BEFORE OVERWRITE . . . . .     0

 INVERS: INPUT DECK VERSION . . . . . . . . . . .  2019
 ITTYP : FLAG FOR TYPE OF T-FILE. . . . . . . . .     4


 TIME FOR FIRST ANIMATION-FILE PLOT . . . . . . .   2.501470    
 TIME INTERVAL FOR ANIMATION-FILE PLOTS . . . . .   2.000000    
 SENSOR FOR ANIMATION-FILE PLOTS. . . . . . . . .          0
 TIME INTERVAL FOR SENSOR ANIMATION-FILE PLOTS. .   0.000000    

 VARIABLE SAVED ON ANIMATION FILES (1: YES) :
      PLASTIC STRAIN. . . . . .     1
      DENSITY     (SOLID ONLY).     0
      SPECIFIC ENERGY . . . . .     1
      HOURGLASS ENERGY. . . . .     0
      TEMPERATURE (SOLID ONLY).     0
      THICKNESS   (SHELL ONLY).     0
      PRESSURE    (SOLID ONLY).     0
      VON MISES . . . . . . . .     0
      TURBULENT ENERGY (FLUID).     0
      TURBULENT VISCOSITY(FLUID)    0
      VORTICITY (FLUID) . . . .     0
 NODAL VALUES SAVED ON ANIMATION FILES (1: YES) :
      PRESSURE. . . . . . . . .     0
      DENSITY . . . . . . . . .     0
      TEMPERATURE . . . . . . .     0
 VECTOR SAVED ON ANIMATION FILES (1: YES) :
      VELOCITY VECTOR . . . . .     1
      DISPLACEMENT VECTOR . . .     0
      ACCELERATION VECTOR . . .     0
      CONTACT FORCES. . . . . .     1
      INTERNAL FORCES . . . . .     0
      EXTERNAL FORCES . . . . .     0
      SECTION RBY RWALL FORCES.     0
      ROTATIONAL VELOCITY VECTOR    0
      CONTACT PRESSURE (VECTORS)    0
 SHELL TENSOR SAVED ON ANIMATION FILES (1: YES) :
      MEMBRANE STRESS . . . . .     0
      BENDING STRESS(MOMENT/T^2)    0
      UPPER LAYER STRESS. . . .     0
      LOWER LAYER STRESS. . . .     0
      MEMBRANE STRAIN . . . . .     0
      CURVATURE . . . . . . . .     0
      UPPER LAYER STRAIN. . . .     0
      LOWER LAYER STRAIN. . . .     0
 NODAL MASS SAVED ON ANIMATION FILES (1: YES) :    1
 KEEP DELETED ELEMENT (1: YES) :    0


 INITIAL TIME STEP. . . . . . . . . . . . . . . .   0.000000    
 MAXIMUM TIME STEP. . . . . . . . . . . . . . . .  0.1000000E+31

 PARALLEL ARITHMETIC ON
 NUMBER OF INTERFACES TO BE ELIMINATED. . . . . .        0

 NUMBER OF SOLID  ELEMENT BLOCKS TO BE ELIMINATED        0

 NUMBER OF QUAD   ELEMENT BLOCKS TO BE ELIMINATED        0

 NUMBER OF SHELL  ELEMENT BLOCKS TO BE ELIMINATED        0

 NUMBER OF TRUSS  ELEMENT BLOCKS TO BE ELIMINATED        0

 NUMBER OF BEAM   ELEMENT BLOCKS TO BE ELIMINATED        0

 NUMBER OF SPRING ELEMENT BLOCKS TO BE ELIMINATED        0

 NUMBER OF SH_3N  ELEMENT BLOCKS TO BE ELIMINATED        0

 NUMBER OF  SPH PARTICLES BLOCKS TO BE ELIMINATED        0

 NUMBER OF RIGID LINKS. . . . . . . . . . . . . .        0

 NUMBER OF NEW BOUNDARY CONDITIONS. . . . . . . .        0

 23/11/2022
   CYCLE    TIME      TIME-STEP  ELEMENT          ERROR  I-ENERGY    K-ENERGY T  K-ENERGY R  EXT-WORK     MAS.ERR     TOTAL MASS  MASS ADDED
       0   2.501      0.1480E-02 SHELL        225   0.0%  0.1481E+06  0.6095E+07   379.4       0.000       0.000      0.5009E+06   0.000    
     ANIMATION FILE: CRA2V44A003 WRITTEN
     100   2.649      0.1476E-02 SHELL        225  -0.0%  0.1511E+06  0.6092E+07   357.1       0.000       0.000      0.5009E+06   0.000    
     200   2.797      0.1474E-02 SHELL        225  -0.0%  0.1530E+06  0.6090E+07   304.8       0.000       0.000      0.5009E+06   0.000    
     300   2.944      0.1474E-02 SHELL        225   0.0%  0.1562E+06  0.6087E+07   331.8       0.000       0.000      0.5009E+06   0.000    
     400   3.091      0.1472E-02 SHELL        225   0.0%  0.1596E+06  0.6083E+07   629.3       0.000       0.000      0.5009E+06   0.000    
     500   3.239      0.1470E-02 SHELL        225  -0.0%  0.1620E+06  0.6080E+07   1233.       0.000       0.000      0.5009E+06   0.000    
     600   3.386      0.1468E-02 SHELL        225  -0.0%  0.1644E+06  0.6078E+07   1041.       0.000       0.000      0.5009E+06   0.000    
     700   3.532      0.1466E-02 SHELL        225  -0.0%  0.1670E+06  0.6075E+07   748.8       0.000       0.000      0.5009E+06   0.000    
     800   3.678      0.1432E-02 SHELL          1  -0.0%  0.1695E+06  0.6072E+07   714.6       0.000       0.000      0.5009E+06   0.000    
     900   3.818      0.1380E-02 SHELL          1  -0.0%  0.1717E+06  0.6069E+07   678.3       0.000       0.000      0.5009E+06   0.000    
    1000   3.954      0.1348E-02 SHELL          1  -0.0%  0.1740E+06  0.6067E+07   582.0       0.000       0.000      0.5009E+06   0.000    
    1100   4.088      0.1323E-02 SHELL          1  -0.0%  0.1761E+06  0.6064E+07   603.7       0.000       0.000      0.5009E+06   0.000    
    1200   4.219      0.1303E-02 SHELL          1  -0.0%  0.1783E+06  0.6062E+07   693.7       0.000       0.000      0.5009E+06   0.000    
    1300   4.349      0.1294E-02 SHELL          1  -0.0%  0.1804E+06  0.6059E+07   646.7       0.000       0.000      0.5009E+06   0.000    
    1400   4.478      0.1280E-02 SHELL          1  -0.1%  0.1823E+06  0.6057E+07   593.7       0.000       0.000      0.5009E+06   0.000    
     ANIMATION FILE: CRA2V44A004 WRITTEN
    1500   4.605      0.1272E-02 SHELL          1  -0.1%  0.1842E+06  0.6055E+07   619.9       0.000       0.000      0.5009E+06   0.000    
    1600   4.733      0.1273E-02 SHELL          1  -0.1%  0.1861E+06  0.6053E+07   585.7       0.000       0.000      0.5009E+06   0.000    
    1700   4.860      0.1271E-02 SHELL          1  -0.1%  0.1880E+06  0.6051E+07   532.2       0.000       0.000      0.5009E+06   0.000    
    1800   4.987      0.1275E-02 SHELL          1  -0.1%  0.1899E+06  0.6049E+07   505.2       0.000       0.000      0.5009E+06   0.000    

     RESTART FILES: CRA2V44_0002_[0001-0004].rst WRITTEN
     -------------

     ANIMATION FILE: CRA2V44A005 WRITTEN
  
                           ** CPU USER TIME **
  
  
                        ** SUMMARY **
  
 #PROC  ELEMENT   KINCOND   INTEG     IO        T0        ASM       RESOL    
   1   .3893E+00 .3393E-01 .3742E-01 .7078E-01 .8308E-01 .2418E-01 .8336E+00
   2   .3672E+00 .2996E-01 .3366E-01 .6683E-01 .8146E-01 .2356E-01 .8420E+00
   3   .3900E+00 .3387E-01 .3622E-01 .7044E-01 .8152E-01 .2444E-01 .8432E+00
   4   .3872E+00 .3021E-01 .3507E-01 .6576E-01 .8465E-01 .2308E-01 .8578E+00
  
                 ** SPMD COM. TIME **
  
 #PROC  FORCES    RBYFOR    RBYVEL    VEL       TOT       %        
   1   .3291E-01 .0000E+00 .0000E+00 .8715E-02 .4162E-01 .4993E+01
   2   .8461E-01 .0000E+00 .0000E+00 .8199E-02 .9281E-01 .1102E+02
   3   .4164E-01 .0000E+00 .0000E+00 .8752E-02 .5039E-01 .5977E+01
   4   .7590E-01 .0000E+00 .0000E+00 .8076E-02 .8397E-01 .9789E+01
  
 
                   ** CUMULATIVE CPU TIME SUMMARY **
  
 CONTACT SORTING.............: .0000E+00     0.00 % 
 CONTACT FORCES..............: .1203E-01     0.36 % 
 ELEMENT FORCES..............: .1534E+01    45.42 % 
 KINEMATIC COND..............: .1280E+00     3.79 % 
 INTEGRATION.................: .1424E+00     4.22 % 
 ASSEMBLING..................: .9525E-01     2.82 % 
 OTHERS (including I/O)......: .1465E+01    43.40 % 
 TOTAL.......................: .3377E+01   100.00 % 
  
  
                           ** ELAPSED TIME **
  
  
                        ** SUMMARY **
  
 #PROC  ELEMENT   KINCOND   INTEG     IO        T0        ASM       RESOL    
   1   .2253E+00 .1969E-01 .2164E-01 .4280E-01 .4770E-01 .1389E-01 .4851E+00
   2   .2118E+00 .1733E-01 .1939E-01 .3953E-01 .4682E-01 .1343E-01 .4889E+00
   3   .2239E+00 .1978E-01 .2103E-01 .4147E-01 .4696E-01 .1399E-01 .4863E+00
   4   .2190E+00 .1737E-01 .1991E-01 .3845E-01 .4792E-01 .1293E-01 .4889E+00
  
        ELEMENT   KINCOND   INTEG     IO        T0        ASM       RESOL    
 MIN   .2118E+00 .1733E-01 .1939E-01 .3845E-01 .4682E-01 .1293E-01 .4851E+00
 MAX   .2253E+00 .1978E-01 .2164E-01 .4280E-01 .4792E-01 .1399E-01 .4889E+00
 AVG   .2200E+00 .1854E-01 .2049E-01 .4056E-01 .4735E-01 .1356E-01 .4873E+00
  
                 ** SPMD COM. TIME **
  
 #PROC  FORCES    RBYFOR    RBYVEL    VEL       TOT       %        
   1   .1902E-01 .0000E+00 .0000E+00 .5208E-02 .2423E-01 .4995E+01
   2   .4758E-01 .0000E+00 .0000E+00 .4849E-02 .5243E-01 .1073E+02
   3   .2368E-01 .0000E+00 .0000E+00 .5248E-02 .2893E-01 .5949E+01
   4   .4212E-01 .0000E+00 .0000E+00 .4790E-02 .4691E-01 .9596E+01
  
        FORCES    RBYFOR    RBYVEL    VEL       TOT       %        
 MIN   .1902E-01 .0000E+00 .0000E+00 .4790E-02 .2423E-01 .4995E+01
 MAX   .4758E-01 .0000E+00 .0000E+00 .5248E-02 .5243E-01 .1073E+02
 AVG   .3310E-01 .0000E+00 .0000E+00 .5024E-02 .3813E-01 .7817E+01
  
                   ** MEMORY USAGE STATISTICS **
  
 TOTAL MEMORY USED .........................:      232 MB
 MAXIMUM MEMORY PER PROCESSOR...............:       58 MB
 MINIMUM MEMORY PER PROCESSOR...............:       58 MB
 AVERAGE MEMORY PER PROCESSOR...............:       58 MB
  
                   ** DISK USAGE STATISTICS **
  
 TOTAL DISK SPACE USED .....................:          2 MB
 ANIMATION/H3D/TH/OUTP SIZE ................:          0 MB
 RESTART FILE SIZE .........................:          1 MB
  
                   ** COMPUTE TIME INFORMATION **
                        ** CURRENT ENGINE **
  
 EXECUTION STARTED .........................:      2022/11/23  16:23:11
 EXECUTION COMPLETED .......................:      2022/11/23  16:23:11
  
 ELAPSED TIME     =          0.59 s
                          0:00:00
 ESTIMATED SPEEDUP=          5.72



     NORMAL TERMINATION      



     TOTAL NUMBER OF CYCLES  :    1812

  
                   ** COMPUTE RUNTIME INFORMATION SUMMARY **
  
        STARTER RUNTIME =          0.64s (00:00:00)
 # 001   ENGINE RUNTIME =          0.54s (00:00:00)
 # 002   ENGINE RUNTIME =          0.59s (00:00:00)
 ------------------------------ 
 STARTER+ENGINE RUNTIME =          1.77s (00:00:01)
  
