 FOAM_V10_0001.out
************************************************************************
**                                                                    **
**                                                                    **
**                         OpenRadioss Engine                         **
**                                                                    **
**            Non-linear Finite Element Analysis Software             **
**                                                                    **
**                                                                    **
**                                                                    **
**                Linux 64 bits, GNU compiler, OpenMPI                **
**                                                                    **
**                                                                    **
**                                                                    **
** CommitID: 440deeba848d606665f88afb8302e85b1ecf72bf                 **
************************************************************************
** OpenRadioss Software                                               **
** COPYRIGHT (C) 1986-2022 Altair Engineering, Inc.                   **
** Licensed under GNU Affero General Public License.                  **
** See License file.                                                  **
************************************************************************
 
 NUMBER OF SPMD DOMAINS           4
 NUMBER OF THREADS PER DOMAIN     2
 NUMBER OF HMPP PROCESSES         8
  
 COMPUTATION HARDWARE DESCRIPTION
  
 CPU#  HOSTNAME     CPU TYPE, FREQUENCY AND MEMORY
   1   fr-shady.europe.altair.com   Intel(R) Xeon(R) CPU           X5680  @ 3.33GHz (x86_64), 1596 MHz,  20012 MB RAM,  49126 MB swap
   2   fr-shady.europe.altair.com   Intel(R) Xeon(R) CPU           X5680  @ 3.33GHz (x86_64), 1596 MHz,  20012 MB RAM,  49126 MB swap
   3   fr-shady.europe.altair.com   Intel(R) Xeon(R) CPU           X5680  @ 3.33GHz (x86_64), 1596 MHz,  20012 MB RAM,  49126 MB swap
   4   fr-shady.europe.altair.com   Intel(R) Xeon(R) CPU           X5680  @ 3.33GHz (x86_64), 1596 MHz,  20012 MB RAM,  49126 MB swap
  
************************************************************************


 FOAM_V10D01FOAM TEST LAW33                                                      


 FINAL TIME . . . . . . . . . . . . . . . . . . .  0.6100000    

 TIME INTERVAL FOR TIME HISTORY PLOTS . . . . . .  0.5000000E-02

 TIME STEP SCALE FACTOR . . . . . . . . . . . . .  0.9000000    

 MINIMUM TIME STEP  . . . . . . . . . . . . . . .   0.000000    


 BRICK TIME STEP SCALE FACTOR . . . . . . . . . .  0.9000000    
 BRICK MINIMUM TIME STEP. . . . . . . . . . . . .   0.000000    
 MIN. TIME STEP FLAG (1:STOP RUN, 2:DELETE BRICK)     1

 QUAD TIME STEP SCALE FACTOR. . . . . . . . . . .  0.9000000    
 QUAD MINIMUM TIME STEP . . . . . . . . . . . . .   0.000000    
 MIN. TIME STEP FLAG (1:STOP RUN, 2:DELETE QUAD).     1

 SHELL TIME STEP SCALE FACTOR . . . . . . . . . .  0.9000000    
 SHELL MINIMUM TIME STEP. . . . . . . . . . . . .   0.000000    
 MIN. TIME FLAG (1:STOP, 2:DELETE, 3:SMALL STRAIN)    2

 TRUSS TIME STEP SCALE FACTOR . . . . . . . . . .  0.9000000    
 TRUSS MINIMUM TIME STEP. . . . . . . . . . . . .   0.000000    
 MIN. TIME FLAG (1:STOP, 2:DELETE). . . . . . . .     0

 BEAM TIME STEP SCALE FACTOR. . . . . . . . . . .  0.9000000    
 BEAM MINIMUM TIME STEP . . . . . . . . . . . . .   0.000000    
 MIN. TIME FLAG (1:STOP, 2:DELETE). . . . . . . .     0

 SPRING TIME STEP SCALE FACTOR. . . . . . . . . .  0.9000000    
 SPRING MINIMUM TIME STEP . . . . . . . . . . . .   0.000000    
 MIN. TIME FLAG (1:STOP, 2:DELETE). . . . . . . .     0

 AIRBAG TIME STEP SCALE FACTOR. . . . . . . . . .  0.9000000    
 AIRBAG MINIMUM TIME STEP . . . . . . . . . . . .   0.000000    
 MIN. TIME FLAG (1:STOP). . . . . . . . . . . . .     0

 CONTACT TIME STEP SCALE FACTOR . . . . . . . . .  0.9000000    
 CONTACT MINIMUM TIME STEP. . . . . . . . . . . .   0.000000    
 MIN. TIME FLAG(1:STOP, 2:REMOVE NODE FROM INTERF)    0

 PRINTOUT CYCLE FREQUENCY . . . . . . . . . . . .   -10

 RESTART CYCLE FREQUENCY. . . . . . . . . . . . .   10000000

 MAXIMUM RESTART WRITE BEFORE OVERWRITE . . . . .     0

 INVERS: INPUT DECK VERSION . . . . . . . . . . .   101
 ITTYP : FLAG FOR TYPE OF T-FILE. . . . . . . . .     4


 TIME FOR FIRST ANIMATION-FILE PLOT . . . . . . .   0.000000    
 TIME INTERVAL FOR ANIMATION-FILE PLOTS . . . . .  0.1000000    
 SENSOR FOR ANIMATION-FILE PLOTS. . . . . . . . .          0
 TIME INTERVAL FOR SENSOR ANIMATION-FILE PLOTS. .   0.000000    

 VARIABLE SAVED ON ANIMATION FILES (1: YES) :
      PLASTIC STRAIN. . . . . .     1
      DENSITY     (SOLID ONLY).     1
      SPECIFIC ENERGY . . . . .     1
      HOURGLASS ENERGY. . . . .     0
      TEMPERATURE (SOLID ONLY).     0
      THICKNESS   (SHELL ONLY).     0
      PRESSURE    (SOLID ONLY).     1
      VON MISES . . . . . . . .     1
      TURBULENT ENERGY (FLUID).     0
      TURBULENT VISCOSITY(FLUID)    0
      VORTICITY (FLUID) . . . .     0
 NODAL VALUES SAVED ON ANIMATION FILES (1: YES) :
      PRESSURE. . . . . . . . .     0
      DENSITY . . . . . . . . .     0
      TEMPERATURE . . . . . . .     0
 VECTOR SAVED ON ANIMATION FILES (1: YES) :
      VELOCITY VECTOR . . . . .     1
      DISPLACEMENT VECTOR . . .     1
      ACCELERATION VECTOR . . .     0
      CONTACT FORCES. . . . . .     1
      INTERNAL FORCES . . . . .     0
      EXTERNAL FORCES . . . . .     0
      SECTION RBY RWALL FORCES.     0
      ROTATIONAL VELOCITY VECTOR    0
      CONTACT PRESSURE (VECTORS)    0
 SHELL TENSOR SAVED ON ANIMATION FILES (1: YES) :
      MEMBRANE STRESS . . . . .     0
      BENDING STRESS(MOMENT/T^2)    0
      UPPER LAYER STRESS. . . .     0
      LOWER LAYER STRESS. . . .     0
      MEMBRANE STRAIN . . . . .     0
      CURVATURE . . . . . . . .     0
      UPPER LAYER STRAIN. . . .     0
      LOWER LAYER STRAIN. . . .     0
 NODAL MASS SAVED ON ANIMATION FILES (1: YES) :    1
 KEEP DELETED ELEMENT (1: YES) :    0


 INITIAL TIME STEP. . . . . . . . . . . . . . . .   0.000000    
 MAXIMUM TIME STEP. . . . . . . . . . . . . . . .  0.1000000E+31

 PARALLEL ARITHMETIC ON
 NUMBER OF INTERFACES TO BE ELIMINATED. . . . . .        0

 NUMBER OF SOLID  ELEMENT BLOCKS TO BE ELIMINATED        0

 NUMBER OF QUAD   ELEMENT BLOCKS TO BE ELIMINATED        0

 NUMBER OF SHELL  ELEMENT BLOCKS TO BE ELIMINATED        1

 NUMBER OF TRUSS  ELEMENT BLOCKS TO BE ELIMINATED        0

 NUMBER OF BEAM   ELEMENT BLOCKS TO BE ELIMINATED        0

 NUMBER OF SPRING ELEMENT BLOCKS TO BE ELIMINATED        0

 NUMBER OF SH_3N  ELEMENT BLOCKS TO BE ELIMINATED        0

 NUMBER OF  SPH PARTICLES BLOCKS TO BE ELIMINATED        0

 NUMBER OF RIGID LINKS. . . . . . . . . . . . . .        0

 NUMBER OF NEW BOUNDARY CONDITIONS. . . . . . . .        0




 LIST OF ELIMINATED SHELL  ELEMENTS 
      1001
      1002
 23/11/2022
   CYCLE    TIME      TIME-STEP  ELEMENT          ERROR  I-ENERGY    K-ENERGY T  K-ENERGY R  EXT-WORK     MAS.ERR     TOTAL MASS  MASS ADDED
       0   0.000      0.6945E-03 SOLID        301   0.0%   0.000       0.000       0.000       0.000       0.000      0.1049E-01   0.000    
     ANIMATION FILE: FOAM_V10A001 WRITTEN
      10  0.6945E-02  0.6945E-03 SOLID        901  -6.7%  0.1347E-08  0.6795E-06   0.000      0.7296E-06   0.000      0.1049E-01   0.000    
      20  0.1389E-01  0.6945E-03 SOLID        801 -18.0%  0.4344E-07  0.2757E-05   0.000      0.3414E-05   0.000      0.1049E-01   0.000    
      30  0.2084E-01  0.6945E-03 SOLID        801 -25.2%  0.2966E-06  0.7952E-05   0.000      0.1103E-04   0.000      0.1049E-01   0.000    
      40  0.2778E-01  0.6945E-03 SOLID        801 -24.3%  0.1407E-05  0.3812E-04   0.000      0.5221E-04   0.000      0.1049E-01   0.000    
      50  0.3473E-01  0.6945E-03 SOLID        801 -31.4%  0.6038E-05  0.9371E-04   0.000      0.1454E-03   0.000      0.1049E-01   0.000    
      60  0.4167E-01  0.6945E-03 SOLID        801 -32.6%  0.2112E-04  0.2706E-03   0.000      0.4327E-03   0.000      0.1049E-01   0.000    
      70  0.4862E-01  0.6945E-03 SOLID        801 -37.5%  0.6632E-04  0.5672E-03   0.000      0.1014E-02   0.000      0.1049E-01   0.000    
      80  0.5556E-01  0.6945E-03 SOLID        801 -39.5%  0.1822E-03  0.1185E-02   0.000      0.2261E-02   0.000      0.1049E-01   0.000    
      90  0.6251E-01  0.6944E-03 SOLID        801 -41.2%  0.4606E-03  0.2296E-02   0.000      0.4687E-02   0.000      0.1049E-01   0.000    
     100  0.6945E-01  0.6944E-03 SOLID        801 -41.8%  0.1105E-02  0.4269E-02   0.000      0.9239E-02   0.000      0.1049E-01   0.000    
     110  0.7640E-01  0.6944E-03 SOLID        801 -39.9%  0.2676E-02  0.7517E-02   0.000      0.1697E-01   0.000      0.1049E-01   0.000    
     120  0.8334E-01  0.6943E-03 SOLID        801 -32.2%  0.6632E-02  0.1279E-01   0.000      0.2866E-01   0.000      0.1049E-01   0.000    
     130  0.9028E-01  0.6942E-03 SOLID        801 -20.9%  0.1443E-01  0.1951E-01   0.000      0.4294E-01   0.000      0.1049E-01   0.000    
     140  0.9722E-01  0.6942E-03 SOLID        801 -15.1%  0.2384E-01  0.2528E-01   0.000      0.5786E-01   0.000      0.1049E-01   0.000    
     ANIMATION FILE: FOAM_V10A002 WRITTEN
     150  0.1042      0.6941E-03 SOLID        801 -15.2%  0.3245E-01  0.2937E-01   0.000      0.7286E-01   0.000      0.1049E-01   0.000    
     160  0.1111      0.6941E-03 SOLID        801 -16.3%  0.4153E-01  0.3244E-01   0.000      0.8836E-01   0.000      0.1049E-01   0.000    
     170  0.1180      0.6940E-03 SOLID        801 -15.5%  0.5329E-01  0.3499E-01   0.000      0.1045       0.000      0.1049E-01   0.000    
     180  0.1250      0.6940E-03 SOLID        801 -12.8%  0.6808E-01  0.3719E-01   0.000      0.1207       0.000      0.1049E-01   0.000    
     190  0.1319      0.6940E-03 SOLID        801 -10.5%  0.8350E-01  0.3939E-01   0.000      0.1373       0.000      0.1049E-01   0.000    
     200  0.1389      0.6940E-03 SOLID        801  -9.6%  0.9778E-01  0.4216E-01   0.000      0.1548       0.000      0.1049E-01   0.000    
     210  0.1458      0.6940E-03 SOLID        801  -9.1%  0.1119      0.4522E-01   0.000      0.1729       0.000      0.1049E-01   0.000    
     220  0.1527      0.6940E-03 SOLID        801  -8.3%  0.1272      0.4820E-01   0.000      0.1913       0.000      0.1049E-01   0.000    
     230  0.1597      0.6940E-03 SOLID        801  -7.4%  0.1435      0.5119E-01   0.000      0.2101       0.000      0.1049E-01   0.000    
     240  0.1666      0.6940E-03 SOLID        801  -6.7%  0.1598      0.5441E-01   0.000      0.2296       0.000      0.1049E-01   0.000    
     250  0.1736      0.6940E-03 SOLID        801  -6.3%  0.1761      0.5731E-01   0.000      0.2490       0.000      0.1049E-01   0.000    
     260  0.1805      0.6940E-03 SOLID        801  -5.8%  0.1926      0.5939E-01   0.000      0.2676       0.000      0.1049E-01   0.000    
     270  0.1874      0.6940E-03 SOLID        801  -5.4%  0.2094      0.6110E-01   0.000      0.2859       0.000      0.1049E-01   0.000    
     280  0.1944      0.6941E-03 SOLID        801  -5.1%  0.2259      0.6292E-01   0.000      0.3042       0.000      0.1049E-01   0.000    
     ANIMATION FILE: FOAM_V10A003 WRITTEN
     290  0.2013      0.6941E-03 SOLID        801  -4.8%  0.2423      0.6492E-01   0.000      0.3227       0.000      0.1049E-01   0.000    
     300  0.2083      0.6941E-03 SOLID        801  -4.5%  0.2587      0.6677E-01   0.000      0.3410       0.000      0.1049E-01   0.000    
     310  0.2152      0.6941E-03 SOLID        101  -4.3%  0.2753      0.6881E-01   0.000      0.3596       0.000      0.1049E-01   0.000    
     320  0.2222      0.6941E-03 SOLID        101  -4.1%  0.2920      0.7115E-01   0.000      0.3788       0.000      0.1049E-01   0.000    
     330  0.2291      0.6941E-03 SOLID        101  -3.9%  0.3091      0.7369E-01   0.000      0.3985       0.000      0.1049E-01   0.000    
     340  0.2360      0.6941E-03 SOLID        101  -3.7%  0.3265      0.7573E-01   0.000      0.4179       0.000      0.1049E-01   0.000    
     350  0.2430      0.6941E-03 SOLID        101  -3.6%  0.3441      0.7730E-01   0.000      0.4369       0.000      0.1049E-01   0.000    
     360  0.2499      0.6941E-03 SOLID        101  -3.4%  0.3617      0.7871E-01   0.000      0.4560       0.000      0.1049E-01   0.000    
     370  0.2569      0.6941E-03 SOLID        101  -3.3%  0.3794      0.8021E-01   0.000      0.4753       0.000      0.1049E-01   0.000    
     380  0.2638      0.6941E-03 SOLID        101  -3.2%  0.3973      0.8165E-01   0.000      0.4947       0.000      0.1049E-01   0.000    
     390  0.2707      0.6941E-03 SOLID        101  -3.0%  0.4154      0.8284E-01   0.000      0.5139       0.000      0.1049E-01   0.000    
     400  0.2777      0.6941E-03 SOLID        101  -2.9%  0.4336      0.8386E-01   0.000      0.5332       0.000      0.1049E-01   0.000    
     410  0.2846      0.6941E-03 SOLID        101  -2.9%  0.4520      0.8485E-01   0.000      0.5526       0.000      0.1049E-01   0.000    
     420  0.2916      0.6941E-03 SOLID        101  -2.8%  0.4705      0.8579E-01   0.000      0.5721       0.000      0.1049E-01   0.000    
     430  0.2985      0.6941E-03 SOLID        101  -2.7%  0.4891      0.8658E-01   0.000      0.5915       0.000      0.1049E-01   0.000    
     ANIMATION FILE: FOAM_V10A004 WRITTEN
     440  0.3054      0.6941E-03 SOLID        101  -2.6%  0.5079      0.8724E-01   0.000      0.6110       0.000      0.1049E-01   0.000    
     450  0.3124      0.6941E-03 SOLID        101  -2.5%  0.5267      0.8787E-01   0.000      0.6306       0.000      0.1049E-01   0.000    
     460  0.3193      0.6941E-03 SOLID        101  -2.5%  0.5457      0.8847E-01   0.000      0.6503       0.000      0.1049E-01   0.000    
     470  0.3263      0.6941E-03 SOLID        101  -2.4%  0.5648      0.8899E-01   0.000      0.6700       0.000      0.1049E-01   0.000    
     480  0.3332      0.6940E-03 SOLID        101  -2.4%  0.5840      0.8945E-01   0.000      0.6897       0.000      0.1049E-01   0.000    
     490  0.3401      0.6940E-03 SOLID        101  -2.3%  0.6033      0.8988E-01   0.000      0.7095       0.000      0.1049E-01   0.000    
     500  0.3471      0.6940E-03 SOLID        101  -2.3%  0.6227      0.9031E-01   0.000      0.7295       0.000      0.1049E-01   0.000    
     510  0.3540      0.6940E-03 SOLID        101  -2.2%  0.6422      0.9061E-01   0.000      0.7494       0.000      0.1049E-01   0.000    
     520  0.3610      0.6940E-03 SOLID        101  -2.2%  0.6617      0.9075E-01   0.000      0.7691       0.000      0.1049E-01   0.000    
     530  0.3679      0.6940E-03 SOLID        101  -2.1%  0.6813      0.9083E-01   0.000      0.7889       0.000      0.1049E-01   0.000    
     540  0.3748      0.6940E-03 SOLID        101  -2.1%  0.7008      0.9090E-01   0.000      0.8086       0.000      0.1049E-01   0.000    
   CYCLE    TIME      TIME-STEP  ELEMENT          ERROR  I-ENERGY    K-ENERGY T  K-ENERGY R  EXT-WORK     MAS.ERR     TOTAL MASS  MASS ADDED
     550  0.3818      0.6939E-03 SOLID        101  -2.1%  0.7204      0.9096E-01   0.000      0.8284       0.000      0.1049E-01   0.000    
     560  0.3887      0.6939E-03 SOLID        101  -2.0%  0.7400      0.9096E-01   0.000      0.8482       0.000      0.1049E-01   0.000    
     570  0.3957      0.6939E-03 SOLID        101  -2.0%  0.7597      0.9091E-01   0.000      0.8680       0.000      0.1049E-01   0.000    
     ANIMATION FILE: FOAM_V10A005 WRITTEN
     580  0.4026      0.6939E-03 SOLID        101  -2.0%  0.7794      0.9082E-01   0.000      0.8879       0.000      0.1049E-01   0.000    
     590  0.4095      0.6939E-03 SOLID        101  -2.0%  0.7992      0.9070E-01   0.000      0.9077       0.000      0.1049E-01   0.000    
     600  0.4165      0.6939E-03 SOLID        101  -1.9%  0.8191      0.9052E-01   0.000      0.9276       0.000      0.1049E-01   0.000    
     610  0.4234      0.6939E-03 SOLID        101  -1.9%  0.8390      0.9027E-01   0.000      0.9474       0.000      0.1049E-01   0.000    
     620  0.4304      0.6939E-03 SOLID        101  -1.9%  0.8590      0.8998E-01   0.000      0.9674       0.000      0.1049E-01   0.000    
     630  0.4373      0.6939E-03 SOLID        101  -1.9%  0.8791      0.8963E-01   0.000      0.9873       0.000      0.1049E-01   0.000    
     640  0.4442      0.6939E-03 SOLID        101  -1.9%  0.8993      0.8922E-01   0.000       1.007       0.000      0.1049E-01   0.000    
     650  0.4512      0.6939E-03 SOLID        101  -1.8%  0.9196      0.8875E-01   0.000       1.027       0.000      0.1049E-01   0.000    
     660  0.4581      0.6939E-03 SOLID        101  -1.8%  0.9399      0.8821E-01   0.000       1.047       0.000      0.1049E-01   0.000    
     670  0.4651      0.6939E-03 SOLID        101  -1.8%  0.9604      0.8762E-01   0.000       1.067       0.000      0.1049E-01   0.000    
     680  0.4720      0.6939E-03 SOLID        101  -1.8%  0.9809      0.8665E-01   0.000       1.087       0.000      0.1049E-01   0.000    
     690  0.4789      0.6939E-03 SOLID        101  -1.7%   1.001      0.8458E-01   0.000       1.105       0.000      0.1049E-01   0.000    
     700  0.4859      0.6939E-03 SOLID        101  -1.7%   1.021      0.8203E-01   0.000       1.122       0.000      0.1049E-01   0.000    
     710  0.4928      0.6939E-03 SOLID        101  -1.7%   1.040      0.7944E-01   0.000       1.139       0.000      0.1049E-01   0.000    
     720  0.4997      0.6939E-03 SOLID        101  -1.7%   1.059      0.7679E-01   0.000       1.155       0.000      0.1049E-01   0.000    
     ANIMATION FILE: FOAM_V10A006 WRITTEN
     730  0.5067      0.6939E-03 SOLID        101  -1.6%   1.077      0.7265E-01   0.000       1.169       0.000      0.1049E-01   0.000    
     740  0.5136      0.6939E-03 SOLID        101  -1.5%   1.095      0.6755E-01   0.000       1.181       0.000      0.1049E-01   0.000    
     750  0.5206      0.6939E-03 SOLID        101  -1.5%   1.111      0.6139E-01   0.000       1.190       0.000      0.1049E-01   0.000    
     760  0.5275      0.6939E-03 SOLID        101  -1.4%   1.127      0.5422E-01   0.000       1.197       0.000      0.1049E-01   0.000    
     770  0.5344      0.6939E-03 SOLID        101  -1.3%   1.141      0.4636E-01   0.000       1.203       0.000      0.1049E-01   0.000    
     780  0.5414      0.6939E-03 SOLID        101  -1.2%   1.154      0.3820E-01   0.000       1.207       0.000      0.1049E-01   0.000    
     790  0.5483      0.6939E-03 SOLID        101  -1.2%   1.166      0.3005E-01   0.000       1.210       0.000      0.1049E-01   0.000    
     800  0.5553      0.6939E-03 SOLID        101  -1.1%   1.176      0.2235E-01   0.000       1.212       0.000      0.1049E-01   0.000    
     810  0.5622      0.6939E-03 SOLID        101  -1.1%   1.185      0.1562E-01   0.000       1.214       0.000      0.1049E-01   0.000    
     820  0.5691      0.6939E-03 SOLID        101  -1.1%   1.191      0.1036E-01   0.000       1.215       0.000      0.1049E-01   0.000    
     830  0.5761      0.6940E-03 SOLID        101  -1.1%   1.197      0.6316E-02   0.000       1.217       0.000      0.1049E-01   0.000    
     840  0.5830      0.6941E-03 SOLID        101  -1.2%   1.201      0.3590E-02   0.000       1.219       0.000      0.1049E-01   0.000    
     850  0.5900      0.6941E-03 SOLID        101  -1.2%   1.204      0.1992E-02   0.000       1.221       0.000      0.1049E-01   0.000    
     860  0.5969      0.6941E-03 SOLID        101  -1.4%   1.205      0.1255E-02   0.000       1.223       0.000      0.1049E-01   0.000    
     ANIMATION FILE: FOAM_V10A007 WRITTEN
     870  0.6038      0.6941E-03 SOLID        101  -1.5%   1.207      0.9573E-03   0.000       1.226       0.000      0.1049E-01   0.000    

     RESTART FILES: FOAM_V10_0001_[0001-0004].rst WRITTEN
     -------------

  
                           ** CPU USER TIME **
  
  
                        ** SUMMARY **
  
 #PROC  CONTSORT  CONTFOR   ELEMENT   KINCOND   INTEG     IO        T0        ASM       RESOL    
   1   .7051E-01 .8010E-01 .3609E+00 .4039E-01 .2071E-01 .3977E+00 .5711E-01 .1315E+00 .1414E+01
   2   .2169E+00 .1024E-01 .3539E+00 .3903E-01 .2030E-01 .3004E+00 .1803E+00 .3005E-01 .1502E+01
   3   .8045E-01 .8092E-01 .3607E+00 .4478E-01 .2060E-01 .4032E+00 .6505E-01 .1299E+00 .1430E+01
   4   .9484E-01 .1048E-01 .3565E+00 .3916E-01 .2090E-01 .7729E-01 .1864E+00 .2993E-01 .1463E+01
  
                 ** SPMD COM. TIME **
  
 #PROC  FORCES    RBYFOR    RBYVEL    VEL       TOT       %        
   1   .1052E+00 .2465E-02 .0000E+00 .1267E-01 .1203E+00 .8508E+01
   2   .1997E+00 .4241E-02 .0000E+00 .3025E-01 .2342E+00 .1560E+02
   3   .1069E+00 .2632E-02 .0000E+00 .1254E-01 .1221E+00 .8539E+01
   4   .2064E+00 .4076E-02 .0000E+00 .3219E+00 .5324E+00 .3639E+02
  
 
                   ** CUMULATIVE CPU TIME SUMMARY **
  
 CONTACT SORTING.............: .4627E+00     7.96 % 
 CONTACT FORCES..............: .1817E+00     3.13 % 
 ELEMENT FORCES..............: .1432E+01    24.65 % 
 KINEMATIC COND..............: .1633E+00     2.81 % 
 INTEGRATION.................: .8252E-01     1.42 % 
 ASSEMBLING..................: .3214E+00     5.53 % 
 OTHERS (including I/O)......: .3165E+01    54.49 % 
 TOTAL.......................: .5809E+01   100.00 % 
  
  
                           ** ELAPSED TIME **
  
  
                        ** SUMMARY **
  
 #PROC  CONTSORT  CONTFOR   ELEMENT   KINCOND   INTEG     IO        T0        ASM       RESOL    
   1   .3972E-01 .4536E-01 .1986E+00 .2227E-01 .1164E-01 .2581E+00 .3128E-01 .6987E-01 .8185E+00
   2   .1143E+00 .5628E-02 .1917E+00 .2128E-01 .1101E-01 .1716E+00 .9566E-01 .1614E-01 .8193E+00
   3   .4504E-01 .4605E-01 .1997E+00 .2500E-01 .1154E-01 .2496E+00 .3600E-01 .6935E-01 .8187E+00
   4   .5160E-01 .5764E-02 .1926E+00 .2147E-01 .1148E-01 .5164E-01 .1026E+00 .1612E-01 .8193E+00
  
        CONTSORT  CONTFOR   ELEMENT   KINCOND   INTEG     IO        T0        ASM       RESOL    
 MIN   .3972E-01 .5628E-02 .1917E+00 .2128E-01 .1101E-01 .5164E-01 .3128E-01 .1612E-01 .8185E+00
 MAX   .1143E+00 .4605E-01 .1997E+00 .2500E-01 .1164E-01 .2581E+00 .1026E+00 .6987E-01 .8193E+00
 AVG   .6266E-01 .2570E-01 .1957E+00 .2251E-01 .1142E-01 .1827E+00 .6638E-01 .4287E-01 .8190E+00
  
                 ** SPMD COM. TIME **
  
 #PROC  FORCES    RBYFOR    RBYVEL    VEL       TOT       %        
   1   .5744E-01 .1320E-02 .0000E+00 .7415E-02 .6617E-01 .8085E+01
   2   .1072E+00 .1546E-02 .0000E+00 .1681E-01 .1256E+00 .1533E+02
   3   .5905E-01 .1443E-02 .0000E+00 .7218E-02 .6771E-01 .8271E+01
   4   .1110E+00 .1455E-02 .0000E+00 .1879E+00 .3004E+00 .3667E+02
  
        FORCES    RBYFOR    RBYVEL    VEL       TOT       %        
 MIN   .5744E-01 .1320E-02 .0000E+00 .7218E-02 .6617E-01 .8085E+01
 MAX   .1110E+00 .1546E-02 .0000E+00 .1879E+00 .3004E+00 .3667E+02
 AVG   .8369E-01 .1441E-02 .0000E+00 .5485E-01 .1400E+00 .1709E+02
  
                   ** MEMORY USAGE STATISTICS **
  
 TOTAL MEMORY USED .........................:      232 MB
 MAXIMUM MEMORY PER PROCESSOR...............:       58 MB
 MINIMUM MEMORY PER PROCESSOR...............:       58 MB
 AVERAGE MEMORY PER PROCESSOR...............:       58 MB
  
                   ** DISK USAGE STATISTICS **
  
 TOTAL DISK SPACE USED .....................:          2 MB
 ANIMATION/H3D/TH/OUTP SIZE ................:          0 MB
 RESTART FILE SIZE .........................:          2 MB
  
                   ** COMPUTE TIME INFORMATION **
                        ** CURRENT ENGINE **
  
 EXECUTION STARTED .........................:      2022/11/23  16:21:31
 EXECUTION COMPLETED .......................:      2022/11/23  16:21:32
  
 ELAPSED TIME     =          0.91 s
                          0:00:00
 ESTIMATED SPEEDUP=          6.42



     NORMAL TERMINATION      



     TOTAL NUMBER OF CYCLES  :     879

  
                   ** COMPUTE RUNTIME INFORMATION SUMMARY **
  
        STARTER RUNTIME =          0.74s (00:00:00)
 # 001   ENGINE RUNTIME =          0.91s (00:00:00)
 ------------------------------ 
 STARTER+ENGINE RUNTIME =          1.65s (00:00:01)
  
