 1ELEM_SAMP_0001.out
************************************************************************
**                                                                    **
**                                                                    **
**                      RADIOSS ENGINE MAINLINE                       **
**                                                                    **
**            Non-linear Finite Element Analysis Software             **
**                   from Altair Engineering, Inc.                    **
**                                                                    **
**                                                                    **
**              Linux 64 bits, Intel compiler, Intel MPI              **
**                                                                    **
**                           BETA_VERSION                             **
**                                                                    **
** Build tag: 0880539_08738000000_2070_0049622_10                     **
************************************************************************
**  COPYRIGHT (C) 1986-2017                 Altair Engineering, Inc.  **
** All Rights Reserved.  Copyright notice does not imply publication. **
** Contains trade secrets of Altair Engineering Inc.                  **
** Decompilation or disassembly of this software strictly prohibited. **
************************************************************************
 
 NUMBER OF SPMD DOMAINS           4
 NUMBER OF THREADS PER DOMAIN     1
 NUMBER OF HMPP PROCESSES         4
  
 COMPUTATION HARDWARE DESCRIPTION
  
 CPU#  HOSTNAME     CPU TYPE, FREQUENCY AND MEMORY
   1   fradf-shady.europe.altair.com   Intel(R) Xeon(R) CPU           X5680  @ 3.33GHz (x86_64), 1596 MHz,  19924 MB RAM,  48957 MB swap
   2   fradf-shady.europe.altair.com   Intel(R) Xeon(R) CPU           X5680  @ 3.33GHz (x86_64), 1596 MHz,  19924 MB RAM,  48957 MB swap
   3   fradf-shady.europe.altair.com   Intel(R) Xeon(R) CPU           X5680  @ 3.33GHz (x86_64), 1596 MHz,  19924 MB RAM,  48957 MB swap
   4   fradf-shady.europe.altair.com   Intel(R) Xeon(R) CPU           X5680  @ 3.33GHz (x86_64), 1596 MHz,  19924 MB RAM,  48957 MB swap
  
************************************************************************


 1ELEM_SAMPD01SAMP                                                               


 FINAL TIME . . . . . . . . . . . . . . . . . . .   2.601000    

 TIME INTERVAL FOR TIME HISTORY PLOTS . . . . . .  0.1000000E-01

 TIME STEP SCALE FACTOR . . . . . . . . . . . . .  0.9000000    

 MINIMUM TIME STEP  . . . . . . . . . . . . . . .   0.000000    


 BRICK TIME STEP SCALE FACTOR . . . . . . . . . .  0.9000000    
 BRICK MINIMUM TIME STEP. . . . . . . . . . . . .   0.000000    
 MIN. TIME STEP FLAG (1:STOP RUN, 2:DELETE BRICK)     1

 QUAD TIME STEP SCALE FACTOR. . . . . . . . . . .  0.9000000    
 QUAD MINIMUM TIME STEP . . . . . . . . . . . . .   0.000000    
 MIN. TIME STEP FLAG (1:STOP RUN, 2:DELETE QUAD).     1

 SHELL TIME STEP SCALE FACTOR . . . . . . . . . .  0.9000000    
 SHELL MINIMUM TIME STEP. . . . . . . . . . . . .   0.000000    
 MIN. TIME FLAG (1:STOP, 2:DELETE, 3:SMALL STRAIN)    2

 TRUSS TIME STEP SCALE FACTOR . . . . . . . . . .  0.9000000    
 TRUSS MINIMUM TIME STEP. . . . . . . . . . . . .   0.000000    
 MIN. TIME FLAG (1:STOP, 2:DELETE). . . . . . . .     0

 BEAM TIME STEP SCALE FACTOR. . . . . . . . . . .  0.9000000    
 BEAM MINIMUM TIME STEP . . . . . . . . . . . . .   0.000000    
 MIN. TIME FLAG (1:STOP, 2:DELETE). . . . . . . .     0

 SPRING TIME STEP SCALE FACTOR. . . . . . . . . .  0.9000000    
 SPRING MINIMUM TIME STEP . . . . . . . . . . . .   0.000000    
 MIN. TIME FLAG (1:STOP, 2:DELETE). . . . . . . .     0

 AIRBAG TIME STEP SCALE FACTOR. . . . . . . . . .  0.9000000    
 AIRBAG MINIMUM TIME STEP . . . . . . . . . . . .   0.000000    
 MIN. TIME FLAG (1:STOP). . . . . . . . . . . . .     0

 INTERFACE TYPE 7 TIME STEP SCALE FACTOR. . . . .  0.9000000    
 INTERFACE TYPE 7 MINIMUM TIME STEP . . . . . . .   0.000000    
 MIN. TIME FLAG(1:STOP, 2:REMOVE NODE FROM INTERF)    0

 FVMBAG TIME STEP SCALE FACTOR. . . . . . . . . .  0.9000000    
 FVMBAG MINIMUM TIME STEP . . . . . . . . . . . .   0.000000    
 FVMBAG TIME STEP FLAG. . . . . . . . . . . . . .     0
 PRINTOUT CYCLE FREQUENCY . . . . . . . . . . . .    -1

 RESTART CYCLE FREQUENCY. . . . . . . . . . . . .       5000

 MAXIMUM RESTART WRITE BEFORE OVERWRITE . . . . .     0

 INVERS: INPUT DECK VERSION . . . . . . . . . . .   100
 ITTYP : FLAG FOR TYPE OF T-FILE. . . . . . . . .     4


 TIME FOR FIRST ANIMATION-FILE PLOT . . . . . . .   0.000000    
 TIME INTERVAL FOR ANIMATION-FILE PLOTS . . . . .  0.1000000    
 SENSOR FOR ANIMATION-FILE PLOTS. . . . . . . . .          0
 TIME INTERVAL FOR SENSOR ANIMATION-FILE PLOTS. .   0.000000    

 VARIABLE SAVED ON ANIMATION FILES (1: YES) :
      PLASTIC STRAIN. . . . . .     1
      DENSITY     (SOLID ONLY).     0
      SPECIFIC ENERGY . . . . .     1
      HOURGLASS ENERGY. . . . .     1
      TEMPERATURE (SOLID ONLY).     0
      THICKNESS   (SHELL ONLY).     1
      PRESSURE    (SOLID ONLY).     0
      VON MISES . . . . . . . .     1
      TURBULENT ENERGY (FLUID).     0
      TURBULENT VISCOSITY(FLUID)    0
      VORTICITY (FLUID) . . . .     0
 NODAL VALUES SAVED ON ANIMATION FILES (1: YES) :
      PRESSURE. . . . . . . . .     0
      DENSITY . . . . . . . . .     0
      TEMPERATURE . . . . . . .     0
 VECTOR SAVED ON ANIMATION FILES (1: YES) :
      VELOCITY VECTOR . . . . .     1
      DISPLACEMENT VECTOR . . .     0
      ACCELERATION VECTOR . . .     0
      CONTACT FORCES. . . . . .     1
      INTERNAL FORCES . . . . .     0
      EXTERNAL FORCES . . . . .     0
      SECTION RBY RWALL FORCES.     1
      ROTATIONAL VELOCITY VECTOR    0
      CONTACT PRESSURE (VECTORS)    0
 SHELL TENSOR SAVED ON ANIMATION FILES (1: YES) :
      MEMBRANE STRESS . . . . .     0
      BENDING STRESS(MOMENT/T^2)    0
      UPPER LAYER STRESS. . . .     0
      LOWER LAYER STRESS. . . .     0
      MEMBRANE STRAIN . . . . .     0
      CURVATURE . . . . . . . .     0
      UPPER LAYER STRAIN. . . .     0
      LOWER LAYER STRAIN. . . .     0
 NODAL MASS SAVED ON ANIMATION FILES (1: YES) :    1
 KEEP DELETED ELEMENT (1: YES) :    0


 INITIAL TIME STEP. . . . . . . . . . . . . . . .   0.000000    
 MAXIMUM TIME STEP. . . . . . . . . . . . . . . .  0.1000000E+31

 PARALLEL ARITHMETIC ON
 NUMBER OF INTERFACES TO BE ELIMINATED. . . . . .        0

 NUMBER OF SOLID  ELEMENT BLOCKS TO BE ELIMINATED        0

 NUMBER OF QUAD   ELEMENT BLOCKS TO BE ELIMINATED        0

 NUMBER OF SHELL  ELEMENT BLOCKS TO BE ELIMINATED        0

 NUMBER OF TRUSS  ELEMENT BLOCKS TO BE ELIMINATED        0

 NUMBER OF BEAM   ELEMENT BLOCKS TO BE ELIMINATED        0

 NUMBER OF SPRING ELEMENT BLOCKS TO BE ELIMINATED        0

 NUMBER OF SH_3N  ELEMENT BLOCKS TO BE ELIMINATED        0

 NUMBER OF  SPH PARTICLES BLOCKS TO BE ELIMINATED        0

 NUMBER OF RIGID LINKS. . . . . . . . . . . . . .        0

 NUMBER OF NEW BOUNDARY CONDITIONS. . . . . . . .        0

 24/08/2017
 CYCLE    TIME      TIME-STEP  ELEMENT          ERROR  I-ENERGY    K-ENERGY T  K-ENERGY R  EXT-WORK MAS.ERR
     0   0.000      0.7290E-03 SHELL          1   0.0%   0.000       0.000       0.000       0.000       0.000    
     ANIMATION FILE: 1ELEM_SAMPA001 WRITTEN
     1  0.7290E-03  0.7291E-03 SHELL          1   0.6%  0.1276E-03  0.2462E-03  0.2325E-39  0.3714E-03   0.000    
     2  0.1458E-02  0.7291E-03 SHELL          1   0.3%  0.4778E-03  0.2639E-03  0.3575E-38  0.7396E-03   0.000    
     3  0.2187E-02  0.7291E-03 SHELL          1   0.1%  0.1045E-02  0.2832E-03  0.1245E-37  0.1326E-02   0.000    
     4  0.2916E-02  0.7291E-03 SHELL          1   0.1%  0.1830E-02  0.2960E-03  0.1276E-37  0.2124E-02   0.000    
     5  0.3645E-02  0.7291E-03 SHELL          1   0.0%  0.2829E-02  0.3101E-03  0.1713E-37  0.3139E-02   0.000    
     6  0.4375E-02  0.7292E-03 SHELL          1   0.0%  0.4068E-02  0.3094E-03  0.1222E-36  0.4377E-02   0.000    
     7  0.5104E-02  0.7292E-03 SHELL          1   0.0%  0.5536E-02  0.2991E-03  0.1222E-36  0.5834E-02   0.000    
     8  0.5833E-02  0.7292E-03 SHELL          1   0.0%  0.7222E-02  0.2809E-03  0.2766E-37  0.7501E-02   0.000    
     9  0.6562E-02  0.7292E-03 SHELL          1   0.0%  0.9129E-02  0.2556E-03  0.1384E-36  0.9382E-02   0.000    
    10  0.7291E-02  0.7292E-03 SHELL          1   0.0%  0.1124E-01  0.2451E-03  0.6690E-37  0.1149E-01   0.000    
    11  0.8020E-02  0.7293E-03 SHELL          1   0.0%  0.1359E-01  0.2448E-03  0.6696E-37  0.1384E-01   0.000    
    12  0.8750E-02  0.7293E-03 SHELL          1   0.0%  0.1617E-01  0.2526E-03  0.6703E-37  0.1643E-01   0.000    
    13  0.9479E-02  0.7293E-03 SHELL          1   0.0%  0.1893E-01  0.2711E-03  0.6711E-37  0.1920E-01   0.000    
    14  0.1021E-01  0.7293E-03 SHELL          1   0.0%  0.2185E-01  0.2856E-03  0.1309E-36  0.2213E-01   0.000    
    15  0.1094E-01  0.7293E-03 SHELL          1   0.0%  0.2491E-01  0.2960E-03  0.3134E-36  0.2521E-01   0.000    
    16  0.1167E-01  0.7293E-03 SHELL          1   0.0%  0.2812E-01  0.3071E-03  0.1308E-36  0.2843E-01   0.000    
    17  0.1240E-01  0.7293E-03 SHELL          1   0.0%  0.3149E-01  0.3086E-03  0.1010E-35  0.3180E-01   0.000    
    18  0.1313E-01  0.7294E-03 SHELL          1   0.0%  0.3502E-01  0.3013E-03  0.1074E-35  0.3532E-01   0.000    
    19  0.1385E-01  0.7293E-03 SHELL          1   0.0%  0.3869E-01  0.2838E-03  0.7514E-36  0.3898E-01   0.000    
    20  0.1458E-01  0.7293E-03 SHELL          1   0.0%  0.4252E-01  0.2611E-03  0.1259E-35  0.4278E-01   0.000    
    21  0.1531E-01  0.7294E-03 SHELL          1   0.0%  0.4648E-01  0.2494E-03  0.1894E-35  0.4674E-01   0.000    
    22  0.1604E-01  0.7294E-03 SHELL          1   0.0%  0.5061E-01  0.2491E-03  0.1353E-35  0.5086E-01   0.000    
    23  0.1677E-01  0.7294E-03 SHELL          1   0.0%  0.5489E-01  0.2572E-03  0.9094E-36  0.5515E-01   0.000    
    24  0.1750E-01  0.7294E-03 SHELL          1   0.0%  0.5928E-01  0.2718E-03  0.1353E-35  0.5955E-01   0.000    
    25  0.1823E-01  0.7294E-03 SHELL          1   0.0%  0.6374E-01  0.2923E-03  0.1801E-35  0.6403E-01   0.000    
    26  0.1896E-01  0.7294E-03 SHELL          1   0.0%  0.6824E-01  0.3224E-03  0.1542E-35  0.6857E-01   0.000    
    27  0.1969E-01  0.7294E-03 SHELL          1   0.0%  0.7280E-01  0.3521E-03  0.8157E-36  0.7315E-01   0.000    
    28  0.2042E-01  0.7294E-03 SHELL          1   0.0%  0.7742E-01  0.3635E-03  0.1822E-35  0.7778E-01   0.000    
    29  0.2115E-01  0.7295E-03 SHELL          1   0.0%  0.8211E-01  0.3491E-03  0.2667E-35  0.8246E-01   0.000    
    30  0.2188E-01  0.7295E-03 SHELL          1   0.0%  0.8686E-01  0.3153E-03  0.1877E-35  0.8718E-01   0.000    
    31  0.2261E-01  0.7295E-03 SHELL          1   0.0%  0.9166E-01  0.2807E-03  0.3096E-35  0.9194E-01   0.000    
    32  0.2334E-01  0.7295E-03 SHELL          1   0.0%  0.9651E-01  0.2612E-03  0.3887E-35  0.9677E-01   0.000    
    33  0.2407E-01  0.7295E-03 SHELL          1   0.0%  0.1014      0.2570E-03  0.4427E-35  0.1017       0.000    
    34  0.2480E-01  0.7295E-03 SHELL          1   0.0%  0.1064      0.2621E-03  0.6659E-35  0.1067       0.000    
    35  0.2553E-01  0.7295E-03 SHELL          1   0.0%  0.1114      0.2718E-03  0.7394E-35  0.1117       0.000    
    36  0.2626E-01  0.7295E-03 SHELL          1   0.0%  0.1165      0.2866E-03  0.7394E-35  0.1168       0.000    
    37  0.2698E-01  0.7295E-03 SHELL          1   0.0%  0.1216      0.3101E-03  0.8225E-35  0.1219       0.000    
    38  0.2771E-01  0.7295E-03 SHELL          1   0.0%  0.1268      0.3360E-03  0.1346E-34  0.1271       0.000    
    39  0.2844E-01  0.7295E-03 SHELL          1   0.0%  0.1320      0.3499E-03  0.2656E-34  0.1324       0.000    
    40  0.2917E-01  0.7295E-03 SHELL          1   0.0%  0.1373      0.3428E-03  0.3180E-34  0.1377       0.000    
    41  0.2990E-01  0.7295E-03 SHELL          1   0.0%  0.1427      0.3172E-03  0.3818E-34  0.1430       0.000    
    42  0.3063E-01  0.7295E-03 SHELL          1   0.0%  0.1481      0.2876E-03  0.5987E-34  0.1484       0.000    
    43  0.3136E-01  0.7295E-03 SHELL          1   0.0%  0.1535      0.2685E-03  0.9859E-34  0.1538       0.000    
    44  0.3209E-01  0.7296E-03 SHELL          1   0.0%  0.1590      0.2626E-03  0.1233E-33  0.1592       0.000    
    45  0.3282E-01  0.7296E-03 SHELL          1   0.0%  0.1645      0.2654E-03  0.1372E-33  0.1648       0.000    
    46  0.3355E-01  0.7296E-03 SHELL          1   0.0%  0.1701      0.2721E-03  0.1135E-33  0.1704       0.000    
    47  0.3428E-01  0.7296E-03 SHELL          1   0.0%  0.1757      0.2836E-03  0.1247E-33  0.1760       0.000    
    48  0.3501E-01  0.7296E-03 SHELL          1   0.0%  0.1814      0.3027E-03  0.1706E-33  0.1817       0.000    
    49  0.3574E-01  0.7296E-03 SHELL          1   0.0%  0.1871      0.3270E-03  0.1808E-33  0.1874       0.000    
    50  0.3647E-01  0.7296E-03 SHELL          1   0.0%  0.1928      0.3470E-03  0.1918E-33  0.1932       0.000    
    51  0.3720E-01  0.7296E-03 SHELL          1   0.0%  0.1986      0.3502E-03  0.2264E-33  0.1989       0.000    
    52  0.3793E-01  0.7296E-03 SHELL          1   0.0%  0.2044      0.3340E-03  0.1887E-33  0.2047       0.000    
    53  0.3866E-01  0.7296E-03 SHELL          1   0.0%  0.2102      0.3085E-03  0.7670E-34  0.2105       0.000    
    54  0.3939E-01  0.7296E-03 SHELL          1   0.0%  0.2160      0.2869E-03  0.3166E-34  0.2163       0.000    
 CYCLE    TIME      TIME-STEP  ELEMENT          ERROR  I-ENERGY    K-ENERGY T  K-ENERGY R  EXT-WORK MAS.ERR
    55  0.4012E-01  0.7296E-03 SHELL          1   0.0%  0.2219      0.2756E-03  0.3743E-34  0.2221       0.000    
    56  0.4085E-01  0.7296E-03 SHELL          1   0.0%  0.2277      0.2733E-03  0.4784E-34  0.2280       0.000    
    57  0.4158E-01  0.7296E-03 SHELL          1   0.0%  0.2336      0.2758E-03  0.5245E-34  0.2339       0.000    
    58  0.4231E-01  0.7296E-03 SHELL          1   0.0%  0.2396      0.2830E-03  0.6694E-34  0.2399       0.000    
    59  0.4304E-01  0.7297E-03 SHELL          1   0.0%  0.2455      0.2975E-03  0.7242E-34  0.2458       0.000    
    60  0.4377E-01  0.7297E-03 SHELL          1   0.0%  0.2515      0.3178E-03  0.4749E-34  0.2518       0.000    
    61  0.4449E-01  0.7297E-03 SHELL          1   0.0%  0.2575      0.3356E-03  0.2013E-34  0.2578       0.000    
    62  0.4522E-01  0.7297E-03 SHELL          1   0.0%  0.2635      0.3411E-03  0.1208E-34  0.2638       0.000    
    63  0.4595E-01  0.7297E-03 SHELL          1   0.0%  0.2695      0.3312E-03  0.1656E-34  0.2699       0.000    
    64  0.4668E-01  0.7297E-03 SHELL          1   0.0%  0.2756      0.3123E-03  0.2203E-34  0.2759       0.000    
    65  0.4741E-01  0.7297E-03 SHELL          1   0.0%  0.2816      0.2941E-03  0.3858E-34  0.2820       0.000    
    66  0.4814E-01  0.7297E-03 SHELL          1   0.0%  0.2877      0.2829E-03  0.5802E-34  0.2880       0.000    
    67  0.4887E-01  0.7297E-03 SHELL          1   0.0%  0.2938      0.2788E-03  0.5604E-34  0.2941       0.000    
    68  0.4960E-01  0.7297E-03 SHELL          1   0.0%  0.3000      0.2796E-03  0.3629E-34  0.3003       0.000    
    69  0.5033E-01  0.7297E-03 SHELL          1   0.0%  0.3061      0.2855E-03  0.2653E-34  0.3064       0.000    
    70  0.5106E-01  0.7297E-03 SHELL          1   0.0%  0.3123      0.2978E-03  0.2148E-34  0.3126       0.000    
    71  0.5179E-01  0.7297E-03 SHELL          1   0.0%  0.3184      0.3146E-03  0.1273E-34  0.3188       0.000    
    72  0.5252E-01  0.7297E-03 SHELL          1   0.0%  0.3246      0.3294E-03  0.8984E-35  0.3250       0.000    
    73  0.5325E-01  0.7297E-03 SHELL          1   0.0%  0.3308      0.3350E-03  0.9911E-35  0.3312       0.000    
    74  0.5398E-01  0.7297E-03 SHELL          1   0.0%  0.3371      0.3286E-03  0.9911E-35  0.3374       0.000    
    75  0.5471E-01  0.7297E-03 SHELL          1   0.0%  0.3433      0.3145E-03  0.8155E-35  0.3436       0.000    
    76  0.5544E-01  0.7298E-03 SHELL          1   0.0%  0.3496      0.2996E-03  0.1135E-34  0.3499       0.000    
    77  0.5617E-01  0.7298E-03 SHELL          1   0.0%  0.3558      0.2888E-03  0.1739E-34  0.3561       0.000    
    78  0.5690E-01  0.7298E-03 SHELL          1   0.0%  0.3621      0.2831E-03  0.1081E-34  0.3624       0.000    
    79  0.5763E-01  0.7298E-03 SHELL          1   0.0%  0.3684      0.2825E-03  0.5803E-35  0.3687       0.000    
    80  0.5836E-01  0.7298E-03 SHELL          1   0.0%  0.3747      0.2873E-03  0.2708E-35  0.3750       0.000    
    81  0.5909E-01  0.7298E-03 SHELL          1   0.0%  0.3811      0.2979E-03  0.3692E-35  0.3814       0.000    
    82  0.5982E-01  0.7298E-03 SHELL          1   0.0%  0.3874      0.3122E-03  0.7422E-35  0.3878       0.000    
    83  0.6055E-01  0.7298E-03 SHELL          1   0.0%  0.3938      0.3251E-03  0.7422E-35  0.3941       0.000    
    84  0.6128E-01  0.7298E-03 SHELL          1   0.0%  0.4002      0.3311E-03  0.1354E-34  0.4005       0.000    
    85  0.6201E-01  0.7298E-03 SHELL          1   0.0%  0.4065      0.3277E-03  0.7409E-35  0.4069       0.000    
    86  0.6274E-01  0.7298E-03 SHELL          1   0.0%  0.4129      0.3171E-03  0.1546E-34  0.4133       0.000    
    87  0.6347E-01  0.7298E-03 SHELL          1   0.0%  0.4193      0.3043E-03  0.2937E-34  0.4197       0.000    
    88  0.6420E-01  0.7298E-03 SHELL          1   0.0%  0.4258      0.2938E-03  0.3200E-34  0.4261       0.000    
    89  0.6493E-01  0.7298E-03 SHELL          1   0.0%  0.4322      0.2876E-03  0.3695E-34  0.4325       0.000    
    90  0.6566E-01  0.7298E-03 SHELL          1   0.0%  0.4386      0.2861E-03  0.5276E-34  0.4389       0.000    
    91  0.6639E-01  0.7298E-03 SHELL          1   0.0%  0.4451      0.2893E-03  0.5352E-34  0.4454       0.000    
    92  0.6712E-01  0.7298E-03 SHELL          1   0.0%  0.4516      0.2972E-03  0.4006E-34  0.4519       0.000    
    93  0.6785E-01  0.7298E-03 SHELL          1   0.0%  0.4580      0.3084E-03  0.3011E-34  0.4584       0.000    
    94  0.6858E-01  0.7299E-03 SHELL          1   0.0%  0.4645      0.3192E-03  0.2543E-34  0.4649       0.000    
    95  0.6931E-01  0.7299E-03 SHELL          1   0.0%  0.4710      0.3253E-03  0.2438E-34  0.4714       0.000    
    96  0.7004E-01  0.7299E-03 SHELL          1   0.0%  0.4775      0.3242E-03  0.2716E-34  0.4779       0.000    
    97  0.7077E-01  0.7299E-03 SHELL          1   0.0%  0.4841      0.3170E-03  0.2776E-34  0.4844       0.000    
    98  0.7150E-01  0.7299E-03 SHELL          1   0.0%  0.4906      0.3070E-03  0.3684E-34  0.4909       0.000    
    99  0.7223E-01  0.7299E-03 SHELL          1   0.0%  0.4971      0.2978E-03  0.3441E-34  0.4975       0.000    
   100  0.7296E-01  0.7299E-03 SHELL          1   0.0%  0.5037      0.2915E-03  0.3164E-34  0.5040       0.000    
   101  0.7369E-01  0.7299E-03 SHELL          1   0.0%  0.5103      0.2892E-03  0.9694E-35  0.5106       0.000    
   102  0.7442E-01  0.7299E-03 SHELL          1   0.0%  0.5169      0.2910E-03  0.2823E-34  0.5172       0.000    
   103  0.7515E-01  0.7299E-03 SHELL          1   0.0%  0.5235      0.2971E-03  0.9773E-34  0.5238       0.000    
   104  0.7588E-01  0.7299E-03 SHELL          1   0.0%  0.5301      0.3059E-03  0.1585E-33  0.5304       0.000    
   105  0.7661E-01  0.7299E-03 SHELL          1   0.0%  0.5367      0.3150E-03  0.1526E-33  0.5370       0.000    
   106  0.7734E-01  0.7299E-03 SHELL          1   0.0%  0.5433      0.3207E-03  0.9806E-34  0.5437       0.000    
   107  0.7807E-01  0.7299E-03 SHELL          1   0.0%  0.5500      0.3212E-03  0.3745E-34  0.5503       0.000    
   108  0.7880E-01  0.7299E-03 SHELL          1   0.0%  0.5566      0.3166E-03  0.1068E-34  0.5570       0.000    
   109  0.7953E-01  0.7299E-03 SHELL          1   0.0%  0.5633      0.3090E-03  0.7144E-35  0.5637       0.000    
 CYCLE    TIME      TIME-STEP  ELEMENT          ERROR  I-ENERGY    K-ENERGY T  K-ENERGY R  EXT-WORK MAS.ERR
   110  0.8025E-01  0.7299E-03 SHELL          1   0.0%  0.5700      0.3011E-03  0.1165E-34  0.5703       0.000    
   111  0.8098E-01  0.7299E-03 SHELL          1   0.0%  0.5767      0.2952E-03  0.2952E-34  0.5770       0.000    
   112  0.8171E-01  0.7299E-03 SHELL          1   0.0%  0.5834      0.2927E-03  0.3552E-34  0.5837       0.000    
   113  0.8244E-01  0.7299E-03 SHELL          1   0.0%  0.5901      0.2940E-03  0.4518E-34  0.5904       0.000    
   114  0.8317E-01  0.7300E-03 SHELL          1   0.0%  0.5968      0.2991E-03  0.1059E-33  0.5972       0.000    
   115  0.8390E-01  0.7300E-03 SHELL          1   0.0%  0.6036      0.3062E-03  0.1482E-33  0.6039       0.000    
   116  0.8463E-01  0.7300E-03 SHELL          1   0.0%  0.6103      0.3134E-03  0.1550E-33  0.6106       0.000    
   117  0.8536E-01  0.7300E-03 SHELL          1   0.0%  0.6170      0.3183E-03  0.1789E-33  0.6174       0.000    
   118  0.8609E-01  0.7300E-03 SHELL          1   0.0%  0.6238      0.3194E-03  0.1987E-33  0.6242       0.000    
   119  0.8682E-01  0.7300E-03 SHELL          1   0.0%  0.6306      0.3164E-03  0.2282E-33  0.6309       0.000    
   120  0.8755E-01  0.7300E-03 SHELL          1   0.0%  0.6373      0.3105E-03  0.2459E-33  0.6377       0.000    
   121  0.8828E-01  0.7300E-03 SHELL          1   0.0%  0.6441      0.3036E-03  0.2882E-33  0.6445       0.000    
   122  0.8901E-01  0.7300E-03 SHELL          1   0.0%  0.6509      0.2981E-03  0.3267E-33  0.6512       0.000    
   123  0.8974E-01  0.7300E-03 SHELL          1   0.0%  0.6577      0.2954E-03  0.3489E-33  0.6580       0.000    
   124  0.9047E-01  0.7300E-03 SHELL          1   0.0%  0.6645      0.2960E-03  0.3945E-33  0.6649       0.000    
   125  0.9120E-01  0.7300E-03 SHELL          1   0.0%  0.6713      0.2997E-03  0.4328E-33  0.6717       0.000    
   126  0.9193E-01  0.7300E-03 SHELL          1   0.0%  0.6782      0.3054E-03  0.5073E-33  0.6785       0.000    
   127  0.9266E-01  0.7300E-03 SHELL          1   0.0%  0.6850      0.3115E-03  0.6207E-33  0.6854       0.000    
   128  0.9339E-01  0.7300E-03 SHELL          1   0.0%  0.6919      0.3164E-03  0.7231E-33  0.6922       0.000    
   129  0.9412E-01  0.7300E-03 SHELL          1   0.0%  0.6987      0.3183E-03  0.6968E-33  0.6991       0.000    
   130  0.9485E-01  0.7300E-03 SHELL          1   0.0%  0.7056      0.3165E-03  0.5877E-33  0.7059       0.000    
   131  0.9558E-01  0.7300E-03 SHELL          1   0.0%  0.7124      0.3118E-03  0.4781E-33  0.7128       0.000    
   132  0.9631E-01  0.7300E-03 SHELL          1   0.0%  0.7193      0.3059E-03  0.3554E-33  0.7196       0.000    
   133  0.9704E-01  0.7300E-03 SHELL          1   0.0%  0.7262      0.3008E-03  0.2344E-33  0.7265       0.000    
   134  0.9777E-01  0.7300E-03 SHELL          1   0.0%  0.7331      0.2981E-03  0.2152E-33  0.7334       0.000    
   135  0.9850E-01  0.7300E-03 SHELL          1   0.0%  0.7400      0.2981E-03  0.3137E-33  0.7403       0.000    
   136  0.9923E-01  0.7301E-03 SHELL          1   0.0%  0.7469      0.3005E-03  0.3643E-33  0.7472       0.000    
   137  0.9996E-01  0.7301E-03 SHELL          1   0.0%  0.7538      0.3047E-03  0.3513E-33  0.7541       0.000    
   138  0.1007      0.7301E-03 SHELL          1   0.0%  0.7607      0.3099E-03  0.3780E-33  0.7611       0.000    
     ANIMATION FILE: 1ELEM_SAMPA002 WRITTEN
   139  0.1014      0.7301E-03 SHELL          1   0.0%  0.7676      0.3143E-03  0.4109E-33  0.7680       0.000    
   140  0.1022      0.7301E-03 SHELL          1   0.0%  0.7746      0.3166E-03  0.2887E-33  0.7749       0.000    
   141  0.1029      0.7301E-03 SHELL          1   0.0%  0.7815      0.3157E-03  0.1338E-33  0.7819       0.000    
   142  0.1036      0.7301E-03 SHELL          1   0.0%  0.7885      0.3121E-03  0.8391E-34  0.7888       0.000    
   143  0.1043      0.7301E-03 SHELL          1   0.0%  0.7954      0.3073E-03  0.1263E-33  0.7958       0.000    
   144  0.1051      0.7301E-03 SHELL          1   0.0%  0.8024      0.3030E-03  0.2197E-33  0.8027       0.000    
   145  0.1058      0.7301E-03 SHELL          1   0.0%  0.8093      0.3004E-03  0.2802E-33  0.8097       0.000    
   146  0.1065      0.7301E-03 SHELL          1   0.0%  0.8163      0.2998E-03  0.2869E-33  0.8166       0.000    
   147  0.1073      0.7301E-03 SHELL          1   0.0%  0.8233      0.3013E-03  0.2475E-33  0.8236       0.000    
   148  0.1080      0.7301E-03 SHELL          1   0.0%  0.8303      0.3045E-03  0.1486E-33  0.8306       0.000    
   149  0.1087      0.7301E-03 SHELL          1   0.0%  0.8373      0.3086E-03  0.3055E-34  0.8376       0.000    
   150  0.1095      0.7301E-03 SHELL          1   0.0%  0.8443      0.3125E-03  0.3262E-34  0.8446       0.000    
   151  0.1102      0.7301E-03 SHELL          1   0.0%  0.8513      0.3148E-03  0.1623E-33  0.8517       0.000    
   152  0.1109      0.7301E-03 SHELL          1   0.0%  0.8583      0.3146E-03  0.2926E-33  0.8587       0.000    
   153  0.1116      0.7301E-03 SHELL          1   0.0%  0.8654      0.3118E-03  0.3870E-33  0.8657       0.000    
   154  0.1124      0.7301E-03 SHELL          1   0.0%  0.8724      0.3076E-03  0.5335E-33  0.8728       0.000    
   155  0.1131      0.7301E-03 SHELL          1   0.0%  0.8795      0.3036E-03  0.7288E-33  0.8798       0.000    
   156  0.1138      0.7301E-03 SHELL          1   0.0%  0.8865      0.3010E-03  0.9611E-33  0.8869       0.000    
   157  0.1146      0.7301E-03 SHELL          1   0.0%  0.8936      0.3002E-03  0.1135E-32  0.8940       0.000    
   158  0.1153      0.7301E-03 SHELL          1   0.0%  0.9007      0.3013E-03  0.1029E-32  0.9010       0.000    
   159  0.1160      0.7301E-03 SHELL          1   0.0%  0.9078      0.3040E-03  0.7433E-33  0.9081       0.000    
   160  0.1168      0.7301E-03 SHELL          1   0.0%  0.9149      0.3077E-03  0.3619E-33  0.9153       0.000    
   161  0.1175      0.7302E-03 SHELL          1   0.0%  0.9220      0.3113E-03  0.7588E-34  0.9224       0.000    
   162  0.1182      0.7302E-03 SHELL          1   0.0%  0.9292      0.3135E-03  0.2356E-34  0.9295       0.000    
   163  0.1189      0.7302E-03 SHELL          1   0.0%  0.9363      0.3137E-03  0.2027E-33  0.9366       0.000    
   164  0.1197      0.7302E-03 SHELL          1   0.0%  0.9434      0.3117E-03  0.5091E-33  0.9438       0.000    
 CYCLE    TIME      TIME-STEP  ELEMENT          ERROR  I-ENERGY    K-ENERGY T  K-ENERGY R  EXT-WORK MAS.ERR
   165  0.1204      0.7302E-03 SHELL          1   0.0%  0.9506      0.3086E-03  0.7947E-33  0.9509       0.000    
   166  0.1211      0.7302E-03 SHELL          1   0.0%  0.9578      0.3056E-03  0.8493E-33  0.9581       0.000    
   167  0.1219      0.7302E-03 SHELL          1   0.0%  0.9649      0.3036E-03  0.7023E-33  0.9653       0.000    
   168  0.1226      0.7302E-03 SHELL          1   0.0%  0.9721      0.3028E-03  0.4298E-33  0.9725       0.000    
   169  0.1233      0.7302E-03 SHELL          1   0.0%  0.9793      0.3036E-03  0.1469E-33  0.9796       0.000    
   170  0.1241      0.7302E-03 SHELL          1   0.0%  0.9865      0.3059E-03  0.1394E-34  0.9868       0.000    
   171  0.1248      0.7302E-03 SHELL          1   0.0%  0.9937      0.3089E-03  0.2531E-34  0.9940       0.000    
   172  0.1255      0.7302E-03 SHELL          1   0.0%   1.001      0.3117E-03  0.1100E-33   1.001       0.000    
   173  0.1262      0.7302E-03 SHELL          1   0.0%   1.008      0.3133E-03  0.2266E-33   1.008       0.000    
   174  0.1270      0.7302E-03 SHELL          1   0.0%   1.015      0.3133E-03  0.3683E-33   1.016       0.000    
   175  0.1277      0.7302E-03 SHELL          1   0.0%   1.023      0.3117E-03  0.5331E-33   1.023       0.000    
   176  0.1284      0.7302E-03 SHELL          1   0.0%   1.030      0.3094E-03  0.6362E-33   1.030       0.000    
   177  0.1292      0.7302E-03 SHELL          1   0.0%   1.037      0.3069E-03  0.6509E-33   1.037       0.000    
   178  0.1299      0.7302E-03 SHELL          1   0.0%   1.044      0.3050E-03  0.5826E-33   1.045       0.000    
   179  0.1306      0.7302E-03 SHELL          1   0.0%   1.051      0.3041E-03  0.3968E-33   1.052       0.000    
   180  0.1314      0.7302E-03 SHELL          1   0.0%   1.059      0.3045E-03  0.1878E-33   1.059       0.000    
   181  0.1321      0.7302E-03 SHELL          1   0.0%   1.066      0.3062E-03  0.5587E-34   1.066       0.000    
   182  0.1328      0.7302E-03 SHELL          1   0.0%   1.073      0.3087E-03  0.2936E-34   1.074       0.000    
   183  0.1336      0.7302E-03 SHELL          1   0.0%   1.081      0.3110E-03  0.7738E-34   1.081       0.000    
   184  0.1343      0.7302E-03 SHELL          1   0.0%   1.088      0.3125E-03  0.1779E-33   1.088       0.000    
   185  0.1350      0.7302E-03 SHELL          1   0.0%   1.095      0.3127E-03  0.3258E-33   1.095       0.000    
   186  0.1357      0.7302E-03 SHELL          1   0.0%   1.102      0.3117E-03  0.4668E-33   1.103       0.000    
   187  0.1365      0.7302E-03 SHELL          1   0.0%   1.110      0.3099E-03  0.4642E-33   1.110       0.000    
   188  0.1372      0.7302E-03 SHELL          1   0.0%   1.117      0.3079E-03  0.3534E-33   1.117       0.000    
   189  0.1379      0.7302E-03 SHELL          1   0.0%   1.124      0.3061E-03  0.1750E-33   1.125       0.000    
   190  0.1387      0.7303E-03 SHELL          1   0.0%   1.132      0.3052E-03  0.4602E-34   1.132       0.000    
   191  0.1394      0.7303E-03 SHELL          1   0.0%   1.139      0.3054E-03  0.3648E-35   1.139       0.000    
   192  0.1401      0.7303E-03 SHELL          1   0.0%   1.146      0.3067E-03  0.8283E-34   1.147       0.000    
   193  0.1409      0.7303E-03 SHELL          1   0.0%   1.154      0.3086E-03  0.3198E-33   1.154       0.000    
   194  0.1416      0.7303E-03 SHELL          1   0.0%   1.161      0.3106E-03  0.7465E-33   1.161       0.000    
   195  0.1423      0.7303E-03 SHELL          1   0.0%   1.168      0.3119E-03  0.1172E-32   1.169       0.000    
   196  0.1430      0.7303E-03 SHELL          1   0.0%   1.176      0.3124E-03  0.1374E-32   1.176       0.000    
   197  0.1438      0.7303E-03 SHELL          1   0.0%   1.183      0.3118E-03  0.1280E-32   1.183       0.000    
   198  0.1445      0.7303E-03 SHELL          1   0.0%   1.190      0.3104E-03  0.9751E-33   1.191       0.000    
   199  0.1452      0.7303E-03 SHELL          1   0.0%   1.198      0.3087E-03  0.5994E-33   1.198       0.000    
   200  0.1460      0.7303E-03 SHELL          1   0.0%   1.205      0.3071E-03  0.2802E-33   1.206       0.000    
   201  0.1467      0.7303E-03 SHELL          1   0.0%   1.213      0.3062E-03  0.1134E-33   1.213       0.000    
   202  0.1474      0.7303E-03 SHELL          1   0.0%   1.220      0.3062E-03  0.1340E-33   1.220       0.000    
   203  0.1482      0.7303E-03 SHELL          1   0.0%   1.227      0.3072E-03  0.3203E-33   1.228       0.000    
   204  0.1489      0.7303E-03 SHELL          1   0.0%   1.235      0.3087E-03  0.5910E-33   1.235       0.000    
   205  0.1496      0.7303E-03 SHELL          1   0.0%   1.242      0.3103E-03  0.8845E-33   1.243       0.000    
   206  0.1503      0.7303E-03 SHELL          1   0.0%   1.250      0.3116E-03  0.1230E-32   1.250       0.000    
   207  0.1511      0.7303E-03 SHELL          1   0.0%   1.257      0.3121E-03  0.1333E-32   1.257       0.000    
   208  0.1518      0.7303E-03 SHELL          1   0.0%   1.264      0.3118E-03  0.1130E-32   1.265       0.000    
   209  0.1525      0.7303E-03 SHELL          1   0.0%   1.272      0.3108E-03  0.9259E-33   1.272       0.000    
   210  0.1533      0.7303E-03 SHELL          1   0.0%   1.279      0.3093E-03  0.8035E-33   1.280       0.000    
   211  0.1540      0.7303E-03 SHELL          1   0.0%   1.287      0.3078E-03  0.6812E-33   1.287       0.000    
   212  0.1547      0.7303E-03 SHELL          1   0.0%   1.294      0.3069E-03  0.5211E-33   1.295       0.000    
   213  0.1555      0.7303E-03 SHELL          1   0.0%   1.302      0.3067E-03  0.4910E-33   1.302       0.000    
   214  0.1562      0.7303E-03 SHELL          1   0.0%   1.309      0.3073E-03  0.5745E-33   1.310       0.000    
   215  0.1569      0.7303E-03 SHELL          1   0.0%   1.317      0.3085E-03  0.7341E-33   1.317       0.000    
   216  0.1577      0.7303E-03 SHELL          1   0.0%   1.324      0.3099E-03  0.9206E-33   1.325       0.000    
   217  0.1584      0.7303E-03 SHELL          1   0.0%   1.332      0.3112E-03  0.1008E-32   1.332       0.000    
   218  0.1591      0.7303E-03 SHELL          1   0.0%   1.339      0.3118E-03  0.1032E-32   1.340       0.000    
   219  0.1598      0.7303E-03 SHELL          1   0.0%   1.347      0.3118E-03  0.8989E-33   1.347       0.000    
 CYCLE    TIME      TIME-STEP  ELEMENT          ERROR  I-ENERGY    K-ENERGY T  K-ENERGY R  EXT-WORK MAS.ERR
   220  0.1606      0.7303E-03 SHELL          1   0.0%   1.354      0.3110E-03  0.6805E-33   1.355       0.000    
   221  0.1613      0.7303E-03 SHELL          1   0.0%   1.362      0.3099E-03  0.4824E-33   1.362       0.000    
   222  0.1620      0.7303E-03 SHELL          1   0.0%   1.369      0.3086E-03  0.3727E-33   1.370       0.000    
   223  0.1628      0.7303E-03 SHELL          1   0.0%   1.377      0.3079E-03  0.2769E-33   1.377       0.000    
   224  0.1635      0.7303E-03 SHELL          1   0.0%   1.384      0.3080E-03  0.2071E-33   1.385       0.000    
   225  0.1642      0.7303E-03 SHELL          1   0.0%   1.392      0.3087E-03  0.2781E-33   1.392       0.000    
   226  0.1650      0.7303E-03 SHELL          1   0.0%   1.400      0.3099E-03  0.4050E-33   1.400       0.000    
   227  0.1657      0.7304E-03 SHELL          1   0.0%   1.407      0.3112E-03  0.5181E-33   1.407       0.000    
   228  0.1664      0.7304E-03 SHELL          1   0.0%   1.415      0.3121E-03  0.5776E-33   1.415       0.000    
   229  0.1671      0.7304E-03 SHELL          1   0.0%   1.422      0.3125E-03  0.6649E-33   1.423       0.000    
   230  0.1679      0.7304E-03 SHELL          1   0.0%   1.430      0.3123E-03  0.6883E-33   1.430       0.000    
   231  0.1686      0.7304E-03 SHELL          1   0.0%   1.437      0.3114E-03  0.5671E-33   1.438       0.000    
   232  0.1693      0.7304E-03 SHELL          1   0.0%   1.445      0.3103E-03  0.3166E-33   1.445       0.000    
   233  0.1701      0.7304E-03 SHELL          1   0.0%   1.453      0.3093E-03  0.8716E-34   1.453       0.000    
   234  0.1708      0.7304E-03 SHELL          1   0.0%   1.460      0.3087E-03  0.2251E-34   1.461       0.000    
   235  0.1715      0.7304E-03 SHELL          1   0.0%   1.468      0.3087E-03  0.1254E-33   1.468       0.000    
   236  0.1723      0.7304E-03 SHELL          1   0.0%   1.475      0.3093E-03  0.3732E-33   1.476       0.000    
   237  0.1730      0.7304E-03 SHELL          1   0.0%   1.483      0.3102E-03  0.6938E-33   1.483       0.000    
   238  0.1737      0.7304E-03 SHELL          1   0.0%   1.491      0.3111E-03  0.8877E-33   1.491       0.000    
   239  0.1744      0.7304E-03 SHELL          1   0.0%   1.498      0.3118E-03  0.9025E-33   1.499       0.000    
   240  0.1752      0.7304E-03 SHELL          1   0.0%   1.506      0.3121E-03  0.7907E-33   1.506       0.000    
   241  0.1759      0.7304E-03 SHELL          1   0.0%   1.514      0.3120E-03  0.5713E-33   1.514       0.000    
   242  0.1766      0.7304E-03 SHELL          1   0.0%   1.521      0.3115E-03  0.3688E-33   1.522       0.000    
   243  0.1774      0.7304E-03 SHELL          1   0.0%   1.529      0.3107E-03  0.2941E-33   1.529       0.000    
   244  0.1781      0.7304E-03 SHELL          1   0.0%   1.536      0.3099E-03  0.4516E-33   1.537       0.000    
   245  0.1788      0.7304E-03 SHELL          1   0.0%   1.544      0.3093E-03  0.8247E-33   1.545       0.000    
   246  0.1796      0.7304E-03 SHELL          1   0.0%   1.552      0.3093E-03  0.1170E-32   1.552       0.000    
   247  0.1803      0.7304E-03 SHELL          1   0.0%   1.559      0.3098E-03  0.1339E-32   1.560       0.000    
   248  0.1810      0.7304E-03 SHELL          1   0.0%   1.567      0.3104E-03  0.1313E-32   1.568       0.000    
   249  0.1818      0.7304E-03 SHELL          1   0.0%   1.575      0.3112E-03  0.1154E-32   1.575       0.000    
   250  0.1825      0.7304E-03 SHELL          1   0.0%   1.583      0.3118E-03  0.8924E-33   1.583       0.000    
   251  0.1832      0.7304E-03 SHELL          1   0.0%   1.590      0.3121E-03  0.7740E-33   1.591       0.000    
   252  0.1839      0.7304E-03 SHELL          1   0.0%   1.598      0.3120E-03  0.8938E-33   1.598       0.000    
   253  0.1847      0.7304E-03 SHELL          1   0.0%   1.606      0.3115E-03  0.1039E-32   1.606       0.000    
   254  0.1854      0.7304E-03 SHELL          1   0.0%   1.613      0.3108E-03  0.1077E-32   1.614       0.000    
   255  0.1861      0.7304E-03 SHELL          1   0.0%   1.621      0.3101E-03  0.1305E-32   1.621       0.000    
   256  0.1869      0.7304E-03 SHELL          1   0.0%   1.629      0.3097E-03  0.1573E-32   1.629       0.000    
   257  0.1876      0.7304E-03 SHELL          1   0.0%   1.636      0.3097E-03  0.1916E-32   1.637       0.000    
   258  0.1883      0.7304E-03 SHELL          1   0.0%   1.644      0.3101E-03  0.2019E-32   1.645       0.000    
   259  0.1891      0.7304E-03 SHELL          1   0.0%   1.652      0.3107E-03  0.2115E-32   1.652       0.000    
   260  0.1898      0.7304E-03 SHELL          1   0.0%   1.660      0.3113E-03  0.2661E-32   1.660       0.000    
   261  0.1905      0.7304E-03 SHELL          1   0.0%   1.667      0.3119E-03  0.2997E-32   1.668       0.000    
   262  0.1912      0.7304E-03 SHELL          1   0.0%   1.675      0.3122E-03  0.3038E-32   1.676       0.000    
   263  0.1920      0.7304E-03 SHELL          1   0.0%   1.683      0.3122E-03  0.3057E-32   1.683       0.000    
   264  0.1927      0.7304E-03 SHELL          1   0.0%   1.691      0.3120E-03  0.3060E-32   1.691       0.000    
   265  0.1934      0.7304E-03 SHELL          1   0.0%   1.699      0.3117E-03  0.3032E-32   1.699       0.000    
   266  0.1942      0.7304E-03 SHELL          1   0.0%   1.706      0.3115E-03  0.3157E-32   1.707       0.000    
   267  0.1949      0.7304E-03 SHELL          1   0.0%   1.714      0.3113E-03  0.3368E-32   1.714       0.000    
   268  0.1956      0.7304E-03 SHELL          1   0.0%   1.722      0.3113E-03  0.3675E-32   1.722       0.000    
   269  0.1964      0.7304E-03 SHELL          1   0.0%   1.730      0.3115E-03  0.3931E-32   1.730       0.000    
   270  0.1971      0.7304E-03 SHELL          1   0.0%   1.737      0.3117E-03  0.4414E-32   1.738       0.000    
   271  0.1978      0.7304E-03 SHELL          1   0.0%   1.745      0.3119E-03  0.5082E-32   1.746       0.000    
   272  0.1986      0.7304E-03 SHELL          1   0.0%   1.753      0.3122E-03  0.5402E-32   1.753       0.000    
   273  0.1993      0.7304E-03 SHELL          1   0.0%   1.761      0.3124E-03  0.5487E-32   1.761       0.000    
   274  0.2000      0.7304E-03 SHELL          1   0.0%   1.769      0.3124E-03  0.5520E-32   1.769       0.000    
     ANIMATION FILE: 1ELEM_SAMPA003 WRITTEN
 CYCLE    TIME      TIME-STEP  ELEMENT          ERROR  I-ENERGY    K-ENERGY T  K-ENERGY R  EXT-WORK MAS.ERR
   275  0.2007      0.7304E-03 SHELL          1   0.0%   1.776      0.3123E-03  0.5475E-32   1.777       0.000    
   276  0.2015      0.7304E-03 SHELL          1   0.0%   1.784      0.3121E-03  0.5815E-32   1.785       0.000    
   277  0.2022      0.7304E-03 SHELL          1   0.0%   1.792      0.3119E-03  0.6222E-32   1.792       0.000    
   278  0.2029      0.7304E-03 SHELL          1   0.0%   1.800      0.3118E-03  0.6094E-32   1.800       0.000    
   279  0.2037      0.7304E-03 SHELL          1   0.0%   1.808      0.3118E-03  0.6004E-32   1.808       0.000    
   280  0.2044      0.7304E-03 SHELL          1   0.0%   1.816      0.3118E-03  0.5731E-32   1.816       0.000    
   281  0.2051      0.7304E-03 SHELL          1   0.0%   1.823      0.3119E-03  0.5453E-32   1.824       0.000    
   282  0.2059      0.7304E-03 SHELL          1   0.0%   1.831      0.3121E-03  0.5472E-32   1.832       0.000    
   283  0.2066      0.7304E-03 SHELL          1   0.0%   1.839      0.3122E-03  0.5516E-32   1.840       0.000    
   284  0.2073      0.7304E-03 SHELL          1   0.0%   1.847      0.3123E-03  0.5791E-32   1.847       0.000    
   285  0.2080      0.7304E-03 SHELL          1   0.0%   1.855      0.3123E-03  0.6256E-32   1.855       0.000    
   286  0.2088      0.7304E-03 SHELL          1   0.0%   1.863      0.3123E-03  0.6707E-32   1.863       0.000    
   287  0.2095      0.7305E-03 SHELL          1   0.0%   1.871      0.3122E-03  0.6923E-32   1.871       0.000    
   288  0.2102      0.7305E-03 SHELL          1   0.0%   1.878      0.3122E-03  0.6862E-32   1.879       0.000    
   289  0.2110      0.7305E-03 SHELL          1   0.0%   1.886      0.3121E-03  0.6287E-32   1.887       0.000    
   290  0.2117      0.7305E-03 SHELL          1   0.0%   1.894      0.3121E-03  0.5602E-32   1.895       0.000    
   291  0.2124      0.7305E-03 SHELL          1   0.0%   1.902      0.3122E-03  0.5194E-32   1.902       0.000    
   292  0.2132      0.7305E-03 SHELL          1   0.0%   1.910      0.3123E-03  0.4573E-32   1.910       0.000    
   293  0.2139      0.7305E-03 SHELL          1   0.0%   1.918      0.3124E-03  0.4160E-32   1.918       0.000    
   294  0.2146      0.7305E-03 SHELL          1   0.0%   1.926      0.3125E-03  0.4012E-32   1.926       0.000    
   295  0.2154      0.7305E-03 SHELL          1   0.0%   1.934      0.3125E-03  0.3722E-32   1.934       0.000    
   296  0.2161      0.7305E-03 SHELL          1   0.0%   1.942      0.3124E-03  0.3401E-32   1.942       0.000    
   297  0.2168      0.7305E-03 SHELL          1   0.0%   1.949      0.3121E-03  0.2869E-32   1.950       0.000    
   298  0.2175      0.7305E-03 SHELL          1   0.0%   1.957      0.3120E-03  0.2545E-32   1.958       0.000    
   299  0.2183      0.7305E-03 SHELL          1   0.0%   1.965      0.3119E-03  0.2601E-32   1.966       0.000    
   300  0.2190      0.7305E-03 SHELL          1   0.0%   1.973      0.3119E-03  0.2800E-32   1.974       0.000    
   301  0.2197      0.7305E-03 SHELL          1   0.0%   1.981      0.3121E-03  0.2910E-32   1.982       0.000    
   302  0.2205      0.7305E-03 SHELL          1   0.0%   1.989      0.3123E-03  0.2848E-32   1.990       0.000    
   303  0.2212      0.7305E-03 SHELL          1   0.0%   1.997      0.3125E-03  0.2926E-32   1.998       0.000    
   304  0.2219      0.7305E-03 SHELL          1   0.0%   2.005      0.3127E-03  0.2829E-32   2.005       0.000    
   305  0.2227      0.7305E-03 SHELL          1   0.0%   2.013      0.3128E-03  0.2634E-32   2.013       0.000    
   306  0.2234      0.7305E-03 SHELL          1   0.0%   2.021      0.3128E-03  0.2316E-32   2.021       0.000    
   307  0.2241      0.7305E-03 SHELL          1   0.0%   2.029      0.3127E-03  0.1723E-32   2.029       0.000    
   308  0.2248      0.7305E-03 SHELL          1   0.0%   2.037      0.3125E-03  0.1524E-32   2.037       0.000    
   309  0.2256      0.7305E-03 SHELL          1   0.0%   2.045      0.3124E-03  0.1577E-32   2.045       0.000    
   310  0.2263      0.7305E-03 SHELL          1   0.0%   2.053      0.3123E-03  0.1535E-32   2.053       0.000    
   311  0.2270      0.7305E-03 SHELL          1   0.0%   2.061      0.3123E-03  0.1440E-32   2.061       0.000    
   312  0.2278      0.7305E-03 SHELL          1   0.0%   2.069      0.3124E-03  0.1319E-32   2.069       0.000    
   313  0.2285      0.7305E-03 SHELL          1   0.0%   2.077      0.3126E-03  0.1266E-32   2.077       0.000    
   314  0.2292      0.7305E-03 SHELL          1   0.0%   2.085      0.3129E-03  0.1273E-32   2.085       0.000    
   315  0.2300      0.7305E-03 SHELL          1   0.0%   2.093      0.3131E-03  0.1183E-32   2.093       0.000    
   316  0.2307      0.7305E-03 SHELL          1   0.0%   2.101      0.3131E-03  0.1063E-32   2.101       0.000    
   317  0.2314      0.7305E-03 SHELL          1   0.0%   2.109      0.3131E-03  0.1038E-32   2.109       0.000    
   318  0.2322      0.7305E-03 SHELL          1   0.0%   2.117      0.3130E-03  0.1010E-32   2.117       0.000    
   319  0.2329      0.7305E-03 SHELL          1   0.0%   2.125      0.3129E-03  0.1049E-32   2.126       0.000    
   320  0.2336      0.7305E-03 SHELL          1   0.0%   2.133      0.3128E-03  0.1156E-32   2.134       0.000    
   321  0.2343      0.7305E-03 SHELL          1   0.0%   2.141      0.3127E-03  0.1315E-32   2.142       0.000    
   322  0.2351      0.7305E-03 SHELL          1   0.0%   2.149      0.3127E-03  0.1422E-32   2.150       0.000    
   323  0.2358      0.7305E-03 SHELL          1   0.0%   2.157      0.3128E-03  0.1564E-32   2.158       0.000    
   324  0.2365      0.7305E-03 SHELL          1   0.0%   2.165      0.3130E-03  0.1756E-32   2.166       0.000    
   325  0.2373      0.7305E-03 SHELL          1   0.0%   2.173      0.3132E-03  0.1912E-32   2.174       0.000    
   326  0.2380      0.7305E-03 SHELL          1   0.0%   2.182      0.3133E-03  0.1950E-32   2.182       0.000    
   327  0.2387      0.7305E-03 SHELL          1   0.0%   2.190      0.3135E-03  0.1930E-32   2.190       0.000    
   328  0.2395      0.7305E-03 SHELL          1   0.0%   2.198      0.3138E-03  0.1987E-32   2.198       0.000    
   329  0.2402      0.7305E-03 SHELL          1   0.0%   2.206      0.3140E-03  0.2098E-32   2.206       0.000    
 CYCLE    TIME      TIME-STEP  ELEMENT          ERROR  I-ENERGY    K-ENERGY T  K-ENERGY R  EXT-WORK MAS.ERR
   330  0.2409      0.7305E-03 SHELL          1   0.0%   2.214      0.3141E-03  0.2153E-32   2.214       0.000    
   331  0.2416      0.7305E-03 SHELL          1   0.0%   2.222      0.3142E-03  0.2258E-32   2.222       0.000    
   332  0.2424      0.7305E-03 SHELL          1   0.0%   2.230      0.3141E-03  0.2140E-32   2.231       0.000    
   333  0.2431      0.7305E-03 SHELL          1   0.0%   2.238      0.3139E-03  0.1971E-32   2.239       0.000    
   334  0.2438      0.7305E-03 SHELL          1   0.0%   2.246      0.3137E-03  0.1973E-32   2.247       0.000    
   335  0.2446      0.7305E-03 SHELL          1   0.0%   2.254      0.3136E-03  0.1843E-32   2.255       0.000    
   336  0.2453      0.7305E-03 SHELL          1   0.0%   2.263      0.3136E-03  0.1702E-32   2.263       0.000    
   337  0.2460      0.7305E-03 SHELL          1   0.0%   2.271      0.3137E-03  0.1740E-32   2.271       0.000    
   338  0.2468      0.7305E-03 SHELL          1   0.0%   2.279      0.3138E-03  0.1745E-32   2.279       0.000    
   339  0.2475      0.7305E-03 SHELL          1   0.0%   2.287      0.3141E-03  0.1816E-32   2.287       0.000    
   340  0.2482      0.7305E-03 SHELL          1   0.0%   2.295      0.3143E-03  0.2142E-32   2.295       0.000    
   341  0.2490      0.7305E-03 SHELL          1   0.0%   2.303      0.3144E-03  0.2500E-32   2.304       0.000    
   342  0.2497      0.7305E-03 SHELL          1   0.0%   2.311      0.3144E-03  0.3088E-32   2.312       0.000    
   343  0.2504      0.7305E-03 SHELL          1   0.0%   2.319      0.3144E-03  0.3866E-32   2.320       0.000    
   344  0.2511      0.7305E-03 SHELL          1   0.0%   2.328      0.3142E-03  0.4525E-32   2.328       0.000    
   345  0.2519      0.7305E-03 SHELL          1   0.0%   2.336      0.3141E-03  0.5143E-32   2.336       0.000    
   346  0.2526      0.7305E-03 SHELL          1   0.0%   2.344      0.3140E-03  0.6002E-32   2.344       0.000    
   347  0.2533      0.7305E-03 SHELL          1   0.0%   2.352      0.3140E-03  0.7032E-32   2.352       0.000    
   348  0.2541      0.7305E-03 SHELL          1   0.0%   2.360      0.3141E-03  0.7774E-32   2.361       0.000    
   349  0.2548      0.7305E-03 SHELL          1   0.0%   2.368      0.3142E-03  0.8147E-32   2.369       0.000    
   350  0.2555      0.7305E-03 SHELL          1   0.0%   2.377      0.3144E-03  0.8269E-32   2.377       0.000    
   351  0.2563      0.7305E-03 SHELL          1   0.0%   2.385      0.3146E-03  0.8102E-32   2.385       0.000    
   352  0.2570      0.7305E-03 SHELL          1   0.0%   2.393      0.3147E-03  0.7474E-32   2.393       0.000    
   353  0.2577      0.7305E-03 SHELL          1   0.0%   2.401      0.3147E-03  0.6864E-32   2.402       0.000    
   354  0.2585      0.7305E-03 SHELL          1   0.0%   2.409      0.3147E-03  0.6596E-32   2.410       0.000    
   355  0.2592      0.7305E-03 SHELL          1   0.0%   2.417      0.3146E-03  0.6609E-32   2.418       0.000    
   356  0.2599      0.7305E-03 SHELL          1   0.0%   2.426      0.3145E-03  0.6435E-32   2.426       0.000    
   357  0.2606      0.7305E-03 SHELL          1   0.0%   2.434      0.3144E-03  0.6048E-32   2.434       0.000    
   358  0.2614      0.7305E-03 SHELL          1   0.0%   2.442      0.3144E-03  0.5651E-32   2.442       0.000    
   359  0.2621      0.7305E-03 SHELL          1   0.0%   2.450      0.3144E-03  0.5329E-32   2.451       0.000    
   360  0.2628      0.7305E-03 SHELL          1   0.0%   2.458      0.3146E-03  0.5112E-32   2.459       0.000    
   361  0.2636      0.7305E-03 SHELL          1   0.0%   2.467      0.3147E-03  0.4783E-32   2.467       0.000    
   362  0.2643      0.7305E-03 SHELL          1   0.0%   2.475      0.3149E-03  0.4270E-32   2.475       0.000    
   363  0.2650      0.7305E-03 SHELL          1   0.0%   2.483      0.3150E-03  0.3966E-32   2.484       0.000    
   364  0.2658      0.7305E-03 SHELL          1   0.0%   2.491      0.3150E-03  0.3986E-32   2.492       0.000    
   365  0.2665      0.7305E-03 SHELL          1   0.0%   2.500      0.3150E-03  0.4110E-32   2.500       0.000    
   366  0.2672      0.7305E-03 SHELL          1   0.0%   2.508      0.3149E-03  0.4244E-32   2.508       0.000    
   367  0.2679      0.7305E-03 SHELL          1   0.0%   2.516      0.3149E-03  0.4659E-32   2.516       0.000    
   368  0.2687      0.7305E-03 SHELL          1   0.0%   2.524      0.3148E-03  0.5089E-32   2.525       0.000    
   369  0.2694      0.7305E-03 SHELL          1   0.0%   2.532      0.3148E-03  0.5432E-32   2.533       0.000    
   370  0.2701      0.7305E-03 SHELL          1   0.0%   2.541      0.3148E-03  0.5568E-32   2.541       0.000    
   371  0.2709      0.7305E-03 SHELL          1   0.0%   2.549      0.3149E-03  0.5196E-32   2.549       0.000    
   372  0.2716      0.7305E-03 SHELL          1   0.0%   2.557      0.3150E-03  0.4667E-32   2.558       0.000    
   373  0.2723      0.7305E-03 SHELL          1   0.0%   2.566      0.3152E-03  0.4184E-32   2.566       0.000    
   374  0.2731      0.7305E-03 SHELL          1   0.0%   2.574      0.3153E-03  0.3831E-32   2.574       0.000    
   375  0.2738      0.7305E-03 SHELL          1   0.0%   2.582      0.3153E-03  0.3798E-32   2.582       0.000    
   376  0.2745      0.7305E-03 SHELL          1   0.0%   2.590      0.3153E-03  0.4122E-32   2.591       0.000    
   377  0.2753      0.7305E-03 SHELL          1   0.0%   2.599      0.3153E-03  0.4362E-32   2.599       0.000    
   378  0.2760      0.7305E-03 SHELL          1   0.0%   2.607      0.3153E-03  0.4540E-32   2.607       0.000    
   379  0.2767      0.7305E-03 SHELL          1   0.0%   2.615      0.3152E-03  0.4793E-32   2.616       0.000    
   380  0.2774      0.7305E-03 SHELL          1   0.0%   2.623      0.3152E-03  0.4926E-32   2.624       0.000    
   381  0.2782      0.7305E-03 SHELL          1   0.0%   2.632      0.3152E-03  0.4789E-32   2.632       0.000    
   382  0.2789      0.7305E-03 SHELL          1   0.0%   2.640      0.3153E-03  0.4464E-32   2.640       0.000    
   383  0.2796      0.7305E-03 SHELL          1   0.0%   2.648      0.3154E-03  0.4383E-32   2.649       0.000    
   384  0.2804      0.7305E-03 SHELL          1   0.0%   2.657      0.3155E-03  0.4646E-32   2.657       0.000    
 CYCLE    TIME      TIME-STEP  ELEMENT          ERROR  I-ENERGY    K-ENERGY T  K-ENERGY R  EXT-WORK MAS.ERR
   385  0.2811      0.7305E-03 SHELL          1   0.0%   2.665      0.3156E-03  0.4631E-32   2.665       0.000    
   386  0.2818      0.7305E-03 SHELL          1   0.0%   2.673      0.3156E-03  0.4639E-32   2.674       0.000    
   387  0.2826      0.7305E-03 SHELL          1   0.0%   2.681      0.3157E-03  0.4783E-32   2.682       0.000    
   388  0.2833      0.7305E-03 SHELL          1   0.0%   2.690      0.3157E-03  0.4620E-32   2.690       0.000    
   389  0.2840      0.7304E-03 SHELL          1   0.0%   2.698      0.3156E-03  0.4745E-32   2.699       0.000    
   390  0.2847      0.7304E-03 SHELL          1   0.0%   2.706      0.3156E-03  0.4934E-32   2.707       0.000    
   391  0.2855      0.7304E-03 SHELL          1   0.0%   2.715      0.3155E-03  0.4854E-32   2.715       0.000    
   392  0.2862      0.7304E-03 SHELL          1   0.0%   2.723      0.3156E-03  0.5094E-32   2.724       0.000    
   393  0.2869      0.7304E-03 SHELL          1   0.0%   2.731      0.3157E-03  0.5489E-32   2.732       0.000    
   394  0.2877      0.7304E-03 SHELL          1   0.0%   2.740      0.3158E-03  0.5855E-32   2.740       0.000    
   395  0.2884      0.7304E-03 SHELL          1   0.0%   2.748      0.3159E-03  0.6617E-32   2.749       0.000    
   396  0.2891      0.7304E-03 SHELL          1   0.0%   2.756      0.3159E-03  0.7464E-32   2.757       0.000    
   397  0.2899      0.7304E-03 SHELL          1   0.0%   2.765      0.3160E-03  0.7877E-32   2.765       0.000    
   398  0.2906      0.7304E-03 SHELL          1   0.0%   2.773      0.3160E-03  0.8093E-32   2.774       0.000    
   399  0.2913      0.7304E-03 SHELL          1   0.0%   2.781      0.3160E-03  0.8530E-32   2.782       0.000    
   400  0.2921      0.7304E-03 SHELL          1   0.0%   2.790      0.3160E-03  0.8952E-32   2.790       0.000    
   401  0.2928      0.7304E-03 SHELL          1   0.0%   2.798      0.3159E-03  0.9107E-32   2.799       0.000    
   402  0.2935      0.7304E-03 SHELL          1   0.0%   2.807      0.3159E-03  0.9014E-32   2.807       0.000    
   403  0.2942      0.7304E-03 SHELL          1   0.0%   2.815      0.3159E-03  0.8819E-32   2.815       0.000    
   404  0.2950      0.7304E-03 SHELL          1   0.0%   2.823      0.3160E-03  0.8447E-32   2.824       0.000    
   405  0.2957      0.7304E-03 SHELL          1   0.0%   2.832      0.3161E-03  0.8222E-32   2.832       0.000    
   406  0.2964      0.7304E-03 SHELL          1   0.0%   2.840      0.3162E-03  0.8042E-32   2.840       0.000    
   407  0.2972      0.7304E-03 SHELL          1   0.0%   2.848      0.3162E-03  0.7112E-32   2.849       0.000    
   408  0.2979      0.7304E-03 SHELL          1   0.0%   2.857      0.3163E-03  0.5833E-32   2.857       0.000    
   409  0.2986      0.7304E-03 SHELL          1   0.0%   2.865      0.3163E-03  0.5199E-32   2.866       0.000    
   410  0.2994      0.7304E-03 SHELL          1   0.0%   2.874      0.3163E-03  0.4850E-32   2.874       0.000    
   411  0.3001      0.7304E-03 SHELL          1   0.0%   2.882      0.3163E-03  0.4696E-32   2.882       0.000    
     ANIMATION FILE: 1ELEM_SAMPA004 WRITTEN
   412  0.3008      0.7304E-03 SHELL          1   0.0%   2.890      0.3163E-03  0.5069E-32   2.891       0.000    
   413  0.3015      0.7304E-03 SHELL          1   0.0%   2.899      0.3163E-03  0.5286E-32   2.899       0.000    
   414  0.3023      0.7304E-03 SHELL          1   0.0%   2.907      0.3163E-03  0.4863E-32   2.908       0.000    
   415  0.3030      0.7304E-03 SHELL          1   0.0%   2.915      0.3164E-03  0.4337E-32   2.916       0.000    
   416  0.3037      0.7304E-03 SHELL          1   0.0%   2.924      0.3164E-03  0.4337E-32   2.924       0.000    
   417  0.3045      0.7304E-03 SHELL          1   0.0%   2.932      0.3165E-03  0.3966E-32   2.933       0.000    
   418  0.3052      0.7304E-03 SHELL          1   0.0%   2.941      0.3166E-03  0.3289E-32   2.941       0.000    
   419  0.3059      0.7304E-03 SHELL          1   0.0%   2.949      0.3166E-03  0.2843E-32   2.950       0.000    
   420  0.3067      0.7304E-03 SHELL          1   0.0%   2.958      0.3167E-03  0.2736E-32   2.958       0.000    
   421  0.3074      0.7304E-03 SHELL          1   0.0%   2.966      0.3167E-03  0.2762E-32   2.966       0.000    
   422  0.3081      0.7304E-03 SHELL          1   0.0%   2.974      0.3166E-03  0.2929E-32   2.975       0.000    
   423  0.3089      0.7304E-03 SHELL          1   0.0%   2.983      0.3166E-03  0.3020E-32   2.983       0.000    
   424  0.3096      0.7304E-03 SHELL          1   0.0%   2.991      0.3166E-03  0.2938E-32   2.992       0.000    
   425  0.3103      0.7304E-03 SHELL          1   0.0%   3.000      0.3167E-03  0.2782E-32   3.000       0.000    
   426  0.3110      0.7304E-03 SHELL          1   0.0%   3.008      0.3167E-03  0.2323E-32   3.009       0.000    
   427  0.3118      0.7304E-03 SHELL          1   0.0%   3.017      0.3168E-03  0.1884E-32   3.017       0.000    
   428  0.3125      0.7304E-03 SHELL          1   0.0%   3.025      0.3168E-03  0.1380E-32   3.026       0.000    
   429  0.3132      0.7304E-03 SHELL          1   0.0%   3.034      0.3169E-03  0.9124E-33   3.034       0.000    
   430  0.3140      0.7304E-03 SHELL          1   0.0%   3.042      0.3170E-03  0.7718E-33   3.042       0.000    
   431  0.3147      0.7304E-03 SHELL          1   0.0%   3.050      0.3170E-03  0.9184E-33   3.051       0.000    
   432  0.3154      0.7304E-03 SHELL          1   0.0%   3.059      0.3170E-03  0.1232E-32   3.059       0.000    
   433  0.3162      0.7304E-03 SHELL          1   0.0%   3.067      0.3170E-03  0.1500E-32   3.068       0.000    
   434  0.3169      0.7304E-03 SHELL          1   0.0%   3.076      0.3170E-03  0.1586E-32   3.076       0.000    
   435  0.3176      0.7304E-03 SHELL          1   0.0%   3.084      0.3170E-03  0.1486E-32   3.085       0.000    
   436  0.3183      0.7304E-03 SHELL          1   0.0%   3.093      0.3170E-03  0.1326E-32   3.093       0.000    
   437  0.3191      0.7304E-03 SHELL          1   0.0%   3.101      0.3171E-03  0.1197E-32   3.102       0.000    
   438  0.3198      0.7304E-03 SHELL          1   0.0%   3.110      0.3171E-03  0.1252E-32   3.110       0.000    
   439  0.3205      0.7304E-03 SHELL          1   0.0%   3.118      0.3172E-03  0.1443E-32   3.119       0.000    
 CYCLE    TIME      TIME-STEP  ELEMENT          ERROR  I-ENERGY    K-ENERGY T  K-ENERGY R  EXT-WORK MAS.ERR
   440  0.3213      0.7304E-03 SHELL          1   0.0%   3.127      0.3173E-03  0.1771E-32   3.127       0.000    
   441  0.3220      0.7304E-03 SHELL          1   0.0%   3.135      0.3173E-03  0.2275E-32   3.136       0.000    
   442  0.3227      0.7304E-03 SHELL          1   0.0%   3.144      0.3173E-03  0.2789E-32   3.144       0.000    
   443  0.3235      0.7304E-03 SHELL          1   0.0%   3.152      0.3173E-03  0.3230E-32   3.153       0.000    
   444  0.3242      0.7304E-03 SHELL          1   0.0%   3.161      0.3173E-03  0.3617E-32   3.161       0.000    
   445  0.3249      0.7304E-03 SHELL          1   0.0%   3.169      0.3173E-03  0.3865E-32   3.170       0.000    
   446  0.3256      0.7304E-03 SHELL          1   0.0%   3.178      0.3174E-03  0.4377E-32   3.178       0.000    
   447  0.3264      0.7304E-03 SHELL          1   0.0%   3.186      0.3174E-03  0.5360E-32   3.187       0.000    
   448  0.3271      0.7304E-03 SHELL          1   0.0%   3.195      0.3175E-03  0.6217E-32   3.195       0.000    
   449  0.3278      0.7304E-03 SHELL          1   0.0%   3.203      0.3175E-03  0.7045E-32   3.204       0.000    
   450  0.3286      0.7303E-03 SHELL          1   0.0%   3.212      0.3175E-03  0.8114E-32   3.212       0.000    
   451  0.3293      0.7303E-03 SHELL          1   0.0%   3.220      0.3176E-03  0.8940E-32   3.221       0.000    
   452  0.3300      0.7303E-03 SHELL          1   0.0%   3.229      0.3176E-03  0.9440E-32   3.229       0.000    
   453  0.3308      0.7303E-03 SHELL          1   0.0%   3.237      0.3177E-03  0.9625E-32   3.238       0.000    
   454  0.3315      0.7303E-03 SHELL          1   0.0%   3.246      0.3177E-03  0.9779E-32   3.246       0.000    
   455  0.3322      0.7303E-03 SHELL          1   0.0%   3.255      0.3177E-03  0.9717E-32   3.255       0.000    
   456  0.3330      0.7303E-03 SHELL          1   0.0%   3.263      0.3177E-03  0.9698E-32   3.264       0.000    
   457  0.3337      0.7303E-03 SHELL          1   0.0%   3.272      0.3177E-03  0.1009E-31   3.272       0.000    
   458  0.3344      0.7303E-03 SHELL          1   0.0%   3.280      0.3178E-03  0.1011E-31   3.281       0.000    
   459  0.3351      0.7303E-03 SHELL          1   0.0%   3.289      0.3178E-03  0.1045E-31   3.289       0.000    
   460  0.3359      0.7303E-03 SHELL          1   0.0%   3.297      0.3178E-03  0.1107E-31   3.298       0.000    
   461  0.3366      0.7303E-03 SHELL          1   0.0%   3.306      0.3179E-03  0.1150E-31   3.306       0.000    
   462  0.3373      0.7303E-03 SHELL          1   0.0%   3.314      0.3179E-03  0.1125E-31   3.315       0.000    
   463  0.3381      0.7303E-03 SHELL          1   0.0%   3.323      0.3180E-03  0.1063E-31   3.323       0.000    
   464  0.3388      0.7303E-03 SHELL          1   0.0%   3.332      0.3180E-03  0.1017E-31   3.332       0.000    
   465  0.3395      0.7303E-03 SHELL          1   0.0%   3.340      0.3180E-03  0.1046E-31   3.341       0.000    
   466  0.3403      0.7303E-03 SHELL          1   0.0%   3.349      0.3181E-03  0.1148E-31   3.349       0.000    
   467  0.3410      0.7303E-03 SHELL          1   0.0%   3.357      0.3182E-03  0.1224E-31   3.358       0.000    
   468  0.3417      0.7303E-03 SHELL          1   0.0%   3.366      0.3184E-03  0.1244E-31   3.366       0.000    
   469  0.3424      0.7303E-03 SHELL          1   0.0%   3.374      0.3185E-03  0.1202E-31   3.375       0.000    
   470  0.3432      0.7303E-03 SHELL          1   0.0%   3.383      0.3186E-03  0.1246E-31   3.383       0.000    
   471  0.3439      0.7303E-03 SHELL          1   0.0%   3.392      0.3186E-03  0.1261E-31   3.392       0.000    
   472  0.3446      0.7303E-03 SHELL          1   0.0%   3.400      0.3185E-03  0.1203E-31   3.401       0.000    
   473  0.3454      0.7303E-03 SHELL          1   0.0%   3.409      0.3185E-03  0.1213E-31   3.409       0.000    
   474  0.3461      0.7303E-03 SHELL          1   0.0%   3.417      0.3184E-03  0.1202E-31   3.418       0.000    
   475  0.3468      0.7303E-03 SHELL          1   0.0%   3.426      0.3184E-03  0.1167E-31   3.426       0.000    
   476  0.3476      0.7303E-03 SHELL          1   0.0%   3.435      0.3184E-03  0.1149E-31   3.435       0.000    
   477  0.3483      0.7303E-03 SHELL          1   0.0%   3.443      0.3185E-03  0.1182E-31   3.444       0.000    
   478  0.3490      0.7303E-03 SHELL          1   0.0%   3.452      0.3186E-03  0.1215E-31   3.452       0.000    
   479  0.3498      0.7303E-03 SHELL          1   0.0%   3.460      0.3187E-03  0.1202E-31   3.461       0.000    
   480  0.3505      0.7303E-03 SHELL          1   0.0%   3.469      0.3188E-03  0.1222E-31   3.469       0.000    
   481  0.3512      0.7303E-03 SHELL          1   0.0%   3.478      0.3189E-03  0.1261E-31   3.478       0.000    
   482  0.3519      0.7303E-03 SHELL          1   0.0%   3.486      0.3189E-03  0.1242E-31   3.487       0.000    
   483  0.3527      0.7303E-03 SHELL          1   0.0%   3.495      0.3189E-03  0.1231E-31   3.495       0.000    
   484  0.3534      0.7303E-03 SHELL          1   0.0%   3.503      0.3188E-03  0.1288E-31   3.504       0.000    
   485  0.3541      0.7303E-03 SHELL          1   0.0%   3.512      0.3188E-03  0.1320E-31   3.513       0.000    
   486  0.3549      0.7303E-03 SHELL          1   0.0%   3.521      0.3187E-03  0.1371E-31   3.521       0.000    
   487  0.3556      0.7303E-03 SHELL          1   0.0%   3.529      0.3188E-03  0.1491E-31   3.530       0.000    
   488  0.3563      0.7302E-03 SHELL          1   0.0%   3.538      0.3188E-03  0.1570E-31   3.538       0.000    
   489  0.3571      0.7302E-03 SHELL          1   0.0%   3.547      0.3189E-03  0.1557E-31   3.547       0.000    
   490  0.3578      0.7302E-03 SHELL          1   0.0%   3.555      0.3190E-03  0.1592E-31   3.556       0.000    
   491  0.3585      0.7302E-03 SHELL          1   0.0%   3.564      0.3191E-03  0.1656E-31   3.564       0.000    
   492  0.3592      0.7302E-03 SHELL          1   0.0%   3.573      0.3192E-03  0.1635E-31   3.573       0.000    
   493  0.3600      0.7302E-03 SHELL          1   0.0%   3.581      0.3192E-03  0.1613E-31   3.582       0.000    
   494  0.3607      0.7302E-03 SHELL          1   0.0%   3.590      0.3192E-03  0.1651E-31   3.590       0.000    
 CYCLE    TIME      TIME-STEP  ELEMENT          ERROR  I-ENERGY    K-ENERGY T  K-ENERGY R  EXT-WORK MAS.ERR
   495  0.3614      0.7302E-03 SHELL          1   0.0%   3.598      0.3192E-03  0.1689E-31   3.599       0.000    
   496  0.3622      0.7302E-03 SHELL          1   0.0%   3.607      0.3191E-03  0.1723E-31   3.608       0.000    
   497  0.3629      0.7302E-03 SHELL          1   0.0%   3.616      0.3191E-03  0.1778E-31   3.616       0.000    
   498  0.3636      0.7302E-03 SHELL          1   0.0%   3.624      0.3191E-03  0.1805E-31   3.625       0.000    
   499  0.3644      0.7302E-03 SHELL          1   0.0%   3.633      0.3192E-03  0.1832E-31   3.634       0.000    
   500  0.3651      0.7302E-03 SHELL          1   0.0%   3.642      0.3193E-03  0.1847E-31   3.642       0.000    
   501  0.3658      0.7302E-03 SHELL          1   0.0%   3.650      0.3194E-03  0.1824E-31   3.651       0.000    
   502  0.3665      0.7302E-03 SHELL          1   0.0%   3.659      0.3195E-03  0.1792E-31   3.660       0.000    
   503  0.3673      0.7302E-03 SHELL          1   0.0%   3.668      0.3195E-03  0.1826E-31   3.668       0.000    
   504  0.3680      0.7302E-03 SHELL          1   0.0%   3.676      0.3195E-03  0.1876E-31   3.677       0.000    
   505  0.3687      0.7302E-03 SHELL          1   0.0%   3.685      0.3195E-03  0.1879E-31   3.686       0.000    
   506  0.3695      0.7302E-03 SHELL          1   0.0%   3.694      0.3195E-03  0.1910E-31   3.694       0.000    
   507  0.3702      0.7302E-03 SHELL          1   0.0%   3.703      0.3195E-03  0.1956E-31   3.703       0.000    
   508  0.3709      0.7302E-03 SHELL          1   0.0%   3.711      0.3195E-03  0.1933E-31   3.712       0.000    
   509  0.3717      0.7302E-03 SHELL          1   0.0%   3.720      0.3195E-03  0.1895E-31   3.720       0.000    
   510  0.3724      0.7302E-03 SHELL          1   0.0%   3.729      0.3196E-03  0.1922E-31   3.729       0.000    
   511  0.3731      0.7302E-03 SHELL          1   0.0%   3.737      0.3196E-03  0.1972E-31   3.738       0.000    
   512  0.3738      0.7302E-03 SHELL          1   0.0%   3.746      0.3197E-03  0.2024E-31   3.746       0.000    
   513  0.3746      0.7302E-03 SHELL          1   0.0%   3.755      0.3198E-03  0.2050E-31   3.755       0.000    
   514  0.3753      0.7302E-03 SHELL          1   0.0%   3.763      0.3198E-03  0.2004E-31   3.764       0.000    
   515  0.3760      0.7302E-03 SHELL          1   0.0%   3.772      0.3199E-03  0.1957E-31   3.773       0.000    
   516  0.3768      0.7302E-03 SHELL          1   0.0%   3.781      0.3199E-03  0.1946E-31   3.781       0.000    
   517  0.3775      0.7302E-03 SHELL          1   0.0%   3.789      0.3199E-03  0.1920E-31   3.790       0.000    
   518  0.3782      0.7301E-03 SHELL          1   0.0%   3.798      0.3198E-03  0.1917E-31   3.799       0.000    
   519  0.3790      0.7301E-03 SHELL          1   0.0%   3.807      0.3198E-03  0.2000E-31   3.807       0.000    
   520  0.3797      0.7301E-03 SHELL          1   0.0%   3.816      0.3199E-03  0.2073E-31   3.816       0.000    
   521  0.3804      0.7301E-03 SHELL          1   0.0%   3.824      0.3199E-03  0.2069E-31   3.825       0.000    
   522  0.3811      0.7301E-03 SHELL          1   0.0%   3.833      0.3200E-03  0.2036E-31   3.834       0.000    
   523  0.3819      0.7301E-03 SHELL          1   0.0%   3.842      0.3201E-03  0.2012E-31   3.842       0.000    
   524  0.3826      0.7301E-03 SHELL          1   0.0%   3.851      0.3201E-03  0.1960E-31   3.851       0.000    
   525  0.3833      0.7301E-03 SHELL          1   0.0%   3.859      0.3202E-03  0.1852E-31   3.860       0.000    
   526  0.3841      0.7301E-03 SHELL          1   0.0%   3.868      0.3202E-03  0.1786E-31   3.868       0.000    
   527  0.3848      0.7301E-03 SHELL          1   0.0%   3.877      0.3202E-03  0.1805E-31   3.877       0.000    
   528  0.3855      0.7301E-03 SHELL          1   0.0%   3.885      0.3202E-03  0.1865E-31   3.886       0.000    
   529  0.3863      0.7301E-03 SHELL          1   0.0%   3.894      0.3202E-03  0.1915E-31   3.895       0.000    
   530  0.3870      0.7301E-03 SHELL          1   0.0%   3.903      0.3202E-03  0.1938E-31   3.903       0.000    
   531  0.3877      0.7301E-03 SHELL          1   0.0%   3.912      0.3202E-03  0.1958E-31   3.912       0.000    
   532  0.3885      0.7301E-03 SHELL          1   0.0%   3.920      0.3203E-03  0.2029E-31   3.921       0.000    
   533  0.3892      0.7301E-03 SHELL          1   0.0%   3.929      0.3203E-03  0.2161E-31   3.930       0.000    
   534  0.3899      0.7301E-03 SHELL          1   0.0%   3.938      0.3204E-03  0.2269E-31   3.938       0.000    
   535  0.3906      0.7301E-03 SHELL          1   0.0%   3.947      0.3205E-03  0.2284E-31   3.947       0.000    
   536  0.3914      0.7301E-03 SHELL          1   0.0%   3.955      0.3205E-03  0.2253E-31   3.956       0.000    
   537  0.3921      0.7301E-03 SHELL          1   0.0%   3.964      0.3206E-03  0.2210E-31   3.965       0.000    
   538  0.3928      0.7301E-03 SHELL          1   0.0%   3.973      0.3206E-03  0.2133E-31   3.973       0.000    
   539  0.3936      0.7301E-03 SHELL          1   0.0%   3.982      0.3206E-03  0.2053E-31   3.982       0.000    
   540  0.3943      0.7301E-03 SHELL          1   0.0%   3.990      0.3206E-03  0.1908E-31   3.991       0.000    
   541  0.3950      0.7301E-03 SHELL          1   0.0%   3.999      0.3206E-03  0.1801E-31   4.000       0.000    
   542  0.3958      0.7301E-03 SHELL          1   0.0%   4.008      0.3206E-03  0.1814E-31   4.009       0.000    
   543  0.3965      0.7301E-03 SHELL          1   0.0%   4.017      0.3206E-03  0.1822E-31   4.017       0.000    
   544  0.3972      0.7300E-03 SHELL          1   0.0%   4.026      0.3207E-03  0.1817E-31   4.026       0.000    
   545  0.3979      0.7300E-03 SHELL          1   0.0%   4.034      0.3207E-03  0.1794E-31   4.035       0.000    
   546  0.3987      0.7300E-03 SHELL          1   0.0%   4.043      0.3208E-03  0.1762E-31   4.044       0.000    
   547  0.3994      0.7300E-03 SHELL          1   0.0%   4.052      0.3209E-03  0.1745E-31   4.052       0.000    
   548  0.4001      0.7300E-03 SHELL          1   0.0%   4.061      0.3209E-03  0.1708E-31   4.061       0.000    
     ANIMATION FILE: 1ELEM_SAMPA005 WRITTEN
   549  0.4009      0.7300E-03 SHELL          1   0.0%   4.069      0.3209E-03  0.1695E-31   4.070       0.000    
 CYCLE    TIME      TIME-STEP  ELEMENT          ERROR  I-ENERGY    K-ENERGY T  K-ENERGY R  EXT-WORK MAS.ERR
   550  0.4016      0.7300E-03 SHELL          1   0.0%   4.078      0.3209E-03  0.1694E-31   4.079       0.000    
   551  0.4023      0.7300E-03 SHELL          1   0.0%   4.087      0.3209E-03  0.1637E-31   4.088       0.000    
   552  0.4031      0.7300E-03 SHELL          1   0.0%   4.096      0.3209E-03  0.1551E-31   4.096       0.000    
   553  0.4038      0.7300E-03 SHELL          1   0.0%   4.105      0.3210E-03  0.1505E-31   4.105       0.000    
   554  0.4045      0.7300E-03 SHELL          1   0.0%   4.113      0.3210E-03  0.1463E-31   4.114       0.000    
   555  0.4052      0.7300E-03 SHELL          1   0.0%   4.122      0.3210E-03  0.1436E-31   4.123       0.000    
   556  0.4060      0.7300E-03 SHELL          1   0.0%   4.131      0.3211E-03  0.1416E-31   4.132       0.000    
   557  0.4067      0.7300E-03 SHELL          1   0.0%   4.140      0.3212E-03  0.1356E-31   4.140       0.000    
   558  0.4074      0.7300E-03 SHELL          1   0.0%   4.149      0.3212E-03  0.1346E-31   4.149       0.000    
   559  0.4082      0.7300E-03 SHELL          1   0.0%   4.158      0.3212E-03  0.1357E-31   4.158       0.000    
   560  0.4089      0.7300E-03 SHELL          1   0.0%   4.166      0.3213E-03  0.1376E-31   4.167       0.000    
   561  0.4096      0.7300E-03 SHELL          1   0.0%   4.175      0.3213E-03  0.1408E-31   4.176       0.000    
   562  0.4104      0.7300E-03 SHELL          1   0.0%   4.184      0.3213E-03  0.1427E-31   4.184       0.000    
   563  0.4111      0.7300E-03 SHELL          1   0.0%   4.193      0.3213E-03  0.1417E-31   4.193       0.000    
   564  0.4118      0.7300E-03 SHELL          1   0.0%   4.202      0.3213E-03  0.1385E-31   4.202       0.000    
   565  0.4125      0.7300E-03 SHELL          1   0.0%   4.210      0.3213E-03  0.1384E-31   4.211       0.000    
   566  0.4133      0.7300E-03 SHELL          1   0.0%   4.219      0.3214E-03  0.1410E-31   4.220       0.000    
   567  0.4140      0.7300E-03 SHELL          1   0.0%   4.228      0.3214E-03  0.1326E-31   4.229       0.000    
   568  0.4147      0.7299E-03 SHELL          1   0.0%   4.237      0.3215E-03  0.1187E-31   4.237       0.000    
   569  0.4155      0.7299E-03 SHELL          1   0.0%   4.246      0.3215E-03  0.1134E-31   4.246       0.000    
   570  0.4162      0.7299E-03 SHELL          1   0.0%   4.255      0.3216E-03  0.1122E-31   4.255       0.000    
   571  0.4169      0.7299E-03 SHELL          1   0.0%   4.263      0.3216E-03  0.1049E-31   4.264       0.000    
   572  0.4177      0.7299E-03 SHELL          1   0.0%   4.272      0.3216E-03  0.9483E-32   4.273       0.000    
   573  0.4184      0.7299E-03 SHELL          1   0.0%   4.281      0.3216E-03  0.9489E-32   4.282       0.000    
   574  0.4191      0.7299E-03 SHELL          1   0.0%   4.290      0.3216E-03  0.1020E-31   4.291       0.000    
   575  0.4198      0.7299E-03 SHELL          1   0.0%   4.299      0.3217E-03  0.1039E-31   4.299       0.000    
   576  0.4206      0.7299E-03 SHELL          1   0.0%   4.308      0.3217E-03  0.1023E-31   4.308       0.000    
   577  0.4213      0.7299E-03 SHELL          1   0.0%   4.317      0.3217E-03  0.9816E-32   4.317       0.000    
   578  0.4220      0.7299E-03 SHELL          1   0.0%   4.325      0.3218E-03  0.8985E-32   4.326       0.000    
   579  0.4228      0.7299E-03 SHELL          1   0.0%   4.334      0.3218E-03  0.7904E-32   4.335       0.000    
   580  0.4235      0.7299E-03 SHELL          1   0.0%   4.343      0.3219E-03  0.6974E-32   4.344       0.000    
   581  0.4242      0.7299E-03 SHELL          1   0.0%   4.352      0.3219E-03  0.6604E-32   4.353       0.000    
   582  0.4250      0.7299E-03 SHELL          1   0.0%   4.361      0.3219E-03  0.6114E-32   4.361       0.000    
   583  0.4257      0.7299E-03 SHELL          1   0.0%   4.370      0.3220E-03  0.5571E-32   4.370       0.000    
   584  0.4264      0.7299E-03 SHELL          1   0.0%   4.379      0.3220E-03  0.4610E-32   4.379       0.000    
   585  0.4271      0.7299E-03 SHELL          1   0.0%   4.388      0.3220E-03  0.3567E-32   4.388       0.000    
   586  0.4279      0.7299E-03 SHELL          1   0.0%   4.396      0.3220E-03  0.2980E-32   4.397       0.000    
   587  0.4286      0.7299E-03 SHELL          1   0.0%   4.405      0.3221E-03  0.2672E-32   4.406       0.000    
   588  0.4293      0.7299E-03 SHELL          1   0.0%   4.414      0.3221E-03  0.2610E-32   4.415       0.000    
   589  0.4301      0.7298E-03 SHELL          1   0.0%   4.423      0.3221E-03  0.2700E-32   4.424       0.000    
   590  0.4308      0.7298E-03 SHELL          1   0.0%   4.432      0.3222E-03  0.3318E-32   4.432       0.000    
   591  0.4315      0.7298E-03 SHELL          1   0.0%   4.441      0.3222E-03  0.4465E-32   4.441       0.000    
   592  0.4322      0.7298E-03 SHELL          1   0.0%   4.450      0.3223E-03  0.5448E-32   4.450       0.000    
   593  0.4330      0.7298E-03 SHELL          1   0.0%   4.459      0.3223E-03  0.5980E-32   4.459       0.000    
   594  0.4337      0.7298E-03 SHELL          1   0.0%   4.468      0.3223E-03  0.6169E-32   4.468       0.000    
   595  0.4344      0.7298E-03 SHELL          1   0.0%   4.476      0.3223E-03  0.6097E-32   4.477       0.000    
   596  0.4352      0.7298E-03 SHELL          1   0.0%   4.485      0.3224E-03  0.5545E-32   4.486       0.000    
   597  0.4359      0.7298E-03 SHELL          1   0.0%   4.494      0.3224E-03  0.5231E-32   4.495       0.000    
   598  0.4366      0.7298E-03 SHELL          1   0.0%   4.503      0.3224E-03  0.5684E-32   4.504       0.000    
   599  0.4374      0.7298E-03 SHELL          1   0.0%   4.512      0.3225E-03  0.6495E-32   4.513       0.000    
   600  0.4381      0.7298E-03 SHELL          1   0.0%   4.521      0.3225E-03  0.7412E-32   4.522       0.000    
   601  0.4388      0.7298E-03 SHELL          1   0.0%   4.530      0.3225E-03  0.8181E-32   4.530       0.000    
   602  0.4395      0.7298E-03 SHELL          1   0.0%   4.539      0.3226E-03  0.8264E-32   4.539       0.000    
   603  0.4403      0.7298E-03 SHELL          1   0.0%   4.548      0.3226E-03  0.7781E-32   4.548       0.000    
   604  0.4410      0.7298E-03 SHELL          1   0.0%   4.557      0.3226E-03  0.7126E-32   4.557       0.000    
 CYCLE    TIME      TIME-STEP  ELEMENT          ERROR  I-ENERGY    K-ENERGY T  K-ENERGY R  EXT-WORK MAS.ERR
   605  0.4417      0.7298E-03 SHELL          1   0.0%   4.566      0.3227E-03  0.6431E-32   4.566       0.000    
   606  0.4425      0.7298E-03 SHELL          1   0.0%   4.575      0.3227E-03  0.5905E-32   4.575       0.000    
   607  0.4432      0.7298E-03 SHELL          1   0.0%   4.583      0.3227E-03  0.6133E-32   4.584       0.000    
   608  0.4439      0.7297E-03 SHELL          1   0.0%   4.592      0.3228E-03  0.7135E-32   4.593       0.000    
   609  0.4447      0.7297E-03 SHELL          1   0.0%   4.601      0.3229E-03  0.8021E-32   4.602       0.000    
   610  0.4454      0.7297E-03 SHELL          1   0.0%   4.610      0.3230E-03  0.8226E-32   4.611       0.000    
   611  0.4461      0.7297E-03 SHELL          1   0.0%   4.619      0.3231E-03  0.8101E-32   4.620       0.000    
   612  0.4468      0.7297E-03 SHELL          1   0.0%   4.628      0.3231E-03  0.7630E-32   4.629       0.000    
   613  0.4476      0.7297E-03 SHELL          1   0.0%   4.637      0.3232E-03  0.6947E-32   4.638       0.000    
   614  0.4483      0.7297E-03 SHELL          1   0.0%   4.646      0.3231E-03  0.6640E-32   4.647       0.000    
   615  0.4490      0.7297E-03 SHELL          1   0.0%   4.655      0.3231E-03  0.7419E-32   4.656       0.000    
   616  0.4498      0.7297E-03 SHELL          1   0.0%   4.664      0.3231E-03  0.9191E-32   4.664       0.000    
   617  0.4505      0.7297E-03 SHELL          1   0.0%   4.673      0.3231E-03  0.1079E-31   4.673       0.000    
   618  0.4512      0.7297E-03 SHELL          1   0.0%   4.682      0.3231E-03  0.1224E-31   4.682       0.000    
   619  0.4520      0.7297E-03 SHELL          1   0.0%   4.691      0.3231E-03  0.1357E-31   4.691       0.000    
   620  0.4527      0.7297E-03 SHELL          1   0.0%   4.700      0.3232E-03  0.1409E-31   4.700       0.000    
   621  0.4534      0.7297E-03 SHELL          1   0.0%   4.709      0.3233E-03  0.1364E-31   4.709       0.000    
   622  0.4541      0.7297E-03 SHELL          1   0.0%   4.718      0.3234E-03  0.1299E-31   4.718       0.000    
   623  0.4549      0.7297E-03 SHELL          1   0.0%   4.727      0.3235E-03  0.1253E-31   4.727       0.000    
   624  0.4556      0.7297E-03 SHELL          1   0.0%   4.736      0.3235E-03  0.1235E-31   4.736       0.000    
   625  0.4563      0.7297E-03 SHELL          1   0.0%   4.745      0.3235E-03  0.1321E-31   4.745       0.000    
   626  0.4571      0.7297E-03 SHELL          1   0.0%   4.754      0.3235E-03  0.1421E-31   4.754       0.000    
   627  0.4578      0.7296E-03 SHELL          1   0.0%   4.763      0.3234E-03  0.1556E-31   4.763       0.000    
   628  0.4585      0.7296E-03 SHELL          1   0.0%   4.771      0.3234E-03  0.1696E-31   4.772       0.000    
   629  0.4592      0.7296E-03 SHELL          1   0.0%   4.780      0.3234E-03  0.1796E-31   4.781       0.000    
   630  0.4600      0.7296E-03 SHELL          1   0.0%   4.789      0.3235E-03  0.1931E-31   4.790       0.000    
   631  0.4607      0.7296E-03 SHELL          1   0.0%   4.798      0.3236E-03  0.1998E-31   4.799       0.000    
   632  0.4614      0.7296E-03 SHELL          1   0.0%   4.807      0.3237E-03  0.2047E-31   4.808       0.000    
   633  0.4622      0.7296E-03 SHELL          1   0.0%   4.816      0.3237E-03  0.2062E-31   4.817       0.000    
   634  0.4629      0.7296E-03 SHELL          1   0.0%   4.825      0.3238E-03  0.2089E-31   4.826       0.000    
   635  0.4636      0.7296E-03 SHELL          1   0.0%   4.834      0.3238E-03  0.2206E-31   4.835       0.000    
   636  0.4644      0.7296E-03 SHELL          1   0.0%   4.843      0.3238E-03  0.2361E-31   4.844       0.000    
   637  0.4651      0.7296E-03 SHELL          1   0.0%   4.852      0.3238E-03  0.2510E-31   4.853       0.000    
   638  0.4658      0.7296E-03 SHELL          1   0.0%   4.861      0.3238E-03  0.2695E-31   4.862       0.000    
   639  0.4665      0.7296E-03 SHELL          1   0.0%   4.870      0.3238E-03  0.2892E-31   4.871       0.000    
   640  0.4673      0.7296E-03 SHELL          1   0.0%   4.879      0.3238E-03  0.3068E-31   4.880       0.000    
   641  0.4680      0.7296E-03 SHELL          1   0.0%   4.888      0.3239E-03  0.3189E-31   4.889       0.000    
   642  0.4687      0.7296E-03 SHELL          1   0.0%   4.897      0.3239E-03  0.3100E-31   4.898       0.000    
   643  0.4695      0.7296E-03 SHELL          1   0.0%   4.906      0.3240E-03  0.2921E-31   4.907       0.000    
   644  0.4702      0.7295E-03 SHELL          1   0.0%   4.915      0.3241E-03  0.2859E-31   4.916       0.000    
   645  0.4709      0.7295E-03 SHELL          1   0.0%   4.924      0.3241E-03  0.2881E-31   4.925       0.000    
   646  0.4717      0.7295E-03 SHELL          1   0.0%   4.933      0.3242E-03  0.2927E-31   4.934       0.000    
   647  0.4724      0.7295E-03 SHELL          1   0.0%   4.942      0.3242E-03  0.2963E-31   4.943       0.000    
   648  0.4731      0.7295E-03 SHELL          1   0.0%   4.951      0.3242E-03  0.3037E-31   4.952       0.000    
   649  0.4738      0.7295E-03 SHELL          1   0.0%   4.960      0.3241E-03  0.3060E-31   4.961       0.000    
   650  0.4746      0.7295E-03 SHELL          1   0.0%   4.969      0.3242E-03  0.2980E-31   4.970       0.000    
   651  0.4753      0.7295E-03 SHELL          1   0.0%   4.978      0.3242E-03  0.2899E-31   4.979       0.000    
   652  0.4760      0.7295E-03 SHELL          1   0.0%   4.987      0.3242E-03  0.2830E-31   4.988       0.000    
   653  0.4768      0.7295E-03 SHELL          1   0.0%   4.996      0.3243E-03  0.2752E-31   4.997       0.000    
   654  0.4775      0.7295E-03 SHELL          1   0.0%   5.006      0.3244E-03  0.2559E-31   5.006       0.000    
   655  0.4782      0.7295E-03 SHELL          1   0.0%   5.015      0.3244E-03  0.2427E-31   5.015       0.000    
   656  0.4789      0.7295E-03 SHELL          1   0.0%   5.024      0.3245E-03  0.2433E-31   5.024       0.000    
   657  0.4797      0.7295E-03 SHELL          1   0.0%   5.033      0.3245E-03  0.2451E-31   5.033       0.000    
   658  0.4804      0.7295E-03 SHELL          1   0.0%   5.042      0.3245E-03  0.2418E-31   5.042       0.000    
   659  0.4811      0.7295E-03 SHELL          1   0.0%   5.051      0.3245E-03  0.2312E-31   5.051       0.000    
 CYCLE    TIME      TIME-STEP  ELEMENT          ERROR  I-ENERGY    K-ENERGY T  K-ENERGY R  EXT-WORK MAS.ERR
   660  0.4819      0.7294E-03 SHELL          1   0.0%   5.060      0.3245E-03  0.2216E-31   5.060       0.000    
   661  0.4826      0.7294E-03 SHELL          1   0.0%   5.069      0.3245E-03  0.2096E-31   5.069       0.000    
   662  0.4833      0.7294E-03 SHELL          1   0.0%   5.078      0.3246E-03  0.2031E-31   5.078       0.000    
   663  0.4841      0.7294E-03 SHELL          1   0.0%   5.087      0.3246E-03  0.1982E-31   5.087       0.000    
   664  0.4848      0.7294E-03 SHELL          1   0.0%   5.096      0.3247E-03  0.2007E-31   5.096       0.000    
   665  0.4855      0.7294E-03 SHELL          1   0.0%   5.105      0.3247E-03  0.2057E-31   5.106       0.000    
   666  0.4862      0.7294E-03 SHELL          1   0.0%   5.114      0.3248E-03  0.2027E-31   5.115       0.000    
   667  0.4870      0.7294E-03 SHELL          1   0.0%   5.123      0.3248E-03  0.2013E-31   5.124       0.000    
   668  0.4877      0.7294E-03 SHELL          1   0.0%   5.132      0.3249E-03  0.1988E-31   5.133       0.000    
   669  0.4884      0.7294E-03 SHELL          1   0.0%   5.141      0.3249E-03  0.2003E-31   5.142       0.000    
   670  0.4892      0.7294E-03 SHELL          1   0.0%   5.150      0.3249E-03  0.1965E-31   5.151       0.000    
   671  0.4899      0.7294E-03 SHELL          1   0.0%   5.159      0.3249E-03  0.1860E-31   5.160       0.000    
   672  0.4906      0.7294E-03 SHELL          1   0.0%   5.168      0.3249E-03  0.1790E-31   5.169       0.000    
   673  0.4913      0.7294E-03 SHELL          1   0.0%   5.177      0.3249E-03  0.1694E-31   5.178       0.000    
   674  0.4921      0.7294E-03 SHELL          1   0.0%   5.186      0.3250E-03  0.1599E-31   5.187       0.000    
   675  0.4928      0.7294E-03 SHELL          1   0.0%   5.196      0.3250E-03  0.1570E-31   5.196       0.000    
   676  0.4935      0.7293E-03 SHELL          1   0.0%   5.205      0.3251E-03  0.1532E-31   5.205       0.000    
   677  0.4943      0.7293E-03 SHELL          1   0.0%   5.214      0.3251E-03  0.1489E-31   5.214       0.000    
   678  0.4950      0.7293E-03 SHELL          1   0.0%   5.223      0.3252E-03  0.1491E-31   5.223       0.000    
   679  0.4957      0.7293E-03 SHELL          1   0.0%   5.232      0.3252E-03  0.1485E-31   5.232       0.000    
   680  0.4965      0.7293E-03 SHELL          1   0.0%   5.241      0.3252E-03  0.1536E-31   5.241       0.000    
   681  0.4972      0.7293E-03 SHELL          1   0.0%   5.250      0.3252E-03  0.1580E-31   5.251       0.000    
   682  0.4979      0.7293E-03 SHELL          1   0.0%   5.259      0.3252E-03  0.1529E-31   5.260       0.000    
   683  0.4986      0.7293E-03 SHELL          1   0.0%   5.268      0.3253E-03  0.1481E-31   5.269       0.000    
   684  0.4994      0.7293E-03 SHELL          1   0.0%   5.277      0.3253E-03  0.1453E-31   5.278       0.000    
   685  0.5001      0.7293E-03 SHELL          1   0.0%   5.286      0.3253E-03  0.1419E-31   5.287       0.000    
     ANIMATION FILE: 1ELEM_SAMPA006 WRITTEN
   686  0.5008      0.7293E-03 SHELL          1   0.0%   5.295      0.3254E-03  0.1421E-31   5.296       0.000    
   687  0.5016      0.7293E-03 SHELL          1   0.0%   5.304      0.3254E-03  0.1424E-31   5.305       0.000    
   688  0.5023      0.7293E-03 SHELL          1   0.0%   5.314      0.3255E-03  0.1377E-31   5.314       0.000    
   689  0.5030      0.7293E-03 SHELL          1   0.0%   5.323      0.3255E-03  0.1353E-31   5.323       0.000    
   690  0.5037      0.7293E-03 SHELL          1   0.0%   5.332      0.3256E-03  0.1341E-31   5.332       0.000    
   691  0.5045      0.7292E-03 SHELL          1   0.0%   5.341      0.3256E-03  0.1319E-31   5.341       0.000    
   692  0.5052      0.7292E-03 SHELL          1   0.0%   5.350      0.3256E-03  0.1321E-31   5.350       0.000    
   693  0.5059      0.7292E-03 SHELL          1   0.0%   5.359      0.3256E-03  0.1308E-31   5.360       0.000    
   694  0.5067      0.7292E-03 SHELL          1   0.0%   5.368      0.3256E-03  0.1310E-31   5.369       0.000    
   695  0.5074      0.7292E-03 SHELL          1   0.0%   5.377      0.3257E-03  0.1353E-31   5.378       0.000    
   696  0.5081      0.7292E-03 SHELL          1   0.0%   5.386      0.3257E-03  0.1400E-31   5.387       0.000    
   697  0.5089      0.7292E-03 SHELL          1   0.0%   5.395      0.3257E-03  0.1415E-31   5.396       0.000    
   698  0.5096      0.7292E-03 SHELL          1   0.0%   5.405      0.3258E-03  0.1367E-31   5.405       0.000    
   699  0.5103      0.7292E-03 SHELL          1   0.0%   5.414      0.3259E-03  0.1294E-31   5.414       0.000    
   700  0.5110      0.7292E-03 SHELL          1   0.0%   5.423      0.3259E-03  0.1238E-31   5.423       0.000    
   701  0.5118      0.7292E-03 SHELL          1   0.0%   5.432      0.3259E-03  0.1205E-31   5.432       0.000    
   702  0.5125      0.7292E-03 SHELL          1   0.0%   5.441      0.3260E-03  0.1156E-31   5.442       0.000    
   703  0.5132      0.7292E-03 SHELL          1   0.0%   5.450      0.3260E-03  0.1123E-31   5.451       0.000    
   704  0.5140      0.7292E-03 SHELL          1   0.0%   5.459      0.3260E-03  0.1119E-31   5.460       0.000    
   705  0.5147      0.7291E-03 SHELL          1   0.0%   5.468      0.3260E-03  0.1138E-31   5.469       0.000    
   706  0.5154      0.7291E-03 SHELL          1   0.0%   5.477      0.3260E-03  0.1184E-31   5.478       0.000    
   707  0.5161      0.7291E-03 SHELL          1   0.0%   5.487      0.3261E-03  0.1193E-31   5.487       0.000    
   708  0.5169      0.7291E-03 SHELL          1   0.0%   5.496      0.3261E-03  0.1118E-31   5.496       0.000    
   709  0.5176      0.7291E-03 SHELL          1   0.0%   5.505      0.3262E-03  0.9988E-32   5.505       0.000    
   710  0.5183      0.7291E-03 SHELL          1   0.0%   5.514      0.3262E-03  0.8748E-32   5.515       0.000    
   711  0.5191      0.7291E-03 SHELL          1   0.0%   5.523      0.3263E-03  0.7465E-32   5.524       0.000    
   712  0.5198      0.7291E-03 SHELL          1   0.0%   5.532      0.3263E-03  0.6464E-32   5.533       0.000    
   713  0.5205      0.7291E-03 SHELL          1   0.0%   5.541      0.3263E-03  0.6008E-32   5.542       0.000    
   714  0.5212      0.7291E-03 SHELL          1   0.0%   5.550      0.3264E-03  0.5974E-32   5.551       0.000    
 CYCLE    TIME      TIME-STEP  ELEMENT          ERROR  I-ENERGY    K-ENERGY T  K-ENERGY R  EXT-WORK MAS.ERR
   715  0.5220      0.7291E-03 SHELL          1   0.0%   5.560      0.3264E-03  0.6295E-32   5.560       0.000    
   716  0.5227      0.7291E-03 SHELL          1   0.0%   5.569      0.3264E-03  0.6598E-32   5.569       0.000    
   717  0.5234      0.7291E-03 SHELL          1   0.0%   5.578      0.3264E-03  0.6210E-32   5.579       0.000    
   718  0.5242      0.7291E-03 SHELL          1   0.0%   5.587      0.3265E-03  0.5315E-32   5.588       0.000    
   719  0.5249      0.7290E-03 SHELL          1   0.0%   5.596      0.3265E-03  0.4541E-32   5.597       0.000    
   720  0.5256      0.7290E-03 SHELL          1   0.0%   5.605      0.3266E-03  0.3883E-32   5.606       0.000    
   721  0.5263      0.7290E-03 SHELL          1   0.0%   5.614      0.3266E-03  0.3477E-32   5.615       0.000    
   722  0.5271      0.7290E-03 SHELL          1   0.0%   5.624      0.3266E-03  0.3484E-32   5.624       0.000    
   723  0.5278      0.7290E-03 SHELL          1   0.0%   5.633      0.3267E-03  0.3942E-32   5.633       0.000    
   724  0.5285      0.7290E-03 SHELL          1   0.0%   5.642      0.3267E-03  0.4837E-32   5.643       0.000    
   725  0.5293      0.7290E-03 SHELL          1   0.0%   5.651      0.3267E-03  0.5988E-32   5.652       0.000    
   726  0.5300      0.7290E-03 SHELL          1   0.0%   5.660      0.3268E-03  0.7210E-32   5.661       0.000    
   727  0.5307      0.7290E-03 SHELL          1   0.0%   5.669      0.3268E-03  0.8604E-32   5.670       0.000    
   728  0.5315      0.7290E-03 SHELL          1   0.0%   5.679      0.3268E-03  0.9759E-32   5.679       0.000    
   729  0.5322      0.7290E-03 SHELL          1   0.0%   5.688      0.3269E-03  0.1055E-31   5.688       0.000    
   730  0.5329      0.7290E-03 SHELL          1   0.0%   5.697      0.3269E-03  0.1156E-31   5.698       0.000    
   731  0.5336      0.7290E-03 SHELL          1   0.0%   5.706      0.3269E-03  0.1264E-31   5.707       0.000    
   732  0.5344      0.7289E-03 SHELL          1   0.0%   5.715      0.3270E-03  0.1376E-31   5.716       0.000    
   733  0.5351      0.7289E-03 SHELL          1   0.0%   5.724      0.3270E-03  0.1517E-31   5.725       0.000    
   734  0.5358      0.7289E-03 SHELL          1   0.0%   5.734      0.3271E-03  0.1659E-31   5.734       0.000    
   735  0.5366      0.7289E-03 SHELL          1   0.0%   5.743      0.3271E-03  0.1793E-31   5.743       0.000    
   736  0.5373      0.7289E-03 SHELL          1   0.0%   5.752      0.3271E-03  0.1893E-31   5.753       0.000    
   737  0.5380      0.7289E-03 SHELL          1   0.0%   5.761      0.3271E-03  0.1921E-31   5.762       0.000    
   738  0.5387      0.7289E-03 SHELL          1   0.0%   5.770      0.3272E-03  0.1882E-31   5.771       0.000    
   739  0.5395      0.7289E-03 SHELL          1   0.0%   5.779      0.3272E-03  0.1845E-31   5.780       0.000    
   740  0.5402      0.7289E-03 SHELL          1   0.0%   5.789      0.3272E-03  0.1835E-31   5.789       0.000    
   741  0.5409      0.7289E-03 SHELL          1   0.0%   5.798      0.3273E-03  0.1816E-31   5.798       0.000    
   742  0.5417      0.7289E-03 SHELL          1   0.0%   5.807      0.3273E-03  0.1792E-31   5.808       0.000    
   743  0.5424      0.7289E-03 SHELL          1   0.0%   5.816      0.3274E-03  0.1815E-31   5.817       0.000    
   744  0.5431      0.7289E-03 SHELL          1   0.0%   5.825      0.3275E-03  0.1833E-31   5.826       0.000    
   745  0.5438      0.7288E-03 SHELL          1   0.0%   5.835      0.3276E-03  0.1831E-31   5.835       0.000    
   746  0.5446      0.7288E-03 SHELL          1   0.0%   5.844      0.3277E-03  0.1832E-31   5.844       0.000    
   747  0.5453      0.7288E-03 SHELL          1   0.0%   5.853      0.3277E-03  0.1752E-31   5.854       0.000    
   748  0.5460      0.7288E-03 SHELL          1   0.0%   5.862      0.3277E-03  0.1690E-31   5.863       0.000    
   749  0.5468      0.7288E-03 SHELL          1   0.0%   5.871      0.3277E-03  0.1666E-31   5.872       0.000    
   750  0.5475      0.7288E-03 SHELL          1   0.0%   5.881      0.3277E-03  0.1662E-31   5.881       0.000    
   751  0.5482      0.7288E-03 SHELL          1   0.0%   5.890      0.3277E-03  0.1728E-31   5.890       0.000    
   752  0.5489      0.7288E-03 SHELL          1   0.0%   5.899      0.3277E-03  0.1738E-31   5.900       0.000    
   753  0.5497      0.7288E-03 SHELL          1   0.0%   5.908      0.3277E-03  0.1783E-31   5.909       0.000    
   754  0.5504      0.7288E-03 SHELL          1   0.0%   5.917      0.3278E-03  0.1892E-31   5.918       0.000    
   755  0.5511      0.7288E-03 SHELL          1   0.0%   5.927      0.3279E-03  0.1970E-31   5.927       0.000    
   756  0.5519      0.7288E-03 SHELL          1   0.0%   5.936      0.3280E-03  0.2009E-31   5.936       0.000    
   757  0.5526      0.7288E-03 SHELL          1   0.0%   5.945      0.3280E-03  0.1996E-31   5.946       0.000    
   758  0.5533      0.7287E-03 SHELL          1   0.0%   5.954      0.3281E-03  0.2056E-31   5.955       0.000    
   759  0.5540      0.7287E-03 SHELL          1   0.0%   5.963      0.3281E-03  0.2174E-31   5.964       0.000    
   760  0.5548      0.7287E-03 SHELL          1   0.0%   5.973      0.3281E-03  0.2328E-31   5.973       0.000    
   761  0.5555      0.7287E-03 SHELL          1   0.0%   5.982      0.3281E-03  0.2563E-31   5.982       0.000    
   762  0.5562      0.7287E-03 SHELL          1   0.0%   5.991      0.3280E-03  0.2778E-31   5.992       0.000    
   763  0.5570      0.7287E-03 SHELL          1   0.0%   6.000      0.3281E-03  0.2912E-31   6.001       0.000    
   764  0.5577      0.7287E-03 SHELL          1   0.0%   6.010      0.3281E-03  0.3075E-31   6.010       0.000    
   765  0.5584      0.7287E-03 SHELL          1   0.0%   6.019      0.3282E-03  0.3275E-31   6.019       0.000    
   766  0.5591      0.7287E-03 SHELL          1   0.0%   6.028      0.3283E-03  0.3423E-31   6.029       0.000    
   767  0.5599      0.7287E-03 SHELL          1   0.0%   6.037      0.3283E-03  0.3556E-31   6.038       0.000    
   768  0.5606      0.7287E-03 SHELL          1   0.0%   6.046      0.3284E-03  0.3819E-31   6.047       0.000    
   769  0.5613      0.7287E-03 SHELL          1   0.0%   6.056      0.3284E-03  0.4146E-31   6.056       0.000    
 CYCLE    TIME      TIME-STEP  ELEMENT          ERROR  I-ENERGY    K-ENERGY T  K-ENERGY R  EXT-WORK MAS.ERR
   770  0.5621      0.7286E-03 SHELL          1   0.0%   6.065      0.3285E-03  0.4406E-31   6.065       0.000    
   771  0.5628      0.7286E-03 SHELL          1   0.0%   6.074      0.3285E-03  0.4706E-31   6.075       0.000    
   772  0.5635      0.7286E-03 SHELL          1   0.0%   6.083      0.3284E-03  0.4977E-31   6.084       0.000    
   773  0.5642      0.7286E-03 SHELL          1   0.0%   6.093      0.3284E-03  0.5099E-31   6.093       0.000    
   774  0.5650      0.7286E-03 SHELL          1   0.0%   6.102      0.3285E-03  0.5170E-31   6.102       0.000    
   775  0.5657      0.7286E-03 SHELL          1   0.0%   6.111      0.3285E-03  0.5212E-31   6.112       0.000    
   776  0.5664      0.7286E-03 SHELL          1   0.0%   6.120      0.3286E-03  0.5220E-31   6.121       0.000    
   777  0.5672      0.7286E-03 SHELL          1   0.0%   6.129      0.3286E-03  0.5138E-31   6.130       0.000    
   778  0.5679      0.7286E-03 SHELL          1   0.0%   6.139      0.3287E-03  0.5023E-31   6.139       0.000    
   779  0.5686      0.7286E-03 SHELL          1   0.0%   6.148      0.3288E-03  0.4942E-31   6.149       0.000    
   780  0.5693      0.7286E-03 SHELL          1   0.0%   6.157      0.3288E-03  0.4744E-31   6.158       0.000    
   781  0.5701      0.7286E-03 SHELL          1   0.0%   6.166      0.3288E-03  0.4583E-31   6.167       0.000    
   782  0.5708      0.7285E-03 SHELL          1   0.0%   6.176      0.3288E-03  0.4409E-31   6.176       0.000    
   783  0.5715      0.7285E-03 SHELL          1   0.0%   6.185      0.3288E-03  0.4186E-31   6.186       0.000    
   784  0.5723      0.7285E-03 SHELL          1   0.0%   6.194      0.3288E-03  0.4068E-31   6.195       0.000    
   785  0.5730      0.7285E-03 SHELL          1   0.0%   6.203      0.3289E-03  0.3966E-31   6.204       0.000    
   786  0.5737      0.7285E-03 SHELL          1   0.0%   6.213      0.3289E-03  0.3805E-31   6.213       0.000    
   787  0.5744      0.7285E-03 SHELL          1   0.0%   6.222      0.3290E-03  0.3596E-31   6.223       0.000    
   788  0.5752      0.7285E-03 SHELL          1   0.0%   6.231      0.3290E-03  0.3476E-31   6.232       0.000    
   789  0.5759      0.7285E-03 SHELL          1   0.0%   6.240      0.3291E-03  0.3333E-31   6.241       0.000    
   790  0.5766      0.7285E-03 SHELL          1   0.0%   6.250      0.3291E-03  0.3130E-31   6.250       0.000    
   791  0.5774      0.7285E-03 SHELL          1   0.0%   6.259      0.3292E-03  0.3032E-31   6.260       0.000    
   792  0.5781      0.7285E-03 SHELL          1   0.0%   6.268      0.3292E-03  0.2955E-31   6.269       0.000    
   793  0.5788      0.7285E-03 SHELL          1   0.0%   6.278      0.3292E-03  0.2894E-31   6.278       0.000    
   794  0.5795      0.7284E-03 SHELL          1   0.0%   6.287      0.3292E-03  0.2885E-31   6.287       0.000    
   795  0.5803      0.7284E-03 SHELL          1   0.0%   6.296      0.3292E-03  0.3005E-31   6.297       0.000    
   796  0.5810      0.7284E-03 SHELL          1   0.0%   6.305      0.3293E-03  0.3154E-31   6.306       0.000    
   797  0.5817      0.7284E-03 SHELL          1   0.0%   6.315      0.3293E-03  0.3190E-31   6.315       0.000    
   798  0.5825      0.7284E-03 SHELL          1   0.0%   6.324      0.3293E-03  0.3236E-31   6.324       0.000    
   799  0.5832      0.7284E-03 SHELL          1   0.0%   6.333      0.3294E-03  0.3282E-31   6.334       0.000    
   800  0.5839      0.7284E-03 SHELL          1   0.0%   6.342      0.3295E-03  0.3367E-31   6.343       0.000    
   801  0.5846      0.7284E-03 SHELL          1   0.0%   6.352      0.3295E-03  0.3468E-31   6.352       0.000    
   802  0.5854      0.7284E-03 SHELL          1   0.0%   6.361      0.3296E-03  0.3510E-31   6.362       0.000    
   803  0.5861      0.7284E-03 SHELL          1   0.0%   6.370      0.3296E-03  0.3492E-31   6.371       0.000    
   804  0.5868      0.7284E-03 SHELL          1   0.0%   6.380      0.3296E-03  0.3480E-31   6.380       0.000    
   805  0.5876      0.7283E-03 SHELL          1   0.0%   6.389      0.3296E-03  0.3574E-31   6.389       0.000    
   806  0.5883      0.7283E-03 SHELL          1   0.0%   6.398      0.3296E-03  0.3588E-31   6.399       0.000    
   807  0.5890      0.7283E-03 SHELL          1   0.0%   6.407      0.3296E-03  0.3581E-31   6.408       0.000    
   808  0.5897      0.7283E-03 SHELL          1   0.0%   6.417      0.3297E-03  0.3697E-31   6.417       0.000    
   809  0.5905      0.7283E-03 SHELL          1   0.0%   6.426      0.3297E-03  0.3760E-31   6.427       0.000    
   810  0.5912      0.7283E-03 SHELL          1   0.0%   6.435      0.3298E-03  0.3661E-31   6.436       0.000    
   811  0.5919      0.7283E-03 SHELL          1   0.0%   6.445      0.3299E-03  0.3577E-31   6.445       0.000    
   812  0.5927      0.7283E-03 SHELL          1   0.0%   6.454      0.3299E-03  0.3530E-31   6.454       0.000    
   813  0.5934      0.7283E-03 SHELL          1   0.0%   6.463      0.3299E-03  0.3451E-31   6.464       0.000    
   814  0.5941      0.7283E-03 SHELL          1   0.0%   6.472      0.3300E-03  0.3406E-31   6.473       0.000    
   815  0.5948      0.7283E-03 SHELL          1   0.0%   6.482      0.3300E-03  0.3311E-31   6.482       0.000    
   816  0.5956      0.7283E-03 SHELL          1   0.0%   6.491      0.3300E-03  0.3167E-31   6.492       0.000    
   817  0.5963      0.7282E-03 SHELL          1   0.0%   6.500      0.3300E-03  0.3042E-31   6.501       0.000    
   818  0.5970      0.7282E-03 SHELL          1   0.0%   6.510      0.3300E-03  0.2900E-31   6.510       0.000    
   819  0.5978      0.7282E-03 SHELL          1   0.0%   6.519      0.3301E-03  0.2824E-31   6.520       0.000    
   820  0.5985      0.7282E-03 SHELL          1   0.0%   6.528      0.3301E-03  0.2781E-31   6.529       0.000    
   821  0.5992      0.7282E-03 SHELL          1   0.0%   6.537      0.3302E-03  0.2726E-31   6.538       0.000    
   822  0.5999      0.7282E-03 SHELL          1   0.0%   6.547      0.3302E-03  0.2665E-31   6.547       0.000    
   823  0.6007      0.7282E-03 SHELL          1   0.0%   6.556      0.3303E-03  0.2609E-31   6.557       0.000    
     ANIMATION FILE: 1ELEM_SAMPA007 WRITTEN
   824  0.6014      0.7282E-03 SHELL          1   0.0%   6.565      0.3303E-03  0.2543E-31   6.566       0.000    
 CYCLE    TIME      TIME-STEP  ELEMENT          ERROR  I-ENERGY    K-ENERGY T  K-ENERGY R  EXT-WORK MAS.ERR
   825  0.6021      0.7282E-03 SHELL          1   0.0%   6.575      0.3303E-03  0.2497E-31   6.575       0.000    
   826  0.6029      0.7282E-03 SHELL          1   0.0%   6.584      0.3304E-03  0.2541E-31   6.585       0.000    
   827  0.6036      0.7282E-03 SHELL          1   0.0%   6.593      0.3304E-03  0.2533E-31   6.594       0.000    
   828  0.6043      0.7281E-03 SHELL          1   0.0%   6.603      0.3304E-03  0.2558E-31   6.603       0.000    
   829  0.6050      0.7281E-03 SHELL          1   0.0%   6.612      0.3304E-03  0.2647E-31   6.613       0.000    
   830  0.6058      0.7281E-03 SHELL          1   0.0%   6.621      0.3305E-03  0.2746E-31   6.622       0.000    
   831  0.6065      0.7281E-03 SHELL          1   0.0%   6.631      0.3305E-03  0.2810E-31   6.631       0.000    
   832  0.6072      0.7281E-03 SHELL          1   0.0%   6.640      0.3306E-03  0.2798E-31   6.641       0.000    
   833  0.6080      0.7281E-03 SHELL          1   0.0%   6.649      0.3306E-03  0.2723E-31   6.650       0.000    
   834  0.6087      0.7281E-03 SHELL          1   0.0%   6.659      0.3307E-03  0.2659E-31   6.659       0.000    
   835  0.6094      0.7281E-03 SHELL          1   0.0%   6.668      0.3307E-03  0.2661E-31   6.669       0.000    
   836  0.6101      0.7281E-03 SHELL          1   0.0%   6.677      0.3307E-03  0.2695E-31   6.678       0.000    
   837  0.6109      0.7281E-03 SHELL          1   0.0%   6.687      0.3307E-03  0.2734E-31   6.687       0.000    
   838  0.6116      0.7280E-03 SHELL          1   0.0%   6.696      0.3308E-03  0.2750E-31   6.697       0.000    
   839  0.6123      0.7280E-03 SHELL          1   0.0%   6.705      0.3308E-03  0.2712E-31   6.706       0.000    
   840  0.6130      0.7280E-03 SHELL          1   0.0%   6.715      0.3308E-03  0.2679E-31   6.715       0.000    
   841  0.6138      0.7280E-03 SHELL          1   0.0%   6.724      0.3309E-03  0.2544E-31   6.725       0.000    
   842  0.6145      0.7280E-03 SHELL          1   0.0%   6.733      0.3309E-03  0.2416E-31   6.734       0.000    
   843  0.6152      0.7280E-03 SHELL          1   0.0%   6.743      0.3309E-03  0.2422E-31   6.743       0.000    
   844  0.6160      0.7280E-03 SHELL          1   0.0%   6.752      0.3310E-03  0.2338E-31   6.753       0.000    
   845  0.6167      0.7280E-03 SHELL          1   0.0%   6.761      0.3310E-03  0.2189E-31   6.762       0.000    
   846  0.6174      0.7280E-03 SHELL          1   0.0%   6.771      0.3311E-03  0.2092E-31   6.771       0.000    
   847  0.6181      0.7280E-03 SHELL          1   0.0%   6.780      0.3311E-03  0.1987E-31   6.781       0.000    
   848  0.6189      0.7280E-03 SHELL          1   0.0%   6.789      0.3311E-03  0.1812E-31   6.790       0.000    
   849  0.6196      0.7279E-03 SHELL          1   0.0%   6.799      0.3311E-03  0.1658E-31   6.799       0.000    
   850  0.6203      0.7279E-03 SHELL          1   0.0%   6.808      0.3312E-03  0.1598E-31   6.809       0.000    
   851  0.6211      0.7279E-03 SHELL          1   0.0%   6.817      0.3312E-03  0.1531E-31   6.818       0.000    
   852  0.6218      0.7279E-03 SHELL          1   0.0%   6.827      0.3312E-03  0.1492E-31   6.827       0.000    
   853  0.6225      0.7279E-03 SHELL          1   0.0%   6.836      0.3313E-03  0.1464E-31   6.837       0.000    
   854  0.6232      0.7279E-03 SHELL          1   0.0%   6.845      0.3313E-03  0.1406E-31   6.846       0.000    
   855  0.6240      0.7279E-03 SHELL          1   0.0%   6.855      0.3314E-03  0.1371E-31   6.855       0.000    
   856  0.6247      0.7279E-03 SHELL          1   0.0%   6.864      0.3314E-03  0.1354E-31   6.865       0.000    
   857  0.6254      0.7279E-03 SHELL          1   0.0%   6.873      0.3315E-03  0.1276E-31   6.874       0.000    
   858  0.6262      0.7279E-03 SHELL          1   0.0%   6.883      0.3315E-03  0.1154E-31   6.883       0.000    
   859  0.6269      0.7278E-03 SHELL          1   0.0%   6.892      0.3315E-03  0.1054E-31   6.893       0.000    
   860  0.6276      0.7278E-03 SHELL          1   0.0%   6.901      0.3315E-03  0.9455E-32   6.902       0.000    
   861  0.6283      0.7278E-03 SHELL          1   0.0%   6.911      0.3316E-03  0.8310E-32   6.911       0.000    
   862  0.6291      0.7278E-03 SHELL          1   0.0%   6.920      0.3316E-03  0.7335E-32   6.921       0.000    
   863  0.6298      0.7278E-03 SHELL          1   0.0%   6.930      0.3316E-03  0.6756E-32   6.930       0.000    
   864  0.6305      0.7278E-03 SHELL          1   0.0%   6.939      0.3317E-03  0.6477E-32   6.940       0.000    
   865  0.6312      0.7278E-03 SHELL          1   0.0%   6.948      0.3317E-03  0.6285E-32   6.949       0.000    
   866  0.6320      0.7278E-03 SHELL          1   0.0%   6.958      0.3318E-03  0.6077E-32   6.958       0.000    
   867  0.6327      0.7278E-03 SHELL          1   0.0%   6.967      0.3318E-03  0.6221E-32   6.968       0.000    
   868  0.6334      0.7278E-03 SHELL          1   0.0%   6.976      0.3318E-03  0.6192E-32   6.977       0.000    
   869  0.6342      0.7277E-03 SHELL          1   0.0%   6.986      0.3319E-03  0.6302E-32   6.986       0.000    
   870  0.6349      0.7277E-03 SHELL          1   0.0%   6.995      0.3319E-03  0.6661E-32   6.996       0.000    
   871  0.6356      0.7277E-03 SHELL          1   0.0%   7.004      0.3319E-03  0.6826E-32   7.005       0.000    
   872  0.6363      0.7277E-03 SHELL          1   0.0%   7.014      0.3319E-03  0.6394E-32   7.015       0.000    
   873  0.6371      0.7277E-03 SHELL          1   0.0%   7.023      0.3320E-03  0.5626E-32   7.024       0.000    
   874  0.6378      0.7277E-03 SHELL          1   0.0%   7.033      0.3320E-03  0.5209E-32   7.033       0.000    
   875  0.6385      0.7277E-03 SHELL          1   0.0%   7.042      0.3321E-03  0.4962E-32   7.043       0.000    
   876  0.6393      0.7277E-03 SHELL          1   0.0%   7.051      0.3321E-03  0.4876E-32   7.052       0.000    
   877  0.6400      0.7277E-03 SHELL          1   0.0%   7.061      0.3321E-03  0.4851E-32   7.061       0.000    
   878  0.6407      0.7277E-03 SHELL          1   0.0%   7.070      0.3322E-03  0.4789E-32   7.071       0.000    
   879  0.6414      0.7276E-03 SHELL          1   0.0%   7.080      0.3322E-03  0.4765E-32   7.080       0.000    
 CYCLE    TIME      TIME-STEP  ELEMENT          ERROR  I-ENERGY    K-ENERGY T  K-ENERGY R  EXT-WORK MAS.ERR
   880  0.6422      0.7276E-03 SHELL          1   0.0%   7.089      0.3323E-03  0.4666E-32   7.090       0.000    
   881  0.6429      0.7276E-03 SHELL          1   0.0%   7.098      0.3324E-03  0.4426E-32   7.099       0.000    
   882  0.6436      0.7276E-03 SHELL          1   0.0%   7.108      0.3324E-03  0.4073E-32   7.108       0.000    
   883  0.6443      0.7276E-03 SHELL          1   0.0%   7.117      0.3325E-03  0.3592E-32   7.118       0.000    
   884  0.6451      0.7276E-03 SHELL          1   0.0%   7.126      0.3325E-03  0.3151E-32   7.127       0.000    
   885  0.6458      0.7276E-03 SHELL          1   0.0%   7.136      0.3325E-03  0.2842E-32   7.137       0.000    
   886  0.6465      0.7276E-03 SHELL          1   0.0%   7.145      0.3325E-03  0.2676E-32   7.146       0.000    
   887  0.6473      0.7276E-03 SHELL          1   0.0%   7.155      0.3325E-03  0.2669E-32   7.155       0.000    
   888  0.6480      0.7276E-03 SHELL          1   0.0%   7.164      0.3325E-03  0.2663E-32   7.165       0.000    
   889  0.6487      0.7275E-03 SHELL          1   0.0%   7.173      0.3326E-03  0.2669E-32   7.174       0.000    
   890  0.6494      0.7275E-03 SHELL          1   0.0%   7.183      0.3326E-03  0.2820E-32   7.184       0.000    
   891  0.6502      0.7275E-03 SHELL          1   0.0%   7.192      0.3327E-03  0.2925E-32   7.193       0.000    
   892  0.6509      0.7275E-03 SHELL          1   0.0%   7.202      0.3328E-03  0.2743E-32   7.202       0.000    
   893  0.6516      0.7275E-03 SHELL          1   0.0%   7.211      0.3328E-03  0.2563E-32   7.212       0.000    
   894  0.6523      0.7275E-03 SHELL          1   0.0%   7.220      0.3329E-03  0.2503E-32   7.221       0.000    
   895  0.6531      0.7275E-03 SHELL          1   0.0%   7.230      0.3329E-03  0.2547E-32   7.231       0.000    
   896  0.6538      0.7275E-03 SHELL          1   0.0%   7.239      0.3329E-03  0.2827E-32   7.240       0.000    
   897  0.6545      0.7275E-03 SHELL          1   0.0%   7.249      0.3329E-03  0.2985E-32   7.249       0.000    
   898  0.6553      0.7274E-03 SHELL          1   0.0%   7.258      0.3329E-03  0.2944E-32   7.259       0.000    
   899  0.6560      0.7274E-03 SHELL          1   0.0%   7.267      0.3329E-03  0.2984E-32   7.268       0.000    
   900  0.6567      0.7274E-03 SHELL          1   0.0%   7.277      0.3330E-03  0.3100E-32   7.278       0.000    
   901  0.6574      0.7274E-03 SHELL          1   0.0%   7.286      0.3330E-03  0.3274E-32   7.287       0.000    
   902  0.6582      0.7274E-03 SHELL          1   0.0%   7.296      0.3331E-03  0.3983E-32   7.296       0.000    
   903  0.6589      0.7274E-03 SHELL          1   0.0%   7.305      0.3331E-03  0.4763E-32   7.306       0.000    
   904  0.6596      0.7274E-03 SHELL          1   0.0%   7.315      0.3332E-03  0.5122E-32   7.315       0.000    
   905  0.6603      0.7274E-03 SHELL          1   0.0%   7.324      0.3332E-03  0.5855E-32   7.325       0.000    
   906  0.6611      0.7274E-03 SHELL          1   0.0%   7.333      0.3333E-03  0.6543E-32   7.334       0.000    
   907  0.6618      0.7274E-03 SHELL          1   0.0%   7.343      0.3333E-03  0.7319E-32   7.344       0.000    
   908  0.6625      0.7273E-03 SHELL          1   0.0%   7.352      0.3333E-03  0.8341E-32   7.353       0.000    
   909  0.6633      0.7273E-03 SHELL          1   0.0%   7.362      0.3333E-03  0.8528E-32   7.362       0.000    
   910  0.6640      0.7273E-03 SHELL          1   0.0%   7.371      0.3333E-03  0.8357E-32   7.372       0.000    
   911  0.6647      0.7273E-03 SHELL          1   0.0%   7.381      0.3334E-03  0.8479E-32   7.381       0.000    
   912  0.6654      0.7273E-03 SHELL          1   0.0%   7.390      0.3334E-03  0.8826E-32   7.391       0.000    
   913  0.6662      0.7273E-03 SHELL          1   0.0%   7.399      0.3335E-03  0.9607E-32   7.400       0.000    
   914  0.6669      0.7273E-03 SHELL          1   0.0%   7.409      0.3335E-03  0.1087E-31   7.409       0.000    
   915  0.6676      0.7273E-03 SHELL          1   0.0%   7.418      0.3336E-03  0.1230E-31   7.419       0.000    
   916  0.6683      0.7273E-03 SHELL          1   0.0%   7.428      0.3336E-03  0.1311E-31   7.428       0.000    
   917  0.6691      0.7272E-03 SHELL          1   0.0%   7.437      0.3336E-03  0.1395E-31   7.438       0.000    
   918  0.6698      0.7272E-03 SHELL          1   0.0%   7.447      0.3337E-03  0.1505E-31   7.447       0.000    
   919  0.6705      0.7272E-03 SHELL          1   0.0%   7.456      0.3337E-03  0.1602E-31   7.457       0.000    
   920  0.6713      0.7272E-03 SHELL          1   0.0%   7.465      0.3337E-03  0.1705E-31   7.466       0.000    
   921  0.6720      0.7272E-03 SHELL          1   0.0%   7.475      0.3337E-03  0.1803E-31   7.475       0.000    
   922  0.6727      0.7272E-03 SHELL          1   0.0%   7.484      0.3338E-03  0.1929E-31   7.485       0.000    
   923  0.6734      0.7272E-03 SHELL          1   0.0%   7.494      0.3338E-03  0.2060E-31   7.494       0.000    
   924  0.6742      0.7272E-03 SHELL          1   0.0%   7.503      0.3339E-03  0.2197E-31   7.504       0.000    
   925  0.6749      0.7272E-03 SHELL          1   0.0%   7.513      0.3339E-03  0.2326E-31   7.513       0.000    
   926  0.6756      0.7272E-03 SHELL          1   0.0%   7.522      0.3340E-03  0.2539E-31   7.523       0.000    
   927  0.6763      0.7271E-03 SHELL          1   0.0%   7.531      0.3340E-03  0.2786E-31   7.532       0.000    
   928  0.6771      0.7271E-03 SHELL          1   0.0%   7.541      0.3340E-03  0.2936E-31   7.542       0.000    
   929  0.6778      0.7271E-03 SHELL          1   0.0%   7.550      0.3340E-03  0.3004E-31   7.551       0.000    
   930  0.6785      0.7271E-03 SHELL          1   0.0%   7.560      0.3341E-03  0.2973E-31   7.560       0.000    
   931  0.6793      0.7271E-03 SHELL          1   0.0%   7.569      0.3341E-03  0.2952E-31   7.570       0.000    
   932  0.6800      0.7271E-03 SHELL          1   0.0%   7.579      0.3341E-03  0.3037E-31   7.579       0.000    
   933  0.6807      0.7271E-03 SHELL          1   0.0%   7.588      0.3342E-03  0.3164E-31   7.589       0.000    
   934  0.6814      0.7271E-03 SHELL          1   0.0%   7.598      0.3342E-03  0.3249E-31   7.598       0.000    
 CYCLE    TIME      TIME-STEP  ELEMENT          ERROR  I-ENERGY    K-ENERGY T  K-ENERGY R  EXT-WORK MAS.ERR
   935  0.6822      0.7271E-03 SHELL          1   0.0%   7.607      0.3343E-03  0.3407E-31   7.608       0.000    
   936  0.6829      0.7270E-03 SHELL          1   0.0%   7.616      0.3343E-03  0.3568E-31   7.617       0.000    
   937  0.6836      0.7270E-03 SHELL          1   0.0%   7.626      0.3343E-03  0.3658E-31   7.627       0.000    
   938  0.6843      0.7270E-03 SHELL          1   0.0%   7.635      0.3344E-03  0.3570E-31   7.636       0.000    
   939  0.6851      0.7270E-03 SHELL          1   0.0%   7.645      0.3344E-03  0.3426E-31   7.646       0.000    
   940  0.6858      0.7270E-03 SHELL          1   0.0%   7.654      0.3344E-03  0.3419E-31   7.655       0.000    
   941  0.6865      0.7270E-03 SHELL          1   0.0%   7.664      0.3344E-03  0.3502E-31   7.664       0.000    
   942  0.6873      0.7270E-03 SHELL          1   0.0%   7.673      0.3345E-03  0.3672E-31   7.674       0.000    
   943  0.6880      0.7270E-03 SHELL          1   0.0%   7.683      0.3345E-03  0.3734E-31   7.683       0.000    
   944  0.6887      0.7270E-03 SHELL          1   0.0%   7.692      0.3345E-03  0.3825E-31   7.693       0.000    
   945  0.6894      0.7269E-03 SHELL          1   0.0%   7.702      0.3346E-03  0.3867E-31   7.702       0.000    
   946  0.6902      0.7269E-03 SHELL          1   0.0%   7.711      0.3346E-03  0.3812E-31   7.712       0.000    
   947  0.6909      0.7269E-03 SHELL          1   0.0%   7.721      0.3347E-03  0.3880E-31   7.721       0.000    
   948  0.6916      0.7269E-03 SHELL          1   0.0%   7.730      0.3347E-03  0.3953E-31   7.731       0.000    
   949  0.6923      0.7269E-03 SHELL          1   0.0%   7.739      0.3348E-03  0.4016E-31   7.740       0.000    
   950  0.6931      0.7269E-03 SHELL          1   0.0%   7.749      0.3348E-03  0.4159E-31   7.750       0.000    
   951  0.6938      0.7269E-03 SHELL          1   0.0%   7.758      0.3348E-03  0.4311E-31   7.759       0.000    
   952  0.6945      0.7269E-03 SHELL          1   0.0%   7.768      0.3348E-03  0.4380E-31   7.769       0.000    
   953  0.6953      0.7268E-03 SHELL          1   0.0%   7.777      0.3349E-03  0.4491E-31   7.778       0.000    
   954  0.6960      0.7268E-03 SHELL          1   0.0%   7.787      0.3349E-03  0.4670E-31   7.788       0.000    
   955  0.6967      0.7268E-03 SHELL          1   0.0%   7.796      0.3349E-03  0.4774E-31   7.797       0.000    
   956  0.6974      0.7268E-03 SHELL          1   0.0%   7.806      0.3350E-03  0.4802E-31   7.806       0.000    
   957  0.6982      0.7268E-03 SHELL          1   0.0%   7.815      0.3350E-03  0.4828E-31   7.816       0.000    
   958  0.6989      0.7268E-03 SHELL          1   0.0%   7.825      0.3351E-03  0.4967E-31   7.825       0.000    
   959  0.6996      0.7268E-03 SHELL          1   0.0%   7.834      0.3351E-03  0.5075E-31   7.835       0.000    
   960  0.7003      0.7268E-03 SHELL          1   0.0%   7.844      0.3351E-03  0.5138E-31   7.844       0.000    
     ANIMATION FILE: 1ELEM_SAMPA008 WRITTEN
   961  0.7011      0.7268E-03 SHELL          1   0.0%   7.853      0.3352E-03  0.5231E-31   7.854       0.000    
   962  0.7018      0.7267E-03 SHELL          1   0.0%   7.863      0.3352E-03  0.5376E-31   7.863       0.000    
   963  0.7025      0.7267E-03 SHELL          1   0.0%   7.872      0.3352E-03  0.5534E-31   7.873       0.000    
   964  0.7032      0.7267E-03 SHELL          1   0.0%   7.882      0.3353E-03  0.5510E-31   7.882       0.000    
   965  0.7040      0.7267E-03 SHELL          1   0.0%   7.891      0.3353E-03  0.5423E-31   7.892       0.000    
   966  0.7047      0.7267E-03 SHELL          1   0.0%   7.901      0.3353E-03  0.5329E-31   7.901       0.000    
   967  0.7054      0.7267E-03 SHELL          1   0.0%   7.910      0.3354E-03  0.5186E-31   7.911       0.000    
   968  0.7062      0.7267E-03 SHELL          1   0.0%   7.920      0.3354E-03  0.5124E-31   7.920       0.000    
   969  0.7069      0.7267E-03 SHELL          1   0.0%   7.929      0.3355E-03  0.5240E-31   7.930       0.000    
   970  0.7076      0.7267E-03 SHELL          1   0.0%   7.939      0.3355E-03  0.5308E-31   7.939       0.000    
   971  0.7083      0.7266E-03 SHELL          1   0.0%   7.948      0.3355E-03  0.5357E-31   7.949       0.000    
   972  0.7091      0.7266E-03 SHELL          1   0.0%   7.958      0.3356E-03  0.5392E-31   7.958       0.000    
   973  0.7098      0.7266E-03 SHELL          1   0.0%   7.967      0.3356E-03  0.5420E-31   7.968       0.000    
   974  0.7105      0.7266E-03 SHELL          1   0.0%   7.977      0.3356E-03  0.5426E-31   7.977       0.000    
   975  0.7112      0.7266E-03 SHELL          1   0.0%   7.986      0.3356E-03  0.5441E-31   7.987       0.000    
   976  0.7120      0.7266E-03 SHELL          1   0.0%   7.996      0.3357E-03  0.5530E-31   7.996       0.000    
   977  0.7127      0.7266E-03 SHELL          1   0.0%   8.005      0.3357E-03  0.5357E-31   8.006       0.000    
   978  0.7134      0.7266E-03 SHELL          1   0.0%   8.015      0.3358E-03  0.5230E-31   8.015       0.000    
   979  0.7141      0.7265E-03 SHELL          1   0.0%   8.024      0.3358E-03  0.5377E-31   8.025       0.000    
   980  0.7149      0.7265E-03 SHELL          1   0.0%   8.034      0.3358E-03  0.5468E-31   8.034       0.000    
   981  0.7156      0.7265E-03 SHELL          1   0.0%   8.043      0.3359E-03  0.5607E-31   8.044       0.000    
   982  0.7163      0.7265E-03 SHELL          1   0.0%   8.053      0.3359E-03  0.5799E-31   8.053       0.000    
   983  0.7171      0.7265E-03 SHELL          1   0.0%   8.062      0.3359E-03  0.5952E-31   8.063       0.000    
   984  0.7178      0.7265E-03 SHELL          1   0.0%   8.072      0.3360E-03  0.6048E-31   8.072       0.000    
   985  0.7185      0.7265E-03 SHELL          1   0.0%   8.081      0.3360E-03  0.6052E-31   8.082       0.000    
   986  0.7192      0.7265E-03 SHELL          1   0.0%   8.091      0.3360E-03  0.6047E-31   8.091       0.000    
   987  0.7200      0.7265E-03 SHELL          1   0.0%   8.100      0.3361E-03  0.5989E-31   8.101       0.000    
   988  0.7207      0.7264E-03 SHELL          1   0.0%   8.110      0.3361E-03  0.5968E-31   8.110       0.000    
   989  0.7214      0.7264E-03 SHELL          1   0.0%   8.119      0.3362E-03  0.6128E-31   8.120       0.000    
 CYCLE    TIME      TIME-STEP  ELEMENT          ERROR  I-ENERGY    K-ENERGY T  K-ENERGY R  EXT-WORK MAS.ERR
   990  0.7221      0.7264E-03 SHELL          1   0.0%   8.129      0.3362E-03  0.6323E-31   8.129       0.000    
   991  0.7229      0.7264E-03 SHELL          1   0.0%   8.138      0.3362E-03  0.6487E-31   8.139       0.000    
   992  0.7236      0.7264E-03 SHELL          1   0.0%   8.148      0.3363E-03  0.6630E-31   8.148       0.000    
   993  0.7243      0.7264E-03 SHELL          1   0.0%   8.157      0.3363E-03  0.6685E-31   8.158       0.000    
   994  0.7250      0.7264E-03 SHELL          1   0.0%   8.167      0.3363E-03  0.6720E-31   8.167       0.000    
   995  0.7258      0.7264E-03 SHELL          1   0.0%   8.176      0.3364E-03  0.6669E-31   8.177       0.000    
   996  0.7265      0.7263E-03 SHELL          1   0.0%   8.186      0.3364E-03  0.6488E-31   8.186       0.000    
   997  0.7272      0.7263E-03 SHELL          1   0.0%   8.195      0.3364E-03  0.6348E-31   8.196       0.000    
   998  0.7279      0.7263E-03 SHELL          1   0.0%   8.205      0.3365E-03  0.6314E-31   8.206       0.000    
   999  0.7287      0.7263E-03 SHELL          1   0.0%   8.214      0.3365E-03  0.6197E-31   8.215       0.000    
  1000  0.7294      0.7263E-03 SHELL          1   0.0%   8.224      0.3365E-03  0.6155E-31   8.225       0.000    
  1001  0.7301      0.7263E-03 SHELL          1   0.0%   8.233      0.3366E-03  0.6252E-31   8.234       0.000    
  1002  0.7309      0.7263E-03 SHELL          1   0.0%   8.243      0.3366E-03  0.6207E-31   8.244       0.000    
  1003  0.7316      0.7263E-03 SHELL          1   0.0%   8.252      0.3367E-03  0.6155E-31   8.253       0.000    
  1004  0.7323      0.7262E-03 SHELL          1   0.0%   8.262      0.3367E-03  0.6193E-31   8.263       0.000    
  1005  0.7330      0.7262E-03 SHELL          1   0.0%   8.271      0.3367E-03  0.6166E-31   8.272       0.000    
  1006  0.7338      0.7262E-03 SHELL          1   0.0%   8.281      0.3368E-03  0.6072E-31   8.282       0.000    
  1007  0.7345      0.7262E-03 SHELL          1   0.0%   8.291      0.3368E-03  0.5916E-31   8.291       0.000    
  1008  0.7352      0.7262E-03 SHELL          1   0.0%   8.300      0.3368E-03  0.5777E-31   8.301       0.000    
  1009  0.7359      0.7262E-03 SHELL          1   0.0%   8.310      0.3369E-03  0.5635E-31   8.310       0.000    
  1010  0.7367      0.7262E-03 SHELL          1   0.0%   8.319      0.3369E-03  0.5495E-31   8.320       0.000    
  1011  0.7374      0.7262E-03 SHELL          1   0.0%   8.329      0.3369E-03  0.5426E-31   8.329       0.000    
  1012  0.7381      0.7261E-03 SHELL          1   0.0%   8.338      0.3370E-03  0.5302E-31   8.339       0.000    
  1013  0.7388      0.7261E-03 SHELL          1   0.0%   8.348      0.3370E-03  0.5082E-31   8.349       0.000    
  1014  0.7396      0.7261E-03 SHELL          1   0.0%   8.357      0.3370E-03  0.4886E-31   8.358       0.000    
  1015  0.7403      0.7261E-03 SHELL          1   0.0%   8.367      0.3371E-03  0.4769E-31   8.368       0.000    
  1016  0.7410      0.7261E-03 SHELL          1   0.0%   8.376      0.3371E-03  0.4664E-31   8.377       0.000    
  1017  0.7417      0.7261E-03 SHELL          1   0.0%   8.386      0.3371E-03  0.4569E-31   8.387       0.000    
  1018  0.7425      0.7261E-03 SHELL          1   0.0%   8.396      0.3372E-03  0.4486E-31   8.396       0.000    
  1019  0.7432      0.7261E-03 SHELL          1   0.0%   8.405      0.3372E-03  0.4467E-31   8.406       0.000    
  1020  0.7439      0.7260E-03 SHELL          1   0.0%   8.415      0.3372E-03  0.4486E-31   8.415       0.000    
  1021  0.7446      0.7260E-03 SHELL          1   0.0%   8.424      0.3373E-03  0.4368E-31   8.425       0.000    
  1022  0.7454      0.7260E-03 SHELL          1   0.0%   8.434      0.3374E-03  0.4215E-31   8.434       0.000    
  1023  0.7461      0.7260E-03 SHELL          1   0.0%   8.443      0.3374E-03  0.4117E-31   8.444       0.000    
  1024  0.7468      0.7260E-03 SHELL          1   0.0%   8.453      0.3375E-03  0.3962E-31   8.454       0.000    
  1025  0.7476      0.7260E-03 SHELL          1   0.0%   8.462      0.3375E-03  0.3881E-31   8.463       0.000    
  1026  0.7483      0.7260E-03 SHELL          1   0.0%   8.472      0.3375E-03  0.3818E-31   8.473       0.000    
  1027  0.7490      0.7260E-03 SHELL          1   0.0%   8.481      0.3375E-03  0.3668E-31   8.482       0.000    
  1028  0.7497      0.7259E-03 SHELL          1   0.0%   8.491      0.3375E-03  0.3627E-31   8.492       0.000    
  1029  0.7505      0.7259E-03 SHELL          1   0.0%   8.501      0.3376E-03  0.3622E-31   8.501       0.000    
  1030  0.7512      0.7259E-03 SHELL          1   0.0%   8.510      0.3376E-03  0.3617E-31   8.511       0.000    
  1031  0.7519      0.7259E-03 SHELL          1   0.0%   8.520      0.3376E-03  0.3560E-31   8.520       0.000    
  1032  0.7526      0.7259E-03 SHELL          1   0.0%   8.529      0.3377E-03  0.3330E-31   8.530       0.000    
  1033  0.7534      0.7259E-03 SHELL          1   0.0%   8.539      0.3377E-03  0.3111E-31   8.540       0.000    
  1034  0.7541      0.7259E-03 SHELL          1   0.0%   8.548      0.3378E-03  0.3016E-31   8.549       0.000    
  1035  0.7548      0.7259E-03 SHELL          1   0.0%   8.558      0.3378E-03  0.2969E-31   8.559       0.000    
  1036  0.7555      0.7258E-03 SHELL          1   0.0%   8.568      0.3379E-03  0.2866E-31   8.568       0.000    
  1037  0.7563      0.7258E-03 SHELL          1   0.0%   8.577      0.3379E-03  0.2790E-31   8.578       0.000    
  1038  0.7570      0.7258E-03 SHELL          1   0.0%   8.587      0.3379E-03  0.2736E-31   8.587       0.000    
  1039  0.7577      0.7258E-03 SHELL          1   0.0%   8.596      0.3379E-03  0.2609E-31   8.597       0.000    
  1040  0.7584      0.7258E-03 SHELL          1   0.0%   8.606      0.3380E-03  0.2492E-31   8.607       0.000    
  1041  0.7592      0.7258E-03 SHELL          1   0.0%   8.615      0.3380E-03  0.2446E-31   8.616       0.000    
  1042  0.7599      0.7258E-03 SHELL          1   0.0%   8.625      0.3380E-03  0.2433E-31   8.626       0.000    
  1043  0.7606      0.7258E-03 SHELL          1   0.0%   8.635      0.3381E-03  0.2339E-31   8.635       0.000    
  1044  0.7613      0.7257E-03 SHELL          1   0.0%   8.644      0.3381E-03  0.2238E-31   8.645       0.000    
 CYCLE    TIME      TIME-STEP  ELEMENT          ERROR  I-ENERGY    K-ENERGY T  K-ENERGY R  EXT-WORK MAS.ERR
  1045  0.7621      0.7257E-03 SHELL          1   0.0%   8.654      0.3382E-03  0.2222E-31   8.654       0.000    
  1046  0.7628      0.7257E-03 SHELL          1   0.0%   8.663      0.3382E-03  0.2165E-31   8.664       0.000    
  1047  0.7635      0.7257E-03 SHELL          1   0.0%   8.673      0.3383E-03  0.2063E-31   8.674       0.000    
  1048  0.7642      0.7257E-03 SHELL          1   0.0%   8.682      0.3383E-03  0.1965E-31   8.683       0.000    
  1049  0.7650      0.7257E-03 SHELL          1   0.0%   8.692      0.3383E-03  0.1836E-31   8.693       0.000    
  1050  0.7657      0.7257E-03 SHELL          1   0.0%   8.702      0.3383E-03  0.1709E-31   8.702       0.000    
  1051  0.7664      0.7257E-03 SHELL          1   0.0%   8.711      0.3384E-03  0.1607E-31   8.712       0.000    
  1052  0.7672      0.7256E-03 SHELL          1   0.0%   8.721      0.3384E-03  0.1537E-31   8.721       0.000    
  1053  0.7679      0.7256E-03 SHELL          1   0.0%   8.730      0.3384E-03  0.1532E-31   8.731       0.000    
  1054  0.7686      0.7256E-03 SHELL          1   0.0%   8.740      0.3385E-03  0.1574E-31   8.741       0.000    
  1055  0.7693      0.7256E-03 SHELL          1   0.0%   8.749      0.3385E-03  0.1653E-31   8.750       0.000    
  1056  0.7701      0.7256E-03 SHELL          1   0.0%   8.759      0.3386E-03  0.1695E-31   8.760       0.000    
  1057  0.7708      0.7256E-03 SHELL          1   0.0%   8.769      0.3386E-03  0.1694E-31   8.769       0.000    
  1058  0.7715      0.7256E-03 SHELL          1   0.0%   8.778      0.3386E-03  0.1715E-31   8.779       0.000    
  1059  0.7722      0.7255E-03 SHELL          1   0.0%   8.788      0.3387E-03  0.1719E-31   8.789       0.000    
  1060  0.7730      0.7255E-03 SHELL          1   0.0%   8.797      0.3387E-03  0.1708E-31   8.798       0.000    
  1061  0.7737      0.7255E-03 SHELL          1   0.0%   8.807      0.3387E-03  0.1707E-31   8.808       0.000    
  1062  0.7744      0.7255E-03 SHELL          1   0.0%   8.817      0.3388E-03  0.1721E-31   8.817       0.000    
  1063  0.7751      0.7255E-03 SHELL          1   0.0%   8.826      0.3388E-03  0.1742E-31   8.827       0.000    
  1064  0.7759      0.7255E-03 SHELL          1   0.0%   8.836      0.3388E-03  0.1817E-31   8.837       0.000    
  1065  0.7766      0.7255E-03 SHELL          1   0.0%   8.845      0.3389E-03  0.1930E-31   8.846       0.000    
  1066  0.7773      0.7255E-03 SHELL          1   0.0%   8.855      0.3389E-03  0.2022E-31   8.856       0.000    
  1067  0.7780      0.7254E-03 SHELL          1   0.0%   8.865      0.3390E-03  0.2062E-31   8.865       0.000    
  1068  0.7788      0.7254E-03 SHELL          1   0.0%   8.874      0.3390E-03  0.2071E-31   8.875       0.000    
  1069  0.7795      0.7254E-03 SHELL          1   0.0%   8.884      0.3390E-03  0.2115E-31   8.885       0.000    
  1070  0.7802      0.7254E-03 SHELL          1   0.0%   8.893      0.3391E-03  0.2157E-31   8.894       0.000    
  1071  0.7809      0.7254E-03 SHELL          1   0.0%   8.903      0.3391E-03  0.2152E-31   8.904       0.000    
  1072  0.7817      0.7254E-03 SHELL          1   0.0%   8.913      0.3391E-03  0.2093E-31   8.913       0.000    
  1073  0.7824      0.7254E-03 SHELL          1   0.0%   8.922      0.3391E-03  0.2061E-31   8.923       0.000    
  1074  0.7831      0.7254E-03 SHELL          1   0.0%   8.932      0.3392E-03  0.2119E-31   8.933       0.000    
  1075  0.7838      0.7253E-03 SHELL          1   0.0%   8.941      0.3392E-03  0.2165E-31   8.942       0.000    
  1076  0.7846      0.7253E-03 SHELL          1   0.0%   8.951      0.3393E-03  0.2165E-31   8.952       0.000    
  1077  0.7853      0.7253E-03 SHELL          1   0.0%   8.961      0.3393E-03  0.2183E-31   8.961       0.000    
  1078  0.7860      0.7253E-03 SHELL          1   0.0%   8.970      0.3394E-03  0.2181E-31   8.971       0.000    
  1079  0.7867      0.7253E-03 SHELL          1   0.0%   8.980      0.3394E-03  0.2136E-31   8.981       0.000    
  1080  0.7875      0.7253E-03 SHELL          1   0.0%   8.989      0.3394E-03  0.2074E-31   8.990       0.000    
  1081  0.7882      0.7253E-03 SHELL          1   0.0%   8.999      0.3395E-03  0.2022E-31   9.000       0.000    
  1082  0.7889      0.7252E-03 SHELL          1   0.0%   9.009      0.3395E-03  0.1996E-31   9.009       0.000    
  1083  0.7896      0.7252E-03 SHELL          1   0.0%   9.018      0.3395E-03  0.1948E-31   9.019       0.000    
  1084  0.7904      0.7252E-03 SHELL          1   0.0%   9.028      0.3395E-03  0.1911E-31   9.029       0.000    
  1085  0.7911      0.7252E-03 SHELL          1   0.0%   9.038      0.3396E-03  0.1891E-31   9.038       0.000    
  1086  0.7918      0.7252E-03 SHELL          1   0.0%   9.047      0.3396E-03  0.1864E-31   9.048       0.000    
  1087  0.7925      0.7252E-03 SHELL          1   0.0%   9.057      0.3397E-03  0.1838E-31   9.058       0.000    
  1088  0.7933      0.7252E-03 SHELL          1   0.0%   9.066      0.3397E-03  0.1865E-31   9.067       0.000    
  1089  0.7940      0.7251E-03 SHELL          1   0.0%   9.076      0.3397E-03  0.1861E-31   9.077       0.000    
  1090  0.7947      0.7251E-03 SHELL          1   0.0%   9.086      0.3398E-03  0.1824E-31   9.086       0.000    
  1091  0.7954      0.7251E-03 SHELL          1   0.0%   9.095      0.3398E-03  0.1840E-31   9.096       0.000    
  1092  0.7962      0.7251E-03 SHELL          1   0.0%   9.105      0.3398E-03  0.1861E-31   9.106       0.000    
  1093  0.7969      0.7251E-03 SHELL          1   0.0%   9.114      0.3399E-03  0.1874E-31   9.115       0.000    
  1094  0.7976      0.7251E-03 SHELL          1   0.0%   9.124      0.3399E-03  0.1965E-31   9.125       0.000    
  1095  0.7983      0.7251E-03 SHELL          1   0.0%   9.134      0.3399E-03  0.2078E-31   9.134       0.000    
  1096  0.7991      0.7251E-03 SHELL          1   0.0%   9.143      0.3400E-03  0.2144E-31   9.144       0.000    
  1097  0.7998      0.7250E-03 SHELL          1   0.0%   9.153      0.3400E-03  0.2243E-31   9.154       0.000    
  1098  0.8005      0.7250E-03 SHELL          1   0.0%   9.163      0.3401E-03  0.2309E-31   9.163       0.000    
     ANIMATION FILE: 1ELEM_SAMPA009 WRITTEN
  1099  0.8012      0.7250E-03 SHELL          1   0.0%   9.172      0.3401E-03  0.2321E-31   9.173       0.000    
 CYCLE    TIME      TIME-STEP  ELEMENT          ERROR  I-ENERGY    K-ENERGY T  K-ENERGY R  EXT-WORK MAS.ERR
  1100  0.8020      0.7250E-03 SHELL          1   0.0%   9.182      0.3401E-03  0.2370E-31   9.183       0.000    
  1101  0.8027      0.7250E-03 SHELL          1   0.0%   9.191      0.3402E-03  0.2447E-31   9.192       0.000    
  1102  0.8034      0.7250E-03 SHELL          1   0.0%   9.201      0.3402E-03  0.2484E-31   9.202       0.000    
  1103  0.8041      0.7250E-03 SHELL          1   0.0%   9.211      0.3402E-03  0.2464E-31   9.212       0.000    
  1104  0.8049      0.7249E-03 SHELL          1   0.0%   9.220      0.3403E-03  0.2465E-31   9.221       0.000    
  1105  0.8056      0.7249E-03 SHELL          1   0.0%   9.230      0.3403E-03  0.2560E-31   9.231       0.000    
  1106  0.8063      0.7249E-03 SHELL          1   0.0%   9.240      0.3403E-03  0.2707E-31   9.240       0.000    
  1107  0.8070      0.7249E-03 SHELL          1   0.0%   9.249      0.3404E-03  0.2817E-31   9.250       0.000    
  1108  0.8078      0.7249E-03 SHELL          1   0.0%   9.259      0.3404E-03  0.2896E-31   9.260       0.000    
  1109  0.8085      0.7249E-03 SHELL          1   0.0%   9.269      0.3405E-03  0.2922E-31   9.269       0.000    
  1110  0.8092      0.7249E-03 SHELL          1   0.0%   9.278      0.3405E-03  0.2915E-31   9.279       0.000    
  1111  0.8099      0.7248E-03 SHELL          1   0.0%   9.288      0.3405E-03  0.2903E-31   9.289       0.000    
  1112  0.8107      0.7248E-03 SHELL          1   0.0%   9.298      0.3406E-03  0.2925E-31   9.298       0.000    
  1113  0.8114      0.7248E-03 SHELL          1   0.0%   9.307      0.3406E-03  0.2917E-31   9.308       0.000    
  1114  0.8121      0.7248E-03 SHELL          1   0.0%   9.317      0.3406E-03  0.2935E-31   9.318       0.000    
  1115  0.8128      0.7248E-03 SHELL          1   0.0%   9.326      0.3407E-03  0.3093E-31   9.327       0.000    
  1116  0.8136      0.7248E-03 SHELL          1   0.0%   9.336      0.3407E-03  0.3261E-31   9.337       0.000    
  1117  0.8143      0.7248E-03 SHELL          1   0.0%   9.346      0.3407E-03  0.3425E-31   9.347       0.000    
  1118  0.8150      0.7247E-03 SHELL          1   0.0%   9.355      0.3408E-03  0.3505E-31   9.356       0.000    
  1119  0.8157      0.7247E-03 SHELL          1   0.0%   9.365      0.3408E-03  0.3510E-31   9.366       0.000    
  1120  0.8165      0.7247E-03 SHELL          1   0.0%   9.375      0.3409E-03  0.3473E-31   9.375       0.000    
  1121  0.8172      0.7247E-03 SHELL          1   0.0%   9.384      0.3409E-03  0.3414E-31   9.385       0.000    
  1122  0.8179      0.7247E-03 SHELL          1   0.0%   9.394      0.3409E-03  0.3435E-31   9.395       0.000    
  1123  0.8186      0.7247E-03 SHELL          1   0.0%   9.404      0.3410E-03  0.3548E-31   9.404       0.000    
  1124  0.8194      0.7247E-03 SHELL          1   0.0%   9.413      0.3410E-03  0.3684E-31   9.414       0.000    
  1125  0.8201      0.7246E-03 SHELL          1   0.0%   9.423      0.3410E-03  0.3746E-31   9.424       0.000    
  1126  0.8208      0.7246E-03 SHELL          1   0.0%   9.433      0.3411E-03  0.3831E-31   9.433       0.000    
  1127  0.8215      0.7246E-03 SHELL          1   0.0%   9.442      0.3411E-03  0.3871E-31   9.443       0.000    
  1128  0.8223      0.7246E-03 SHELL          1   0.0%   9.452      0.3411E-03  0.3798E-31   9.453       0.000    
  1129  0.8230      0.7246E-03 SHELL          1   0.0%   9.462      0.3412E-03  0.3802E-31   9.462       0.000    
  1130  0.8237      0.7246E-03 SHELL          1   0.0%   9.471      0.3412E-03  0.3835E-31   9.472       0.000    
  1131  0.8244      0.7246E-03 SHELL          1   0.0%   9.481      0.3412E-03  0.3850E-31   9.482       0.000    
  1132  0.8252      0.7245E-03 SHELL          1   0.0%   9.491      0.3413E-03  0.3936E-31   9.491       0.000    
  1133  0.8259      0.7245E-03 SHELL          1   0.0%   9.500      0.3413E-03  0.4104E-31   9.501       0.000    
  1134  0.8266      0.7245E-03 SHELL          1   0.0%   9.510      0.3414E-03  0.4298E-31   9.511       0.000    
  1135  0.8273      0.7245E-03 SHELL          1   0.0%   9.520      0.3414E-03  0.4418E-31   9.520       0.000    
  1136  0.8281      0.7245E-03 SHELL          1   0.0%   9.529      0.3414E-03  0.4530E-31   9.530       0.000    
  1137  0.8288      0.7245E-03 SHELL          1   0.0%   9.539      0.3415E-03  0.4731E-31   9.540       0.000    
  1138  0.8295      0.7245E-03 SHELL          1   0.0%   9.549      0.3415E-03  0.4821E-31   9.549       0.000    
  1139  0.8302      0.7244E-03 SHELL          1   0.0%   9.558      0.3415E-03  0.4881E-31   9.559       0.000    
  1140  0.8310      0.7244E-03 SHELL          1   0.0%   9.568      0.3416E-03  0.5018E-31   9.569       0.000    
  1141  0.8317      0.7244E-03 SHELL          1   0.0%   9.578      0.3416E-03  0.5091E-31   9.578       0.000    
  1142  0.8324      0.7244E-03 SHELL          1   0.0%   9.587      0.3416E-03  0.5253E-31   9.588       0.000    
  1143  0.8331      0.7244E-03 SHELL          1   0.0%   9.597      0.3417E-03  0.5459E-31   9.598       0.000    
  1144  0.8339      0.7244E-03 SHELL          1   0.0%   9.607      0.3417E-03  0.5528E-31   9.607       0.000    
  1145  0.8346      0.7244E-03 SHELL          1   0.0%   9.616      0.3417E-03  0.5627E-31   9.617       0.000    
  1146  0.8353      0.7243E-03 SHELL          1   0.0%   9.626      0.3418E-03  0.5729E-31   9.627       0.000    
  1147  0.8360      0.7243E-03 SHELL          1   0.0%   9.636      0.3418E-03  0.5734E-31   9.636       0.000    
  1148  0.8368      0.7243E-03 SHELL          1   0.0%   9.645      0.3419E-03  0.5721E-31   9.646       0.000    
  1149  0.8375      0.7243E-03 SHELL          1   0.0%   9.655      0.3419E-03  0.5758E-31   9.656       0.000    
  1150  0.8382      0.7243E-03 SHELL          1   0.0%   9.665      0.3419E-03  0.5855E-31   9.665       0.000    
  1151  0.8389      0.7243E-03 SHELL          1   0.0%   9.674      0.3420E-03  0.5945E-31   9.675       0.000    
  1152  0.8396      0.7243E-03 SHELL          1   0.0%   9.684      0.3420E-03  0.5977E-31   9.685       0.000    
  1153  0.8404      0.7242E-03 SHELL          1   0.0%   9.694      0.3420E-03  0.5908E-31   9.694       0.000    
  1154  0.8411      0.7242E-03 SHELL          1   0.0%   9.703      0.3421E-03  0.5886E-31   9.704       0.000    
 CYCLE    TIME      TIME-STEP  ELEMENT          ERROR  I-ENERGY    K-ENERGY T  K-ENERGY R  EXT-WORK MAS.ERR
  1155  0.8418      0.7242E-03 SHELL          1   0.0%   9.713      0.3421E-03  0.5943E-31   9.714       0.000    
  1156  0.8425      0.7242E-03 SHELL          1   0.0%   9.723      0.3421E-03  0.5873E-31   9.723       0.000    
  1157  0.8433      0.7242E-03 SHELL          1   0.0%   9.732      0.3422E-03  0.5725E-31   9.733       0.000    
  1158  0.8440      0.7242E-03 SHELL          1   0.0%   9.742      0.3422E-03  0.5536E-31   9.743       0.000    
  1159  0.8447      0.7242E-03 SHELL          1   0.0%   9.752      0.3422E-03  0.5442E-31   9.752       0.000    
  1160  0.8454      0.7241E-03 SHELL          1   0.0%   9.761      0.3423E-03  0.5409E-31   9.762       0.000    
  1161  0.8462      0.7241E-03 SHELL          1   0.0%   9.771      0.3423E-03  0.5407E-31   9.772       0.000    
  1162  0.8469      0.7241E-03 SHELL          1   0.0%   9.781      0.3423E-03  0.5442E-31   9.782       0.000    
  1163  0.8476      0.7241E-03 SHELL          1   0.0%   9.790      0.3424E-03  0.5379E-31   9.791       0.000    
  1164  0.8483      0.7241E-03 SHELL          1   0.0%   9.800      0.3424E-03  0.5269E-31   9.801       0.000    
  1165  0.8491      0.7241E-03 SHELL          1   0.0%   9.810      0.3425E-03  0.5237E-31   9.811       0.000    
  1166  0.8498      0.7241E-03 SHELL          1   0.0%   9.819      0.3425E-03  0.5309E-31   9.820       0.000    
  1167  0.8505      0.7240E-03 SHELL          1   0.0%   9.829      0.3426E-03  0.5369E-31   9.830       0.000    
  1168  0.8512      0.7240E-03 SHELL          1   0.0%   9.839      0.3426E-03  0.5419E-31   9.840       0.000    
  1169  0.8520      0.7240E-03 SHELL          1   0.0%   9.849      0.3427E-03  0.5431E-31   9.849       0.000    
  1170  0.8527      0.7240E-03 SHELL          1   0.0%   9.858      0.3427E-03  0.5425E-31   9.859       0.000    
  1171  0.8534      0.7240E-03 SHELL          1   0.0%   9.868      0.3427E-03  0.5413E-31   9.869       0.000    
  1172  0.8541      0.7240E-03 SHELL          1   0.0%   9.878      0.3428E-03  0.5368E-31   9.878       0.000    
  1173  0.8549      0.7239E-03 SHELL          1   0.0%   9.887      0.3428E-03  0.5303E-31   9.888       0.000    
  1174  0.8556      0.7239E-03 SHELL          1   0.0%   9.897      0.3428E-03  0.5206E-31   9.898       0.000    
  1175  0.8563      0.7239E-03 SHELL          1   0.0%   9.907      0.3428E-03  0.5138E-31   9.908       0.000    
  1176  0.8570      0.7239E-03 SHELL          1   0.0%   9.916      0.3429E-03  0.5223E-31   9.917       0.000    
  1177  0.8577      0.7239E-03 SHELL          1   0.0%   9.926      0.3429E-03  0.5308E-31   9.927       0.000    
  1178  0.8585      0.7239E-03 SHELL          1   0.0%   9.936      0.3430E-03  0.5298E-31   9.937       0.000    
  1179  0.8592      0.7239E-03 SHELL          1   0.0%   9.945      0.3430E-03  0.5366E-31   9.946       0.000    
  1180  0.8599      0.7238E-03 SHELL          1   0.0%   9.955      0.3430E-03  0.5444E-31   9.956       0.000    
  1181  0.8606      0.7238E-03 SHELL          1   0.0%   9.965      0.3431E-03  0.5490E-31   9.966       0.000    
  1182  0.8614      0.7238E-03 SHELL          1   0.0%   9.975      0.3431E-03  0.5491E-31   9.975       0.000    
  1183  0.8621      0.7238E-03 SHELL          1   0.0%   9.984      0.3431E-03  0.5396E-31   9.985       0.000    
  1184  0.8628      0.7238E-03 SHELL          1   0.0%   9.994      0.3432E-03  0.5328E-31   9.995       0.000    
  1185  0.8635      0.7238E-03 SHELL          1   0.0%   10.00      0.3432E-03  0.5268E-31   10.00       0.000    
  1186  0.8643      0.7238E-03 SHELL          1   0.0%   10.01      0.3432E-03  0.5234E-31   10.01       0.000    
  1187  0.8650      0.7237E-03 SHELL          1   0.0%   10.02      0.3433E-03  0.5258E-31   10.02       0.000    
  1188  0.8657      0.7237E-03 SHELL          1   0.0%   10.03      0.3433E-03  0.5264E-31   10.03       0.000    
  1189  0.8664      0.7237E-03 SHELL          1   0.0%   10.04      0.3433E-03  0.5353E-31   10.04       0.000    
  1190  0.8672      0.7237E-03 SHELL          1   0.0%   10.05      0.3434E-03  0.5480E-31   10.05       0.000    
  1191  0.8679      0.7237E-03 SHELL          1   0.0%   10.06      0.3434E-03  0.5567E-31   10.06       0.000    
  1192  0.8686      0.7237E-03 SHELL          1   0.0%   10.07      0.3435E-03  0.5663E-31   10.07       0.000    
  1193  0.8693      0.7236E-03 SHELL          1   0.0%   10.08      0.3435E-03  0.5692E-31   10.08       0.000    
  1194  0.8701      0.7236E-03 SHELL          1   0.0%   10.09      0.3435E-03  0.5628E-31   10.09       0.000    
  1195  0.8708      0.7236E-03 SHELL          1   0.0%   10.10      0.3436E-03  0.5589E-31   10.10       0.000    
  1196  0.8715      0.7236E-03 SHELL          1   0.0%   10.11      0.3436E-03  0.5593E-31   10.11       0.000    
  1197  0.8722      0.7236E-03 SHELL          1   0.0%   10.12      0.3436E-03  0.5601E-31   10.12       0.000    
  1198  0.8729      0.7236E-03 SHELL          1   0.0%   10.13      0.3437E-03  0.5589E-31   10.13       0.000    
  1199  0.8737      0.7236E-03 SHELL          1   0.0%   10.14      0.3437E-03  0.5668E-31   10.14       0.000    
  1200  0.8744      0.7235E-03 SHELL          1   0.0%   10.15      0.3437E-03  0.5877E-31   10.15       0.000    
  1201  0.8751      0.7235E-03 SHELL          1   0.0%   10.16      0.3438E-03  0.6052E-31   10.16       0.000    
  1202  0.8758      0.7235E-03 SHELL          1   0.0%   10.17      0.3438E-03  0.6051E-31   10.17       0.000    
  1203  0.8766      0.7235E-03 SHELL          1   0.0%   10.18      0.3439E-03  0.6037E-31   10.18       0.000    
  1204  0.8773      0.7235E-03 SHELL          1   0.0%   10.19      0.3439E-03  0.5928E-31   10.19       0.000    
  1205  0.8780      0.7235E-03 SHELL          1   0.0%   10.20      0.3439E-03  0.5678E-31   10.20       0.000    
  1206  0.8787      0.7234E-03 SHELL          1   0.0%   10.21      0.3440E-03  0.5554E-31   10.21       0.000    
  1207  0.8795      0.7234E-03 SHELL          1   0.0%   10.22      0.3440E-03  0.5607E-31   10.22       0.000    
  1208  0.8802      0.7234E-03 SHELL          1   0.0%   10.23      0.3440E-03  0.5725E-31   10.23       0.000    
  1209  0.8809      0.7234E-03 SHELL          1   0.0%   10.24      0.3441E-03  0.5711E-31   10.24       0.000    
 CYCLE    TIME      TIME-STEP  ELEMENT          ERROR  I-ENERGY    K-ENERGY T  K-ENERGY R  EXT-WORK MAS.ERR
  1210  0.8816      0.7234E-03 SHELL          1   0.0%   10.25      0.3441E-03  0.5679E-31   10.25       0.000    
  1211  0.8824      0.7234E-03 SHELL          1   0.0%   10.26      0.3441E-03  0.5779E-31   10.26       0.000    
  1212  0.8831      0.7234E-03 SHELL          1   0.0%   10.27      0.3442E-03  0.5814E-31   10.27       0.000    
  1213  0.8838      0.7233E-03 SHELL          1   0.0%   10.28      0.3442E-03  0.5798E-31   10.28       0.000    
  1214  0.8845      0.7233E-03 SHELL          1   0.0%   10.29      0.3443E-03  0.5780E-31   10.29       0.000    
  1215  0.8852      0.7233E-03 SHELL          1   0.0%   10.30      0.3443E-03  0.5711E-31   10.30       0.000    
  1216  0.8860      0.7233E-03 SHELL          1   0.0%   10.30      0.3443E-03  0.5731E-31   10.31       0.000    
  1217  0.8867      0.7233E-03 SHELL          1   0.0%   10.31      0.3444E-03  0.5828E-31   10.32       0.000    
  1218  0.8874      0.7233E-03 SHELL          1   0.0%   10.32      0.3444E-03  0.5919E-31   10.33       0.000    
  1219  0.8881      0.7232E-03 SHELL          1   0.0%   10.33      0.3444E-03  0.6102E-31   10.33       0.000    
  1220  0.8889      0.7232E-03 SHELL          1   0.0%   10.34      0.3445E-03  0.6274E-31   10.34       0.000    
  1221  0.8896      0.7232E-03 SHELL          1   0.0%   10.35      0.3445E-03  0.6279E-31   10.35       0.000    
  1222  0.8903      0.7232E-03 SHELL          1   0.0%   10.36      0.3445E-03  0.6224E-31   10.36       0.000    
  1223  0.8910      0.7232E-03 SHELL          1   0.0%   10.37      0.3446E-03  0.6181E-31   10.37       0.000    
  1224  0.8918      0.7232E-03 SHELL          1   0.0%   10.38      0.3446E-03  0.6171E-31   10.38       0.000    
  1225  0.8925      0.7232E-03 SHELL          1   0.0%   10.39      0.3447E-03  0.6161E-31   10.39       0.000    
  1226  0.8932      0.7231E-03 SHELL          1   0.0%   10.40      0.3447E-03  0.6228E-31   10.40       0.000    
  1227  0.8939      0.7231E-03 SHELL          1   0.0%   10.41      0.3447E-03  0.6304E-31   10.41       0.000    
  1228  0.8946      0.7231E-03 SHELL          1   0.0%   10.42      0.3447E-03  0.6391E-31   10.42       0.000    
  1229  0.8954      0.7231E-03 SHELL          1   0.0%   10.43      0.3448E-03  0.6413E-31   10.43       0.000    
  1230  0.8961      0.7231E-03 SHELL          1   0.0%   10.44      0.3448E-03  0.6282E-31   10.44       0.000    
  1231  0.8968      0.7231E-03 SHELL          1   0.0%   10.45      0.3449E-03  0.6357E-31   10.45       0.000    
  1232  0.8975      0.7230E-03 SHELL          1   0.0%   10.46      0.3449E-03  0.6457E-31   10.46       0.000    
  1233  0.8983      0.7230E-03 SHELL          1   0.0%   10.47      0.3449E-03  0.6364E-31   10.47       0.000    
  1234  0.8990      0.7230E-03 SHELL          1   0.0%   10.48      0.3450E-03  0.6292E-31   10.48       0.000    
  1235  0.8997      0.7230E-03 SHELL          1   0.0%   10.49      0.3450E-03  0.6367E-31   10.49       0.000    
  1236  0.9004      0.7230E-03 SHELL          1   0.0%   10.50      0.3450E-03  0.6487E-31   10.50       0.000    
     ANIMATION FILE: 1ELEM_SAMPA010 WRITTEN
  1237  0.9012      0.7230E-03 SHELL          1   0.0%   10.51      0.3451E-03  0.6502E-31   10.51       0.000    
  1238  0.9019      0.7229E-03 SHELL          1   0.0%   10.52      0.3451E-03  0.6554E-31   10.52       0.000    
  1239  0.9026      0.7229E-03 SHELL          1   0.0%   10.53      0.3451E-03  0.6796E-31   10.53       0.000    
  1240  0.9033      0.7229E-03 SHELL          1   0.0%   10.54      0.3452E-03  0.6940E-31   10.54       0.000    
  1241  0.9040      0.7229E-03 SHELL          1   0.0%   10.55      0.3452E-03  0.6851E-31   10.55       0.000    
  1242  0.9048      0.7229E-03 SHELL          1   0.0%   10.56      0.3453E-03  0.6599E-31   10.56       0.000    
  1243  0.9055      0.7229E-03 SHELL          1   0.0%   10.57      0.3453E-03  0.6297E-31   10.57       0.000    
  1244  0.9062      0.7229E-03 SHELL          1   0.0%   10.58      0.3453E-03  0.6103E-31   10.58       0.000    
  1245  0.9069      0.7228E-03 SHELL          1   0.0%   10.59      0.3454E-03  0.5986E-31   10.59       0.000    
  1246  0.9077      0.7228E-03 SHELL          1   0.0%   10.60      0.3454E-03  0.5932E-31   10.60       0.000    
  1247  0.9084      0.7228E-03 SHELL          1   0.0%   10.61      0.3454E-03  0.5932E-31   10.61       0.000    
  1248  0.9091      0.7228E-03 SHELL          1   0.0%   10.62      0.3455E-03  0.6003E-31   10.62       0.000    
  1249  0.9098      0.7228E-03 SHELL          1   0.0%   10.63      0.3455E-03  0.6002E-31   10.63       0.000    
  1250  0.9106      0.7228E-03 SHELL          1   0.0%   10.64      0.3455E-03  0.6046E-31   10.64       0.000    
  1251  0.9113      0.7227E-03 SHELL          1   0.0%   10.65      0.3456E-03  0.6142E-31   10.65       0.000    
  1252  0.9120      0.7227E-03 SHELL          1   0.0%   10.66      0.3456E-03  0.6093E-31   10.66       0.000    
  1253  0.9127      0.7227E-03 SHELL          1   0.0%   10.67      0.3456E-03  0.6002E-31   10.67       0.000    
  1254  0.9134      0.7227E-03 SHELL          1   0.0%   10.68      0.3457E-03  0.5943E-31   10.68       0.000    
  1255  0.9142      0.7227E-03 SHELL          1   0.0%   10.68      0.3457E-03  0.5912E-31   10.69       0.000    
  1256  0.9149      0.7227E-03 SHELL          1   0.0%   10.69      0.3458E-03  0.5754E-31   10.70       0.000    
  1257  0.9156      0.7226E-03 SHELL          1   0.0%   10.70      0.3458E-03  0.5588E-31   10.71       0.000    
  1258  0.9163      0.7226E-03 SHELL          1   0.0%   10.71      0.3458E-03  0.5641E-31   10.71       0.000    
  1259  0.9171      0.7226E-03 SHELL          1   0.0%   10.72      0.3459E-03  0.5844E-31   10.72       0.000    
  1260  0.9178      0.7226E-03 SHELL          1   0.0%   10.73      0.3459E-03  0.5918E-31   10.73       0.000    
  1261  0.9185      0.7226E-03 SHELL          1   0.0%   10.74      0.3459E-03  0.5876E-31   10.74       0.000    
  1262  0.9192      0.7226E-03 SHELL          1   0.0%   10.75      0.3460E-03  0.5949E-31   10.75       0.000    
  1263  0.9199      0.7225E-03 SHELL          1   0.0%   10.76      0.3460E-03  0.5914E-31   10.76       0.000    
  1264  0.9207      0.7225E-03 SHELL          1   0.0%   10.77      0.3460E-03  0.5720E-31   10.77       0.000    
 CYCLE    TIME      TIME-STEP  ELEMENT          ERROR  I-ENERGY    K-ENERGY T  K-ENERGY R  EXT-WORK MAS.ERR
  1265  0.9214      0.7225E-03 SHELL          1   0.0%   10.78      0.3461E-03  0.5590E-31   10.78       0.000    
  1266  0.9221      0.7225E-03 SHELL          1   0.0%   10.79      0.3461E-03  0.5576E-31   10.79       0.000    
  1267  0.9228      0.7225E-03 SHELL          1   0.0%   10.80      0.3462E-03  0.5538E-31   10.80       0.000    
  1268  0.9236      0.7225E-03 SHELL          1   0.0%   10.81      0.3462E-03  0.5443E-31   10.81       0.000    
  1269  0.9243      0.7224E-03 SHELL          1   0.0%   10.82      0.3462E-03  0.5349E-31   10.82       0.000    
  1270  0.9250      0.7224E-03 SHELL          1   0.0%   10.83      0.3463E-03  0.5319E-31   10.83       0.000    
  1271  0.9257      0.7224E-03 SHELL          1   0.0%   10.84      0.3463E-03  0.5323E-31   10.84       0.000    
  1272  0.9265      0.7224E-03 SHELL          1   0.0%   10.85      0.3463E-03  0.5219E-31   10.85       0.000    
  1273  0.9272      0.7224E-03 SHELL          1   0.0%   10.86      0.3464E-03  0.5067E-31   10.86       0.000    
  1274  0.9279      0.7224E-03 SHELL          1   0.0%   10.87      0.3464E-03  0.4918E-31   10.87       0.000    
  1275  0.9286      0.7224E-03 SHELL          1   0.0%   10.88      0.3464E-03  0.4741E-31   10.88       0.000    
  1276  0.9293      0.7223E-03 SHELL          1   0.0%   10.89      0.3465E-03  0.4618E-31   10.89       0.000    
  1277  0.9301      0.7223E-03 SHELL          1   0.0%   10.90      0.3465E-03  0.4666E-31   10.90       0.000    
  1278  0.9308      0.7223E-03 SHELL          1   0.0%   10.91      0.3466E-03  0.4791E-31   10.91       0.000    
  1279  0.9315      0.7223E-03 SHELL          1   0.0%   10.92      0.3466E-03  0.4906E-31   10.92       0.000    
  1280  0.9322      0.7223E-03 SHELL          1   0.0%   10.93      0.3466E-03  0.4964E-31   10.93       0.000    
  1281  0.9330      0.7223E-03 SHELL          1   0.0%   10.94      0.3467E-03  0.4901E-31   10.94       0.000    
  1282  0.9337      0.7222E-03 SHELL          1   0.0%   10.95      0.3467E-03  0.4680E-31   10.95       0.000    
  1283  0.9344      0.7222E-03 SHELL          1   0.0%   10.96      0.3467E-03  0.4397E-31   10.96       0.000    
  1284  0.9351      0.7222E-03 SHELL          1   0.0%   10.97      0.3468E-03  0.4152E-31   10.97       0.000    
  1285  0.9358      0.7222E-03 SHELL          1   0.0%   10.98      0.3468E-03  0.4023E-31   10.98       0.000    
  1286  0.9366      0.7222E-03 SHELL          1   0.0%   10.99      0.3468E-03  0.3984E-31   10.99       0.000    
  1287  0.9373      0.7222E-03 SHELL          1   0.0%   11.00      0.3469E-03  0.4011E-31   11.00       0.000    
  1288  0.9380      0.7221E-03 SHELL          1   0.0%   11.01      0.3469E-03  0.4074E-31   11.01       0.000    
  1289  0.9387      0.7221E-03 SHELL          1   0.0%   11.02      0.3470E-03  0.4038E-31   11.02       0.000    
  1290  0.9395      0.7221E-03 SHELL          1   0.0%   11.03      0.3470E-03  0.3935E-31   11.03       0.000    
  1291  0.9402      0.7221E-03 SHELL          1   0.0%   11.04      0.3470E-03  0.3771E-31   11.04       0.000    
  1292  0.9409      0.7221E-03 SHELL          1   0.0%   11.05      0.3471E-03  0.3599E-31   11.05       0.000    
  1293  0.9416      0.7221E-03 SHELL          1   0.0%   11.06      0.3471E-03  0.3415E-31   11.06       0.000    
  1294  0.9423      0.7220E-03 SHELL          1   0.0%   11.07      0.3471E-03  0.3237E-31   11.07       0.000    
  1295  0.9431      0.7220E-03 SHELL          1   0.0%   11.08      0.3472E-03  0.3100E-31   11.08       0.000    
  1296  0.9438      0.7220E-03 SHELL          1   0.0%   11.09      0.3472E-03  0.2948E-31   11.09       0.000    
  1297  0.9445      0.7220E-03 SHELL          1   0.0%   11.10      0.3473E-03  0.2890E-31   11.10       0.000    
  1298  0.9452      0.7220E-03 SHELL          1   0.0%   11.11      0.3474E-03  0.2916E-31   11.11       0.000    
  1299  0.9459      0.7220E-03 SHELL          1   0.0%   11.11      0.3475E-03  0.2908E-31   11.12       0.000    
  1300  0.9467      0.7219E-03 SHELL          1   0.0%   11.12      0.3475E-03  0.2842E-31   11.13       0.000    
  1301  0.9474      0.7219E-03 SHELL          1   0.0%   11.13      0.3475E-03  0.2709E-31   11.14       0.000    
  1302  0.9481      0.7219E-03 SHELL          1   0.0%   11.14      0.3475E-03  0.2558E-31   11.15       0.000    
  1303  0.9488      0.7219E-03 SHELL          1   0.0%   11.15      0.3475E-03  0.2414E-31   11.15       0.000    
  1304  0.9496      0.7219E-03 SHELL          1   0.0%   11.16      0.3475E-03  0.2308E-31   11.16       0.000    
  1305  0.9503      0.7219E-03 SHELL          1   0.0%   11.17      0.3475E-03  0.2270E-31   11.17       0.000    
  1306  0.9510      0.7218E-03 SHELL          1   0.0%   11.18      0.3476E-03  0.2256E-31   11.18       0.000    
  1307  0.9517      0.7218E-03 SHELL          1   0.0%   11.19      0.3476E-03  0.2241E-31   11.19       0.000    
  1308  0.9524      0.7218E-03 SHELL          1   0.0%   11.20      0.3477E-03  0.2204E-31   11.20       0.000    
  1309  0.9532      0.7218E-03 SHELL          1   0.0%   11.21      0.3478E-03  0.2144E-31   11.21       0.000    
  1310  0.9539      0.7218E-03 SHELL          1   0.0%   11.22      0.3478E-03  0.2071E-31   11.22       0.000    
  1311  0.9546      0.7217E-03 SHELL          1   0.0%   11.23      0.3479E-03  0.2027E-31   11.23       0.000    
  1312  0.9553      0.7217E-03 SHELL          1   0.0%   11.24      0.3479E-03  0.1962E-31   11.24       0.000    
  1313  0.9561      0.7217E-03 SHELL          1   0.0%   11.25      0.3479E-03  0.1829E-31   11.25       0.000    
  1314  0.9568      0.7217E-03 SHELL          1   0.0%   11.26      0.3479E-03  0.1739E-31   11.26       0.000    
  1315  0.9575      0.7217E-03 SHELL          1   0.0%   11.27      0.3479E-03  0.1711E-31   11.27       0.000    
  1316  0.9582      0.7217E-03 SHELL          1   0.0%   11.28      0.3479E-03  0.1665E-31   11.28       0.000    
  1317  0.9589      0.7216E-03 SHELL          1   0.0%   11.29      0.3480E-03  0.1624E-31   11.29       0.000    
  1318  0.9597      0.7216E-03 SHELL          1   0.0%   11.30      0.3480E-03  0.1636E-31   11.30       0.000    
  1319  0.9604      0.7216E-03 SHELL          1   0.0%   11.31      0.3481E-03  0.1664E-31   11.31       0.000    
 CYCLE    TIME      TIME-STEP  ELEMENT          ERROR  I-ENERGY    K-ENERGY T  K-ENERGY R  EXT-WORK MAS.ERR
  1320  0.9611      0.7216E-03 SHELL          1   0.0%   11.32      0.3482E-03  0.1688E-31   11.32       0.000    
  1321  0.9618      0.7216E-03 SHELL          1   0.0%   11.33      0.3482E-03  0.1758E-31   11.33       0.000    
  1322  0.9625      0.7216E-03 SHELL          1   0.0%   11.34      0.3483E-03  0.1842E-31   11.34       0.000    
  1323  0.9633      0.7215E-03 SHELL          1   0.0%   11.35      0.3483E-03  0.1895E-31   11.35       0.000    
  1324  0.9640      0.7215E-03 SHELL          1   0.0%   11.36      0.3483E-03  0.1948E-31   11.36       0.000    
  1325  0.9647      0.7215E-03 SHELL          1   0.0%   11.37      0.3483E-03  0.1986E-31   11.37       0.000    
  1326  0.9654      0.7215E-03 SHELL          1   0.0%   11.38      0.3483E-03  0.1999E-31   11.38       0.000    
  1327  0.9662      0.7215E-03 SHELL          1   0.0%   11.39      0.3484E-03  0.2000E-31   11.39       0.000    
  1328  0.9669      0.7215E-03 SHELL          1   0.0%   11.40      0.3484E-03  0.1977E-31   11.40       0.000    
  1329  0.9676      0.7214E-03 SHELL          1   0.0%   11.41      0.3485E-03  0.1942E-31   11.41       0.000    
  1330  0.9683      0.7214E-03 SHELL          1   0.0%   11.42      0.3485E-03  0.2004E-31   11.42       0.000    
  1331  0.9690      0.7214E-03 SHELL          1   0.0%   11.43      0.3486E-03  0.2111E-31   11.43       0.000    
  1332  0.9698      0.7214E-03 SHELL          1   0.0%   11.44      0.3486E-03  0.2194E-31   11.44       0.000    
  1333  0.9705      0.7214E-03 SHELL          1   0.0%   11.45      0.3487E-03  0.2273E-31   11.45       0.000    
  1334  0.9712      0.7214E-03 SHELL          1   0.0%   11.46      0.3487E-03  0.2303E-31   11.46       0.000    
  1335  0.9719      0.7213E-03 SHELL          1   0.0%   11.47      0.3487E-03  0.2252E-31   11.47       0.000    
  1336  0.9727      0.7213E-03 SHELL          1   0.0%   11.48      0.3487E-03  0.2191E-31   11.48       0.000    
  1337  0.9734      0.7213E-03 SHELL          1   0.0%   11.49      0.3487E-03  0.2175E-31   11.49       0.000    
  1338  0.9741      0.7213E-03 SHELL          1   0.0%   11.50      0.3488E-03  0.2188E-31   11.50       0.000    
  1339  0.9748      0.7213E-03 SHELL          1   0.0%   11.51      0.3488E-03  0.2218E-31   11.51       0.000    
  1340  0.9755      0.7213E-03 SHELL          1   0.0%   11.52      0.3489E-03  0.2251E-31   11.52       0.000    
  1341  0.9763      0.7212E-03 SHELL          1   0.0%   11.53      0.3489E-03  0.2272E-31   11.53       0.000    
  1342  0.9770      0.7212E-03 SHELL          1   0.0%   11.54      0.3490E-03  0.2243E-31   11.54       0.000    
  1343  0.9777      0.7212E-03 SHELL          1   0.0%   11.55      0.3490E-03  0.2236E-31   11.55       0.000    
  1344  0.9784      0.7212E-03 SHELL          1   0.0%   11.56      0.3491E-03  0.2281E-31   11.56       0.000    
  1345  0.9791      0.7212E-03 SHELL          1   0.0%   11.57      0.3491E-03  0.2292E-31   11.57       0.000    
  1346  0.9799      0.7211E-03 SHELL          1   0.0%   11.58      0.3491E-03  0.2275E-31   11.58       0.000    
  1347  0.9806      0.7211E-03 SHELL          1   0.0%   11.59      0.3491E-03  0.2239E-31   11.59       0.000    
  1348  0.9813      0.7211E-03 SHELL          1   0.0%   11.60      0.3491E-03  0.2180E-31   11.60       0.000    
  1349  0.9820      0.7211E-03 SHELL          1   0.0%   11.60      0.3492E-03  0.2142E-31   11.61       0.000    
  1350  0.9827      0.7211E-03 SHELL          1   0.0%   11.61      0.3492E-03  0.2141E-31   11.62       0.000    
  1351  0.9835      0.7211E-03 SHELL          1   0.0%   11.62      0.3493E-03  0.2216E-31   11.63       0.000    
  1352  0.9842      0.7210E-03 SHELL          1   0.0%   11.63      0.3493E-03  0.2383E-31   11.64       0.000    
  1353  0.9849      0.7210E-03 SHELL          1   0.0%   11.64      0.3494E-03  0.2535E-31   11.65       0.000    
  1354  0.9856      0.7210E-03 SHELL          1   0.0%   11.65      0.3494E-03  0.2740E-31   11.65       0.000    
  1355  0.9864      0.7210E-03 SHELL          1   0.0%   11.66      0.3495E-03  0.3010E-31   11.66       0.000    
  1356  0.9871      0.7210E-03 SHELL          1   0.0%   11.67      0.3495E-03  0.3257E-31   11.67       0.000    
  1357  0.9878      0.7210E-03 SHELL          1   0.0%   11.68      0.3495E-03  0.3454E-31   11.68       0.000    
  1358  0.9885      0.7209E-03 SHELL          1   0.0%   11.69      0.3495E-03  0.3512E-31   11.69       0.000    
  1359  0.9892      0.7209E-03 SHELL          1   0.0%   11.70      0.3495E-03  0.3465E-31   11.70       0.000    
  1360  0.9900      0.7209E-03 SHELL          1   0.0%   11.71      0.3496E-03  0.3352E-31   11.71       0.000    
  1361  0.9907      0.7209E-03 SHELL          1   0.0%   11.72      0.3496E-03  0.3300E-31   11.72       0.000    
  1362  0.9914      0.7209E-03 SHELL          1   0.0%   11.73      0.3497E-03  0.3436E-31   11.73       0.000    
  1363  0.9921      0.7208E-03 SHELL          1   0.0%   11.74      0.3497E-03  0.3678E-31   11.74       0.000    
  1364  0.9928      0.7208E-03 SHELL          1   0.0%   11.75      0.3498E-03  0.3922E-31   11.75       0.000    
  1365  0.9936      0.7208E-03 SHELL          1   0.0%   11.76      0.3498E-03  0.4241E-31   11.76       0.000    
  1366  0.9943      0.7208E-03 SHELL          1   0.0%   11.77      0.3498E-03  0.4565E-31   11.77       0.000    
  1367  0.9950      0.7208E-03 SHELL          1   0.0%   11.78      0.3499E-03  0.4732E-31   11.78       0.000    
  1368  0.9957      0.7208E-03 SHELL          1   0.0%   11.79      0.3499E-03  0.4811E-31   11.79       0.000    
  1369  0.9964      0.7207E-03 SHELL          1   0.0%   11.80      0.3499E-03  0.4946E-31   11.80       0.000    
  1370  0.9972      0.7207E-03 SHELL          1   0.0%   11.81      0.3499E-03  0.5066E-31   11.81       0.000    
  1371  0.9979      0.7207E-03 SHELL          1   0.0%   11.82      0.3500E-03  0.5009E-31   11.82       0.000    
  1372  0.9986      0.7207E-03 SHELL          1   0.0%   11.83      0.3500E-03  0.5012E-31   11.83       0.000    
  1373  0.9993      0.7207E-03 SHELL          1   0.0%   11.84      0.3501E-03  0.5142E-31   11.84       0.000    
  1374   1.000      0.7207E-03 SHELL          1   0.0%   11.85      0.3501E-03  0.5285E-31   11.85       0.000    
     ANIMATION FILE: 1ELEM_SAMPA011 WRITTEN
 CYCLE    TIME      TIME-STEP  ELEMENT          ERROR  I-ENERGY    K-ENERGY T  K-ENERGY R  EXT-WORK MAS.ERR
  1375   1.001      0.7206E-03 SHELL          1   0.0%   11.86      0.3502E-03  0.5467E-31   11.86       0.000    
  1376   1.001      0.7206E-03 SHELL          1   0.0%   11.87      0.3502E-03  0.5779E-31   11.87       0.000    
  1377   1.002      0.7206E-03 SHELL          1   0.0%   11.88      0.3502E-03  0.6113E-31   11.88       0.000    
  1378   1.003      0.7206E-03 SHELL          1   0.0%   11.89      0.3503E-03  0.6252E-31   11.89       0.000    
  1379   1.004      0.7206E-03 SHELL          1   0.0%   11.90      0.3503E-03  0.6157E-31   11.90       0.000    
  1380   1.004      0.7205E-03 SHELL          1   0.0%   11.91      0.3503E-03  0.5893E-31   11.91       0.000    
  1381   1.005      0.7205E-03 SHELL          1   0.0%   11.92      0.3504E-03  0.5536E-31   11.92       0.000    
  1382   1.006      0.7205E-03 SHELL          1   0.0%   11.93      0.3504E-03  0.5269E-31   11.93       0.000    
  1383   1.007      0.7205E-03 SHELL          1   0.0%   11.94      0.3505E-03  0.5155E-31   11.94       0.000    
  1384   1.007      0.7205E-03 SHELL          1   0.0%   11.95      0.3505E-03  0.5195E-31   11.95       0.000    
  1385   1.008      0.7205E-03 SHELL          1   0.0%   11.96      0.3506E-03  0.5360E-31   11.96       0.000    
  1386   1.009      0.7204E-03 SHELL          1   0.0%   11.97      0.3506E-03  0.5556E-31   11.97       0.000    
  1387   1.009      0.7204E-03 SHELL          1   0.0%   11.98      0.3506E-03  0.5754E-31   11.98       0.000    
  1388   1.010      0.7204E-03 SHELL          1   0.0%   11.99      0.3507E-03  0.5797E-31   11.99       0.000    
  1389   1.011      0.7204E-03 SHELL          1   0.0%   12.00      0.3507E-03  0.5704E-31   12.00       0.000    
  1390   1.012      0.7204E-03 SHELL          1   0.0%   12.01      0.3507E-03  0.5565E-31   12.01       0.000    
  1391   1.012      0.7203E-03 SHELL          1   0.0%   12.02      0.3508E-03  0.5386E-31   12.02       0.000    
  1392   1.013      0.7203E-03 SHELL          1   0.0%   12.03      0.3508E-03  0.5399E-31   12.03       0.000    
  1393   1.014      0.7203E-03 SHELL          1   0.0%   12.04      0.3508E-03  0.5546E-31   12.04       0.000    
  1394   1.014      0.7203E-03 SHELL          1   0.0%   12.05      0.3509E-03  0.5676E-31   12.05       0.000    
  1395   1.015      0.7203E-03 SHELL          1   0.0%   12.06      0.3509E-03  0.5891E-31   12.06       0.000    
  1396   1.016      0.7203E-03 SHELL          1   0.0%   12.07      0.3510E-03  0.6058E-31   12.07       0.000    
  1397   1.017      0.7202E-03 SHELL          1   0.0%   12.08      0.3510E-03  0.6174E-31   12.08       0.000    
  1398   1.017      0.7202E-03 SHELL          1   0.0%   12.09      0.3511E-03  0.6277E-31   12.09       0.000    
  1399   1.018      0.7202E-03 SHELL          1   0.0%   12.10      0.3511E-03  0.6202E-31   12.10       0.000    
  1400   1.019      0.7202E-03 SHELL          1   0.0%   12.11      0.3511E-03  0.6028E-31   12.11       0.000    
  1401   1.019      0.7202E-03 SHELL          1   0.0%   12.12      0.3512E-03  0.5992E-31   12.12       0.000    
  1402   1.020      0.7201E-03 SHELL          1   0.0%   12.13      0.3512E-03  0.6221E-31   12.13       0.000    
  1403   1.021      0.7201E-03 SHELL          1   0.0%   12.14      0.3512E-03  0.6593E-31   12.14       0.000    
  1404   1.022      0.7201E-03 SHELL          1   0.0%   12.15      0.3513E-03  0.6864E-31   12.15       0.000    
  1405   1.022      0.7201E-03 SHELL          1   0.0%   12.16      0.3513E-03  0.7057E-31   12.16       0.000    
  1406   1.023      0.7201E-03 SHELL          1   0.0%   12.17      0.3514E-03  0.7211E-31   12.17       0.000    
  1407   1.024      0.7201E-03 SHELL          1   0.0%   12.18      0.3514E-03  0.7415E-31   12.18       0.000    
  1408   1.025      0.7200E-03 SHELL          1   0.0%   12.18      0.3515E-03  0.7500E-31   12.19       0.000    
  1409   1.025      0.7200E-03 SHELL          1   0.0%   12.19      0.3515E-03  0.7413E-31   12.20       0.000    
  1410   1.026      0.7200E-03 SHELL          1   0.0%   12.20      0.3515E-03  0.7233E-31   12.21       0.000    
  1411   1.027      0.7200E-03 SHELL          1   0.0%   12.21      0.3516E-03  0.7066E-31   12.22       0.000    
  1412   1.027      0.7200E-03 SHELL          1   0.0%   12.22      0.3516E-03  0.7175E-31   12.23       0.000    
  1413   1.028      0.7199E-03 SHELL          1   0.0%   12.23      0.3516E-03  0.7364E-31   12.24       0.000    
  1414   1.029      0.7199E-03 SHELL          1   0.0%   12.24      0.3517E-03  0.7582E-31   12.24       0.000    
  1415   1.030      0.7199E-03 SHELL          1   0.0%   12.25      0.3517E-03  0.7881E-31   12.25       0.000    
  1416   1.030      0.7199E-03 SHELL          1   0.0%   12.26      0.3517E-03  0.8172E-31   12.26       0.000    
  1417   1.031      0.7199E-03 SHELL          1   0.0%   12.27      0.3518E-03  0.8276E-31   12.27       0.000    
  1418   1.032      0.7199E-03 SHELL          1   0.0%   12.28      0.3518E-03  0.8160E-31   12.28       0.000    
  1419   1.032      0.7198E-03 SHELL          1   0.0%   12.29      0.3519E-03  0.8242E-31   12.29       0.000    
  1420   1.033      0.7198E-03 SHELL          1   0.0%   12.30      0.3519E-03  0.8326E-31   12.30       0.000    
  1421   1.034      0.7198E-03 SHELL          1   0.0%   12.31      0.3519E-03  0.8230E-31   12.31       0.000    
  1422   1.035      0.7198E-03 SHELL          1   0.0%   12.32      0.3520E-03  0.8187E-31   12.32       0.000    
  1423   1.035      0.7198E-03 SHELL          1   0.0%   12.33      0.3520E-03  0.8251E-31   12.33       0.000    
  1424   1.036      0.7197E-03 SHELL          1   0.0%   12.34      0.3521E-03  0.8563E-31   12.34       0.000    
  1425   1.037      0.7197E-03 SHELL          1   0.0%   12.35      0.3521E-03  0.9019E-31   12.35       0.000    
  1426   1.037      0.7197E-03 SHELL          1   0.0%   12.36      0.3521E-03  0.9389E-31   12.36       0.000    
  1427   1.038      0.7197E-03 SHELL          1   0.0%   12.37      0.3522E-03  0.9692E-31   12.37       0.000    
  1428   1.039      0.7197E-03 SHELL          1   0.0%   12.38      0.3522E-03  0.9927E-31   12.38       0.000    
  1429   1.040      0.7196E-03 SHELL          1   0.0%   12.39      0.3523E-03  0.1008E-30   12.39       0.000    
 CYCLE    TIME      TIME-STEP  ELEMENT          ERROR  I-ENERGY    K-ENERGY T  K-ENERGY R  EXT-WORK MAS.ERR
  1430   1.040      0.7196E-03 SHELL          1   0.0%   12.40      0.3523E-03  0.9980E-31   12.40       0.000    
  1431   1.041      0.7196E-03 SHELL          1   0.0%   12.41      0.3523E-03  0.9713E-31   12.41       0.000    
  1432   1.042      0.7196E-03 SHELL          1   0.0%   12.42      0.3524E-03  0.9602E-31   12.42       0.000    
  1433   1.043      0.7196E-03 SHELL          1   0.0%   12.43      0.3525E-03  0.9727E-31   12.43       0.000    
  1434   1.043      0.7196E-03 SHELL          1   0.0%   12.44      0.3525E-03  0.9834E-31   12.44       0.000    
  1435   1.044      0.7195E-03 SHELL          1   0.0%   12.45      0.3525E-03  0.9745E-31   12.45       0.000    
  1436   1.045      0.7195E-03 SHELL          1   0.0%   12.46      0.3526E-03  0.9841E-31   12.46       0.000    
  1437   1.045      0.7195E-03 SHELL          1   0.0%   12.47      0.3526E-03  0.9984E-31   12.47       0.000    
  1438   1.046      0.7195E-03 SHELL          1   0.0%   12.48      0.3526E-03  0.1008E-30   12.48       0.000    
  1439   1.047      0.7195E-03 SHELL          1   0.0%   12.49      0.3527E-03  0.1003E-30   12.49       0.000    
  1440   1.048      0.7194E-03 SHELL          1   0.0%   12.50      0.3527E-03  0.9938E-31   12.50       0.000    
  1441   1.048      0.7194E-03 SHELL          1   0.0%   12.51      0.3527E-03  0.1003E-30   12.51       0.000    
  1442   1.049      0.7194E-03 SHELL          1   0.0%   12.52      0.3528E-03  0.1023E-30   12.52       0.000    
  1443   1.050      0.7194E-03 SHELL          1   0.0%   12.53      0.3528E-03  0.1050E-30   12.53       0.000    
  1444   1.050      0.7194E-03 SHELL          1   0.0%   12.54      0.3529E-03  0.1074E-30   12.54       0.000    
  1445   1.051      0.7193E-03 SHELL          1   0.0%   12.55      0.3529E-03  0.1086E-30   12.55       0.000    
  1446   1.052      0.7193E-03 SHELL          1   0.0%   12.56      0.3530E-03  0.1097E-30   12.56       0.000    
  1447   1.053      0.7193E-03 SHELL          1   0.0%   12.57      0.3530E-03  0.1118E-30   12.57       0.000    
  1448   1.053      0.7193E-03 SHELL          1   0.0%   12.58      0.3530E-03  0.1125E-30   12.58       0.000    
  1449   1.054      0.7193E-03 SHELL          1   0.0%   12.59      0.3531E-03  0.1112E-30   12.59       0.000    
  1450   1.055      0.7193E-03 SHELL          1   0.0%   12.60      0.3531E-03  0.1093E-30   12.60       0.000    
  1451   1.055      0.7192E-03 SHELL          1   0.0%   12.61      0.3531E-03  0.1078E-30   12.61       0.000    
  1452   1.056      0.7192E-03 SHELL          1   0.0%   12.62      0.3531E-03  0.1080E-30   12.62       0.000    
  1453   1.057      0.7192E-03 SHELL          1   0.0%   12.63      0.3531E-03  0.1087E-30   12.63       0.000    
  1454   1.058      0.7192E-03 SHELL          1   0.0%   12.64      0.3532E-03  0.1102E-30   12.64       0.000    
  1455   1.058      0.7192E-03 SHELL          1   0.0%   12.65      0.3532E-03  0.1129E-30   12.65       0.000    
  1456   1.059      0.7191E-03 SHELL          1   0.0%   12.66      0.3533E-03  0.1150E-30   12.66       0.000    
  1457   1.060      0.7191E-03 SHELL          1   0.0%   12.67      0.3534E-03  0.1180E-30   12.67       0.000    
  1458   1.061      0.7191E-03 SHELL          1   0.0%   12.68      0.3534E-03  0.1198E-30   12.68       0.000    
  1459   1.061      0.7191E-03 SHELL          1   0.0%   12.69      0.3535E-03  0.1193E-30   12.69       0.000    
  1460   1.062      0.7191E-03 SHELL          1   0.0%   12.70      0.3535E-03  0.1202E-30   12.70       0.000    
  1461   1.063      0.7190E-03 SHELL          1   0.0%   12.71      0.3535E-03  0.1210E-30   12.71       0.000    
  1462   1.063      0.7190E-03 SHELL          1   0.0%   12.72      0.3535E-03  0.1215E-30   12.72       0.000    
  1463   1.064      0.7190E-03 SHELL          1   0.0%   12.73      0.3535E-03  0.1234E-30   12.73       0.000    
  1464   1.065      0.7190E-03 SHELL          1   0.0%   12.74      0.3536E-03  0.1255E-30   12.74       0.000    
  1465   1.066      0.7190E-03 SHELL          1   0.0%   12.75      0.3536E-03  0.1272E-30   12.75       0.000    
  1466   1.066      0.7190E-03 SHELL          1   0.0%   12.76      0.3537E-03  0.1268E-30   12.76       0.000    
  1467   1.067      0.7189E-03 SHELL          1   0.0%   12.77      0.3537E-03  0.1239E-30   12.77       0.000    
  1468   1.068      0.7189E-03 SHELL          1   0.0%   12.78      0.3538E-03  0.1226E-30   12.78       0.000    
  1469   1.068      0.7189E-03 SHELL          1   0.0%   12.79      0.3538E-03  0.1229E-30   12.79       0.000    
  1470   1.069      0.7189E-03 SHELL          1   0.0%   12.80      0.3539E-03  0.1230E-30   12.80       0.000    
  1471   1.070      0.7189E-03 SHELL          1   0.0%   12.81      0.3539E-03  0.1227E-30   12.81       0.000    
  1472   1.071      0.7188E-03 SHELL          1   0.0%   12.82      0.3539E-03  0.1234E-30   12.82       0.000    
  1473   1.071      0.7188E-03 SHELL          1   0.0%   12.83      0.3539E-03  0.1247E-30   12.83       0.000    
  1474   1.072      0.7188E-03 SHELL          1   0.0%   12.84      0.3540E-03  0.1257E-30   12.84       0.000    
  1475   1.073      0.7188E-03 SHELL          1   0.0%   12.85      0.3540E-03  0.1269E-30   12.85       0.000    
  1476   1.073      0.7188E-03 SHELL          1   0.0%   12.86      0.3541E-03  0.1263E-30   12.86       0.000    
  1477   1.074      0.7187E-03 SHELL          1   0.0%   12.87      0.3541E-03  0.1244E-30   12.87       0.000    
  1478   1.075      0.7187E-03 SHELL          1   0.0%   12.88      0.3542E-03  0.1237E-30   12.88       0.000    
  1479   1.076      0.7187E-03 SHELL          1   0.0%   12.88      0.3542E-03  0.1232E-30   12.89       0.000    
  1480   1.076      0.7187E-03 SHELL          1   0.0%   12.89      0.3543E-03  0.1215E-30   12.90       0.000    
  1481   1.077      0.7187E-03 SHELL          1   0.0%   12.90      0.3543E-03  0.1210E-30   12.91       0.000    
  1482   1.078      0.7186E-03 SHELL          1   0.0%   12.91      0.3543E-03  0.1208E-30   12.92       0.000    
  1483   1.078      0.7186E-03 SHELL          1   0.0%   12.92      0.3544E-03  0.1196E-30   12.93       0.000    
  1484   1.079      0.7186E-03 SHELL          1   0.0%   12.93      0.3544E-03  0.1194E-30   12.94       0.000    
 CYCLE    TIME      TIME-STEP  ELEMENT          ERROR  I-ENERGY    K-ENERGY T  K-ENERGY R  EXT-WORK MAS.ERR
  1485   1.080      0.7186E-03 SHELL          1   0.0%   12.94      0.3544E-03  0.1211E-30   12.95       0.000    
  1486   1.081      0.7186E-03 SHELL          1   0.0%   12.95      0.3544E-03  0.1223E-30   12.96       0.000    
  1487   1.081      0.7185E-03 SHELL          1   0.0%   12.96      0.3545E-03  0.1214E-30   12.96       0.000    
  1488   1.082      0.7185E-03 SHELL          1   0.0%   12.97      0.3546E-03  0.1196E-30   12.97       0.000    
  1489   1.083      0.7185E-03 SHELL          1   0.0%   12.98      0.3546E-03  0.1198E-30   12.98       0.000    
  1490   1.084      0.7185E-03 SHELL          1   0.0%   12.99      0.3547E-03  0.1178E-30   12.99       0.000    
  1491   1.084      0.7185E-03 SHELL          1   0.0%   13.00      0.3547E-03  0.1138E-30   13.00       0.000    
  1492   1.085      0.7185E-03 SHELL          1   0.0%   13.01      0.3547E-03  0.1136E-30   13.01       0.000    
  1493   1.086      0.7184E-03 SHELL          1   0.0%   13.02      0.3548E-03  0.1149E-30   13.02       0.000    
  1494   1.086      0.7184E-03 SHELL          1   0.0%   13.03      0.3548E-03  0.1145E-30   13.03       0.000    
  1495   1.087      0.7184E-03 SHELL          1   0.0%   13.04      0.3548E-03  0.1144E-30   13.04       0.000    
  1496   1.088      0.7184E-03 SHELL          1   0.0%   13.05      0.3548E-03  0.1158E-30   13.05       0.000    
  1497   1.089      0.7184E-03 SHELL          1   0.0%   13.06      0.3549E-03  0.1167E-30   13.06       0.000    
  1498   1.089      0.7183E-03 SHELL          1   0.0%   13.07      0.3549E-03  0.1158E-30   13.07       0.000    
  1499   1.090      0.7183E-03 SHELL          1   0.0%   13.08      0.3550E-03  0.1148E-30   13.08       0.000    
  1500   1.091      0.7183E-03 SHELL          1   0.0%   13.09      0.3550E-03  0.1141E-30   13.09       0.000    
  1501   1.091      0.7183E-03 SHELL          1   0.0%   13.10      0.3551E-03  0.1127E-30   13.10       0.000    
  1502   1.092      0.7183E-03 SHELL          1   0.0%   13.11      0.3551E-03  0.1119E-30   13.11       0.000    
  1503   1.093      0.7182E-03 SHELL          1   0.0%   13.12      0.3552E-03  0.1111E-30   13.12       0.000    
  1504   1.094      0.7182E-03 SHELL          1   0.0%   13.13      0.3552E-03  0.1078E-30   13.13       0.000    
  1505   1.094      0.7182E-03 SHELL          1   0.0%   13.14      0.3552E-03  0.1060E-30   13.14       0.000    
  1506   1.095      0.7182E-03 SHELL          1   0.0%   13.15      0.3552E-03  0.1068E-30   13.15       0.000    
  1507   1.096      0.7182E-03 SHELL          1   0.0%   13.16      0.3553E-03  0.1070E-30   13.16       0.000    
  1508   1.096      0.7181E-03 SHELL          1   0.0%   13.17      0.3553E-03  0.1071E-30   13.17       0.000    
  1509   1.097      0.7181E-03 SHELL          1   0.0%   13.18      0.3554E-03  0.1082E-30   13.18       0.000    
  1510   1.098      0.7181E-03 SHELL          1   0.0%   13.19      0.3554E-03  0.1076E-30   13.19       0.000    
  1511   1.099      0.7181E-03 SHELL          1   0.0%   13.20      0.3555E-03  0.1068E-30   13.20       0.000    
  1512   1.099      0.7181E-03 SHELL          1   0.0%   13.21      0.3555E-03  0.1067E-30   13.21       0.000    
  1513   1.100      0.7180E-03 SHELL          1   0.0%   13.22      0.3555E-03  0.1043E-30   13.22       0.000    
     ANIMATION FILE: 1ELEM_SAMPA012 WRITTEN
  1514   1.101      0.7180E-03 SHELL          1   0.0%   13.23      0.3556E-03  0.1023E-30   13.23       0.000    
  1515   1.101      0.7180E-03 SHELL          1   0.0%   13.24      0.3556E-03  0.1021E-30   13.24       0.000    
  1516   1.102      0.7180E-03 SHELL          1   0.0%   13.25      0.3556E-03  0.1020E-30   13.25       0.000    
  1517   1.103      0.7180E-03 SHELL          1   0.0%   13.26      0.3557E-03  0.1015E-30   13.26       0.000    
  1518   1.104      0.7179E-03 SHELL          1   0.0%   13.27      0.3557E-03  0.1010E-30   13.27       0.000    
  1519   1.104      0.7179E-03 SHELL          1   0.0%   13.28      0.3558E-03  0.1006E-30   13.28       0.000    
  1520   1.105      0.7179E-03 SHELL          1   0.0%   13.29      0.3558E-03  0.9863E-31   13.29       0.000    
  1521   1.106      0.7179E-03 SHELL          1   0.0%   13.30      0.3559E-03  0.9576E-31   13.30       0.000    
  1522   1.107      0.7179E-03 SHELL          1   0.0%   13.31      0.3559E-03  0.9342E-31   13.31       0.000    
  1523   1.107      0.7178E-03 SHELL          1   0.0%   13.32      0.3559E-03  0.9167E-31   13.32       0.000    
  1524   1.108      0.7178E-03 SHELL          1   0.0%   13.33      0.3560E-03  0.8966E-31   13.33       0.000    
  1525   1.109      0.7178E-03 SHELL          1   0.0%   13.34      0.3560E-03  0.8734E-31   13.34       0.000    
  1526   1.109      0.7178E-03 SHELL          1   0.0%   13.35      0.3560E-03  0.8495E-31   13.35       0.000    
  1527   1.110      0.7178E-03 SHELL          1   0.0%   13.36      0.3561E-03  0.8197E-31   13.36       0.000    
  1528   1.111      0.7177E-03 SHELL          1   0.0%   13.37      0.3561E-03  0.7953E-31   13.37       0.000    
  1529   1.112      0.7177E-03 SHELL          1   0.0%   13.38      0.3561E-03  0.7854E-31   13.38       0.000    
  1530   1.112      0.7177E-03 SHELL          1   0.0%   13.39      0.3562E-03  0.7845E-31   13.39       0.000    
  1531   1.113      0.7177E-03 SHELL          1   0.0%   13.40      0.3562E-03  0.7741E-31   13.40       0.000    
  1532   1.114      0.7177E-03 SHELL          1   0.0%   13.41      0.3563E-03  0.7608E-31   13.41       0.000    
  1533   1.114      0.7176E-03 SHELL          1   0.0%   13.42      0.3563E-03  0.7527E-31   13.42       0.000    
  1534   1.115      0.7176E-03 SHELL          1   0.0%   13.43      0.3564E-03  0.7533E-31   13.43       0.000    
  1535   1.116      0.7176E-03 SHELL          1   0.0%   13.44      0.3564E-03  0.7525E-31   13.44       0.000    
  1536   1.117      0.7176E-03 SHELL          1   0.0%   13.45      0.3564E-03  0.7507E-31   13.45       0.000    
  1537   1.117      0.7176E-03 SHELL          1   0.0%   13.46      0.3565E-03  0.7514E-31   13.46       0.000    
  1538   1.118      0.7175E-03 SHELL          1   0.0%   13.47      0.3565E-03  0.7388E-31   13.47       0.000    
  1539   1.119      0.7175E-03 SHELL          1   0.0%   13.48      0.3565E-03  0.7150E-31   13.48       0.000    
 CYCLE    TIME      TIME-STEP  ELEMENT          ERROR  I-ENERGY    K-ENERGY T  K-ENERGY R  EXT-WORK MAS.ERR
  1540   1.119      0.7175E-03 SHELL          1   0.0%   13.49      0.3566E-03  0.6903E-31   13.49       0.000    
  1541   1.120      0.7175E-03 SHELL          1   0.0%   13.50      0.3566E-03  0.6781E-31   13.50       0.000    
  1542   1.121      0.7175E-03 SHELL          1   0.0%   13.51      0.3567E-03  0.6680E-31   13.51       0.000    
  1543   1.122      0.7174E-03 SHELL          1   0.0%   13.52      0.3567E-03  0.6644E-31   13.52       0.000    
  1544   1.122      0.7174E-03 SHELL          1   0.0%   13.53      0.3568E-03  0.6675E-31   13.53       0.000    
  1545   1.123      0.7174E-03 SHELL          1   0.0%   13.54      0.3568E-03  0.6630E-31   13.54       0.000    
  1546   1.124      0.7174E-03 SHELL          1   0.0%   13.55      0.3568E-03  0.6367E-31   13.55       0.000    
  1547   1.124      0.7174E-03 SHELL          1   0.0%   13.56      0.3569E-03  0.6145E-31   13.56       0.000    
  1548   1.125      0.7173E-03 SHELL          1   0.0%   13.57      0.3569E-03  0.6018E-31   13.57       0.000    
  1549   1.126      0.7173E-03 SHELL          1   0.0%   13.58      0.3569E-03  0.5868E-31   13.58       0.000    
  1550   1.127      0.7173E-03 SHELL          1   0.0%   13.59      0.3570E-03  0.5838E-31   13.59       0.000    
  1551   1.127      0.7173E-03 SHELL          1   0.0%   13.60      0.3570E-03  0.5722E-31   13.60       0.000    
  1552   1.128      0.7173E-03 SHELL          1   0.0%   13.61      0.3571E-03  0.5720E-31   13.61       0.000    
  1553   1.129      0.7172E-03 SHELL          1   0.0%   13.62      0.3571E-03  0.5903E-31   13.62       0.000    
  1554   1.129      0.7172E-03 SHELL          1   0.0%   13.63      0.3571E-03  0.5960E-31   13.63       0.000    
  1555   1.130      0.7172E-03 SHELL          1   0.0%   13.64      0.3572E-03  0.5953E-31   13.64       0.000    
  1556   1.131      0.7172E-03 SHELL          1   0.0%   13.65      0.3572E-03  0.5906E-31   13.65       0.000    
  1557   1.132      0.7172E-03 SHELL          1   0.0%   13.66      0.3573E-03  0.5695E-31   13.66       0.000    
  1558   1.132      0.7171E-03 SHELL          1   0.0%   13.67      0.3573E-03  0.5402E-31   13.67       0.000    
  1559   1.133      0.7171E-03 SHELL          1   0.0%   13.68      0.3573E-03  0.5139E-31   13.68       0.000    
  1560   1.134      0.7171E-03 SHELL          1   0.0%   13.69      0.3574E-03  0.4860E-31   13.69       0.000    
  1561   1.134      0.7171E-03 SHELL          1   0.0%   13.70      0.3574E-03  0.4744E-31   13.70       0.000    
  1562   1.135      0.7171E-03 SHELL          1   0.0%   13.71      0.3574E-03  0.4776E-31   13.71       0.000    
  1563   1.136      0.7170E-03 SHELL          1   0.0%   13.72      0.3575E-03  0.4720E-31   13.72       0.000    
  1564   1.137      0.7170E-03 SHELL          1   0.0%   13.73      0.3575E-03  0.4539E-31   13.73       0.000    
  1565   1.137      0.7170E-03 SHELL          1   0.0%   13.74      0.3576E-03  0.4264E-31   13.74       0.000    
  1566   1.138      0.7170E-03 SHELL          1   0.0%   13.75      0.3576E-03  0.4010E-31   13.75       0.000    
  1567   1.139      0.7170E-03 SHELL          1   0.0%   13.76      0.3577E-03  0.3756E-31   13.76       0.000    
  1568   1.140      0.7169E-03 SHELL          1   0.0%   13.77      0.3577E-03  0.3532E-31   13.77       0.000    
  1569   1.140      0.7169E-03 SHELL          1   0.0%   13.78      0.3577E-03  0.3430E-31   13.78       0.000    
  1570   1.141      0.7169E-03 SHELL          1   0.0%   13.79      0.3578E-03  0.3392E-31   13.79       0.000    
  1571   1.142      0.7169E-03 SHELL          1   0.0%   13.80      0.3578E-03  0.3365E-31   13.80       0.000    
  1572   1.142      0.7169E-03 SHELL          1   0.0%   13.81      0.3578E-03  0.3346E-31   13.81       0.000    
  1573   1.143      0.7168E-03 SHELL          1   0.0%   13.82      0.3579E-03  0.3395E-31   13.82       0.000    
  1574   1.144      0.7168E-03 SHELL          1   0.0%   13.83      0.3579E-03  0.3418E-31   13.83       0.000    
  1575   1.145      0.7168E-03 SHELL          1   0.0%   13.84      0.3580E-03  0.3413E-31   13.84       0.000    
  1576   1.145      0.7168E-03 SHELL          1   0.0%   13.85      0.3580E-03  0.3482E-31   13.85       0.000    
  1577   1.146      0.7167E-03 SHELL          1   0.0%   13.86      0.3581E-03  0.3603E-31   13.86       0.000    
  1578   1.147      0.7167E-03 SHELL          1   0.0%   13.87      0.3581E-03  0.3767E-31   13.87       0.000    
  1579   1.147      0.7167E-03 SHELL          1   0.0%   13.88      0.3582E-03  0.3984E-31   13.88       0.000    
  1580   1.148      0.7167E-03 SHELL          1   0.0%   13.89      0.3582E-03  0.4285E-31   13.89       0.000    
  1581   1.149      0.7167E-03 SHELL          1   0.0%   13.90      0.3582E-03  0.4460E-31   13.90       0.000    
  1582   1.150      0.7166E-03 SHELL          1   0.0%   13.90      0.3583E-03  0.4589E-31   13.91       0.000    
  1583   1.150      0.7166E-03 SHELL          1   0.0%   13.91      0.3583E-03  0.4736E-31   13.92       0.000    
  1584   1.151      0.7166E-03 SHELL          1   0.0%   13.92      0.3583E-03  0.4753E-31   13.93       0.000    
  1585   1.152      0.7166E-03 SHELL          1   0.0%   13.93      0.3584E-03  0.4745E-31   13.94       0.000    
  1586   1.152      0.7166E-03 SHELL          1   0.0%   13.94      0.3584E-03  0.4761E-31   13.95       0.000    
  1587   1.153      0.7165E-03 SHELL          1   0.0%   13.95      0.3585E-03  0.4821E-31   13.96       0.000    
  1588   1.154      0.7165E-03 SHELL          1   0.0%   13.96      0.3585E-03  0.4945E-31   13.97       0.000    
  1589   1.155      0.7165E-03 SHELL          1   0.0%   13.97      0.3585E-03  0.5015E-31   13.98       0.000    
  1590   1.155      0.7165E-03 SHELL          1   0.0%   13.98      0.3586E-03  0.4991E-31   13.99       0.000    
  1591   1.156      0.7165E-03 SHELL          1   0.0%   13.99      0.3586E-03  0.4848E-31   14.00       0.000    
  1592   1.157      0.7164E-03 SHELL          1   0.0%   14.00      0.3587E-03  0.4639E-31   14.01       0.000    
  1593   1.157      0.7164E-03 SHELL          1   0.0%   14.01      0.3587E-03  0.4436E-31   14.02       0.000    
  1594   1.158      0.7164E-03 SHELL          1   0.0%   14.02      0.3587E-03  0.4173E-31   14.03       0.000    
 CYCLE    TIME      TIME-STEP  ELEMENT          ERROR  I-ENERGY    K-ENERGY T  K-ENERGY R  EXT-WORK MAS.ERR
  1595   1.159      0.7164E-03 SHELL          1   0.0%   14.03      0.3588E-03  0.3880E-31   14.04       0.000    
  1596   1.160      0.7164E-03 SHELL          1   0.0%   14.04      0.3588E-03  0.3504E-31   14.04       0.000    
  1597   1.160      0.7163E-03 SHELL          1   0.0%   14.05      0.3588E-03  0.3135E-31   14.05       0.000    
  1598   1.161      0.7163E-03 SHELL          1   0.0%   14.06      0.3589E-03  0.2830E-31   14.06       0.000    
  1599   1.162      0.7163E-03 SHELL          1   0.0%   14.07      0.3589E-03  0.2544E-31   14.07       0.000    
  1600   1.162      0.7163E-03 SHELL          1   0.0%   14.08      0.3590E-03  0.2299E-31   14.08       0.000    
  1601   1.163      0.7163E-03 SHELL          1   0.0%   14.09      0.3590E-03  0.2054E-31   14.09       0.000    
  1602   1.164      0.7162E-03 SHELL          1   0.0%   14.10      0.3591E-03  0.1789E-31   14.10       0.000    
  1603   1.165      0.7162E-03 SHELL          1   0.0%   14.11      0.3591E-03  0.1578E-31   14.11       0.000    
  1604   1.165      0.7162E-03 SHELL          1   0.0%   14.12      0.3591E-03  0.1441E-31   14.12       0.000    
  1605   1.166      0.7162E-03 SHELL          1   0.0%   14.13      0.3592E-03  0.1338E-31   14.13       0.000    
  1606   1.167      0.7161E-03 SHELL          1   0.0%   14.14      0.3592E-03  0.1300E-31   14.14       0.000    
  1607   1.167      0.7161E-03 SHELL          1   0.0%   14.15      0.3592E-03  0.1328E-31   14.15       0.000    
  1608   1.168      0.7161E-03 SHELL          1   0.0%   14.16      0.3593E-03  0.1403E-31   14.16       0.000    
  1609   1.169      0.7161E-03 SHELL          1   0.0%   14.17      0.3593E-03  0.1527E-31   14.17       0.000    
  1610   1.170      0.7161E-03 SHELL          1   0.0%   14.18      0.3594E-03  0.1727E-31   14.18       0.000    
  1611   1.170      0.7160E-03 SHELL          1   0.0%   14.19      0.3594E-03  0.1997E-31   14.19       0.000    
  1612   1.171      0.7160E-03 SHELL          1   0.0%   14.20      0.3595E-03  0.2315E-31   14.20       0.000    
  1613   1.172      0.7160E-03 SHELL          1   0.0%   14.21      0.3595E-03  0.2671E-31   14.21       0.000    
  1614   1.172      0.7160E-03 SHELL          1   0.0%   14.22      0.3595E-03  0.3029E-31   14.22       0.000    
  1615   1.173      0.7160E-03 SHELL          1   0.0%   14.23      0.3596E-03  0.3434E-31   14.23       0.000    
  1616   1.174      0.7159E-03 SHELL          1   0.0%   14.24      0.3596E-03  0.3913E-31   14.24       0.000    
  1617   1.175      0.7159E-03 SHELL          1   0.0%   14.25      0.3596E-03  0.4375E-31   14.25       0.000    
  1618   1.175      0.7159E-03 SHELL          1   0.0%   14.26      0.3597E-03  0.4756E-31   14.26       0.000    
  1619   1.176      0.7159E-03 SHELL          1   0.0%   14.27      0.3597E-03  0.5032E-31   14.27       0.000    
  1620   1.177      0.7159E-03 SHELL          1   0.0%   14.28      0.3598E-03  0.5217E-31   14.28       0.000    
  1621   1.177      0.7158E-03 SHELL          1   0.0%   14.29      0.3598E-03  0.5357E-31   14.29       0.000    
  1622   1.178      0.7158E-03 SHELL          1   0.0%   14.30      0.3598E-03  0.5448E-31   14.30       0.000    
  1623   1.179      0.7158E-03 SHELL          1   0.0%   14.31      0.3599E-03  0.5480E-31   14.31       0.000    
  1624   1.180      0.7158E-03 SHELL          1   0.0%   14.32      0.3599E-03  0.5485E-31   14.32       0.000    
  1625   1.180      0.7157E-03 SHELL          1   0.0%   14.33      0.3600E-03  0.5469E-31   14.33       0.000    
  1626   1.181      0.7157E-03 SHELL          1   0.0%   14.34      0.3600E-03  0.5385E-31   14.34       0.000    
  1627   1.182      0.7157E-03 SHELL          1   0.0%   14.35      0.3600E-03  0.5286E-31   14.35       0.000    
  1628   1.182      0.7157E-03 SHELL          1   0.0%   14.36      0.3601E-03  0.5218E-31   14.36       0.000    
  1629   1.183      0.7157E-03 SHELL          1   0.0%   14.37      0.3601E-03  0.5090E-31   14.37       0.000    
  1630   1.184      0.7156E-03 SHELL          1   0.0%   14.38      0.3602E-03  0.4868E-31   14.38       0.000    
  1631   1.185      0.7156E-03 SHELL          1   0.0%   14.39      0.3602E-03  0.4554E-31   14.39       0.000    
  1632   1.185      0.7156E-03 SHELL          1   0.0%   14.40      0.3602E-03  0.4179E-31   14.40       0.000    
  1633   1.186      0.7156E-03 SHELL          1   0.0%   14.41      0.3603E-03  0.3801E-31   14.41       0.000    
  1634   1.187      0.7156E-03 SHELL          1   0.0%   14.42      0.3603E-03  0.3405E-31   14.42       0.000    
  1635   1.187      0.7155E-03 SHELL          1   0.0%   14.43      0.3604E-03  0.3065E-31   14.43       0.000    
  1636   1.188      0.7155E-03 SHELL          1   0.0%   14.44      0.3604E-03  0.2799E-31   14.44       0.000    
  1637   1.189      0.7155E-03 SHELL          1   0.0%   14.45      0.3604E-03  0.2564E-31   14.45       0.000    
  1638   1.190      0.7155E-03 SHELL          1   0.0%   14.46      0.3605E-03  0.2326E-31   14.46       0.000    
  1639   1.190      0.7154E-03 SHELL          1   0.0%   14.47      0.3605E-03  0.2128E-31   14.47       0.000    
  1640   1.191      0.7154E-03 SHELL          1   0.0%   14.48      0.3605E-03  0.1963E-31   14.48       0.000    
  1641   1.192      0.7154E-03 SHELL          1   0.0%   14.49      0.3606E-03  0.1830E-31   14.49       0.000    
  1642   1.193      0.7154E-03 SHELL          1   0.0%   14.50      0.3606E-03  0.1758E-31   14.50       0.000    
  1643   1.193      0.7154E-03 SHELL          1   0.0%   14.51      0.3607E-03  0.1728E-31   14.51       0.000    
  1644   1.194      0.7153E-03 SHELL          1   0.0%   14.52      0.3607E-03  0.1699E-31   14.52       0.000    
  1645   1.195      0.7153E-03 SHELL          1   0.0%   14.53      0.3607E-03  0.1702E-31   14.53       0.000    
  1646   1.195      0.7153E-03 SHELL          1   0.0%   14.54      0.3608E-03  0.1734E-31   14.54       0.000    
  1647   1.196      0.7153E-03 SHELL          1   0.0%   14.55      0.3608E-03  0.1827E-31   14.55       0.000    
  1648   1.197      0.7153E-03 SHELL          1   0.0%   14.56      0.3609E-03  0.2030E-31   14.56       0.000    
  1649   1.198      0.7152E-03 SHELL          1   0.0%   14.57      0.3609E-03  0.2221E-31   14.57       0.000    
 CYCLE    TIME      TIME-STEP  ELEMENT          ERROR  I-ENERGY    K-ENERGY T  K-ENERGY R  EXT-WORK MAS.ERR
  1650   1.198      0.7152E-03 SHELL          1   0.0%   14.58      0.3609E-03  0.2371E-31   14.58       0.000    
  1651   1.199      0.7152E-03 SHELL          1   0.0%   14.59      0.3610E-03  0.2480E-31   14.59       0.000    
  1652   1.200      0.7152E-03 SHELL          1   0.0%   14.60      0.3610E-03  0.2612E-31   14.60       0.000    
  1653   1.200      0.7151E-03 SHELL          1   0.0%   14.61      0.3611E-03  0.2854E-31   14.61       0.000    
     ANIMATION FILE: 1ELEM_SAMPA013 WRITTEN
  1654   1.201      0.7151E-03 SHELL          1   0.0%   14.62      0.3611E-03  0.3101E-31   14.62       0.000    
  1655   1.202      0.7151E-03 SHELL          1   0.0%   14.63      0.3611E-03  0.3301E-31   14.63       0.000    
  1656   1.203      0.7151E-03 SHELL          1   0.0%   14.64      0.3612E-03  0.3598E-31   14.64       0.000    
  1657   1.203      0.7151E-03 SHELL          1   0.0%   14.65      0.3612E-03  0.4004E-31   14.65       0.000    
  1658   1.204      0.7150E-03 SHELL          1   0.0%   14.66      0.3613E-03  0.4339E-31   14.66       0.000    
  1659   1.205      0.7150E-03 SHELL          1   0.0%   14.67      0.3613E-03  0.4511E-31   14.67       0.000    
  1660   1.205      0.7150E-03 SHELL          1   0.0%   14.68      0.3613E-03  0.4569E-31   14.68       0.000    
  1661   1.206      0.7150E-03 SHELL          1   0.0%   14.69      0.3614E-03  0.4611E-31   14.69       0.000    
  1662   1.207      0.7150E-03 SHELL          1   0.0%   14.70      0.3614E-03  0.4680E-31   14.70       0.000    
  1663   1.208      0.7149E-03 SHELL          1   0.0%   14.71      0.3615E-03  0.4690E-31   14.71       0.000    
  1664   1.208      0.7149E-03 SHELL          1   0.0%   14.72      0.3615E-03  0.4606E-31   14.72       0.000    
  1665   1.209      0.7149E-03 SHELL          1   0.0%   14.73      0.3615E-03  0.4598E-31   14.73       0.000    
  1666   1.210      0.7149E-03 SHELL          1   0.0%   14.74      0.3616E-03  0.4499E-31   14.74       0.000    
  1667   1.210      0.7148E-03 SHELL          1   0.0%   14.75      0.3616E-03  0.4445E-31   14.75       0.000    
  1668   1.211      0.7148E-03 SHELL          1   0.0%   14.76      0.3617E-03  0.4542E-31   14.76       0.000    
  1669   1.212      0.7148E-03 SHELL          1   0.0%   14.77      0.3617E-03  0.4635E-31   14.77       0.000    
  1670   1.213      0.7148E-03 SHELL          1   0.0%   14.78      0.3617E-03  0.4660E-31   14.78       0.000    
  1671   1.213      0.7148E-03 SHELL          1   0.0%   14.79      0.3618E-03  0.4602E-31   14.79       0.000    
  1672   1.214      0.7147E-03 SHELL          1   0.0%   14.80      0.3618E-03  0.4668E-31   14.80       0.000    
  1673   1.215      0.7147E-03 SHELL          1   0.0%   14.81      0.3619E-03  0.4731E-31   14.81       0.000    
  1674   1.215      0.7147E-03 SHELL          1   0.0%   14.82      0.3619E-03  0.4766E-31   14.82       0.000    
  1675   1.216      0.7147E-03 SHELL          1   0.0%   14.83      0.3619E-03  0.4864E-31   14.83       0.000    
  1676   1.217      0.7147E-03 SHELL          1   0.0%   14.84      0.3620E-03  0.4921E-31   14.84       0.000    
  1677   1.218      0.7146E-03 SHELL          1   0.0%   14.85      0.3620E-03  0.5004E-31   14.85       0.000    
  1678   1.218      0.7146E-03 SHELL          1   0.0%   14.86      0.3621E-03  0.5200E-31   14.86       0.000    
  1679   1.219      0.7146E-03 SHELL          1   0.0%   14.87      0.3621E-03  0.5435E-31   14.87       0.000    
  1680   1.220      0.7146E-03 SHELL          1   0.0%   14.88      0.3621E-03  0.5665E-31   14.88       0.000    
  1681   1.220      0.7145E-03 SHELL          1   0.0%   14.89      0.3622E-03  0.5927E-31   14.89       0.000    
  1682   1.221      0.7145E-03 SHELL          1   0.0%   14.90      0.3622E-03  0.6073E-31   14.90       0.000    
  1683   1.222      0.7145E-03 SHELL          1   0.0%   14.91      0.3622E-03  0.6059E-31   14.91       0.000    
  1684   1.223      0.7145E-03 SHELL          1   0.0%   14.92      0.3623E-03  0.6387E-31   14.92       0.000    
  1685   1.223      0.7145E-03 SHELL          1   0.0%   14.93      0.3623E-03  0.6807E-31   14.93       0.000    
  1686   1.224      0.7144E-03 SHELL          1   0.0%   14.94      0.3624E-03  0.6958E-31   14.94       0.000    
  1687   1.225      0.7144E-03 SHELL          1   0.0%   14.95      0.3624E-03  0.7008E-31   14.95       0.000    
  1688   1.225      0.7144E-03 SHELL          1   0.0%   14.96      0.3624E-03  0.6992E-31   14.96       0.000    
  1689   1.226      0.7144E-03 SHELL          1   0.0%   14.97      0.3625E-03  0.6869E-31   14.97       0.000    
  1690   1.227      0.7143E-03 SHELL          1   0.0%   14.98      0.3625E-03  0.6804E-31   14.98       0.000    
  1691   1.228      0.7143E-03 SHELL          1   0.0%   14.99      0.3626E-03  0.7049E-31   14.99       0.000    
  1692   1.228      0.7143E-03 SHELL          1   0.0%   15.00      0.3626E-03  0.7359E-31   15.00       0.000    
  1693   1.229      0.7143E-03 SHELL          1   0.0%   15.01      0.3626E-03  0.7654E-31   15.01       0.000    
  1694   1.230      0.7143E-03 SHELL          1   0.0%   15.02      0.3627E-03  0.7713E-31   15.02       0.000    
  1695   1.230      0.7142E-03 SHELL          1   0.0%   15.03      0.3627E-03  0.7494E-31   15.03       0.000    
  1696   1.231      0.7142E-03 SHELL          1   0.0%   15.04      0.3628E-03  0.7500E-31   15.04       0.000    
  1697   1.232      0.7142E-03 SHELL          1   0.0%   15.05      0.3628E-03  0.7665E-31   15.05       0.000    
  1698   1.233      0.7142E-03 SHELL          1   0.0%   15.06      0.3628E-03  0.7903E-31   15.06       0.000    
  1699   1.233      0.7141E-03 SHELL          1   0.0%   15.07      0.3629E-03  0.8063E-31   15.07       0.000    
  1700   1.234      0.7141E-03 SHELL          1   0.0%   15.08      0.3629E-03  0.8135E-31   15.08       0.000    
  1701   1.235      0.7141E-03 SHELL          1   0.0%   15.09      0.3630E-03  0.8262E-31   15.09       0.000    
  1702   1.235      0.7141E-03 SHELL          1   0.0%   15.10      0.3630E-03  0.8473E-31   15.10       0.000    
  1703   1.236      0.7141E-03 SHELL          1   0.0%   15.11      0.3630E-03  0.8590E-31   15.11       0.000    
  1704   1.237      0.7140E-03 SHELL          1   0.0%   15.12      0.3631E-03  0.8669E-31   15.12       0.000    
 CYCLE    TIME      TIME-STEP  ELEMENT          ERROR  I-ENERGY    K-ENERGY T  K-ENERGY R  EXT-WORK MAS.ERR
  1705   1.238      0.7140E-03 SHELL          1   0.0%   15.13      0.3631E-03  0.9000E-31   15.13       0.000    
  1706   1.238      0.7140E-03 SHELL          1   0.0%   15.14      0.3632E-03  0.9239E-31   15.14       0.000    
  1707   1.239      0.7140E-03 SHELL          1   0.0%   15.15      0.3632E-03  0.9401E-31   15.15       0.000    
  1708   1.240      0.7139E-03 SHELL          1   0.0%   15.16      0.3632E-03  0.9474E-31   15.16       0.000    
  1709   1.240      0.7139E-03 SHELL          1   0.0%   15.17      0.3633E-03  0.9318E-31   15.17       0.000    
  1710   1.241      0.7139E-03 SHELL          1   0.0%   15.18      0.3633E-03  0.9426E-31   15.18       0.000    
  1711   1.242      0.7139E-03 SHELL          1   0.0%   15.19      0.3634E-03  0.9761E-31   15.19       0.000    
  1712   1.243      0.7139E-03 SHELL          1   0.0%   15.20      0.3634E-03  0.9892E-31   15.20       0.000    
  1713   1.243      0.7138E-03 SHELL          1   0.0%   15.21      0.3634E-03  0.9923E-31   15.21       0.000    
  1714   1.244      0.7138E-03 SHELL          1   0.0%   15.22      0.3635E-03  0.1006E-30   15.22       0.000    
  1715   1.245      0.7138E-03 SHELL          1   0.0%   15.23      0.3635E-03  0.1021E-30   15.23       0.000    
  1716   1.245      0.7138E-03 SHELL          1   0.0%   15.24      0.3636E-03  0.1020E-30   15.24       0.000    
  1717   1.246      0.7137E-03 SHELL          1   0.0%   15.25      0.3636E-03  0.1017E-30   15.25       0.000    
  1718   1.247      0.7137E-03 SHELL          1   0.0%   15.26      0.3636E-03  0.1027E-30   15.26       0.000    
  1719   1.248      0.7137E-03 SHELL          1   0.0%   15.27      0.3637E-03  0.1013E-30   15.27       0.000    
  1720   1.248      0.7137E-03 SHELL          1   0.0%   15.28      0.3637E-03  0.9918E-31   15.28       0.000    
  1721   1.249      0.7137E-03 SHELL          1   0.0%   15.29      0.3638E-03  0.9812E-31   15.29       0.000    
  1722   1.250      0.7136E-03 SHELL          1   0.0%   15.30      0.3638E-03  0.9905E-31   15.30       0.000    
  1723   1.250      0.7136E-03 SHELL          1   0.0%   15.31      0.3638E-03  0.1023E-30   15.31       0.000    
  1724   1.251      0.7136E-03 SHELL          1   0.0%   15.32      0.3639E-03  0.1051E-30   15.32       0.000    
  1725   1.252      0.7136E-03 SHELL          1   0.0%   15.33      0.3639E-03  0.1067E-30   15.33       0.000    
  1726   1.253      0.7135E-03 SHELL          1   0.0%   15.34      0.3640E-03  0.1088E-30   15.34       0.000    
  1727   1.253      0.7135E-03 SHELL          1   0.0%   15.35      0.3640E-03  0.1138E-30   15.35       0.000    
  1728   1.254      0.7135E-03 SHELL          1   0.0%   15.36      0.3640E-03  0.1173E-30   15.36       0.000    
  1729   1.255      0.7135E-03 SHELL          1   0.0%   15.37      0.3641E-03  0.1197E-30   15.37       0.000    
  1730   1.255      0.7135E-03 SHELL          1   0.0%   15.38      0.3641E-03  0.1231E-30   15.38       0.000    
  1731   1.256      0.7134E-03 SHELL          1   0.0%   15.39      0.3642E-03  0.1253E-30   15.39       0.000    
  1732   1.257      0.7134E-03 SHELL          1   0.0%   15.40      0.3642E-03  0.1266E-30   15.40       0.000    
  1733   1.258      0.7134E-03 SHELL          1   0.0%   15.41      0.3642E-03  0.1271E-30   15.41       0.000    
  1734   1.258      0.7134E-03 SHELL          1   0.0%   15.42      0.3643E-03  0.1276E-30   15.42       0.000    
  1735   1.259      0.7133E-03 SHELL          1   0.0%   15.43      0.3643E-03  0.1279E-30   15.43       0.000    
  1736   1.260      0.7133E-03 SHELL          1   0.0%   15.44      0.3644E-03  0.1287E-30   15.44       0.000    
  1737   1.260      0.7133E-03 SHELL          1   0.0%   15.45      0.3644E-03  0.1306E-30   15.45       0.000    
  1738   1.261      0.7133E-03 SHELL          1   0.0%   15.46      0.3644E-03  0.1314E-30   15.46       0.000    
  1739   1.262      0.7133E-03 SHELL          1   0.0%   15.47      0.3645E-03  0.1306E-30   15.47       0.000    
  1740   1.263      0.7132E-03 SHELL          1   0.0%   15.48      0.3645E-03  0.1288E-30   15.48       0.000    
  1741   1.263      0.7132E-03 SHELL          1   0.0%   15.49      0.3646E-03  0.1281E-30   15.49       0.000    
  1742   1.264      0.7132E-03 SHELL          1   0.0%   15.50      0.3646E-03  0.1274E-30   15.50       0.000    
  1743   1.265      0.7132E-03 SHELL          1   0.0%   15.51      0.3646E-03  0.1254E-30   15.51       0.000    
  1744   1.265      0.7131E-03 SHELL          1   0.0%   15.52      0.3647E-03  0.1230E-30   15.52       0.000    
  1745   1.266      0.7131E-03 SHELL          1   0.0%   15.53      0.3647E-03  0.1215E-30   15.53       0.000    
  1746   1.267      0.7131E-03 SHELL          1   0.0%   15.54      0.3647E-03  0.1191E-30   15.54       0.000    
  1747   1.267      0.7131E-03 SHELL          1   0.0%   15.55      0.3648E-03  0.1156E-30   15.55       0.000    
  1748   1.268      0.7130E-03 SHELL          1   0.0%   15.56      0.3648E-03  0.1158E-30   15.56       0.000    
  1749   1.269      0.7130E-03 SHELL          1   0.0%   15.57      0.3649E-03  0.1171E-30   15.57       0.000    
  1750   1.270      0.7130E-03 SHELL          1   0.0%   15.58      0.3649E-03  0.1155E-30   15.58       0.000    
  1751   1.270      0.7130E-03 SHELL          1   0.0%   15.59      0.3650E-03  0.1131E-30   15.59       0.000    
  1752   1.271      0.7130E-03 SHELL          1   0.0%   15.60      0.3650E-03  0.1108E-30   15.60       0.000    
  1753   1.272      0.7129E-03 SHELL          1   0.0%   15.61      0.3650E-03  0.1080E-30   15.61       0.000    
  1754   1.272      0.7129E-03 SHELL          1   0.0%   15.62      0.3651E-03  0.1073E-30   15.62       0.000    
  1755   1.273      0.7129E-03 SHELL          1   0.0%   15.63      0.3651E-03  0.1087E-30   15.63       0.000    
  1756   1.274      0.7129E-03 SHELL          1   0.0%   15.64      0.3651E-03  0.1087E-30   15.64       0.000    
  1757   1.275      0.7128E-03 SHELL          1   0.0%   15.65      0.3652E-03  0.1101E-30   15.65       0.000    
  1758   1.275      0.7128E-03 SHELL          1   0.0%   15.66      0.3652E-03  0.1121E-30   15.66       0.000    
  1759   1.276      0.7128E-03 SHELL          1   0.0%   15.67      0.3653E-03  0.1131E-30   15.67       0.000    
 CYCLE    TIME      TIME-STEP  ELEMENT          ERROR  I-ENERGY    K-ENERGY T  K-ENERGY R  EXT-WORK MAS.ERR
  1760   1.277      0.7128E-03 SHELL          1   0.0%   15.68      0.3653E-03  0.1142E-30   15.68       0.000    
  1761   1.277      0.7128E-03 SHELL          1   0.0%   15.69      0.3653E-03  0.1140E-30   15.69       0.000    
  1762   1.278      0.7127E-03 SHELL          1   0.0%   15.70      0.3654E-03  0.1138E-30   15.70       0.000    
  1763   1.279      0.7127E-03 SHELL          1   0.0%   15.71      0.3654E-03  0.1127E-30   15.71       0.000    
  1764   1.280      0.7127E-03 SHELL          1   0.0%   15.72      0.3655E-03  0.1108E-30   15.72       0.000    
  1765   1.280      0.7127E-03 SHELL          1   0.0%   15.73      0.3655E-03  0.1103E-30   15.73       0.000    
  1766   1.281      0.7126E-03 SHELL          1   0.0%   15.74      0.3655E-03  0.1096E-30   15.74       0.000    
  1767   1.282      0.7126E-03 SHELL          1   0.0%   15.75      0.3656E-03  0.1097E-30   15.75       0.000    
  1768   1.282      0.7126E-03 SHELL          1   0.0%   15.76      0.3656E-03  0.1103E-30   15.76       0.000    
  1769   1.283      0.7126E-03 SHELL          1   0.0%   15.77      0.3657E-03  0.1127E-30   15.77       0.000    
  1770   1.284      0.7125E-03 SHELL          1   0.0%   15.78      0.3657E-03  0.1162E-30   15.78       0.000    
  1771   1.285      0.7125E-03 SHELL          1   0.0%   15.79      0.3657E-03  0.1180E-30   15.79       0.000    
  1772   1.285      0.7125E-03 SHELL          1   0.0%   15.80      0.3658E-03  0.1174E-30   15.80       0.000    
  1773   1.286      0.7125E-03 SHELL          1   0.0%   15.81      0.3658E-03  0.1184E-30   15.81       0.000    
  1774   1.287      0.7125E-03 SHELL          1   0.0%   15.82      0.3659E-03  0.1196E-30   15.82       0.000    
  1775   1.287      0.7124E-03 SHELL          1   0.0%   15.83      0.3659E-03  0.1186E-30   15.83       0.000    
  1776   1.288      0.7124E-03 SHELL          1   0.0%   15.84      0.3659E-03  0.1201E-30   15.84       0.000    
  1777   1.289      0.7124E-03 SHELL          1   0.0%   15.85      0.3660E-03  0.1222E-30   15.85       0.000    
  1778   1.290      0.7124E-03 SHELL          1   0.0%   15.86      0.3660E-03  0.1242E-30   15.86       0.000    
  1779   1.290      0.7123E-03 SHELL          1   0.0%   15.87      0.3661E-03  0.1268E-30   15.87       0.000    
  1780   1.291      0.7123E-03 SHELL          1   0.0%   15.88      0.3661E-03  0.1276E-30   15.88       0.000    
  1781   1.292      0.7123E-03 SHELL          1   0.0%   15.89      0.3661E-03  0.1256E-30   15.89       0.000    
  1782   1.292      0.7123E-03 SHELL          1   0.0%   15.90      0.3662E-03  0.1235E-30   15.90       0.000    
  1783   1.293      0.7122E-03 SHELL          1   0.0%   15.91      0.3662E-03  0.1230E-30   15.91       0.000    
  1784   1.294      0.7122E-03 SHELL          1   0.0%   15.92      0.3663E-03  0.1239E-30   15.92       0.000    
  1785   1.295      0.7122E-03 SHELL          1   0.0%   15.93      0.3663E-03  0.1247E-30   15.93       0.000    
  1786   1.295      0.7122E-03 SHELL          1   0.0%   15.94      0.3663E-03  0.1228E-30   15.94       0.000    
  1787   1.296      0.7122E-03 SHELL          1   0.0%   15.95      0.3664E-03  0.1189E-30   15.95       0.000    
  1788   1.297      0.7121E-03 SHELL          1   0.0%   15.96      0.3664E-03  0.1165E-30   15.96       0.000    
  1789   1.297      0.7121E-03 SHELL          1   0.0%   15.97      0.3665E-03  0.1148E-30   15.97       0.000    
  1790   1.298      0.7121E-03 SHELL          1   0.0%   15.98      0.3665E-03  0.1136E-30   15.98       0.000    
  1791   1.299      0.7121E-03 SHELL          1   0.0%   15.99      0.3665E-03  0.1134E-30   15.99       0.000    
  1792   1.300      0.7120E-03 SHELL          1   0.0%   16.00      0.3666E-03  0.1122E-30   16.00       0.000    
  1793   1.300      0.7120E-03 SHELL          1   0.0%   16.01      0.3666E-03  0.1103E-30   16.01       0.000    
     ANIMATION FILE: 1ELEM_SAMPA014 WRITTEN
  1794   1.301      0.7120E-03 SHELL          1   0.0%   16.02      0.3667E-03  0.1098E-30   16.02       0.000    
  1795   1.302      0.7120E-03 SHELL          1   0.0%   16.03      0.3667E-03  0.1100E-30   16.03       0.000    
  1796   1.302      0.7119E-03 SHELL          1   0.0%   16.04      0.3667E-03  0.1105E-30   16.04       0.000    
  1797   1.303      0.7119E-03 SHELL          1   0.0%   16.05      0.3668E-03  0.1095E-30   16.05       0.000    
  1798   1.304      0.7119E-03 SHELL          1   0.0%   16.06      0.3668E-03  0.1072E-30   16.06       0.000    
  1799   1.305      0.7119E-03 SHELL          1   0.0%   16.07      0.3669E-03  0.1060E-30   16.07       0.000    
  1800   1.305      0.7119E-03 SHELL          1   0.0%   16.08      0.3669E-03  0.1060E-30   16.08       0.000    
  1801   1.306      0.7118E-03 SHELL          1   0.0%   16.09      0.3669E-03  0.1056E-30   16.09       0.000    
  1802   1.307      0.7118E-03 SHELL          1   0.0%   16.10      0.3670E-03  0.1038E-30   16.10       0.000    
  1803   1.307      0.7118E-03 SHELL          1   0.0%   16.11      0.3670E-03  0.1034E-30   16.11       0.000    
  1804   1.308      0.7118E-03 SHELL          1   0.0%   16.12      0.3671E-03  0.1026E-30   16.12       0.000    
  1805   1.309      0.7117E-03 SHELL          1   0.0%   16.13      0.3671E-03  0.1015E-30   16.13       0.000    
  1806   1.310      0.7117E-03 SHELL          1   0.0%   16.14      0.3671E-03  0.1004E-30   16.14       0.000    
  1807   1.310      0.7117E-03 SHELL          1   0.0%   16.15      0.3672E-03  0.9987E-31   16.15       0.000    
  1808   1.311      0.7117E-03 SHELL          1   0.0%   16.16      0.3672E-03  0.9957E-31   16.16       0.000    
  1809   1.312      0.7116E-03 SHELL          1   0.0%   16.17      0.3673E-03  0.9698E-31   16.17       0.000    
  1810   1.312      0.7116E-03 SHELL          1   0.0%   16.18      0.3673E-03  0.9534E-31   16.18       0.000    
  1811   1.313      0.7116E-03 SHELL          1   0.0%   16.19      0.3673E-03  0.9602E-31   16.19       0.000    
  1812   1.314      0.7116E-03 SHELL          1   0.0%   16.20      0.3674E-03  0.9650E-31   16.20       0.000    
  1813   1.315      0.7116E-03 SHELL          1   0.0%   16.21      0.3674E-03  0.9532E-31   16.21       0.000    
  1814   1.315      0.7115E-03 SHELL          1   0.0%   16.22      0.3675E-03  0.9441E-31   16.22       0.000    
 CYCLE    TIME      TIME-STEP  ELEMENT          ERROR  I-ENERGY    K-ENERGY T  K-ENERGY R  EXT-WORK MAS.ERR
  1815   1.316      0.7115E-03 SHELL          1   0.0%   16.23      0.3675E-03  0.9357E-31   16.23       0.000    
  1816   1.317      0.7115E-03 SHELL          1   0.0%   16.24      0.3675E-03  0.9403E-31   16.24       0.000    
  1817   1.317      0.7115E-03 SHELL          1   0.0%   16.25      0.3676E-03  0.9485E-31   16.25       0.000    
  1818   1.318      0.7114E-03 SHELL          1   0.0%   16.26      0.3676E-03  0.9312E-31   16.26       0.000    
  1819   1.319      0.7114E-03 SHELL          1   0.0%   16.27      0.3677E-03  0.9016E-31   16.27       0.000    
  1820   1.319      0.7114E-03 SHELL          1   0.0%   16.28      0.3677E-03  0.8791E-31   16.28       0.000    
  1821   1.320      0.7114E-03 SHELL          1   0.0%   16.29      0.3677E-03  0.8514E-31   16.29       0.000    
  1822   1.321      0.7113E-03 SHELL          1   0.0%   16.30      0.3678E-03  0.8415E-31   16.30       0.000    
  1823   1.322      0.7113E-03 SHELL          1   0.0%   16.31      0.3678E-03  0.8586E-31   16.31       0.000    
  1824   1.322      0.7113E-03 SHELL          1   0.0%   16.32      0.3679E-03  0.8718E-31   16.32       0.000    
  1825   1.323      0.7113E-03 SHELL          1   0.0%   16.33      0.3679E-03  0.8993E-31   16.33       0.000    
  1826   1.324      0.7112E-03 SHELL          1   0.0%   16.34      0.3679E-03  0.9140E-31   16.34       0.000    
  1827   1.324      0.7112E-03 SHELL          1   0.0%   16.35      0.3680E-03  0.8961E-31   16.35       0.000    
  1828   1.325      0.7112E-03 SHELL          1   0.0%   16.36      0.3680E-03  0.8816E-31   16.36       0.000    
  1829   1.326      0.7112E-03 SHELL          1   0.0%   16.37      0.3681E-03  0.8685E-31   16.37       0.000    
  1830   1.327      0.7112E-03 SHELL          1   0.0%   16.38      0.3681E-03  0.8466E-31   16.38       0.000    
  1831   1.327      0.7111E-03 SHELL          1   0.0%   16.39      0.3681E-03  0.8083E-31   16.39       0.000    
  1832   1.328      0.7111E-03 SHELL          1   0.0%   16.40      0.3682E-03  0.7821E-31   16.40       0.000    
  1833   1.329      0.7111E-03 SHELL          1   0.0%   16.41      0.3682E-03  0.7843E-31   16.41       0.000    
  1834   1.329      0.7111E-03 SHELL          1   0.0%   16.42      0.3683E-03  0.7865E-31   16.42       0.000    
  1835   1.330      0.7110E-03 SHELL          1   0.0%   16.43      0.3683E-03  0.7763E-31   16.43       0.000    
  1836   1.331      0.7110E-03 SHELL          1   0.0%   16.44      0.3683E-03  0.7749E-31   16.44       0.000    
  1837   1.332      0.7110E-03 SHELL          1   0.0%   16.45      0.3684E-03  0.7727E-31   16.45       0.000    
  1838   1.332      0.7110E-03 SHELL          1   0.0%   16.46      0.3684E-03  0.7527E-31   16.46       0.000    
  1839   1.333      0.7109E-03 SHELL          1   0.0%   16.47      0.3685E-03  0.7314E-31   16.47       0.000    
  1840   1.334      0.7109E-03 SHELL          1   0.0%   16.48      0.3685E-03  0.7045E-31   16.48       0.000    
  1841   1.334      0.7109E-03 SHELL          1   0.0%   16.49      0.3685E-03  0.6738E-31   16.49       0.000    
  1842   1.335      0.7109E-03 SHELL          1   0.0%   16.50      0.3686E-03  0.6497E-31   16.50       0.000    
  1843   1.336      0.7108E-03 SHELL          1   0.0%   16.51      0.3686E-03  0.6466E-31   16.51       0.000    
  1844   1.337      0.7108E-03 SHELL          1   0.0%   16.52      0.3687E-03  0.6405E-31   16.52       0.000    
  1845   1.337      0.7108E-03 SHELL          1   0.0%   16.53      0.3687E-03  0.6354E-31   16.53       0.000    
  1846   1.338      0.7108E-03 SHELL          1   0.0%   16.54      0.3687E-03  0.6330E-31   16.54       0.000    
  1847   1.339      0.7108E-03 SHELL          1   0.0%   16.55      0.3688E-03  0.6113E-31   16.55       0.000    
  1848   1.339      0.7107E-03 SHELL          1   0.0%   16.56      0.3688E-03  0.5881E-31   16.56       0.000    
  1849   1.340      0.7107E-03 SHELL          1   0.0%   16.57      0.3689E-03  0.5650E-31   16.57       0.000    
  1850   1.341      0.7107E-03 SHELL          1   0.0%   16.58      0.3689E-03  0.5367E-31   16.58       0.000    
  1851   1.342      0.7107E-03 SHELL          1   0.0%   16.59      0.3689E-03  0.5200E-31   16.59       0.000    
  1852   1.342      0.7106E-03 SHELL          1   0.0%   16.60      0.3690E-03  0.5169E-31   16.60       0.000    
  1853   1.343      0.7106E-03 SHELL          1   0.0%   16.61      0.3690E-03  0.5018E-31   16.61       0.000    
  1854   1.344      0.7106E-03 SHELL          1   0.0%   16.62      0.3691E-03  0.4807E-31   16.62       0.000    
  1855   1.344      0.7106E-03 SHELL          1   0.0%   16.63      0.3691E-03  0.4753E-31   16.63       0.000    
  1856   1.345      0.7105E-03 SHELL          1   0.0%   16.64      0.3691E-03  0.4704E-31   16.64       0.000    
  1857   1.346      0.7105E-03 SHELL          1   0.0%   16.65      0.3692E-03  0.4609E-31   16.65       0.000    
  1858   1.347      0.7105E-03 SHELL          1   0.0%   16.66      0.3692E-03  0.4550E-31   16.66       0.000    
  1859   1.347      0.7105E-03 SHELL          1   0.0%   16.67      0.3693E-03  0.4438E-31   16.67       0.000    
  1860   1.348      0.7104E-03 SHELL          1   0.0%   16.68      0.3693E-03  0.4159E-31   16.68       0.000    
  1861   1.349      0.7104E-03 SHELL          1   0.0%   16.69      0.3693E-03  0.3852E-31   16.69       0.000    
  1862   1.349      0.7104E-03 SHELL          1   0.0%   16.70      0.3694E-03  0.3568E-31   16.70       0.000    
  1863   1.350      0.7104E-03 SHELL          1   0.0%   16.71      0.3694E-03  0.3366E-31   16.71       0.000    
  1864   1.351      0.7103E-03 SHELL          1   0.0%   16.72      0.3695E-03  0.3237E-31   16.72       0.000    
  1865   1.351      0.7103E-03 SHELL          1   0.0%   16.73      0.3695E-03  0.3119E-31   16.73       0.000    
  1866   1.352      0.7103E-03 SHELL          1   0.0%   16.74      0.3695E-03  0.3133E-31   16.74       0.000    
  1867   1.353      0.7103E-03 SHELL          1   0.0%   16.75      0.3696E-03  0.3007E-31   16.75       0.000    
  1868   1.354      0.7102E-03 SHELL          1   0.0%   16.76      0.3696E-03  0.2763E-31   16.76       0.000    
  1869   1.354      0.7102E-03 SHELL          1   0.0%   16.77      0.3697E-03  0.2596E-31   16.77       0.000    
 CYCLE    TIME      TIME-STEP  ELEMENT          ERROR  I-ENERGY    K-ENERGY T  K-ENERGY R  EXT-WORK MAS.ERR
  1870   1.355      0.7102E-03 SHELL          1   0.0%   16.78      0.3697E-03  0.2430E-31   16.78       0.000    
  1871   1.356      0.7102E-03 SHELL          1   0.0%   16.79      0.3697E-03  0.2214E-31   16.79       0.000    
  1872   1.356      0.7102E-03 SHELL          1   0.0%   16.80      0.3698E-03  0.2059E-31   16.80       0.000    
  1873   1.357      0.7101E-03 SHELL          1   0.0%   16.81      0.3698E-03  0.1999E-31   16.81       0.000    
  1874   1.358      0.7101E-03 SHELL          1   0.0%   16.82      0.3699E-03  0.1934E-31   16.82       0.000    
  1875   1.359      0.7101E-03 SHELL          1   0.0%   16.83      0.3699E-03  0.1872E-31   16.83       0.000    
  1876   1.359      0.7101E-03 SHELL          1   0.0%   16.84      0.3699E-03  0.1772E-31   16.84       0.000    
  1877   1.360      0.7100E-03 SHELL          1   0.0%   16.85      0.3700E-03  0.1689E-31   16.85       0.000    
  1878   1.361      0.7100E-03 SHELL          1   0.0%   16.86      0.3700E-03  0.1554E-31   16.86       0.000    
  1879   1.361      0.7100E-03 SHELL          1   0.0%   16.87      0.3701E-03  0.1433E-31   16.87       0.000    
  1880   1.362      0.7100E-03 SHELL          1   0.0%   16.88      0.3701E-03  0.1299E-31   16.88       0.000    
  1881   1.363      0.7099E-03 SHELL          1   0.0%   16.89      0.3701E-03  0.1126E-31   16.89       0.000    
  1882   1.364      0.7099E-03 SHELL          1   0.0%   16.90      0.3702E-03  0.1106E-31   16.90       0.000    
  1883   1.364      0.7099E-03 SHELL          1   0.0%   16.91      0.3702E-03  0.1163E-31   16.91       0.000    
  1884   1.365      0.7099E-03 SHELL          1   0.0%   16.92      0.3703E-03  0.1312E-31   16.92       0.000    
  1885   1.366      0.7098E-03 SHELL          1   0.0%   16.93      0.3703E-03  0.1514E-31   16.93       0.000    
  1886   1.366      0.7098E-03 SHELL          1   0.0%   16.94      0.3703E-03  0.1685E-31   16.94       0.000    
  1887   1.367      0.7098E-03 SHELL          1   0.0%   16.95      0.3704E-03  0.1808E-31   16.95       0.000    
  1888   1.368      0.7098E-03 SHELL          1   0.0%   16.96      0.3704E-03  0.1780E-31   16.96       0.000    
  1889   1.369      0.7097E-03 SHELL          1   0.0%   16.97      0.3705E-03  0.1554E-31   16.97       0.000    
  1890   1.369      0.7097E-03 SHELL          1   0.0%   16.98      0.3705E-03  0.1318E-31   16.98       0.000    
  1891   1.370      0.7097E-03 SHELL          1   0.0%   16.99      0.3705E-03  0.1135E-31   16.99       0.000    
  1892   1.371      0.7097E-03 SHELL          1   0.0%   17.00      0.3706E-03  0.1047E-31   17.00       0.000    
  1893   1.371      0.7096E-03 SHELL          1   0.0%   17.01      0.3706E-03  0.1070E-31   17.01       0.000    
  1894   1.372      0.7096E-03 SHELL          1   0.0%   17.02      0.3707E-03  0.1099E-31   17.02       0.000    
  1895   1.373      0.7096E-03 SHELL          1   0.0%   17.03      0.3707E-03  0.1094E-31   17.03       0.000    
  1896   1.373      0.7096E-03 SHELL          1   0.0%   17.04      0.3707E-03  0.1040E-31   17.04       0.000    
  1897   1.374      0.7095E-03 SHELL          1   0.0%   17.05      0.3708E-03  0.9359E-32   17.05       0.000    
  1898   1.375      0.7095E-03 SHELL          1   0.0%   17.06      0.3708E-03  0.8200E-32   17.06       0.000    
  1899   1.376      0.7095E-03 SHELL          1   0.0%   17.07      0.3709E-03  0.7319E-32   17.07       0.000    
  1900   1.376      0.7095E-03 SHELL          1   0.0%   17.08      0.3709E-03  0.6517E-32   17.08       0.000    
  1901   1.377      0.7095E-03 SHELL          1   0.0%   17.09      0.3709E-03  0.5892E-32   17.09       0.000    
  1902   1.378      0.7094E-03 SHELL          1   0.0%   17.10      0.3710E-03  0.5839E-32   17.10       0.000    
  1903   1.378      0.7094E-03 SHELL          1   0.0%   17.11      0.3710E-03  0.6285E-32   17.11       0.000    
  1904   1.379      0.7094E-03 SHELL          1   0.0%   17.12      0.3711E-03  0.6993E-32   17.12       0.000    
  1905   1.380      0.7094E-03 SHELL          1   0.0%   17.13      0.3711E-03  0.7552E-32   17.13       0.000    
  1906   1.381      0.7093E-03 SHELL          1   0.0%   17.14      0.3711E-03  0.7303E-32   17.14       0.000    
  1907   1.381      0.7093E-03 SHELL          1   0.0%   17.15      0.3712E-03  0.6419E-32   17.15       0.000    
  1908   1.382      0.7093E-03 SHELL          1   0.0%   17.16      0.3712E-03  0.5202E-32   17.16       0.000    
  1909   1.383      0.7093E-03 SHELL          1   0.0%   17.17      0.3713E-03  0.3918E-32   17.17       0.000    
  1910   1.383      0.7092E-03 SHELL          1   0.0%   17.18      0.3713E-03  0.3156E-32   17.18       0.000    
  1911   1.384      0.7092E-03 SHELL          1   0.0%   17.19      0.3713E-03  0.3192E-32   17.19       0.000    
  1912   1.385      0.7092E-03 SHELL          1   0.0%   17.20      0.3714E-03  0.3820E-32   17.20       0.000    
  1913   1.386      0.7092E-03 SHELL          1   0.0%   17.21      0.3714E-03  0.4908E-32   17.21       0.000    
  1914   1.386      0.7091E-03 SHELL          1   0.0%   17.22      0.3715E-03  0.6038E-32   17.22       0.000    
  1915   1.387      0.7091E-03 SHELL          1   0.0%   17.23      0.3715E-03  0.6570E-32   17.23       0.000    
  1916   1.388      0.7091E-03 SHELL          1   0.0%   17.24      0.3715E-03  0.6276E-32   17.24       0.000    
  1917   1.388      0.7091E-03 SHELL          1   0.0%   17.25      0.3716E-03  0.5525E-32   17.25       0.000    
  1918   1.389      0.7090E-03 SHELL          1   0.0%   17.26      0.3716E-03  0.4759E-32   17.26       0.000    
  1919   1.390      0.7090E-03 SHELL          1   0.0%   17.27      0.3717E-03  0.4046E-32   17.27       0.000    
  1920   1.391      0.7090E-03 SHELL          1   0.0%   17.28      0.3717E-03  0.3726E-32   17.28       0.000    
  1921   1.391      0.7090E-03 SHELL          1   0.0%   17.29      0.3717E-03  0.4031E-32   17.29       0.000    
  1922   1.392      0.7089E-03 SHELL          1   0.0%   17.30      0.3718E-03  0.4990E-32   17.30       0.000    
  1923   1.393      0.7089E-03 SHELL          1   0.0%   17.31      0.3718E-03  0.6206E-32   17.31       0.000    
  1924   1.393      0.7089E-03 SHELL          1   0.0%   17.32      0.3719E-03  0.7424E-32   17.32       0.000    
 CYCLE    TIME      TIME-STEP  ELEMENT          ERROR  I-ENERGY    K-ENERGY T  K-ENERGY R  EXT-WORK MAS.ERR
  1925   1.394      0.7089E-03 SHELL          1   0.0%   17.33      0.3719E-03  0.7989E-32   17.33       0.000    
  1926   1.395      0.7088E-03 SHELL          1   0.0%   17.34      0.3719E-03  0.8077E-32   17.34       0.000    
  1927   1.395      0.7088E-03 SHELL          1   0.0%   17.35      0.3720E-03  0.8130E-32   17.35       0.000    
  1928   1.396      0.7088E-03 SHELL          1   0.0%   17.36      0.3720E-03  0.8345E-32   17.36       0.000    
  1929   1.397      0.7088E-03 SHELL          1   0.0%   17.37      0.3721E-03  0.8926E-32   17.37       0.000    
  1930   1.398      0.7087E-03 SHELL          1   0.0%   17.38      0.3721E-03  0.9785E-32   17.38       0.000    
  1931   1.398      0.7087E-03 SHELL          1   0.0%   17.39      0.3721E-03  0.1132E-31   17.39       0.000    
  1932   1.399      0.7087E-03 SHELL          1   0.0%   17.40      0.3722E-03  0.1323E-31   17.40       0.000    
  1933   1.400      0.7087E-03 SHELL          1   0.0%   17.41      0.3722E-03  0.1479E-31   17.41       0.000    
  1934   1.400      0.7086E-03 SHELL          1   0.0%   17.42      0.3723E-03  0.1616E-31   17.42       0.000    
     ANIMATION FILE: 1ELEM_SAMPA015 WRITTEN
  1935   1.401      0.7086E-03 SHELL          1   0.0%   17.43      0.3723E-03  0.1710E-31   17.43       0.000    
  1936   1.402      0.7086E-03 SHELL          1   0.0%   17.44      0.3723E-03  0.1745E-31   17.44       0.000    
  1937   1.403      0.7086E-03 SHELL          1   0.0%   17.45      0.3724E-03  0.1723E-31   17.45       0.000    
  1938   1.403      0.7085E-03 SHELL          1   0.0%   17.46      0.3724E-03  0.1704E-31   17.46       0.000    
  1939   1.404      0.7085E-03 SHELL          1   0.0%   17.47      0.3725E-03  0.1752E-31   17.47       0.000    
  1940   1.405      0.7085E-03 SHELL          1   0.0%   17.48      0.3725E-03  0.1805E-31   17.48       0.000    
  1941   1.405      0.7085E-03 SHELL          1   0.0%   17.49      0.3725E-03  0.1809E-31   17.49       0.000    
  1942   1.406      0.7084E-03 SHELL          1   0.0%   17.50      0.3726E-03  0.1813E-31   17.50       0.000    
  1943   1.407      0.7084E-03 SHELL          1   0.0%   17.51      0.3726E-03  0.1935E-31   17.51       0.000    
  1944   1.408      0.7084E-03 SHELL          1   0.0%   17.52      0.3727E-03  0.2132E-31   17.52       0.000    
  1945   1.408      0.7084E-03 SHELL          1   0.0%   17.53      0.3727E-03  0.2257E-31   17.53       0.000    
  1946   1.409      0.7083E-03 SHELL          1   0.0%   17.54      0.3727E-03  0.2243E-31   17.54       0.000    
  1947   1.410      0.7083E-03 SHELL          1   0.0%   17.55      0.3728E-03  0.2181E-31   17.55       0.000    
  1948   1.410      0.7083E-03 SHELL          1   0.0%   17.56      0.3728E-03  0.2146E-31   17.56       0.000    
  1949   1.411      0.7083E-03 SHELL          1   0.0%   17.57      0.3729E-03  0.2118E-31   17.57       0.000    
  1950   1.412      0.7082E-03 SHELL          1   0.0%   17.58      0.3729E-03  0.2202E-31   17.58       0.000    
  1951   1.412      0.7082E-03 SHELL          1   0.0%   17.59      0.3729E-03  0.2404E-31   17.59       0.000    
  1952   1.413      0.7082E-03 SHELL          1   0.0%   17.60      0.3730E-03  0.2724E-31   17.60       0.000    
  1953   1.414      0.7082E-03 SHELL          1   0.0%   17.61      0.3730E-03  0.3056E-31   17.61       0.000    
  1954   1.415      0.7081E-03 SHELL          1   0.0%   17.62      0.3731E-03  0.3233E-31   17.62       0.000    
  1955   1.415      0.7081E-03 SHELL          1   0.0%   17.63      0.3731E-03  0.3409E-31   17.63       0.000    
  1956   1.416      0.7081E-03 SHELL          1   0.0%   17.64      0.3732E-03  0.3608E-31   17.64       0.000    
  1957   1.417      0.7081E-03 SHELL          1   0.0%   17.65      0.3732E-03  0.3624E-31   17.65       0.000    
  1958   1.417      0.7080E-03 SHELL          1   0.0%   17.66      0.3732E-03  0.3656E-31   17.66       0.000    
  1959   1.418      0.7080E-03 SHELL          1   0.0%   17.67      0.3733E-03  0.3717E-31   17.67       0.000    
  1960   1.419      0.7080E-03 SHELL          1   0.0%   17.68      0.3733E-03  0.3760E-31   17.68       0.000    
  1961   1.420      0.7080E-03 SHELL          1   0.0%   17.69      0.3734E-03  0.3817E-31   17.69       0.000    
  1962   1.420      0.7079E-03 SHELL          1   0.0%   17.70      0.3734E-03  0.3864E-31   17.70       0.000    
  1963   1.421      0.7079E-03 SHELL          1   0.0%   17.71      0.3734E-03  0.3964E-31   17.71       0.000    
  1964   1.422      0.7079E-03 SHELL          1   0.0%   17.72      0.3735E-03  0.4107E-31   17.72       0.000    
  1965   1.422      0.7079E-03 SHELL          1   0.0%   17.73      0.3735E-03  0.4226E-31   17.73       0.000    
  1966   1.423      0.7078E-03 SHELL          1   0.0%   17.74      0.3736E-03  0.4316E-31   17.74       0.000    
  1967   1.424      0.7078E-03 SHELL          1   0.0%   17.75      0.3736E-03  0.4348E-31   17.75       0.000    
  1968   1.425      0.7078E-03 SHELL          1   0.0%   17.76      0.3736E-03  0.4383E-31   17.76       0.000    
  1969   1.425      0.7078E-03 SHELL          1   0.0%   17.77      0.3737E-03  0.4438E-31   17.77       0.000    
  1970   1.426      0.7077E-03 SHELL          1   0.0%   17.78      0.3737E-03  0.4477E-31   17.78       0.000    
  1971   1.427      0.7077E-03 SHELL          1   0.0%   17.79      0.3738E-03  0.4780E-31   17.79       0.000    
  1972   1.427      0.7077E-03 SHELL          1   0.0%   17.80      0.3738E-03  0.5107E-31   17.80       0.000    
  1973   1.428      0.7077E-03 SHELL          1   0.0%   17.81      0.3738E-03  0.5233E-31   17.81       0.000    
  1974   1.429      0.7076E-03 SHELL          1   0.0%   17.82      0.3739E-03  0.5286E-31   17.82       0.000    
  1975   1.429      0.7076E-03 SHELL          1   0.0%   17.83      0.3739E-03  0.5285E-31   17.83       0.000    
  1976   1.430      0.7076E-03 SHELL          1   0.0%   17.84      0.3740E-03  0.5249E-31   17.85       0.000    
  1977   1.431      0.7076E-03 SHELL          1   0.0%   17.85      0.3740E-03  0.5341E-31   17.86       0.000    
  1978   1.432      0.7075E-03 SHELL          1   0.0%   17.86      0.3740E-03  0.5310E-31   17.87       0.000    
  1979   1.432      0.7075E-03 SHELL          1   0.0%   17.87      0.3741E-03  0.5241E-31   17.88       0.000    
 CYCLE    TIME      TIME-STEP  ELEMENT          ERROR  I-ENERGY    K-ENERGY T  K-ENERGY R  EXT-WORK MAS.ERR
  1980   1.433      0.7075E-03 SHELL          1   0.0%   17.88      0.3741E-03  0.5412E-31   17.89       0.000    
  1981   1.434      0.7075E-03 SHELL          1   0.0%   17.89      0.3742E-03  0.5488E-31   17.90       0.000    
  1982   1.434      0.7074E-03 SHELL          1   0.0%   17.90      0.3742E-03  0.5609E-31   17.91       0.000    
  1983   1.435      0.7074E-03 SHELL          1   0.0%   17.91      0.3742E-03  0.5774E-31   17.92       0.000    
  1984   1.436      0.7074E-03 SHELL          1   0.0%   17.92      0.3743E-03  0.5983E-31   17.93       0.000    
  1985   1.437      0.7074E-03 SHELL          1   0.0%   17.93      0.3743E-03  0.6065E-31   17.94       0.000    
  1986   1.437      0.7073E-03 SHELL          1   0.0%   17.94      0.3744E-03  0.6066E-31   17.95       0.000    
  1987   1.438      0.7073E-03 SHELL          1   0.0%   17.95      0.3744E-03  0.6215E-31   17.96       0.000    
  1988   1.439      0.7073E-03 SHELL          1   0.0%   17.96      0.3744E-03  0.6389E-31   17.97       0.000    
  1989   1.439      0.7073E-03 SHELL          1   0.0%   17.97      0.3745E-03  0.6539E-31   17.98       0.000    
  1990   1.440      0.7072E-03 SHELL          1   0.0%   17.98      0.3745E-03  0.6537E-31   17.99       0.000    
  1991   1.441      0.7072E-03 SHELL          1   0.0%   17.99      0.3746E-03  0.6627E-31   18.00       0.000    
  1992   1.441      0.7072E-03 SHELL          1   0.0%   18.00      0.3746E-03  0.6830E-31   18.01       0.000    
  1993   1.442      0.7072E-03 SHELL          1   0.0%   18.01      0.3746E-03  0.6864E-31   18.02       0.000    
  1994   1.443      0.7071E-03 SHELL          1   0.0%   18.02      0.3747E-03  0.6842E-31   18.03       0.000    
  1995   1.444      0.7071E-03 SHELL          1   0.0%   18.04      0.3747E-03  0.7030E-31   18.04       0.000    
  1996   1.444      0.7071E-03 SHELL          1   0.0%   18.05      0.3748E-03  0.7252E-31   18.05       0.000    
  1997   1.445      0.7071E-03 SHELL          1   0.0%   18.06      0.3748E-03  0.7389E-31   18.06       0.000    
  1998   1.446      0.7070E-03 SHELL          1   0.0%   18.07      0.3748E-03  0.7489E-31   18.07       0.000    
  1999   1.446      0.7070E-03 SHELL          1   0.0%   18.08      0.3749E-03  0.7668E-31   18.08       0.000    
  2000   1.447      0.7070E-03 SHELL          1   0.0%   18.09      0.3749E-03  0.7959E-31   18.09       0.000    
  2001   1.448      0.7070E-03 SHELL          1   0.0%   18.10      0.3750E-03  0.8069E-31   18.10       0.000    
  2002   1.449      0.7069E-03 SHELL          1   0.0%   18.11      0.3750E-03  0.8326E-31   18.11       0.000    
  2003   1.449      0.7069E-03 SHELL          1   0.0%   18.12      0.3750E-03  0.8817E-31   18.12       0.000    
  2004   1.450      0.7069E-03 SHELL          1   0.0%   18.13      0.3751E-03  0.9131E-31   18.13       0.000    
  2005   1.451      0.7069E-03 SHELL          1   0.0%   18.14      0.3751E-03  0.9250E-31   18.14       0.000    
  2006   1.451      0.7068E-03 SHELL          1   0.0%   18.15      0.3752E-03  0.9275E-31   18.15       0.000    
  2007   1.452      0.7068E-03 SHELL          1   0.0%   18.16      0.3752E-03  0.9136E-31   18.16       0.000    
  2008   1.453      0.7068E-03 SHELL          1   0.0%   18.17      0.3752E-03  0.9025E-31   18.17       0.000    
  2009   1.454      0.7068E-03 SHELL          1   0.0%   18.18      0.3753E-03  0.9221E-31   18.18       0.000    
  2010   1.454      0.7067E-03 SHELL          1   0.0%   18.19      0.3753E-03  0.9510E-31   18.19       0.000    
  2011   1.455      0.7067E-03 SHELL          1   0.0%   18.20      0.3754E-03  0.9719E-31   18.20       0.000    
  2012   1.456      0.7067E-03 SHELL          1   0.0%   18.21      0.3754E-03  0.9840E-31   18.21       0.000    
  2013   1.456      0.7067E-03 SHELL          1   0.0%   18.22      0.3754E-03  0.9858E-31   18.22       0.000    
  2014   1.457      0.7066E-03 SHELL          1   0.0%   18.23      0.3755E-03  0.9875E-31   18.23       0.000    
  2015   1.458      0.7066E-03 SHELL          1   0.0%   18.24      0.3755E-03  0.1010E-30   18.24       0.000    
  2016   1.458      0.7066E-03 SHELL          1   0.0%   18.25      0.3756E-03  0.1037E-30   18.25       0.000    
  2017   1.459      0.7066E-03 SHELL          1   0.0%   18.26      0.3756E-03  0.1065E-30   18.26       0.000    
  2018   1.460      0.7065E-03 SHELL          1   0.0%   18.27      0.3756E-03  0.1098E-30   18.27       0.000    
  2019   1.461      0.7065E-03 SHELL          1   0.0%   18.28      0.3757E-03  0.1104E-30   18.28       0.000    
  2020   1.461      0.7065E-03 SHELL          1   0.0%   18.29      0.3757E-03  0.1093E-30   18.29       0.000    
  2021   1.462      0.7065E-03 SHELL          1   0.0%   18.30      0.3758E-03  0.1073E-30   18.30       0.000    
  2022   1.463      0.7064E-03 SHELL          1   0.0%   18.31      0.3758E-03  0.1061E-30   18.31       0.000    
  2023   1.463      0.7064E-03 SHELL          1   0.0%   18.32      0.3758E-03  0.1068E-30   18.32       0.000    
  2024   1.464      0.7064E-03 SHELL          1   0.0%   18.33      0.3759E-03  0.1061E-30   18.33       0.000    
  2025   1.465      0.7064E-03 SHELL          1   0.0%   18.34      0.3759E-03  0.1069E-30   18.34       0.000    
  2026   1.466      0.7063E-03 SHELL          1   0.0%   18.35      0.3760E-03  0.1120E-30   18.35       0.000    
  2027   1.466      0.7063E-03 SHELL          1   0.0%   18.36      0.3760E-03  0.1166E-30   18.36       0.000    
  2028   1.467      0.7063E-03 SHELL          1   0.0%   18.37      0.3761E-03  0.1184E-30   18.37       0.000    
  2029   1.468      0.7062E-03 SHELL          1   0.0%   18.38      0.3761E-03  0.1195E-30   18.38       0.000    
  2030   1.468      0.7062E-03 SHELL          1   0.0%   18.39      0.3761E-03  0.1187E-30   18.39       0.000    
  2031   1.469      0.7062E-03 SHELL          1   0.0%   18.40      0.3762E-03  0.1166E-30   18.40       0.000    
  2032   1.470      0.7062E-03 SHELL          1   0.0%   18.41      0.3762E-03  0.1146E-30   18.41       0.000    
  2033   1.470      0.7061E-03 SHELL          1   0.0%   18.42      0.3763E-03  0.1121E-30   18.42       0.000    
  2034   1.471      0.7061E-03 SHELL          1   0.0%   18.43      0.3763E-03  0.1103E-30   18.43       0.000    
 CYCLE    TIME      TIME-STEP  ELEMENT          ERROR  I-ENERGY    K-ENERGY T  K-ENERGY R  EXT-WORK MAS.ERR
  2035   1.472      0.7061E-03 SHELL          1   0.0%   18.44      0.3763E-03  0.1113E-30   18.44       0.000    
  2036   1.473      0.7061E-03 SHELL          1   0.0%   18.45      0.3764E-03  0.1136E-30   18.45       0.000    
  2037   1.473      0.7060E-03 SHELL          1   0.0%   18.46      0.3764E-03  0.1167E-30   18.46       0.000    
  2038   1.474      0.7060E-03 SHELL          1   0.0%   18.47      0.3765E-03  0.1190E-30   18.47       0.000    
  2039   1.475      0.7060E-03 SHELL          1   0.0%   18.48      0.3765E-03  0.1186E-30   18.48       0.000    
  2040   1.475      0.7060E-03 SHELL          1   0.0%   18.49      0.3765E-03  0.1167E-30   18.49       0.000    
  2041   1.476      0.7059E-03 SHELL          1   0.0%   18.50      0.3766E-03  0.1150E-30   18.50       0.000    
  2042   1.477      0.7059E-03 SHELL          1   0.0%   18.51      0.3766E-03  0.1146E-30   18.51       0.000    
  2043   1.478      0.7059E-03 SHELL          1   0.0%   18.52      0.3767E-03  0.1158E-30   18.52       0.000    
  2044   1.478      0.7059E-03 SHELL          1   0.0%   18.53      0.3767E-03  0.1154E-30   18.53       0.000    
  2045   1.479      0.7058E-03 SHELL          1   0.0%   18.54      0.3767E-03  0.1144E-30   18.54       0.000    
 FAILURE (FTAB) OF SHELL ELEMENT          1 ,GAUSS PT 1 ,LAYER  1 ,INTEGRATION PT  1
 FAILURE (FTAB) OF SHELL ELEMENT          1 ,GAUSS PT 1 ,LAYER  1 ,INTEGRATION PT  2
 FAILURE (FTAB) OF SHELL ELEMENT          1 ,GAUSS PT 1 ,LAYER  1 ,INTEGRATION PT  3
 FAILURE (FTAB) OF SHELL ELEMENT          1 ,GAUSS PT 1 ,LAYER  1 ,INTEGRATION PT  4
 FAILURE (FTAB) OF SHELL ELEMENT          1 ,GAUSS PT 1 ,LAYER  1 ,INTEGRATION PT  5
 -- RUPTURE OF SHELL ELEMENT NUMBER          1
  2046   1.480      0.7764E-03 SHELL          9   0.0%   18.55      0.3768E-03  0.1147E-30   18.55       0.000    
  2047   1.480      0.8541E-03 SHELL          9   0.0%   18.55      0.3768E-03  0.1146E-30   18.56       0.000    
  2048   1.481      0.9395E-03 SHELL          9   0.0%   18.56      0.3769E-03  0.1147E-30   18.56       0.000    
  2049   1.482      0.1033E-02 SHELL          9   0.0%   18.57      0.3769E-03  0.1151E-30   18.57       0.000    
  2050   1.483      0.1137E-02 SHELL          9   0.0%   18.58      0.3770E-03  0.1152E-30   18.58       0.000    
  2051   1.484      0.1250E-02 SHELL          9   0.0%   18.59      0.3771E-03  0.1153E-30   18.59       0.000    
  2052   1.486      0.1375E-02 SHELL          9   0.0%   18.60      0.3771E-03  0.1154E-30   18.61       0.000    
  2053   1.487      0.1451E-02 SHELL          9   0.0%   18.62      0.3772E-03  0.1150E-30   18.62       0.000    
  2054   1.488      0.1451E-02 SHELL          9   0.0%   18.63      0.3773E-03  0.1146E-30   18.63       0.000    
  2055   1.490      0.1451E-02 SHELL          9   0.0%   18.65      0.3774E-03  0.1144E-30   18.65       0.000    
  2056   1.491      0.1451E-02 SHELL          9   0.0%   18.66      0.3775E-03  0.1141E-30   18.66       0.000    
  2057   1.493      0.1451E-02 SHELL          9   0.0%   18.67      0.3776E-03  0.1138E-30   18.68       0.000    
  2058   1.494      0.1451E-02 SHELL          9   0.0%   18.69      0.3776E-03  0.1135E-30   18.69       0.000    
  2059   1.496      0.1451E-02 SHELL          9   0.0%   18.70      0.3777E-03  0.1130E-30   18.70       0.000    
  2060   1.497      0.1451E-02 SHELL          9   0.0%   18.72      0.3778E-03  0.1129E-30   18.72       0.000    
  2061   1.499      0.1451E-02 SHELL          9   0.0%   18.73      0.3779E-03  0.1129E-30   18.73       0.000    
  2062   1.500      0.1451E-02 SHELL          9   0.0%   18.74      0.3780E-03  0.1130E-30   18.74       0.000    
     ANIMATION FILE: 1ELEM_SAMPA016 WRITTEN
  2063   1.502      0.1451E-02 SHELL          9   0.0%   18.76      0.3781E-03  0.1132E-30   18.76       0.000    
  2064   1.503      0.1451E-02 SHELL          9   0.0%   18.77      0.3782E-03  0.1136E-30   18.77       0.000    
  2065   1.504      0.1451E-02 SHELL          9   0.0%   18.79      0.3783E-03  0.1135E-30   18.79       0.000    
  2066   1.506      0.1451E-02 SHELL          9   0.0%   18.80      0.3784E-03  0.1134E-30   18.80       0.000    
  2067   1.507      0.1451E-02 SHELL          9   0.0%   18.81      0.3785E-03  0.1133E-30   18.81       0.000    
  2068   1.509      0.1451E-02 SHELL          9   0.0%   18.83      0.3785E-03  0.1133E-30   18.83       0.000    
  2069   1.510      0.1451E-02 SHELL          9   0.0%   18.84      0.3786E-03  0.1133E-30   18.84       0.000    
  2070   1.512      0.1451E-02 SHELL          9   0.0%   18.86      0.3787E-03  0.1131E-30   18.86       0.000    
  2071   1.513      0.1451E-02 SHELL          9   0.0%   18.87      0.3788E-03  0.1129E-30   18.87       0.000    
  2072   1.515      0.1451E-02 SHELL          9   0.0%   18.88      0.3789E-03  0.1126E-30   18.88       0.000    
  2073   1.516      0.1451E-02 SHELL          9   0.0%   18.90      0.3790E-03  0.1122E-30   18.90       0.000    
  2074   1.517      0.1451E-02 SHELL          9   0.0%   18.91      0.3791E-03  0.1121E-30   18.91       0.000    
  2075   1.519      0.1451E-02 SHELL          9   0.0%   18.93      0.3792E-03  0.1121E-30   18.93       0.000    
  2076   1.520      0.1450E-02 SHELL          9   0.0%   18.94      0.3793E-03  0.1122E-30   18.94       0.000    
  2077   1.522      0.1450E-02 SHELL          9   0.0%   18.95      0.3794E-03  0.1124E-30   18.95       0.000    
  2078   1.523      0.1450E-02 SHELL          9   0.0%   18.97      0.3795E-03  0.1126E-30   18.97       0.000    
  2079   1.525      0.1450E-02 SHELL          9   0.0%   18.98      0.3796E-03  0.1124E-30   18.98       0.000    
  2080   1.526      0.1450E-02 SHELL          9   0.0%   19.00      0.3797E-03  0.1121E-30   19.00       0.000    
  2081   1.528      0.1450E-02 SHELL          9   0.0%   19.01      0.3797E-03  0.1120E-30   19.01       0.000    
  2082   1.529      0.1450E-02 SHELL          9   0.0%   19.02      0.3798E-03  0.1120E-30   19.02       0.000    
  2083   1.531      0.1450E-02 SHELL          9   0.0%   19.04      0.3799E-03  0.1124E-30   19.04       0.000    
  2084   1.532      0.1450E-02 SHELL          9   0.0%   19.05      0.3800E-03  0.1124E-30   19.05       0.000    
  2085   1.533      0.1450E-02 SHELL          9   0.0%   19.07      0.3801E-03  0.1123E-30   19.07       0.000    
  2086   1.535      0.1450E-02 SHELL          9   0.0%   19.08      0.3802E-03  0.1122E-30   19.08       0.000    
  2087   1.536      0.1450E-02 SHELL          9   0.0%   19.09      0.3803E-03  0.1121E-30   19.10       0.000    
  2088   1.538      0.1450E-02 SHELL          9   0.0%   19.11      0.3804E-03  0.1120E-30   19.11       0.000    
  2089   1.539      0.1450E-02 SHELL          9   0.0%   19.12      0.3805E-03  0.1121E-30   19.12       0.000    
 CYCLE    TIME      TIME-STEP  ELEMENT          ERROR  I-ENERGY    K-ENERGY T  K-ENERGY R  EXT-WORK MAS.ERR
  2090   1.541      0.1450E-02 SHELL          9   0.0%   19.14      0.3806E-03  0.1121E-30   19.14       0.000    
  2091   1.542      0.1450E-02 SHELL          9   0.0%   19.15      0.3807E-03  0.1122E-30   19.15       0.000    
  2092   1.544      0.1450E-02 SHELL          9   0.0%   19.16      0.3808E-03  0.1122E-30   19.17       0.000    
  2093   1.545      0.1450E-02 SHELL          9   0.0%   19.18      0.3809E-03  0.1120E-30   19.18       0.000    
  2094   1.546      0.1450E-02 SHELL          9   0.0%   19.19      0.3809E-03  0.1121E-30   19.19       0.000    
  2095   1.548      0.1450E-02 SHELL          9   0.0%   19.21      0.3811E-03  0.1126E-30   19.21       0.000    
  2096   1.549      0.1450E-02 SHELL          9   0.0%   19.22      0.3812E-03  0.1129E-30   19.22       0.000    
  2097   1.551      0.1450E-02 SHELL          9   0.0%   19.23      0.3813E-03  0.1130E-30   19.24       0.000    
  2098   1.552      0.1450E-02 SHELL          9   0.0%   19.25      0.3813E-03  0.1129E-30   19.25       0.000    
  2099   1.554      0.1450E-02 SHELL          9   0.0%   19.26      0.3814E-03  0.1130E-30   19.26       0.000    
  2100   1.555      0.1450E-02 SHELL          9   0.0%   19.28      0.3816E-03  0.1137E-30   19.28       0.000    
  2101   1.557      0.1450E-02 SHELL          9   0.0%   19.29      0.3817E-03  0.1139E-30   19.29       0.000    
  2102   1.558      0.1450E-02 SHELL          9   0.0%   19.30      0.3818E-03  0.1140E-30   19.31       0.000    
  2103   1.560      0.1450E-02 SHELL          9   0.0%   19.32      0.3818E-03  0.1141E-30   19.32       0.000    
  2104   1.561      0.1450E-02 SHELL          9   0.0%   19.33      0.3819E-03  0.1138E-30   19.33       0.000    
  2105   1.562      0.1450E-02 SHELL          9   0.0%   19.35      0.3820E-03  0.1138E-30   19.35       0.000    
  2106   1.564      0.1450E-02 SHELL          9   0.0%   19.36      0.3821E-03  0.1134E-30   19.36       0.000    
  2107   1.565      0.1450E-02 SHELL          9   0.0%   19.37      0.3822E-03  0.1128E-30   19.38       0.000    
  2108   1.567      0.1450E-02 SHELL          9   0.0%   19.39      0.3823E-03  0.1129E-30   19.39       0.000    
  2109   1.568      0.1450E-02 SHELL          9   0.0%   19.40      0.3823E-03  0.1131E-30   19.40       0.000    
  2110   1.570      0.1449E-02 SHELL          9   0.0%   19.42      0.3825E-03  0.1130E-30   19.42       0.000    
  2111   1.571      0.1449E-02 SHELL          9   0.0%   19.43      0.3826E-03  0.1130E-30   19.43       0.000    
  2112   1.573      0.1449E-02 SHELL          9   0.0%   19.45      0.3827E-03  0.1133E-30   19.45       0.000    
  2113   1.574      0.1449E-02 SHELL          9   0.0%   19.46      0.3827E-03  0.1136E-30   19.46       0.000    
  2114   1.575      0.1449E-02 SHELL          9   0.0%   19.47      0.3828E-03  0.1136E-30   19.47       0.000    
  2115   1.577      0.1449E-02 SHELL          9   0.0%   19.49      0.3829E-03  0.1138E-30   19.49       0.000    
  2116   1.578      0.1449E-02 SHELL          9   0.0%   19.50      0.3831E-03  0.1141E-30   19.50       0.000    
  2117   1.580      0.1449E-02 SHELL          9   0.0%   19.52      0.3831E-03  0.1141E-30   19.52       0.000    
  2118   1.581      0.1449E-02 SHELL          9   0.0%   19.53      0.3832E-03  0.1143E-30   19.53       0.000    
  2119   1.583      0.1449E-02 SHELL          9   0.0%   19.54      0.3833E-03  0.1145E-30   19.54       0.000    
  2120   1.584      0.1449E-02 SHELL          9   0.0%   19.56      0.3834E-03  0.1147E-30   19.56       0.000    
  2121   1.586      0.1449E-02 SHELL          9   0.0%   19.57      0.3835E-03  0.1147E-30   19.57       0.000    
  2122   1.587      0.1449E-02 SHELL          9   0.0%   19.59      0.3836E-03  0.1145E-30   19.59       0.000    
  2123   1.589      0.1449E-02 SHELL          9   0.0%   19.60      0.3837E-03  0.1142E-30   19.60       0.000    
  2124   1.590      0.1449E-02 SHELL          9   0.0%   19.61      0.3838E-03  0.1138E-30   19.62       0.000    
  2125   1.591      0.1449E-02 SHELL          9   0.0%   19.63      0.3839E-03  0.1135E-30   19.63       0.000    
  2126   1.593      0.1449E-02 SHELL          9   0.0%   19.64      0.3840E-03  0.1131E-30   19.64       0.000    
  2127   1.594      0.1449E-02 SHELL          9   0.0%   19.66      0.3841E-03  0.1126E-30   19.66       0.000    
  2128   1.596      0.1449E-02 SHELL          9   0.0%   19.67      0.3841E-03  0.1120E-30   19.67       0.000    
  2129   1.597      0.1449E-02 SHELL          9   0.0%   19.68      0.3842E-03  0.1117E-30   19.69       0.000    
  2130   1.599      0.1449E-02 SHELL          9   0.0%   19.70      0.3843E-03  0.1113E-30   19.70       0.000    
  2131   1.600      0.1449E-02 SHELL          9   0.0%   19.71      0.3844E-03  0.1109E-30   19.71       0.000    
     ANIMATION FILE: 1ELEM_SAMPA017 WRITTEN
  2132   1.602      0.1449E-02 SHELL          9   0.0%   19.73      0.3845E-03  0.1106E-30   19.73       0.000    
  2133   1.603      0.1449E-02 SHELL          9   0.0%   19.74      0.3846E-03  0.1104E-30   19.74       0.000    
  2134   1.604      0.1449E-02 SHELL          9   0.0%   19.75      0.3847E-03  0.1105E-30   19.76       0.000    
  2135   1.606      0.1449E-02 SHELL          9   0.0%   19.77      0.3848E-03  0.1107E-30   19.77       0.000    
  2136   1.607      0.1449E-02 SHELL          9   0.0%   19.78      0.3849E-03  0.1108E-30   19.78       0.000    
  2137   1.609      0.1449E-02 SHELL          9   0.0%   19.80      0.3850E-03  0.1110E-30   19.80       0.000    
  2138   1.610      0.1449E-02 SHELL          9   0.0%   19.81      0.3851E-03  0.1111E-30   19.81       0.000    
  2139   1.612      0.1449E-02 SHELL          9   0.0%   19.83      0.3852E-03  0.1111E-30   19.83       0.000    
  2140   1.613      0.1449E-02 SHELL          9   0.0%   19.84      0.3853E-03  0.1112E-30   19.84       0.000    
  2141   1.615      0.1449E-02 SHELL          9   0.0%   19.85      0.3854E-03  0.1114E-30   19.86       0.000    
  2142   1.616      0.1448E-02 SHELL          9   0.0%   19.87      0.3854E-03  0.1116E-30   19.87       0.000    
  2143   1.617      0.1448E-02 SHELL          9   0.0%   19.88      0.3855E-03  0.1119E-30   19.88       0.000    
  2144   1.619      0.1448E-02 SHELL          9   0.0%   19.90      0.3856E-03  0.1123E-30   19.90       0.000    
 CYCLE    TIME      TIME-STEP  ELEMENT          ERROR  I-ENERGY    K-ENERGY T  K-ENERGY R  EXT-WORK MAS.ERR
  2145   1.620      0.1448E-02 SHELL          9   0.0%   19.91      0.3857E-03  0.1124E-30   19.91       0.000    
  2146   1.622      0.1448E-02 SHELL          9   0.0%   19.92      0.3858E-03  0.1123E-30   19.93       0.000    
  2147   1.623      0.1448E-02 SHELL          9   0.0%   19.94      0.3859E-03  0.1122E-30   19.94       0.000    
  2148   1.625      0.1448E-02 SHELL          9   0.0%   19.95      0.3860E-03  0.1121E-30   19.95       0.000    
  2149   1.626      0.1448E-02 SHELL          9   0.0%   19.97      0.3861E-03  0.1121E-30   19.97       0.000    
  2150   1.628      0.1448E-02 SHELL          9   0.0%   19.98      0.3862E-03  0.1119E-30   19.98       0.000    
  2151   1.629      0.1448E-02 SHELL          9   0.0%   19.99      0.3863E-03  0.1114E-30   20.00       0.000    
  2152   1.631      0.1448E-02 SHELL          9   0.0%   20.01      0.3864E-03  0.1111E-30   20.01       0.000    
  2153   1.632      0.1448E-02 SHELL          9   0.0%   20.02      0.3865E-03  0.1109E-30   20.02       0.000    
  2154   1.633      0.1448E-02 SHELL          9   0.0%   20.04      0.3866E-03  0.1109E-30   20.04       0.000    
  2155   1.635      0.1448E-02 SHELL          9   0.0%   20.05      0.3867E-03  0.1110E-30   20.05       0.000    
  2156   1.636      0.1448E-02 SHELL          9   0.0%   20.07      0.3868E-03  0.1111E-30   20.07       0.000    
  2157   1.638      0.1448E-02 SHELL          9   0.0%   20.08      0.3868E-03  0.1110E-30   20.08       0.000    
  2158   1.639      0.1448E-02 SHELL          9   0.0%   20.09      0.3869E-03  0.1108E-30   20.10       0.000    
  2159   1.641      0.1448E-02 SHELL          9   0.0%   20.11      0.3870E-03  0.1107E-30   20.11       0.000    
  2160   1.642      0.1448E-02 SHELL          9   0.0%   20.12      0.3871E-03  0.1107E-30   20.12       0.000    
  2161   1.644      0.1448E-02 SHELL          9   0.0%   20.14      0.3872E-03  0.1107E-30   20.14       0.000    
  2162   1.645      0.1448E-02 SHELL          9   0.0%   20.15      0.3873E-03  0.1105E-30   20.15       0.000    
  2163   1.646      0.1448E-02 SHELL          9   0.0%   20.16      0.3874E-03  0.1104E-30   20.17       0.000    
  2164   1.648      0.1448E-02 SHELL          9   0.0%   20.18      0.3875E-03  0.1103E-30   20.18       0.000    
  2165   1.649      0.1448E-02 SHELL          9   0.0%   20.19      0.3876E-03  0.1103E-30   20.19       0.000    
  2166   1.651      0.1448E-02 SHELL          9   0.0%   20.21      0.3877E-03  0.1104E-30   20.21       0.000    
  2167   1.652      0.1448E-02 SHELL          9   0.0%   20.22      0.3878E-03  0.1104E-30   20.22       0.000    
  2168   1.654      0.1448E-02 SHELL          9   0.0%   20.24      0.3879E-03  0.1104E-30   20.24       0.000    
  2169   1.655      0.1448E-02 SHELL          9   0.0%   20.25      0.3880E-03  0.1105E-30   20.25       0.000    
  2170   1.657      0.1448E-02 SHELL          9   0.0%   20.26      0.3881E-03  0.1105E-30   20.27       0.000    
  2171   1.658      0.1448E-02 SHELL          9   0.0%   20.28      0.3882E-03  0.1105E-30   20.28       0.000    
  2172   1.659      0.1448E-02 SHELL          9   0.0%   20.29      0.3882E-03  0.1104E-30   20.29       0.000    
  2173   1.661      0.1447E-02 SHELL          9   0.0%   20.31      0.3883E-03  0.1104E-30   20.31       0.000    
  2174   1.662      0.1447E-02 SHELL          9   0.0%   20.32      0.3884E-03  0.1104E-30   20.32       0.000    
  2175   1.664      0.1447E-02 SHELL          9   0.0%   20.33      0.3885E-03  0.1103E-30   20.34       0.000    
  2176   1.665      0.1447E-02 SHELL          9   0.0%   20.35      0.3886E-03  0.1101E-30   20.35       0.000    
  2177   1.667      0.1447E-02 SHELL          9   0.0%   20.36      0.3887E-03  0.1101E-30   20.36       0.000    
  2178   1.668      0.1447E-02 SHELL          9   0.0%   20.38      0.3888E-03  0.1101E-30   20.38       0.000    
  2179   1.670      0.1447E-02 SHELL          9   0.0%   20.39      0.3889E-03  0.1101E-30   20.39       0.000    
  2180   1.671      0.1447E-02 SHELL          9   0.0%   20.41      0.3890E-03  0.1099E-30   20.41       0.000    
  2181   1.673      0.1447E-02 SHELL          9   0.0%   20.42      0.3891E-03  0.1098E-30   20.42       0.000    
  2182   1.674      0.1447E-02 SHELL          9   0.0%   20.43      0.3892E-03  0.1099E-30   20.44       0.000    
  2183   1.675      0.1447E-02 SHELL          9   0.0%   20.45      0.3893E-03  0.1101E-30   20.45       0.000    
  2184   1.677      0.1447E-02 SHELL          9   0.0%   20.46      0.3894E-03  0.1102E-30   20.46       0.000    
  2185   1.678      0.1447E-02 SHELL          9   0.0%   20.48      0.3895E-03  0.1104E-30   20.48       0.000    
  2186   1.680      0.1447E-02 SHELL          9   0.0%   20.49      0.3896E-03  0.1105E-30   20.49       0.000    
  2187   1.681      0.1447E-02 SHELL          9   0.0%   20.50      0.3896E-03  0.1106E-30   20.51       0.000    
  2188   1.683      0.1447E-02 SHELL          9   0.0%   20.52      0.3897E-03  0.1108E-30   20.52       0.000    
  2189   1.684      0.1447E-02 SHELL          9   0.0%   20.53      0.3898E-03  0.1108E-30   20.53       0.000    
  2190   1.686      0.1447E-02 SHELL          9   0.0%   20.55      0.3899E-03  0.1108E-30   20.55       0.000    
  2191   1.687      0.1447E-02 SHELL          9   0.0%   20.56      0.3900E-03  0.1108E-30   20.56       0.000    
  2192   1.688      0.1447E-02 SHELL          9   0.0%   20.58      0.3901E-03  0.1108E-30   20.58       0.000    
  2193   1.690      0.1447E-02 SHELL          9   0.0%   20.59      0.3902E-03  0.1106E-30   20.59       0.000    
  2194   1.691      0.1447E-02 SHELL          9   0.0%   20.60      0.3903E-03  0.1104E-30   20.61       0.000    
  2195   1.693      0.1447E-02 SHELL          9   0.0%   20.62      0.3904E-03  0.1101E-30   20.62       0.000    
  2196   1.694      0.1447E-02 SHELL          9   0.0%   20.63      0.3905E-03  0.1100E-30   20.63       0.000    
  2197   1.696      0.1447E-02 SHELL          9   0.0%   20.65      0.3906E-03  0.1099E-30   20.65       0.000    
  2198   1.697      0.1447E-02 SHELL          9   0.0%   20.66      0.3907E-03  0.1098E-30   20.66       0.000    
  2199   1.699      0.1447E-02 SHELL          9   0.0%   20.67      0.3908E-03  0.1098E-30   20.68       0.000    
 CYCLE    TIME      TIME-STEP  ELEMENT          ERROR  I-ENERGY    K-ENERGY T  K-ENERGY R  EXT-WORK MAS.ERR
  2200   1.700      0.1447E-02 SHELL          9   0.0%   20.69      0.3909E-03  0.1101E-30   20.69       0.000    
     ANIMATION FILE: 1ELEM_SAMPA018 WRITTEN
  2201   1.701      0.1447E-02 SHELL          9   0.0%   20.70      0.3910E-03  0.1106E-30   20.70       0.000    
  2202   1.703      0.1447E-02 SHELL          9   0.0%   20.72      0.3911E-03  0.1112E-30   20.72       0.000    
  2203   1.704      0.1446E-02 SHELL          9   0.0%   20.73      0.3912E-03  0.1116E-30   20.73       0.000    
  2204   1.706      0.1446E-02 SHELL          9   0.0%   20.75      0.3912E-03  0.1118E-30   20.75       0.000    
  2205   1.707      0.1446E-02 SHELL          9   0.0%   20.76      0.3913E-03  0.1118E-30   20.76       0.000    
  2206   1.709      0.1446E-02 SHELL          9   0.0%   20.77      0.3914E-03  0.1117E-30   20.78       0.000    
  2207   1.710      0.1446E-02 SHELL          9   0.0%   20.79      0.3915E-03  0.1115E-30   20.79       0.000    
  2208   1.712      0.1446E-02 SHELL          9   0.0%   20.80      0.3916E-03  0.1112E-30   20.80       0.000    
  2209   1.713      0.1446E-02 SHELL          9   0.0%   20.82      0.3917E-03  0.1109E-30   20.82       0.000    
  2210   1.714      0.1446E-02 SHELL          9   0.0%   20.83      0.3918E-03  0.1106E-30   20.83       0.000    
  2211   1.716      0.1446E-02 SHELL          9   0.0%   20.85      0.3919E-03  0.1102E-30   20.85       0.000    
  2212   1.717      0.1446E-02 SHELL          9   0.0%   20.86      0.3920E-03  0.1100E-30   20.86       0.000    
  2213   1.719      0.1446E-02 SHELL          9   0.0%   20.87      0.3921E-03  0.1099E-30   20.88       0.000    
  2214   1.720      0.1446E-02 SHELL          9   0.0%   20.89      0.3922E-03  0.1099E-30   20.89       0.000    
  2215   1.722      0.1446E-02 SHELL          9   0.0%   20.90      0.3923E-03  0.1099E-30   20.90       0.000    
  2216   1.723      0.1446E-02 SHELL          9   0.0%   20.92      0.3924E-03  0.1101E-30   20.92       0.000    
  2217   1.725      0.1446E-02 SHELL          9   0.0%   20.93      0.3925E-03  0.1102E-30   20.93       0.000    
  2218   1.726      0.1446E-02 SHELL          9   0.0%   20.94      0.3926E-03  0.1104E-30   20.95       0.000    
  2219   1.727      0.1446E-02 SHELL          9   0.0%   20.96      0.3927E-03  0.1107E-30   20.96       0.000    
  2220   1.729      0.1446E-02 SHELL          9   0.0%   20.97      0.3927E-03  0.1111E-30   20.97       0.000    
  2221   1.730      0.1446E-02 SHELL          9   0.0%   20.99      0.3928E-03  0.1116E-30   20.99       0.000    
  2222   1.732      0.1446E-02 SHELL          9   0.0%   21.00      0.3929E-03  0.1121E-30   21.00       0.000    
  2223   1.733      0.1446E-02 SHELL          9   0.0%   21.02      0.3930E-03  0.1126E-30   21.02       0.000    
  2224   1.735      0.1446E-02 SHELL          9   0.0%   21.03      0.3931E-03  0.1132E-30   21.03       0.000    
  2225   1.736      0.1446E-02 SHELL          9   0.0%   21.04      0.3932E-03  0.1137E-30   21.05       0.000    
  2226   1.738      0.1446E-02 SHELL          9   0.0%   21.06      0.3933E-03  0.1139E-30   21.06       0.000    
  2227   1.739      0.1446E-02 SHELL          9   0.0%   21.07      0.3934E-03  0.1141E-30   21.07       0.000    
  2228   1.740      0.1446E-02 SHELL          9   0.0%   21.09      0.3935E-03  0.1140E-30   21.09       0.000    
  2229   1.742      0.1446E-02 SHELL          9   0.0%   21.10      0.3936E-03  0.1133E-30   21.10       0.000    
  2230   1.743      0.1446E-02 SHELL          9   0.0%   21.12      0.3937E-03  0.1126E-30   21.12       0.000    
  2231   1.745      0.1446E-02 SHELL          9   0.0%   21.13      0.3938E-03  0.1122E-30   21.13       0.000    
  2232   1.746      0.1445E-02 SHELL          9   0.0%   21.14      0.3939E-03  0.1116E-30   21.15       0.000    
  2233   1.748      0.1445E-02 SHELL          9   0.0%   21.16      0.3940E-03  0.1110E-30   21.16       0.000    
  2234   1.749      0.1445E-02 SHELL          9   0.0%   21.17      0.3941E-03  0.1105E-30   21.17       0.000    
  2235   1.751      0.1445E-02 SHELL          9   0.0%   21.19      0.3942E-03  0.1100E-30   21.19       0.000    
  2236   1.752      0.1445E-02 SHELL          9   0.0%   21.20      0.3943E-03  0.1098E-30   21.20       0.000    
  2237   1.754      0.1445E-02 SHELL          9   0.0%   21.22      0.3943E-03  0.1098E-30   21.22       0.000    
  2238   1.755      0.1445E-02 SHELL          9   0.0%   21.23      0.3944E-03  0.1101E-30   21.23       0.000    
  2239   1.756      0.1445E-02 SHELL          9   0.0%   21.24      0.3945E-03  0.1109E-30   21.25       0.000    
  2240   1.758      0.1445E-02 SHELL          9   0.0%   21.26      0.3946E-03  0.1121E-30   21.26       0.000    
  2241   1.759      0.1445E-02 SHELL          9   0.0%   21.27      0.3947E-03  0.1137E-30   21.27       0.000    
  2242   1.761      0.1445E-02 SHELL          9   0.0%   21.29      0.3948E-03  0.1156E-30   21.29       0.000    
  2243   1.762      0.1445E-02 SHELL          9   0.0%   21.30      0.3949E-03  0.1174E-30   21.30       0.000    
  2244   1.764      0.1445E-02 SHELL          9   0.0%   21.32      0.3950E-03  0.1192E-30   21.32       0.000    
  2245   1.765      0.1445E-02 SHELL          9   0.0%   21.33      0.3951E-03  0.1205E-30   21.33       0.000    
  2246   1.767      0.1445E-02 SHELL          9   0.0%   21.34      0.3952E-03  0.1212E-30   21.35       0.000    
  2247   1.768      0.1445E-02 SHELL          9   0.0%   21.36      0.3953E-03  0.1214E-30   21.36       0.000    
  2248   1.769      0.1445E-02 SHELL          9   0.0%   21.37      0.3954E-03  0.1217E-30   21.37       0.000    
  2249   1.771      0.1445E-02 SHELL          9   0.0%   21.39      0.3955E-03  0.1216E-30   21.39       0.000    
  2250   1.772      0.1445E-02 SHELL          9   0.0%   21.40      0.3956E-03  0.1206E-30   21.40       0.000    
  2251   1.774      0.1445E-02 SHELL          9   0.0%   21.42      0.3957E-03  0.1187E-30   21.42       0.000    
  2252   1.775      0.1445E-02 SHELL          9   0.0%   21.43      0.3958E-03  0.1161E-30   21.43       0.000    
  2253   1.777      0.1445E-02 SHELL          9   0.0%   21.44      0.3959E-03  0.1140E-30   21.45       0.000    
  2254   1.778      0.1445E-02 SHELL          9   0.0%   21.46      0.3960E-03  0.1123E-30   21.46       0.000    
 CYCLE    TIME      TIME-STEP  ELEMENT          ERROR  I-ENERGY    K-ENERGY T  K-ENERGY R  EXT-WORK MAS.ERR
  2255   1.780      0.1445E-02 SHELL          9   0.0%   21.47      0.3960E-03  0.1111E-30   21.47       0.000    
  2256   1.781      0.1445E-02 SHELL          9   0.0%   21.49      0.3961E-03  0.1104E-30   21.49       0.000    
  2257   1.782      0.1445E-02 SHELL          9   0.0%   21.50      0.3962E-03  0.1101E-30   21.50       0.000    
  2258   1.784      0.1445E-02 SHELL          9   0.0%   21.52      0.3963E-03  0.1102E-30   21.52       0.000    
  2259   1.785      0.1445E-02 SHELL          9   0.0%   21.53      0.3964E-03  0.1107E-30   21.53       0.000    
  2260   1.787      0.1444E-02 SHELL          9   0.0%   21.54      0.3965E-03  0.1117E-30   21.55       0.000    
  2261   1.788      0.1444E-02 SHELL          9   0.0%   21.56      0.3966E-03  0.1128E-30   21.56       0.000    
  2262   1.790      0.1444E-02 SHELL          9   0.0%   21.57      0.3967E-03  0.1135E-30   21.57       0.000    
  2263   1.791      0.1444E-02 SHELL          9   0.0%   21.59      0.3968E-03  0.1140E-30   21.59       0.000    
  2264   1.793      0.1444E-02 SHELL          9   0.0%   21.60      0.3969E-03  0.1142E-30   21.60       0.000    
  2265   1.794      0.1444E-02 SHELL          9   0.0%   21.62      0.3970E-03  0.1141E-30   21.62       0.000    
  2266   1.795      0.1444E-02 SHELL          9   0.0%   21.63      0.3971E-03  0.1139E-30   21.63       0.000    
  2267   1.797      0.1444E-02 SHELL          9   0.0%   21.64      0.3972E-03  0.1134E-30   21.65       0.000    
  2268   1.798      0.1444E-02 SHELL          9   0.0%   21.66      0.3973E-03  0.1129E-30   21.66       0.000    
  2269   1.800      0.1444E-02 SHELL          9   0.0%   21.67      0.3974E-03  0.1121E-30   21.67       0.000    
  2270   1.801      0.1444E-02 SHELL          9   0.0%   21.69      0.3975E-03  0.1114E-30   21.69       0.000    
     ANIMATION FILE: 1ELEM_SAMPA019 WRITTEN
  2271   1.803      0.1444E-02 SHELL          9   0.0%   21.70      0.3976E-03  0.1110E-30   21.70       0.000    
  2272   1.804      0.1444E-02 SHELL          9   0.0%   21.72      0.3977E-03  0.1108E-30   21.72       0.000    
  2273   1.806      0.1444E-02 SHELL          9   0.0%   21.73      0.3977E-03  0.1109E-30   21.73       0.000    
  2274   1.807      0.1444E-02 SHELL          9   0.0%   21.74      0.3978E-03  0.1114E-30   21.75       0.000    
  2275   1.808      0.1444E-02 SHELL          9   0.0%   21.76      0.3979E-03  0.1121E-30   21.76       0.000    
  2276   1.810      0.1444E-02 SHELL          9   0.0%   21.77      0.3980E-03  0.1131E-30   21.77       0.000    
  2277   1.811      0.1444E-02 SHELL          9   0.0%   21.79      0.3981E-03  0.1141E-30   21.79       0.000    
  2278   1.813      0.1444E-02 SHELL          9   0.0%   21.80      0.3982E-03  0.1152E-30   21.80       0.000    
  2279   1.814      0.1444E-02 SHELL          9   0.0%   21.82      0.3983E-03  0.1161E-30   21.82       0.000    
  2280   1.816      0.1444E-02 SHELL          9   0.0%   21.83      0.3984E-03  0.1165E-30   21.83       0.000    
  2281   1.817      0.1444E-02 SHELL          9   0.0%   21.84      0.3985E-03  0.1168E-30   21.85       0.000    
  2282   1.819      0.1444E-02 SHELL          9   0.0%   21.86      0.3986E-03  0.1173E-30   21.86       0.000    
  2283   1.820      0.1444E-02 SHELL          9   0.0%   21.87      0.3987E-03  0.1178E-30   21.87       0.000    
  2284   1.821      0.1444E-02 SHELL          9   0.0%   21.89      0.3988E-03  0.1187E-30   21.89       0.000    
  2285   1.823      0.1444E-02 SHELL          9   0.0%   21.90      0.3989E-03  0.1192E-30   21.90       0.000    
  2286   1.824      0.1444E-02 SHELL          9   0.0%   21.92      0.3990E-03  0.1195E-30   21.92       0.000    
  2287   1.826      0.1444E-02 SHELL          9   0.0%   21.93      0.3991E-03  0.1191E-30   21.93       0.000    
  2288   1.827      0.1443E-02 SHELL          9   0.0%   21.94      0.3992E-03  0.1187E-30   21.95       0.000    
  2289   1.829      0.1443E-02 SHELL          9   0.0%   21.96      0.3993E-03  0.1181E-30   21.96       0.000    
  2290   1.830      0.1443E-02 SHELL          9   0.0%   21.97      0.3994E-03  0.1172E-30   21.97       0.000    
  2291   1.832      0.1443E-02 SHELL          9   0.0%   21.99      0.3995E-03  0.1165E-30   21.99       0.000    
  2292   1.833      0.1443E-02 SHELL          9   0.0%   22.00      0.3995E-03  0.1157E-30   22.00       0.000    
  2293   1.834      0.1443E-02 SHELL          9   0.0%   22.02      0.3996E-03  0.1149E-30   22.02       0.000    
  2294   1.836      0.1443E-02 SHELL          9   0.0%   22.03      0.3997E-03  0.1144E-30   22.03       0.000    
  2295   1.837      0.1443E-02 SHELL          9   0.0%   22.04      0.3998E-03  0.1143E-30   22.05       0.000    
  2296   1.839      0.1443E-02 SHELL          9   0.0%   22.06      0.3999E-03  0.1151E-30   22.06       0.000    
  2297   1.840      0.1443E-02 SHELL          9   0.0%   22.07      0.4000E-03  0.1161E-30   22.07       0.000    
  2298   1.842      0.1443E-02 SHELL          9   0.0%   22.09      0.4001E-03  0.1173E-30   22.09       0.000    
  2299   1.843      0.1443E-02 SHELL          9   0.0%   22.10      0.4002E-03  0.1191E-30   22.10       0.000    
  2300   1.844      0.1443E-02 SHELL          9   0.0%   22.12      0.4003E-03  0.1210E-30   22.12       0.000    
  2301   1.846      0.1443E-02 SHELL          9   0.0%   22.13      0.4004E-03  0.1230E-30   22.13       0.000    
  2302   1.847      0.1443E-02 SHELL          9   0.0%   22.14      0.4005E-03  0.1247E-30   22.15       0.000    
  2303   1.849      0.1443E-02 SHELL          9   0.0%   22.16      0.4006E-03  0.1269E-30   22.16       0.000    
  2304   1.850      0.1443E-02 SHELL          9   0.0%   22.17      0.4007E-03  0.1289E-30   22.18       0.000    
  2305   1.852      0.1443E-02 SHELL          9   0.0%   22.19      0.4008E-03  0.1304E-30   22.19       0.000    
  2306   1.853      0.1443E-02 SHELL          9   0.0%   22.20      0.4009E-03  0.1312E-30   22.20       0.000    
  2307   1.855      0.1443E-02 SHELL          9   0.0%   22.22      0.4010E-03  0.1312E-30   22.22       0.000    
  2308   1.856      0.1443E-02 SHELL          9   0.0%   22.23      0.4011E-03  0.1297E-30   22.23       0.000    
  2309   1.857      0.1443E-02 SHELL          9   0.0%   22.25      0.4012E-03  0.1274E-30   22.25       0.000    
 CYCLE    TIME      TIME-STEP  ELEMENT          ERROR  I-ENERGY    K-ENERGY T  K-ENERGY R  EXT-WORK MAS.ERR
  2310   1.859      0.1443E-02 SHELL          9   0.0%   22.26      0.4013E-03  0.1252E-30   22.26       0.000    
  2311   1.860      0.1443E-02 SHELL          9   0.0%   22.27      0.4014E-03  0.1233E-30   22.28       0.000    
  2312   1.862      0.1443E-02 SHELL          9   0.0%   22.29      0.4014E-03  0.1213E-30   22.29       0.000    
  2313   1.863      0.1443E-02 SHELL          9   0.0%   22.30      0.4015E-03  0.1195E-30   22.30       0.000    
  2314   1.865      0.1442E-02 SHELL          9   0.0%   22.32      0.4016E-03  0.1183E-30   22.32       0.000    
  2315   1.866      0.1442E-02 SHELL          9   0.0%   22.33      0.4017E-03  0.1175E-30   22.33       0.000    
  2316   1.868      0.1442E-02 SHELL          9   0.0%   22.35      0.4018E-03  0.1172E-30   22.35       0.000    
  2317   1.869      0.1442E-02 SHELL          9   0.0%   22.36      0.4019E-03  0.1178E-30   22.36       0.000    
  2318   1.870      0.1442E-02 SHELL          9   0.0%   22.37      0.4020E-03  0.1187E-30   22.38       0.000    
  2319   1.872      0.1442E-02 SHELL          9   0.0%   22.39      0.4021E-03  0.1195E-30   22.39       0.000    
  2320   1.873      0.1442E-02 SHELL          9   0.0%   22.40      0.4022E-03  0.1208E-30   22.40       0.000    
  2321   1.875      0.1442E-02 SHELL          9   0.0%   22.42      0.4023E-03  0.1224E-30   22.42       0.000    
  2322   1.876      0.1442E-02 SHELL          9   0.0%   22.43      0.4024E-03  0.1242E-30   22.43       0.000    
  2323   1.878      0.1442E-02 SHELL          9   0.0%   22.45      0.4025E-03  0.1260E-30   22.45       0.000    
  2324   1.879      0.1442E-02 SHELL          9   0.0%   22.46      0.4026E-03  0.1270E-30   22.46       0.000    
  2325   1.881      0.1442E-02 SHELL          9   0.0%   22.48      0.4027E-03  0.1270E-30   22.48       0.000    
  2326   1.882      0.1442E-02 SHELL          9   0.0%   22.49      0.4028E-03  0.1266E-30   22.49       0.000    
  2327   1.883      0.1442E-02 SHELL          9   0.0%   22.50      0.4029E-03  0.1263E-30   22.51       0.000    
  2328   1.885      0.1442E-02 SHELL          9   0.0%   22.52      0.4030E-03  0.1253E-30   22.52       0.000    
  2329   1.886      0.1442E-02 SHELL          9   0.0%   22.53      0.4031E-03  0.1238E-30   22.53       0.000    
  2330   1.888      0.1442E-02 SHELL          9   0.0%   22.55      0.4032E-03  0.1228E-30   22.55       0.000    
  2331   1.889      0.1442E-02 SHELL          9   0.0%   22.56      0.4033E-03  0.1226E-30   22.56       0.000    
  2332   1.891      0.1442E-02 SHELL          9   0.0%   22.58      0.4033E-03  0.1231E-30   22.58       0.000    
  2333   1.892      0.1442E-02 SHELL          9   0.0%   22.59      0.4034E-03  0.1236E-30   22.59       0.000    
  2334   1.894      0.1442E-02 SHELL          9   0.0%   22.60      0.4035E-03  0.1235E-30   22.61       0.000    
  2335   1.895      0.1442E-02 SHELL          9   0.0%   22.62      0.4036E-03  0.1236E-30   22.62       0.000    
  2336   1.896      0.1442E-02 SHELL          9   0.0%   22.63      0.4037E-03  0.1248E-30   22.63       0.000    
  2337   1.898      0.1442E-02 SHELL          9   0.0%   22.65      0.4038E-03  0.1262E-30   22.65       0.000    
  2338   1.899      0.1442E-02 SHELL          9   0.0%   22.66      0.4039E-03  0.1278E-30   22.66       0.000    
  2339   1.901      0.1442E-02 SHELL          9   0.0%   22.68      0.4040E-03  0.1296E-30   22.68       0.000    
     ANIMATION FILE: 1ELEM_SAMPA020 WRITTEN
  2340   1.902      0.1441E-02 SHELL          9   0.0%   22.69      0.4041E-03  0.1304E-30   22.69       0.000    
  2341   1.904      0.1441E-02 SHELL          9   0.0%   22.71      0.4042E-03  0.1309E-30   22.71       0.000    
  2342   1.905      0.1441E-02 SHELL          9   0.0%   22.72      0.4043E-03  0.1319E-30   22.72       0.000    
  2343   1.907      0.1441E-02 SHELL          9   0.0%   22.73      0.4044E-03  0.1332E-30   22.74       0.000    
  2344   1.908      0.1441E-02 SHELL          9   0.0%   22.75      0.4045E-03  0.1338E-30   22.75       0.000    
  2345   1.909      0.1441E-02 SHELL          9   0.0%   22.76      0.4046E-03  0.1333E-30   22.76       0.000    
  2346   1.911      0.1441E-02 SHELL          9   0.0%   22.78      0.4047E-03  0.1320E-30   22.78       0.000    
  2347   1.912      0.1441E-02 SHELL          9   0.0%   22.79      0.4048E-03  0.1305E-30   22.79       0.000    
  2348   1.914      0.1441E-02 SHELL          9   0.0%   22.81      0.4049E-03  0.1294E-30   22.81       0.000    
  2349   1.915      0.1441E-02 SHELL          9   0.0%   22.82      0.4050E-03  0.1291E-30   22.82       0.000    
  2350   1.917      0.1441E-02 SHELL          9   0.0%   22.83      0.4051E-03  0.1293E-30   22.84       0.000    
  2351   1.918      0.1441E-02 SHELL          9   0.0%   22.85      0.4052E-03  0.1295E-30   22.85       0.000    
  2352   1.919      0.1441E-02 SHELL          9   0.0%   22.86      0.4053E-03  0.1300E-30   22.87       0.000    
  2353   1.921      0.1441E-02 SHELL          9   0.0%   22.88      0.4054E-03  0.1312E-30   22.88       0.000    
  2354   1.922      0.1441E-02 SHELL          9   0.0%   22.89      0.4054E-03  0.1328E-30   22.89       0.000    
  2355   1.924      0.1441E-02 SHELL          9   0.0%   22.91      0.4055E-03  0.1347E-30   22.91       0.000    
  2356   1.925      0.1441E-02 SHELL          9   0.0%   22.92      0.4056E-03  0.1371E-30   22.92       0.000    
  2357   1.927      0.1441E-02 SHELL          9   0.0%   22.94      0.4057E-03  0.1391E-30   22.94       0.000    
  2358   1.928      0.1441E-02 SHELL          9   0.0%   22.95      0.4058E-03  0.1413E-30   22.95       0.000    
  2359   1.930      0.1441E-02 SHELL          9   0.0%   22.96      0.4059E-03  0.1429E-30   22.97       0.000    
  2360   1.931      0.1441E-02 SHELL          9   0.0%   22.98      0.4060E-03  0.1442E-30   22.98       0.000    
  2361   1.932      0.1441E-02 SHELL          9   0.0%   22.99      0.4061E-03  0.1447E-30   23.00       0.000    
  2362   1.934      0.1441E-02 SHELL          9   0.0%   23.01      0.4062E-03  0.1445E-30   23.01       0.000    
  2363   1.935      0.1441E-02 SHELL          9   0.0%   23.02      0.4063E-03  0.1447E-30   23.02       0.000    
  2364   1.937      0.1441E-02 SHELL          9   0.0%   23.04      0.4064E-03  0.1455E-30   23.04       0.000    
 CYCLE    TIME      TIME-STEP  ELEMENT          ERROR  I-ENERGY    K-ENERGY T  K-ENERGY R  EXT-WORK MAS.ERR
  2365   1.938      0.1441E-02 SHELL          9   0.0%   23.05      0.4065E-03  0.1467E-30   23.05       0.000    
  2366   1.940      0.1440E-02 SHELL          9   0.0%   23.07      0.4066E-03  0.1475E-30   23.07       0.000    
  2367   1.941      0.1440E-02 SHELL          9   0.0%   23.08      0.4067E-03  0.1477E-30   23.08       0.000    
  2368   1.943      0.1440E-02 SHELL          9   0.0%   23.09      0.4068E-03  0.1479E-30   23.10       0.000    
  2369   1.944      0.1440E-02 SHELL          9   0.0%   23.11      0.4069E-03  0.1481E-30   23.11       0.000    
  2370   1.945      0.1440E-02 SHELL          9   0.0%   23.12      0.4070E-03  0.1481E-30   23.13       0.000    
  2371   1.947      0.1440E-02 SHELL          9   0.0%   23.14      0.4071E-03  0.1469E-30   23.14       0.000    
  2372   1.948      0.1440E-02 SHELL          9   0.0%   23.15      0.4072E-03  0.1450E-30   23.15       0.000    
  2373   1.950      0.1440E-02 SHELL          9   0.0%   23.17      0.4073E-03  0.1425E-30   23.17       0.000    
  2374   1.951      0.1440E-02 SHELL          9   0.0%   23.18      0.4074E-03  0.1409E-30   23.18       0.000    
  2375   1.953      0.1440E-02 SHELL          9   0.0%   23.20      0.4075E-03  0.1416E-30   23.20       0.000    
  2376   1.954      0.1440E-02 SHELL          9   0.0%   23.21      0.4076E-03  0.1427E-30   23.21       0.000    
  2377   1.955      0.1440E-02 SHELL          9   0.0%   23.22      0.4076E-03  0.1420E-30   23.23       0.000    
  2378   1.957      0.1440E-02 SHELL          9   0.0%   23.24      0.4077E-03  0.1417E-30   23.24       0.000    
  2379   1.958      0.1440E-02 SHELL          9   0.0%   23.25      0.4078E-03  0.1428E-30   23.25       0.000    
  2380   1.960      0.1440E-02 SHELL          9   0.0%   23.27      0.4079E-03  0.1430E-30   23.27       0.000    
  2381   1.961      0.1440E-02 SHELL          9   0.0%   23.28      0.4080E-03  0.1431E-30   23.28       0.000    
  2382   1.963      0.1440E-02 SHELL          9   0.0%   23.30      0.4081E-03  0.1428E-30   23.30       0.000    
  2383   1.964      0.1440E-02 SHELL          9   0.0%   23.31      0.4082E-03  0.1428E-30   23.31       0.000    
  2384   1.966      0.1440E-02 SHELL          9   0.0%   23.33      0.4083E-03  0.1439E-30   23.33       0.000    
  2385   1.967      0.1440E-02 SHELL          9   0.0%   23.34      0.4084E-03  0.1450E-30   23.34       0.000    
  2386   1.968      0.1440E-02 SHELL          9   0.0%   23.35      0.4085E-03  0.1453E-30   23.36       0.000    
  2387   1.970      0.1440E-02 SHELL          9   0.0%   23.37      0.4086E-03  0.1453E-30   23.37       0.000    
  2388   1.971      0.1440E-02 SHELL          9   0.0%   23.38      0.4087E-03  0.1473E-30   23.39       0.000    
  2389   1.973      0.1440E-02 SHELL          9   0.0%   23.40      0.4088E-03  0.1497E-30   23.40       0.000    
  2390   1.974      0.1439E-02 SHELL          9   0.0%   23.41      0.4089E-03  0.1512E-30   23.41       0.000    
  2391   1.976      0.1439E-02 SHELL          9   0.0%   23.43      0.4090E-03  0.1526E-30   23.43       0.000    
  2392   1.977      0.1439E-02 SHELL          9   0.0%   23.44      0.4091E-03  0.1534E-30   23.44       0.000    
  2393   1.979      0.1439E-02 SHELL          9   0.0%   23.46      0.4092E-03  0.1532E-30   23.46       0.000    
  2394   1.980      0.1439E-02 SHELL          9   0.0%   23.47      0.4093E-03  0.1525E-30   23.47       0.000    
  2395   1.981      0.1439E-02 SHELL          9   0.0%   23.48      0.4094E-03  0.1515E-30   23.49       0.000    
  2396   1.983      0.1439E-02 SHELL          9   0.0%   23.50      0.4095E-03  0.1510E-30   23.50       0.000    
  2397   1.984      0.1439E-02 SHELL          9   0.0%   23.51      0.4096E-03  0.1516E-30   23.52       0.000    
  2398   1.986      0.1439E-02 SHELL          9   0.0%   23.53      0.4097E-03  0.1515E-30   23.53       0.000    
  2399   1.987      0.1439E-02 SHELL          9   0.0%   23.54      0.4098E-03  0.1515E-30   23.54       0.000    
  2400   1.989      0.1439E-02 SHELL          9   0.0%   23.56      0.4099E-03  0.1517E-30   23.56       0.000    
  2401   1.990      0.1439E-02 SHELL          9   0.0%   23.57      0.4100E-03  0.1513E-30   23.57       0.000    
  2402   1.991      0.1439E-02 SHELL          9   0.0%   23.59      0.4100E-03  0.1514E-30   23.59       0.000    
  2403   1.993      0.1439E-02 SHELL          9   0.0%   23.60      0.4101E-03  0.1517E-30   23.60       0.000    
  2404   1.994      0.1439E-02 SHELL          9   0.0%   23.61      0.4102E-03  0.1526E-30   23.62       0.000    
  2405   1.996      0.1439E-02 SHELL          9   0.0%   23.63      0.4103E-03  0.1524E-30   23.63       0.000    
  2406   1.997      0.1439E-02 SHELL          9   0.0%   23.64      0.4104E-03  0.1513E-30   23.65       0.000    
  2407   1.999      0.1439E-02 SHELL          9   0.0%   23.66      0.4105E-03  0.1511E-30   23.66       0.000    
  2408   2.000      0.1439E-02 SHELL          9   0.0%   23.67      0.4106E-03  0.1504E-30   23.67       0.000    
     ANIMATION FILE: 1ELEM_SAMPA021 WRITTEN
  2409   2.002      0.1439E-02 SHELL          9   0.0%   23.69      0.4107E-03  0.1499E-30   23.69       0.000    
  2410   2.003      0.1439E-02 SHELL          9   0.0%   23.70      0.4108E-03  0.1493E-30   23.70       0.000    
  2411   2.004      0.1439E-02 SHELL          9   0.0%   23.72      0.4109E-03  0.1484E-30   23.72       0.000    
  2412   2.006      0.1439E-02 SHELL          9   0.0%   23.73      0.4110E-03  0.1488E-30   23.73       0.000    
  2413   2.007      0.1439E-02 SHELL          9   0.0%   23.75      0.4111E-03  0.1488E-30   23.75       0.000    
  2414   2.009      0.1439E-02 SHELL          9   0.0%   23.76      0.4112E-03  0.1470E-30   23.76       0.000    
  2415   2.010      0.1438E-02 SHELL          9   0.0%   23.77      0.4113E-03  0.1460E-30   23.78       0.000    
  2416   2.012      0.1438E-02 SHELL          9   0.0%   23.79      0.4114E-03  0.1463E-30   23.79       0.000    
  2417   2.013      0.1438E-02 SHELL          9   0.0%   23.80      0.4115E-03  0.1463E-30   23.80       0.000    
  2418   2.015      0.1438E-02 SHELL          9   0.0%   23.82      0.4116E-03  0.1467E-30   23.82       0.000    
  2419   2.016      0.1438E-02 SHELL          9   0.0%   23.83      0.4117E-03  0.1464E-30   23.83       0.000    
 CYCLE    TIME      TIME-STEP  ELEMENT          ERROR  I-ENERGY    K-ENERGY T  K-ENERGY R  EXT-WORK MAS.ERR
  2420   2.017      0.1438E-02 SHELL          9   0.0%   23.85      0.4118E-03  0.1459E-30   23.85       0.000    
  2421   2.019      0.1438E-02 SHELL          9   0.0%   23.86      0.4119E-03  0.1459E-30   23.86       0.000    
  2422   2.020      0.1438E-02 SHELL          9   0.0%   23.88      0.4120E-03  0.1457E-30   23.88       0.000    
  2423   2.022      0.1438E-02 SHELL          9   0.0%   23.89      0.4122E-03  0.1452E-30   23.89       0.000    
  2424   2.023      0.1438E-02 SHELL          9   0.0%   23.90      0.4123E-03  0.1444E-30   23.91       0.000    
  2425   2.025      0.1438E-02 SHELL          9   0.0%   23.92      0.4124E-03  0.1444E-30   23.92       0.000    
  2426   2.026      0.1438E-02 SHELL          9   0.0%   23.93      0.4125E-03  0.1439E-30   23.94       0.000    
  2427   2.027      0.1438E-02 SHELL          9   0.0%   23.95      0.4126E-03  0.1436E-30   23.95       0.000    
  2428   2.029      0.1438E-02 SHELL          9   0.0%   23.96      0.4127E-03  0.1448E-30   23.96       0.000    
  2429   2.030      0.1438E-02 SHELL          9   0.0%   23.98      0.4128E-03  0.1458E-30   23.98       0.000    
  2430   2.032      0.1438E-02 SHELL          9   0.0%   23.99      0.4129E-03  0.1458E-30   23.99       0.000    
  2431   2.033      0.1438E-02 SHELL          9   0.0%   24.01      0.4130E-03  0.1461E-30   24.01       0.000    
  2432   2.035      0.1438E-02 SHELL          9   0.0%   24.02      0.4131E-03  0.1462E-30   24.02       0.000    
  2433   2.036      0.1438E-02 SHELL          9   0.0%   24.04      0.4132E-03  0.1463E-30   24.04       0.000    
  2434   2.038      0.1438E-02 SHELL          9   0.0%   24.05      0.4133E-03  0.1464E-30   24.05       0.000    
  2435   2.039      0.1438E-02 SHELL          9   0.0%   24.06      0.4134E-03  0.1458E-30   24.07       0.000    
  2436   2.040      0.1438E-02 SHELL          9   0.0%   24.08      0.4135E-03  0.1453E-30   24.08       0.000    
  2437   2.042      0.1438E-02 SHELL          9   0.0%   24.09      0.4136E-03  0.1448E-30   24.10       0.000    
  2438   2.043      0.1438E-02 SHELL          9   0.0%   24.11      0.4137E-03  0.1438E-30   24.11       0.000    
  2439   2.045      0.1437E-02 SHELL          9   0.0%   24.12      0.4138E-03  0.1415E-30   24.12       0.000    
  2440   2.046      0.1437E-02 SHELL          9   0.0%   24.14      0.4139E-03  0.1396E-30   24.14       0.000    
  2441   2.048      0.1437E-02 SHELL          9   0.0%   24.15      0.4140E-03  0.1398E-30   24.15       0.000    
  2442   2.049      0.1437E-02 SHELL          9   0.0%   24.17      0.4141E-03  0.1407E-30   24.17       0.000    
  2443   2.050      0.1437E-02 SHELL          9   0.0%   24.18      0.4142E-03  0.1413E-30   24.18       0.000    
  2444   2.052      0.1437E-02 SHELL          9   0.0%   24.20      0.4143E-03  0.1420E-30   24.20       0.000    
  2445   2.053      0.1437E-02 SHELL          9   0.0%   24.21      0.4144E-03  0.1428E-30   24.21       0.000    
  2446   2.055      0.1437E-02 SHELL          9   0.0%   24.22      0.4145E-03  0.1431E-30   24.23       0.000    
  2447   2.056      0.1437E-02 SHELL          9   0.0%   24.24      0.4146E-03  0.1436E-30   24.24       0.000    
  2448   2.058      0.1437E-02 SHELL          9   0.0%   24.25      0.4147E-03  0.1444E-30   24.25       0.000    
  2449   2.059      0.1437E-02 SHELL          9   0.0%   24.27      0.4149E-03  0.1448E-30   24.27       0.000    
  2450   2.061      0.1437E-02 SHELL          9   0.0%   24.28      0.4149E-03  0.1454E-30   24.28       0.000    
  2451   2.062      0.1437E-02 SHELL          9   0.0%   24.30      0.4150E-03  0.1462E-30   24.30       0.000    
  2452   2.063      0.1437E-02 SHELL          9   0.0%   24.31      0.4151E-03  0.1466E-30   24.31       0.000    
  2453   2.065      0.1437E-02 SHELL          9   0.0%   24.33      0.4152E-03  0.1463E-30   24.33       0.000    
  2454   2.066      0.1437E-02 SHELL          9   0.0%   24.34      0.4154E-03  0.1448E-30   24.34       0.000    
  2455   2.068      0.1437E-02 SHELL          9   0.0%   24.36      0.4154E-03  0.1432E-30   24.36       0.000    
  2456   2.069      0.1437E-02 SHELL          9   0.0%   24.37      0.4155E-03  0.1438E-30   24.37       0.000    
  2457   2.071      0.1437E-02 SHELL          9   0.0%   24.38      0.4156E-03  0.1445E-30   24.39       0.000    
  2458   2.072      0.1437E-02 SHELL          9   0.0%   24.40      0.4158E-03  0.1438E-30   24.40       0.000    
  2459   2.073      0.1437E-02 SHELL          9   0.0%   24.41      0.4159E-03  0.1427E-30   24.41       0.000    
  2460   2.075      0.1437E-02 SHELL          9   0.0%   24.43      0.4159E-03  0.1419E-30   24.43       0.000    
  2461   2.076      0.1437E-02 SHELL          9   0.0%   24.44      0.4160E-03  0.1414E-30   24.44       0.000    
  2462   2.078      0.1436E-02 SHELL          9   0.0%   24.46      0.4162E-03  0.1415E-30   24.46       0.000    
  2463   2.079      0.1436E-02 SHELL          9   0.0%   24.47      0.4163E-03  0.1422E-30   24.47       0.000    
  2464   2.081      0.1436E-02 SHELL          9   0.0%   24.49      0.4164E-03  0.1441E-30   24.49       0.000    
  2465   2.082      0.1436E-02 SHELL          9   0.0%   24.50      0.4165E-03  0.1466E-30   24.50       0.000    
  2466   2.083      0.1436E-02 SHELL          9   0.0%   24.52      0.4166E-03  0.1481E-30   24.52       0.000    
  2467   2.085      0.1436E-02 SHELL          9   0.0%   24.53      0.4167E-03  0.1513E-30   24.53       0.000    
  2468   2.086      0.1436E-02 SHELL          9   0.0%   24.54      0.4168E-03  0.1540E-30   24.55       0.000    
  2469   2.088      0.1436E-02 SHELL          9   0.0%   24.56      0.4169E-03  0.1553E-30   24.56       0.000    
  2470   2.089      0.1436E-02 SHELL          9   0.0%   24.57      0.4170E-03  0.1570E-30   24.58       0.000    
  2471   2.091      0.1436E-02 SHELL          9   0.0%   24.59      0.4171E-03  0.1571E-30   24.59       0.000    
  2472   2.092      0.1436E-02 SHELL          9   0.0%   24.60      0.4172E-03  0.1552E-30   24.60       0.000    
  2473   2.094      0.1436E-02 SHELL          9   0.0%   24.62      0.4173E-03  0.1535E-30   24.62       0.000    
  2474   2.095      0.1436E-02 SHELL          9   0.0%   24.63      0.4174E-03  0.1530E-30   24.63       0.000    
 CYCLE    TIME      TIME-STEP  ELEMENT          ERROR  I-ENERGY    K-ENERGY T  K-ENERGY R  EXT-WORK MAS.ERR
  2475   2.096      0.1436E-02 SHELL          9   0.0%   24.65      0.4175E-03  0.1531E-30   24.65       0.000    
  2476   2.098      0.1436E-02 SHELL          9   0.0%   24.66      0.4176E-03  0.1526E-30   24.66       0.000    
  2477   2.099      0.1436E-02 SHELL          9   0.0%   24.68      0.4177E-03  0.1503E-30   24.68       0.000    
  2478   2.101      0.1436E-02 SHELL          9   0.0%   24.69      0.4178E-03  0.1463E-30   24.69       0.000    
     ANIMATION FILE: 1ELEM_SAMPA022 WRITTEN
  2479   2.102      0.1436E-02 SHELL          9   0.0%   24.70      0.4179E-03  0.1415E-30   24.71       0.000    
  2480   2.104      0.1436E-02 SHELL          9   0.0%   24.72      0.4180E-03  0.1392E-30   24.72       0.000    
  2481   2.105      0.1436E-02 SHELL          9   0.0%   24.73      0.4181E-03  0.1388E-30   24.74       0.000    
  2482   2.106      0.1436E-02 SHELL          9   0.0%   24.75      0.4182E-03  0.1385E-30   24.75       0.000    
  2483   2.108      0.1436E-02 SHELL          9   0.0%   24.76      0.4183E-03  0.1393E-30   24.76       0.000    
  2484   2.109      0.1436E-02 SHELL          9   0.0%   24.78      0.4184E-03  0.1417E-30   24.78       0.000    
  2485   2.111      0.1435E-02 SHELL          9   0.0%   24.79      0.4185E-03  0.1459E-30   24.79       0.000    
  2486   2.112      0.1435E-02 SHELL          9   0.0%   24.81      0.4186E-03  0.1512E-30   24.81       0.000    
  2487   2.114      0.1435E-02 SHELL          9   0.0%   24.82      0.4187E-03  0.1564E-30   24.82       0.000    
  2488   2.115      0.1435E-02 SHELL          9   0.0%   24.84      0.4188E-03  0.1608E-30   24.84       0.000    
  2489   2.117      0.1435E-02 SHELL          9   0.0%   24.85      0.4189E-03  0.1636E-30   24.85       0.000    
  2490   2.118      0.1435E-02 SHELL          9   0.0%   24.86      0.4190E-03  0.1652E-30   24.87       0.000    
  2491   2.119      0.1435E-02 SHELL          9   0.0%   24.88      0.4191E-03  0.1660E-30   24.88       0.000    
  2492   2.121      0.1435E-02 SHELL          9   0.0%   24.89      0.4192E-03  0.1653E-30   24.90       0.000    
  2493   2.122      0.1435E-02 SHELL          9   0.0%   24.91      0.4193E-03  0.1625E-30   24.91       0.000    
  2494   2.124      0.1435E-02 SHELL          9   0.0%   24.92      0.4194E-03  0.1577E-30   24.92       0.000    
  2495   2.125      0.1435E-02 SHELL          9   0.0%   24.94      0.4195E-03  0.1522E-30   24.94       0.000    
  2496   2.127      0.1435E-02 SHELL          9   0.0%   24.95      0.4196E-03  0.1473E-30   24.95       0.000    
  2497   2.128      0.1435E-02 SHELL          9   0.0%   24.97      0.4198E-03  0.1434E-30   24.97       0.000    
  2498   2.129      0.1435E-02 SHELL          9   0.0%   24.98      0.4199E-03  0.1407E-30   24.98       0.000    
  2499   2.131      0.1435E-02 SHELL          9   0.0%   25.00      0.4200E-03  0.1395E-30   25.00       0.000    
  2500   2.132      0.1435E-02 SHELL          9   0.0%   25.01      0.4201E-03  0.1395E-30   25.01       0.000    
  2501   2.134      0.1435E-02 SHELL          9   0.0%   25.03      0.4202E-03  0.1408E-30   25.03       0.000    
  2502   2.135      0.1435E-02 SHELL          9   0.0%   25.04      0.4203E-03  0.1437E-30   25.04       0.000    
  2503   2.137      0.1435E-02 SHELL          9   0.0%   25.05      0.4204E-03  0.1479E-30   25.06       0.000    
  2504   2.138      0.1435E-02 SHELL          9   0.0%   25.07      0.4205E-03  0.1525E-30   25.07       0.000    
  2505   2.139      0.1435E-02 SHELL          9   0.0%   25.08      0.4206E-03  0.1576E-30   25.09       0.000    
  2506   2.141      0.1435E-02 SHELL          9   0.0%   25.10      0.4207E-03  0.1628E-30   25.10       0.000    
  2507   2.142      0.1434E-02 SHELL          9   0.0%   25.11      0.4208E-03  0.1684E-30   25.11       0.000    
  2508   2.144      0.1434E-02 SHELL          9   0.0%   25.13      0.4209E-03  0.1738E-30   25.13       0.000    
  2509   2.145      0.1434E-02 SHELL          9   0.0%   25.14      0.4210E-03  0.1775E-30   25.14       0.000    
  2510   2.147      0.1434E-02 SHELL          9   0.0%   25.16      0.4211E-03  0.1811E-30   25.16       0.000    
  2511   2.148      0.1434E-02 SHELL          9   0.0%   25.17      0.4212E-03  0.1830E-30   25.17       0.000    
  2512   2.150      0.1434E-02 SHELL          9   0.0%   25.19      0.4213E-03  0.1824E-30   25.19       0.000    
  2513   2.151      0.1434E-02 SHELL          9   0.0%   25.20      0.4214E-03  0.1796E-30   25.20       0.000    
  2514   2.152      0.1434E-02 SHELL          9   0.0%   25.21      0.4215E-03  0.1746E-30   25.22       0.000    
  2515   2.154      0.1434E-02 SHELL          9   0.0%   25.23      0.4216E-03  0.1691E-30   25.23       0.000    
  2516   2.155      0.1434E-02 SHELL          9   0.0%   25.24      0.4217E-03  0.1634E-30   25.25       0.000    
  2517   2.157      0.1434E-02 SHELL          9   0.0%   25.26      0.4218E-03  0.1574E-30   25.26       0.000    
  2518   2.158      0.1434E-02 SHELL          9   0.0%   25.27      0.4219E-03  0.1521E-30   25.28       0.000    
  2519   2.160      0.1434E-02 SHELL          9   0.0%   25.29      0.4220E-03  0.1488E-30   25.29       0.000    
  2520   2.161      0.1434E-02 SHELL          9   0.0%   25.30      0.4221E-03  0.1469E-30   25.30       0.000    
  2521   2.162      0.1434E-02 SHELL          9   0.0%   25.32      0.4222E-03  0.1452E-30   25.32       0.000    
  2522   2.164      0.1434E-02 SHELL          9   0.0%   25.33      0.4223E-03  0.1446E-30   25.33       0.000    
  2523   2.165      0.1434E-02 SHELL          9   0.0%   25.35      0.4224E-03  0.1453E-30   25.35       0.000    
  2524   2.167      0.1434E-02 SHELL          9   0.0%   25.36      0.4225E-03  0.1465E-30   25.36       0.000    
  2525   2.168      0.1434E-02 SHELL          9   0.0%   25.38      0.4226E-03  0.1480E-30   25.38       0.000    
  2526   2.170      0.1434E-02 SHELL          9   0.0%   25.39      0.4227E-03  0.1503E-30   25.39       0.000    
  2527   2.171      0.1434E-02 SHELL          9   0.0%   25.40      0.4228E-03  0.1534E-30   25.41       0.000    
  2528   2.172      0.1434E-02 SHELL          9   0.0%   25.42      0.4229E-03  0.1580E-30   25.42       0.000    
  2529   2.174      0.1433E-02 SHELL          9   0.0%   25.43      0.4230E-03  0.1638E-30   25.44       0.000    
 CYCLE    TIME      TIME-STEP  ELEMENT          ERROR  I-ENERGY    K-ENERGY T  K-ENERGY R  EXT-WORK MAS.ERR
  2530   2.175      0.1433E-02 SHELL          9   0.0%   25.45      0.4232E-03  0.1687E-30   25.45       0.000    
  2531   2.177      0.1433E-02 SHELL          9   0.0%   25.46      0.4233E-03  0.1712E-30   25.47       0.000    
  2532   2.178      0.1433E-02 SHELL          9   0.0%   25.48      0.4234E-03  0.1708E-30   25.48       0.000    
  2533   2.180      0.1433E-02 SHELL          9   0.0%   25.49      0.4235E-03  0.1690E-30   25.49       0.000    
  2534   2.181      0.1433E-02 SHELL          9   0.0%   25.51      0.4236E-03  0.1657E-30   25.51       0.000    
  2535   2.182      0.1433E-02 SHELL          9   0.0%   25.52      0.4237E-03  0.1605E-30   25.52       0.000    
  2536   2.184      0.1433E-02 SHELL          9   0.0%   25.54      0.4238E-03  0.1557E-30   25.54       0.000    
  2537   2.185      0.1433E-02 SHELL          9   0.0%   25.55      0.4239E-03  0.1519E-30   25.55       0.000    
  2538   2.187      0.1433E-02 SHELL          9   0.0%   25.57      0.4240E-03  0.1471E-30   25.57       0.000    
  2539   2.188      0.1433E-02 SHELL          9   0.0%   25.58      0.4241E-03  0.1419E-30   25.58       0.000    
  2540   2.190      0.1433E-02 SHELL          9   0.0%   25.60      0.4242E-03  0.1381E-30   25.60       0.000    
  2541   2.191      0.1433E-02 SHELL          9   0.0%   25.61      0.4243E-03  0.1358E-30   25.61       0.000    
  2542   2.193      0.1433E-02 SHELL          9   0.0%   25.62      0.4244E-03  0.1351E-30   25.63       0.000    
  2543   2.194      0.1433E-02 SHELL          9   0.0%   25.64      0.4245E-03  0.1365E-30   25.64       0.000    
  2544   2.195      0.1433E-02 SHELL          9   0.0%   25.65      0.4246E-03  0.1393E-30   25.66       0.000    
  2545   2.197      0.1433E-02 SHELL          9   0.0%   25.67      0.4247E-03  0.1426E-30   25.67       0.000    
  2546   2.198      0.1433E-02 SHELL          9   0.0%   25.68      0.4248E-03  0.1464E-30   25.68       0.000    
  2547   2.200      0.1433E-02 SHELL          9   0.0%   25.70      0.4249E-03  0.1496E-30   25.70       0.000    
  2548   2.201      0.1433E-02 SHELL          9   0.0%   25.71      0.4250E-03  0.1526E-30   25.71       0.000    
     ANIMATION FILE: 1ELEM_SAMPA023 WRITTEN
  2549   2.203      0.1433E-02 SHELL          9   0.0%   25.73      0.4251E-03  0.1555E-30   25.73       0.000    
  2550   2.204      0.1433E-02 SHELL          9   0.0%   25.74      0.4252E-03  0.1582E-30   25.74       0.000    
  2551   2.205      0.1432E-02 SHELL          9   0.0%   25.76      0.4253E-03  0.1610E-30   25.76       0.000    
  2552   2.207      0.1432E-02 SHELL          9   0.0%   25.77      0.4254E-03  0.1637E-30   25.77       0.000    
  2553   2.208      0.1432E-02 SHELL          9   0.0%   25.79      0.4255E-03  0.1634E-30   25.79       0.000    
  2554   2.210      0.1432E-02 SHELL          9   0.0%   25.80      0.4256E-03  0.1602E-30   25.80       0.000    
  2555   2.211      0.1432E-02 SHELL          9   0.0%   25.81      0.4257E-03  0.1555E-30   25.82       0.000    
  2556   2.213      0.1432E-02 SHELL          9   0.0%   25.83      0.4258E-03  0.1492E-30   25.83       0.000    
  2557   2.214      0.1432E-02 SHELL          9   0.0%   25.84      0.4259E-03  0.1437E-30   25.85       0.000    
  2558   2.215      0.1432E-02 SHELL          9   0.0%   25.86      0.4260E-03  0.1400E-30   25.86       0.000    
  2559   2.217      0.1432E-02 SHELL          9   0.0%   25.87      0.4261E-03  0.1378E-30   25.88       0.000    
  2560   2.218      0.1432E-02 SHELL          9   0.0%   25.89      0.4263E-03  0.1359E-30   25.89       0.000    
  2561   2.220      0.1432E-02 SHELL          9   0.0%   25.90      0.4264E-03  0.1345E-30   25.90       0.000    
  2562   2.221      0.1432E-02 SHELL          9   0.0%   25.92      0.4265E-03  0.1341E-30   25.92       0.000    
  2563   2.223      0.1432E-02 SHELL          9   0.0%   25.93      0.4266E-03  0.1350E-30   25.93       0.000    
  2564   2.224      0.1432E-02 SHELL          9   0.0%   25.95      0.4267E-03  0.1377E-30   25.95       0.000    
  2565   2.225      0.1432E-02 SHELL          9   0.0%   25.96      0.4268E-03  0.1417E-30   25.96       0.000    
  2566   2.227      0.1432E-02 SHELL          9   0.0%   25.98      0.4269E-03  0.1464E-30   25.98       0.000    
  2567   2.228      0.1432E-02 SHELL          9   0.0%   25.99      0.4270E-03  0.1508E-30   25.99       0.000    
  2568   2.230      0.1432E-02 SHELL          9   0.0%   26.01      0.4271E-03  0.1528E-30   26.01       0.000    
  2569   2.231      0.1432E-02 SHELL          9   0.0%   26.02      0.4272E-03  0.1528E-30   26.02       0.000    
  2570   2.233      0.1432E-02 SHELL          9   0.0%   26.03      0.4273E-03  0.1536E-30   26.04       0.000    
  2571   2.234      0.1432E-02 SHELL          9   0.0%   26.05      0.4274E-03  0.1528E-30   26.05       0.000    
  2572   2.235      0.1432E-02 SHELL          9   0.0%   26.06      0.4275E-03  0.1495E-30   26.07       0.000    
  2573   2.237      0.1431E-02 SHELL          9   0.0%   26.08      0.4276E-03  0.1462E-30   26.08       0.000    
  2574   2.238      0.1431E-02 SHELL          9   0.0%   26.09      0.4277E-03  0.1429E-30   26.10       0.000    
  2575   2.240      0.1431E-02 SHELL          9   0.0%   26.11      0.4278E-03  0.1393E-30   26.11       0.000    
  2576   2.241      0.1431E-02 SHELL          9   0.0%   26.12      0.4279E-03  0.1360E-30   26.12       0.000    
  2577   2.243      0.1431E-02 SHELL          9   0.0%   26.14      0.4280E-03  0.1337E-30   26.14       0.000    
  2578   2.244      0.1431E-02 SHELL          9   0.0%   26.15      0.4281E-03  0.1325E-30   26.15       0.000    
  2579   2.246      0.1431E-02 SHELL          9   0.0%   26.17      0.4282E-03  0.1322E-30   26.17       0.000    
  2580   2.247      0.1431E-02 SHELL          9   0.0%   26.18      0.4283E-03  0.1321E-30   26.18       0.000    
  2581   2.248      0.1431E-02 SHELL          9   0.0%   26.20      0.4284E-03  0.1336E-30   26.20       0.000    
  2582   2.250      0.1431E-02 SHELL          9   0.0%   26.21      0.4285E-03  0.1354E-30   26.21       0.000    
  2583   2.251      0.1431E-02 SHELL          9   0.0%   26.23      0.4286E-03  0.1375E-30   26.23       0.000    
  2584   2.253      0.1431E-02 SHELL          9   0.0%   26.24      0.4287E-03  0.1402E-30   26.24       0.000    
 CYCLE    TIME      TIME-STEP  ELEMENT          ERROR  I-ENERGY    K-ENERGY T  K-ENERGY R  EXT-WORK MAS.ERR
  2585   2.254      0.1431E-02 SHELL          9   0.0%   26.25      0.4288E-03  0.1424E-30   26.26       0.000    
  2586   2.256      0.1431E-02 SHELL          9   0.0%   26.27      0.4290E-03  0.1457E-30   26.27       0.000    
  2587   2.257      0.1431E-02 SHELL          9   0.0%   26.28      0.4291E-03  0.1478E-30   26.29       0.000    
  2588   2.258      0.1431E-02 SHELL          9   0.0%   26.30      0.4292E-03  0.1475E-30   26.30       0.000    
  2589   2.260      0.1431E-02 SHELL          9   0.0%   26.31      0.4293E-03  0.1447E-30   26.32       0.000    
  2590   2.261      0.1431E-02 SHELL          9   0.0%   26.33      0.4294E-03  0.1404E-30   26.33       0.000    
  2591   2.263      0.1431E-02 SHELL          9   0.0%   26.34      0.4295E-03  0.1378E-30   26.34       0.000    
  2592   2.264      0.1431E-02 SHELL          9   0.0%   26.36      0.4296E-03  0.1359E-30   26.36       0.000    
  2593   2.266      0.1431E-02 SHELL          9   0.0%   26.37      0.4297E-03  0.1341E-30   26.37       0.000    
  2594   2.267      0.1430E-02 SHELL          9   0.0%   26.39      0.4298E-03  0.1321E-30   26.39       0.000    
  2595   2.268      0.1430E-02 SHELL          9   0.0%   26.40      0.4299E-03  0.1292E-30   26.40       0.000    
  2596   2.270      0.1430E-02 SHELL          9   0.0%   26.42      0.4300E-03  0.1271E-30   26.42       0.000    
  2597   2.271      0.1430E-02 SHELL          9   0.0%   26.43      0.4301E-03  0.1267E-30   26.43       0.000    
  2598   2.273      0.1430E-02 SHELL          9   0.0%   26.45      0.4302E-03  0.1268E-30   26.45       0.000    
  2599   2.274      0.1430E-02 SHELL          9   0.0%   26.46      0.4303E-03  0.1272E-30   26.46       0.000    
  2600   2.276      0.1430E-02 SHELL          9   0.0%   26.47      0.4304E-03  0.1277E-30   26.48       0.000    
  2601   2.277      0.1430E-02 SHELL          9   0.0%   26.49      0.4305E-03  0.1287E-30   26.49       0.000    
  2602   2.278      0.1430E-02 SHELL          9   0.0%   26.50      0.4306E-03  0.1292E-30   26.51       0.000    
  2603   2.280      0.1430E-02 SHELL          9   0.0%   26.52      0.4307E-03  0.1293E-30   26.52       0.000    
  2604   2.281      0.1430E-02 SHELL          9   0.0%   26.53      0.4308E-03  0.1296E-30   26.54       0.000    
  2605   2.283      0.1430E-02 SHELL          9   0.0%   26.55      0.4309E-03  0.1294E-30   26.55       0.000    
  2606   2.284      0.1430E-02 SHELL          9   0.0%   26.56      0.4310E-03  0.1294E-30   26.56       0.000    
  2607   2.286      0.1430E-02 SHELL          9   0.0%   26.58      0.4311E-03  0.1294E-30   26.58       0.000    
  2608   2.287      0.1430E-02 SHELL          9   0.0%   26.59      0.4312E-03  0.1291E-30   26.59       0.000    
  2609   2.288      0.1430E-02 SHELL          9   0.0%   26.61      0.4313E-03  0.1286E-30   26.61       0.000    
  2610   2.290      0.1430E-02 SHELL          9   0.0%   26.62      0.4314E-03  0.1284E-30   26.62       0.000    
  2611   2.291      0.1430E-02 SHELL          9   0.0%   26.64      0.4316E-03  0.1280E-30   26.64       0.000    
  2612   2.293      0.1430E-02 SHELL          9   0.0%   26.65      0.4317E-03  0.1267E-30   26.65       0.000    
  2613   2.294      0.1430E-02 SHELL          9   0.0%   26.67      0.4318E-03  0.1251E-30   26.67       0.000    
  2614   2.296      0.1430E-02 SHELL          9   0.0%   26.68      0.4319E-03  0.1244E-30   26.68       0.000    
  2615   2.297      0.1429E-02 SHELL          9   0.0%   26.70      0.4320E-03  0.1243E-30   26.70       0.000    
  2616   2.298      0.1429E-02 SHELL          9   0.0%   26.71      0.4321E-03  0.1240E-30   26.71       0.000    
  2617   2.300      0.1429E-02 SHELL          9   0.0%   26.72      0.4322E-03  0.1239E-30   26.73       0.000    
  2618   2.301      0.1429E-02 SHELL          9   0.0%   26.74      0.4323E-03  0.1238E-30   26.74       0.000    
     ANIMATION FILE: 1ELEM_SAMPA024 WRITTEN
  2619   2.303      0.1429E-02 SHELL          9   0.0%   26.75      0.4324E-03  0.1232E-30   26.76       0.000    
  2620   2.304      0.1429E-02 SHELL          9   0.0%   26.77      0.4325E-03  0.1231E-30   26.77       0.000    
  2621   2.306      0.1429E-02 SHELL          9   0.0%   26.78      0.4326E-03  0.1231E-30   26.79       0.000    
  2622   2.307      0.1429E-02 SHELL          9   0.0%   26.80      0.4327E-03  0.1227E-30   26.80       0.000    
  2623   2.308      0.1429E-02 SHELL          9   0.0%   26.81      0.4328E-03  0.1226E-30   26.81       0.000    
  2624   2.310      0.1429E-02 SHELL          9   0.0%   26.83      0.4329E-03  0.1226E-30   26.83       0.000    
  2625   2.311      0.1429E-02 SHELL          9   0.0%   26.84      0.4330E-03  0.1226E-30   26.84       0.000    
  2626   2.313      0.1429E-02 SHELL          9   0.0%   26.86      0.4331E-03  0.1223E-30   26.86       0.000    
  2627   2.314      0.1429E-02 SHELL          9   0.0%   26.87      0.4332E-03  0.1219E-30   26.87       0.000    
  2628   2.316      0.1429E-02 SHELL          9   0.0%   26.89      0.4333E-03  0.1219E-30   26.89       0.000    
  2629   2.317      0.1429E-02 SHELL          9   0.0%   26.90      0.4334E-03  0.1217E-30   26.90       0.000    
  2630   2.318      0.1429E-02 SHELL          9   0.0%   26.92      0.4335E-03  0.1215E-30   26.92       0.000    
  2631   2.320      0.1429E-02 SHELL          9   0.0%   26.93      0.4336E-03  0.1210E-30   26.93       0.000    
  2632   2.321      0.1429E-02 SHELL          9   0.0%   26.95      0.4337E-03  0.1210E-30   26.95       0.000    
  2633   2.323      0.1429E-02 SHELL          9   0.0%   26.96      0.4338E-03  0.1211E-30   26.96       0.000    
  2634   2.324      0.1429E-02 SHELL          9   0.0%   26.97      0.4340E-03  0.1206E-30   26.98       0.000    
  2635   2.326      0.1428E-02 SHELL          9   0.0%   26.99      0.4341E-03  0.1205E-30   26.99       0.000    
  2636   2.327      0.1428E-02 SHELL          9   0.0%   27.00      0.4342E-03  0.1205E-30   27.01       0.000    
  2637   2.328      0.1428E-02 SHELL          9   0.0%   27.02      0.4343E-03  0.1211E-30   27.02       0.000    
  2638   2.330      0.1428E-02 SHELL          9   0.0%   27.03      0.4344E-03  0.1224E-30   27.04       0.000    
  2639   2.331      0.1428E-02 SHELL          9   0.0%   27.05      0.4345E-03  0.1238E-30   27.05       0.000    
 CYCLE    TIME      TIME-STEP  ELEMENT          ERROR  I-ENERGY    K-ENERGY T  K-ENERGY R  EXT-WORK MAS.ERR
  2640   2.333      0.1428E-02 SHELL          9   0.0%   27.06      0.4346E-03  0.1246E-30   27.07       0.000    
  2641   2.334      0.1428E-02 SHELL          9   0.0%   27.08      0.4347E-03  0.1247E-30   27.08       0.000    
  2642   2.336      0.1428E-02 SHELL          9   0.0%   27.09      0.4348E-03  0.1253E-30   27.09       0.000    
  2643   2.337      0.1428E-02 SHELL          9   0.0%   27.11      0.4349E-03  0.1255E-30   27.11       0.000    
  2644   2.338      0.1428E-02 SHELL          9   0.0%   27.12      0.4350E-03  0.1250E-30   27.12       0.000    
  2645   2.340      0.1428E-02 SHELL          9   0.0%   27.14      0.4351E-03  0.1250E-30   27.14       0.000    
  2646   2.341      0.1428E-02 SHELL          9   0.0%   27.15      0.4352E-03  0.1249E-30   27.15       0.000    
  2647   2.343      0.1428E-02 SHELL          9   0.0%   27.17      0.4353E-03  0.1239E-30   27.17       0.000    
  2648   2.344      0.1428E-02 SHELL          9   0.0%   27.18      0.4354E-03  0.1222E-30   27.18       0.000    
  2649   2.346      0.1428E-02 SHELL          9   0.0%   27.20      0.4355E-03  0.1205E-30   27.20       0.000    
  2650   2.347      0.1428E-02 SHELL          9   0.0%   27.21      0.4356E-03  0.1192E-30   27.21       0.000    
  2651   2.348      0.1428E-02 SHELL          9   0.0%   27.23      0.4357E-03  0.1189E-30   27.23       0.000    
  2652   2.350      0.1428E-02 SHELL          9   0.0%   27.24      0.4358E-03  0.1186E-30   27.24       0.000    
  2653   2.351      0.1428E-02 SHELL          9   0.0%   27.25      0.4359E-03  0.1180E-30   27.26       0.000    
  2654   2.353      0.1428E-02 SHELL          9   0.0%   27.27      0.4360E-03  0.1179E-30   27.27       0.000    
  2655   2.354      0.1427E-02 SHELL          9   0.0%   27.28      0.4361E-03  0.1177E-30   27.29       0.000    
  2656   2.356      0.1427E-02 SHELL          9   0.0%   27.30      0.4363E-03  0.1178E-30   27.30       0.000    
  2657   2.357      0.1427E-02 SHELL          9   0.0%   27.31      0.4364E-03  0.1181E-30   27.32       0.000    
  2658   2.358      0.1427E-02 SHELL          9   0.0%   27.33      0.4365E-03  0.1181E-30   27.33       0.000    
  2659   2.360      0.1427E-02 SHELL          9   0.0%   27.34      0.4366E-03  0.1181E-30   27.35       0.000    
  2660   2.361      0.1427E-02 SHELL          9   0.0%   27.36      0.4367E-03  0.1187E-30   27.36       0.000    
  2661   2.363      0.1427E-02 SHELL          9   0.0%   27.37      0.4368E-03  0.1193E-30   27.37       0.000    
  2662   2.364      0.1427E-02 SHELL          9   0.0%   27.39      0.4369E-03  0.1195E-30   27.39       0.000    
  2663   2.366      0.1427E-02 SHELL          9   0.0%   27.40      0.4370E-03  0.1199E-30   27.40       0.000    
  2664   2.367      0.1427E-02 SHELL          9   0.0%   27.42      0.4371E-03  0.1201E-30   27.42       0.000    
  2665   2.368      0.1427E-02 SHELL          9   0.0%   27.43      0.4372E-03  0.1205E-30   27.43       0.000    
  2666   2.370      0.1427E-02 SHELL          9   0.0%   27.45      0.4373E-03  0.1207E-30   27.45       0.000    
  2667   2.371      0.1427E-02 SHELL          9   0.0%   27.46      0.4374E-03  0.1205E-30   27.46       0.000    
  2668   2.373      0.1427E-02 SHELL          9   0.0%   27.48      0.4375E-03  0.1203E-30   27.48       0.000    
  2669   2.374      0.1427E-02 SHELL          9   0.0%   27.49      0.4376E-03  0.1201E-30   27.49       0.000    
  2670   2.376      0.1427E-02 SHELL          9   0.0%   27.51      0.4377E-03  0.1196E-30   27.51       0.000    
  2671   2.377      0.1427E-02 SHELL          9   0.0%   27.52      0.4378E-03  0.1196E-30   27.52       0.000    
  2672   2.378      0.1427E-02 SHELL          9   0.0%   27.54      0.4379E-03  0.1201E-30   27.54       0.000    
  2673   2.380      0.1427E-02 SHELL          9   0.0%   27.55      0.4380E-03  0.1196E-30   27.55       0.000    
  2674   2.381      0.1427E-02 SHELL          9   0.0%   27.56      0.4381E-03  0.1194E-30   27.57       0.000    
  2675   2.383      0.1426E-02 SHELL          9   0.0%   27.58      0.4382E-03  0.1198E-30   27.58       0.000    
  2676   2.384      0.1426E-02 SHELL          9   0.0%   27.59      0.4383E-03  0.1204E-30   27.60       0.000    
  2677   2.386      0.1426E-02 SHELL          9   0.0%   27.61      0.4385E-03  0.1208E-30   27.61       0.000    
  2678   2.387      0.1426E-02 SHELL          9   0.0%   27.62      0.4386E-03  0.1208E-30   27.63       0.000    
  2679   2.388      0.1426E-02 SHELL          9   0.0%   27.64      0.4387E-03  0.1206E-30   27.64       0.000    
  2680   2.390      0.1426E-02 SHELL          9   0.0%   27.65      0.4388E-03  0.1204E-30   27.66       0.000    
  2681   2.391      0.1426E-02 SHELL          9   0.0%   27.67      0.4389E-03  0.1200E-30   27.67       0.000    
  2682   2.393      0.1426E-02 SHELL          9   0.0%   27.68      0.4390E-03  0.1199E-30   27.68       0.000    
  2683   2.394      0.1426E-02 SHELL          9   0.0%   27.70      0.4391E-03  0.1196E-30   27.70       0.000    
  2684   2.396      0.1426E-02 SHELL          9   0.0%   27.71      0.4392E-03  0.1191E-30   27.71       0.000    
  2685   2.397      0.1426E-02 SHELL          9   0.0%   27.73      0.4393E-03  0.1185E-30   27.73       0.000    
  2686   2.398      0.1426E-02 SHELL          9   0.0%   27.74      0.4394E-03  0.1178E-30   27.74       0.000    
  2687   2.400      0.1426E-02 SHELL          9   0.0%   27.76      0.4395E-03  0.1174E-30   27.76       0.000    
  2688   2.401      0.1426E-02 SHELL          9   0.0%   27.77      0.4396E-03  0.1167E-30   27.77       0.000    
     ANIMATION FILE: 1ELEM_SAMPA025 WRITTEN
  2689   2.403      0.1426E-02 SHELL          9   0.0%   27.79      0.4397E-03  0.1158E-30   27.79       0.000    
  2690   2.404      0.1426E-02 SHELL          9   0.0%   27.80      0.4398E-03  0.1151E-30   27.80       0.000    
  2691   2.406      0.1426E-02 SHELL          9   0.0%   27.82      0.4399E-03  0.1142E-30   27.82       0.000    
  2692   2.407      0.1426E-02 SHELL          9   0.0%   27.83      0.4400E-03  0.1138E-30   27.83       0.000    
  2693   2.408      0.1426E-02 SHELL          9   0.0%   27.85      0.4401E-03  0.1142E-30   27.85       0.000    
  2694   2.410      0.1426E-02 SHELL          9   0.0%   27.86      0.4402E-03  0.1154E-30   27.86       0.000    
 CYCLE    TIME      TIME-STEP  ELEMENT          ERROR  I-ENERGY    K-ENERGY T  K-ENERGY R  EXT-WORK MAS.ERR
  2695   2.411      0.1425E-02 SHELL          9   0.0%   27.87      0.4403E-03  0.1174E-30   27.88       0.000    
  2696   2.413      0.1425E-02 SHELL          9   0.0%   27.89      0.4404E-03  0.1198E-30   27.89       0.000    
  2697   2.414      0.1425E-02 SHELL          9   0.0%   27.90      0.4406E-03  0.1223E-30   27.91       0.000    
  2698   2.415      0.1425E-02 SHELL          9   0.0%   27.92      0.4407E-03  0.1248E-30   27.92       0.000    
  2699   2.417      0.1425E-02 SHELL          9   0.0%   27.93      0.4408E-03  0.1270E-30   27.94       0.000    
  2700   2.418      0.1425E-02 SHELL          9   0.0%   27.95      0.4409E-03  0.1290E-30   27.95       0.000    
  2701   2.420      0.1425E-02 SHELL          9   0.0%   27.96      0.4410E-03  0.1303E-30   27.97       0.000    
  2702   2.421      0.1425E-02 SHELL          9   0.0%   27.98      0.4411E-03  0.1298E-30   27.98       0.000    
  2703   2.423      0.1425E-02 SHELL          9   0.0%   27.99      0.4412E-03  0.1279E-30   28.00       0.000    
  2704   2.424      0.1425E-02 SHELL          9   0.0%   28.01      0.4413E-03  0.1252E-30   28.01       0.000    
 FAILURE (FTAB) OF SHELL ELEMENT          9 ,GAUSS PT 1 ,LAYER  1 ,INTEGRATION PT  1
 FAILURE (FTAB) OF SHELL ELEMENT          9 ,GAUSS PT 1 ,LAYER  1 ,INTEGRATION PT  2
 FAILURE (FTAB) OF SHELL ELEMENT          9 ,GAUSS PT 1 ,LAYER  1 ,INTEGRATION PT  3
 FAILURE (FTAB) OF SHELL ELEMENT          9 ,GAUSS PT 1 ,LAYER  1 ,INTEGRATION PT  4
 FAILURE (FTAB) OF SHELL ELEMENT          9 ,GAUSS PT 1 ,LAYER  1 ,INTEGRATION PT  5
 -- RUPTURE OF SHELL ELEMENT NUMBER          9
  2705   2.425      0.1568E-02 SHELL          9   0.0%   28.02      0.4414E-03  0.1237E-30   28.02       0.000    
  2706   2.427      0.1724E-02 SHELL          9   0.0%   28.02      0.4415E-03  0.1237E-30   28.02       0.000    
  2707   2.429      0.1897E-02 SHELL          9   0.0%   28.02      0.4417E-03  0.1237E-30   28.02       0.000    
  2708   2.431      0.2086E-02 SHELL          9   0.0%   28.02      0.4418E-03  0.1237E-30   28.02       0.000    
  2709   2.433      0.2295E-02 SHELL          9   0.0%   28.02      0.4420E-03  0.1237E-30   28.02       0.000    
  2710   2.435      0.2524E-02 SHELL          9   0.0%   28.02      0.4421E-03  0.1237E-30   28.02       0.000    
  2711   2.438      0.2777E-02 SHELL          9   0.0%   28.02      0.4423E-03  0.1237E-30   28.02       0.000    
  2712   2.440      0.3055E-02 SHELL          9   0.0%   28.02      0.4426E-03  0.1237E-30   28.02       0.000    
  2713   2.443      0.3360E-02 SHELL          9   0.0%   28.02      0.4428E-03  0.1237E-30   28.02       0.000    
  2714   2.447      0.3696E-02 SHELL          9   0.0%   28.02      0.4431E-03  0.1237E-30   28.02       0.000    
  2715   2.450      0.4066E-02 SHELL          9   0.0%   28.02      0.4433E-03  0.1237E-30   28.02       0.000    
  2716   2.455      0.4472E-02 SHELL          9   0.0%   28.02      0.4437E-03  0.1237E-30   28.02       0.000    
  2717   2.459      0.4920E-02 SHELL          9   0.0%   28.02      0.4440E-03  0.1237E-30   28.02       0.000    
  2718   2.464      0.5411E-02 SHELL          9   0.0%   28.02      0.4444E-03  0.1237E-30   28.02       0.000    
  2719   2.469      0.5953E-02 SHELL          9   0.0%   28.02      0.4448E-03  0.1237E-30   28.02       0.000    
  2720   2.475      0.6548E-02 SHELL          9   0.0%   28.02      0.4453E-03  0.1237E-30   28.02       0.000    
  2721   2.482      0.7203E-02 SHELL          9   0.0%   28.02      0.4458E-03  0.1237E-30   28.02       0.000    
  2722   2.489      0.7923E-02 SHELL          9   0.0%   28.02      0.4464E-03  0.1237E-30   28.02       0.000    
  2723   2.497      0.8715E-02 SHELL          9   0.0%   28.02      0.4470E-03  0.1237E-30   28.02       0.000    
  2724   2.506      0.9587E-02 SHELL          9   0.0%   28.02      0.4477E-03  0.1237E-30   28.02       0.000    
     ANIMATION FILE: 1ELEM_SAMPA026 WRITTEN
  2725   2.515      0.1055E-01 SHELL          9   0.0%   28.02      0.4485E-03  0.1237E-30   28.02       0.000    
  2726   2.526      0.1160E-01 SHELL          9   0.0%   28.02      0.4493E-03  0.1237E-30   28.02       0.000    
  2727   2.537      0.1276E-01 SHELL          9   0.0%   28.02      0.4503E-03  0.1237E-30   28.02       0.000    
  2728   2.550      0.1404E-01 SHELL          9   0.0%   28.02      0.4514E-03  0.1237E-30   28.02       0.000    
  2729   2.564      0.1544E-01 SHELL          9   0.0%   28.02      0.4525E-03  0.1237E-30   28.02       0.000    
  2730   2.580      0.1698E-01 SHELL          9   0.0%   28.02      0.4538E-03  0.1237E-30   28.02       0.000    
  2731   2.597      0.1868E-01 SHELL          9   0.0%   28.02      0.4552E-03  0.1237E-30   28.02       0.000    

     RESTART FILES: 1ELEM_SAMP_0001_[0001-0004].rst WRITTEN
     -------------

  
                           ** CPU USER TIME **
  
 #PROC  CONT.SORT  CONT. F   ELEMENT  KIN.COND.  INTEGR.    I/O     TASK0     ASSEMB.   RESOL  
   1   .0000E+00 .0000E+00 .1170E+00 .1100E-01 .6000E-02 .1400E+00 .2899E-01 .8998E-02 .3549E+00
   2   .0000E+00 .0000E+00 .2600E-01 .8999E-02 .4000E-02 .4999E-01 .2390E+00 .1998E-02 .6539E+00
   3   .0000E+00 .1000E-02 .1600E-01 .6999E-02 .2999E-02 .5499E-01 .2560E+00 .4999E-02 .6739E+00
   4   .0000E+00 .2999E-02 .1500E-01 .1500E-01 .1300E-01 .5699E-01 .2300E+00 .4000E-02 .6499E+00
  
                          ** SPMD COMM. TIME **
  
 #PROC  FORCES    RBY.FOR.  RBY.VEL.  VELOCITIES   TOTAL   % CPU
   1   .0000E+00 .0000E+00 .0000E+00 .1000E-02 .1000E-02    0.28
   2   .2000E-02 .0000E+00 .0000E+00 .0000E+00 .2000E-02    0.31
   3   .4999E-02 .0000E+00 .0000E+00 .2000E-02 .6999E-02    1.04
   4   .0000E+00 .0000E+00 .0000E+00 .1999E-02 .1999E-02    0.31
  
                   ** CUMULATIVE CPU TIME SUMMARY **
  
 CONTACT SORTING.............: .0000E+00     0.00 % 
 CONTACT FORCES..............: .3999E-02     0.17 % 
 ELEMENT FORCES..............: .1740E+00     7.46 % 
 KINEMATIC COND..............: .4199E-01     1.80 % 
 INTEGRATION.................: .2600E-01     1.11 % 
 ASSEMBLING..................: .1999E-01     0.86 % 
 OTHERS (including I/O)......: .2067E+01    88.60 % 
 TOTAL.......................: .2333E+01   100.00 % 
  
  
                   ** MEMORY USAGE STATISTICS **
  
 TOTAL MEMORY USED .........................:     1016 MB
 MAXIMUM MEMORY PER PROCESSOR...............:      257 MB
 MINIMUM MEMORY PER PROCESSOR...............:      253 MB
 AVERAGE MEMORY PER PROCESSOR...............:      254 MB
  
                   ** DISK USAGE STATISTICS **
  
 TOTAL DISK SPACE USED .....................:        615 KB
 ANIMATION/TH/OUTP SIZE ....................:        178 KB
 RESTART FILE SIZE .........................:        437 KB
  
 ELAPSED TIME     =          1.02 s
                          0:00:01
 ESTIMATED SPEEDUP=          2.29
  



     NORMAL TERMINATION      



     TOTAL NUMBER OF CYCLES  :    2732

