 FRICT41_0001.out
************************************************************************
**                                                                    **
**                                                                    **
**                         OpenRadioss Engine                         **
**                                                                    **
**            Non-linear Finite Element Analysis Software             **
**                                                                    **
**                                                                    **
**                                                                    **
**                Linux 64 bits, GNU compiler, OpenMPI                **
**                                                                    **
**                                                                    **
**                                                                    **
** CommitID: 440deeba848d606665f88afb8302e85b1ecf72bf                 **
************************************************************************
** OpenRadioss Software                                               **
** COPYRIGHT (C) 1986-2022 Altair Engineering, Inc.                   **
** Licensed under GNU Affero General Public License.                  **
** See License file.                                                  **
************************************************************************
 
 NUMBER OF SPMD DOMAINS           4
 NUMBER OF THREADS PER DOMAIN     2
 NUMBER OF HMPP PROCESSES         8
  
 COMPUTATION HARDWARE DESCRIPTION
  
 CPU#  HOSTNAME     CPU TYPE, FREQUENCY AND MEMORY
   1   fr-shady.europe.altair.com   Intel(R) Xeon(R) CPU           X5680  @ 3.33GHz (x86_64), 1596 MHz,  20012 MB RAM,  49126 MB swap
   2   fr-shady.europe.altair.com   Intel(R) Xeon(R) CPU           X5680  @ 3.33GHz (x86_64), 1596 MHz,  20012 MB RAM,  49126 MB swap
   3   fr-shady.europe.altair.com   Intel(R) Xeon(R) CPU           X5680  @ 3.33GHz (x86_64), 1596 MHz,  20012 MB RAM,  49126 MB swap
   4   fr-shady.europe.altair.com   Intel(R) Xeon(R) CPU           X5680  @ 3.33GHz (x86_64), 1596 MHz,  20012 MB RAM,  49126 MB swap
  
************************************************************************


 FRICT41D01                                                                      


 FINAL TIME . . . . . . . . . . . . . . . . . . .  0.1000000E-02

 TIME INTERVAL FOR TIME HISTORY PLOTS . . . . . .  0.1000000E-04

 TIME STEP SCALE FACTOR . . . . . . . . . . . . .  0.1000000    

 MINIMUM TIME STEP  . . . . . . . . . . . . . . .   0.000000    


 BRICK TIME STEP SCALE FACTOR . . . . . . . . . .  0.1000000    
 BRICK MINIMUM TIME STEP. . . . . . . . . . . . .   0.000000    
 MIN. TIME STEP FLAG (1:STOP RUN, 2:DELETE BRICK)     1

 QUAD TIME STEP SCALE FACTOR. . . . . . . . . . .  0.1000000    
 QUAD MINIMUM TIME STEP . . . . . . . . . . . . .   0.000000    
 MIN. TIME STEP FLAG (1:STOP RUN, 2:DELETE QUAD).     1

 SHELL TIME STEP SCALE FACTOR . . . . . . . . . .  0.1000000    
 SHELL MINIMUM TIME STEP. . . . . . . . . . . . .   0.000000    
 MIN. TIME FLAG (1:STOP, 2:DELETE, 3:SMALL STRAIN)    2

 TRUSS TIME STEP SCALE FACTOR . . . . . . . . . .  0.1000000    
 TRUSS MINIMUM TIME STEP. . . . . . . . . . . . .   0.000000    
 MIN. TIME FLAG (1:STOP, 2:DELETE). . . . . . . .     0

 BEAM TIME STEP SCALE FACTOR. . . . . . . . . . .  0.1000000    
 BEAM MINIMUM TIME STEP . . . . . . . . . . . . .   0.000000    
 MIN. TIME FLAG (1:STOP, 2:DELETE). . . . . . . .     0

 SPRING TIME STEP SCALE FACTOR. . . . . . . . . .  0.1000000    
 SPRING MINIMUM TIME STEP . . . . . . . . . . . .   0.000000    
 MIN. TIME FLAG (1:STOP, 2:DELETE). . . . . . . .     0

 AIRBAG TIME STEP SCALE FACTOR. . . . . . . . . .  0.1000000    
 AIRBAG MINIMUM TIME STEP . . . . . . . . . . . .   0.000000    
 MIN. TIME FLAG (1:STOP). . . . . . . . . . . . .     0

 CONTACT TIME STEP SCALE FACTOR . . . . . . . . .  0.1000000    
 CONTACT MINIMUM TIME STEP. . . . . . . . . . . .   0.000000    
 MIN. TIME FLAG(1:STOP, 2:REMOVE NODE FROM INTERF)    0

 PRINTOUT CYCLE FREQUENCY . . . . . . . . . . . .    -1

 RESTART CYCLE FREQUENCY. . . . . . . . . . . . .   10000000

 MAXIMUM RESTART WRITE BEFORE OVERWRITE . . . . .     0

 INVERS: INPUT DECK VERSION . . . . . . . . . . .  2019
 ITTYP : FLAG FOR TYPE OF T-FILE. . . . . . . . .     4


 TIME FOR FIRST ANIMATION-FILE PLOT . . . . . . .   0.000000    
 TIME INTERVAL FOR ANIMATION-FILE PLOTS . . . . .  0.1000000E-03
 SENSOR FOR ANIMATION-FILE PLOTS. . . . . . . . .          0
 TIME INTERVAL FOR SENSOR ANIMATION-FILE PLOTS. .   0.000000    

 VARIABLE SAVED ON ANIMATION FILES (1: YES) :
      PLASTIC STRAIN. . . . . .     0
      DENSITY     (SOLID ONLY).     0
      SPECIFIC ENERGY . . . . .     0
      HOURGLASS ENERGY. . . . .     0
      TEMPERATURE (SOLID ONLY).     0
      THICKNESS   (SHELL ONLY).     0
      PRESSURE    (SOLID ONLY).     0
      VON MISES . . . . . . . .     0
      TURBULENT ENERGY (FLUID).     0
      TURBULENT VISCOSITY(FLUID)    0
      VORTICITY (FLUID) . . . .     0
 NODAL VALUES SAVED ON ANIMATION FILES (1: YES) :
      PRESSURE. . . . . . . . .     0
      DENSITY . . . . . . . . .     0
      TEMPERATURE . . . . . . .     0
 VECTOR SAVED ON ANIMATION FILES (1: YES) :
      VELOCITY VECTOR . . . . .     0
      DISPLACEMENT VECTOR . . .     0
      ACCELERATION VECTOR . . .     0
      CONTACT FORCES. . . . . .     0
      INTERNAL FORCES . . . . .     0
      EXTERNAL FORCES . . . . .     0
      SECTION RBY RWALL FORCES.     0
      ROTATIONAL VELOCITY VECTOR    0
      CONTACT PRESSURE (VECTORS)    0
 SHELL TENSOR SAVED ON ANIMATION FILES (1: YES) :
      MEMBRANE STRESS . . . . .     0
      BENDING STRESS(MOMENT/T^2)    0
      UPPER LAYER STRESS. . . .     0
      LOWER LAYER STRESS. . . .     0
      MEMBRANE STRAIN . . . . .     0
      CURVATURE . . . . . . . .     0
      UPPER LAYER STRAIN. . . .     0
      LOWER LAYER STRAIN. . . .     0
 NODAL MASS SAVED ON ANIMATION FILES (1: YES) :    0
 KEEP DELETED ELEMENT (1: YES) :    0


 INITIAL TIME STEP. . . . . . . . . . . . . . . .   0.000000    
 MAXIMUM TIME STEP. . . . . . . . . . . . . . . .  0.1000000E+31

 PARALLEL ARITHMETIC ON
 NUMBER OF INTERFACES TO BE ELIMINATED. . . . . .        0

 NUMBER OF SOLID  ELEMENT BLOCKS TO BE ELIMINATED        0

 NUMBER OF QUAD   ELEMENT BLOCKS TO BE ELIMINATED        0

 NUMBER OF SHELL  ELEMENT BLOCKS TO BE ELIMINATED        0

 NUMBER OF TRUSS  ELEMENT BLOCKS TO BE ELIMINATED        0

 NUMBER OF BEAM   ELEMENT BLOCKS TO BE ELIMINATED        0

 NUMBER OF SPRING ELEMENT BLOCKS TO BE ELIMINATED        0

 NUMBER OF SH_3N  ELEMENT BLOCKS TO BE ELIMINATED        0

 NUMBER OF  SPH PARTICLES BLOCKS TO BE ELIMINATED        0

 NUMBER OF RIGID LINKS. . . . . . . . . . . . . .        0

 NUMBER OF NEW BOUNDARY CONDITIONS. . . . . . . .        0

 23/11/2022
   CYCLE    TIME      TIME-STEP  ELEMENT          ERROR  I-ENERGY    K-ENERGY T  K-ENERGY R  EXT-WORK     MAS.ERR     TOTAL MASS  MASS ADDED
       0   0.000      0.9759E-06 SHELL         71   0.0%   0.000       0.000       0.000       0.000       0.000      0.1440E+05   0.000    
     ANIMATION FILE: FRICT41A001 WRITTEN
       1  0.9759E-06  0.9759E-06 SHELL         71   0.0%   0.000      0.1693E-03   0.000      0.1693E-03   0.000      0.1440E+05   0.000    
       2  0.1952E-05  0.9759E-06 SHELL         71   0.0%   0.000      0.6772E-03   0.000      0.6772E-03   0.000      0.1440E+05   0.000    
       3  0.2928E-05  0.9759E-06 SHELL         71   0.0%   0.000      0.1524E-02   0.000      0.1524E-02   0.000      0.1440E+05   0.000    
       4  0.3904E-05  0.9759E-06 SHELL         71   0.0%   0.000      0.2709E-02   0.000      0.2709E-02   0.000      0.1440E+05   0.000    
       5  0.4880E-05  0.9759E-06 SHELL         71   0.0%   0.000      0.4233E-02   0.000      0.4233E-02   0.000      0.1440E+05   0.000    
       6  0.5855E-05  0.9759E-06 SHELL         71   0.0%   0.000      0.6095E-02   0.000      0.6095E-02   0.000      0.1440E+05   0.000    
       7  0.6831E-05  0.9759E-06 SHELL         71   0.0%   0.000      0.8296E-02   0.000      0.8296E-02   0.000      0.1440E+05   0.000    
       8  0.7807E-05  0.9759E-06 SHELL         71   0.0%   0.000      0.1084E-01   0.000      0.1084E-01   0.000      0.1440E+05   0.000    
       9  0.8783E-05  0.9759E-06 SHELL         71   0.0%   0.000      0.1371E-01   0.000      0.1371E-01   0.000      0.1440E+05   0.000    
      10  0.9759E-05  0.9759E-06 SHELL         71   0.0%   0.000      0.1693E-01   0.000      0.1693E-01   0.000      0.1440E+05   0.000    
      11  0.1073E-04  0.9759E-06 SHELL         71   0.0%   0.000      0.2049E-01   0.000      0.2049E-01   0.000      0.1440E+05   0.000    
      12  0.1171E-04  0.9759E-06 SHELL         71   0.0%   0.000      0.2438E-01   0.000      0.2438E-01   0.000      0.1440E+05   0.000    
      13  0.1269E-04  0.9759E-06 SHELL         71   0.0%   0.000      0.2861E-01   0.000      0.2861E-01   0.000      0.1440E+05   0.000    
      14  0.1366E-04  0.9759E-06 SHELL         71   0.0%   0.000      0.3319E-01   0.000      0.3319E-01   0.000      0.1440E+05   0.000    
      15  0.1464E-04  0.9759E-06 SHELL         71   0.0%   0.000      0.3810E-01   0.000      0.3810E-01   0.000      0.1440E+05   0.000    
      16  0.1561E-04  0.9759E-06 SHELL         71   0.0%   0.000      0.4335E-01   0.000      0.4335E-01   0.000      0.1440E+05   0.000    
      17  0.1659E-04  0.9759E-06 SHELL         71   0.0%   0.000      0.4893E-01   0.000      0.4893E-01   0.000      0.1440E+05   0.000    
      18  0.1757E-04  0.9759E-06 SHELL         71   0.0%   0.000      0.5486E-01   0.000      0.5486E-01   0.000      0.1440E+05   0.000    
      19  0.1854E-04  0.9759E-06 SHELL         71   0.0%   0.000      0.6113E-01   0.000      0.6113E-01   0.000      0.1440E+05   0.000    
      20  0.1952E-04  0.9759E-06 SHELL         71   0.0%   0.000      0.6773E-01   0.000      0.6773E-01   0.000      0.1440E+05   0.000    
      21  0.2049E-04  0.9759E-06 SHELL         71   0.0%   0.000      0.7467E-01   0.000      0.7467E-01   0.000      0.1440E+05   0.000    
      22  0.2147E-04  0.9759E-06 SHELL         71   0.0%   0.000      0.8196E-01   0.000      0.8196E-01   0.000      0.1440E+05   0.000    
      23  0.2245E-04  0.9759E-06 SHELL         71   0.0%   0.000      0.8958E-01   0.000      0.8958E-01   0.000      0.1440E+05   0.000    
      24  0.2342E-04  0.9759E-06 SHELL         71   0.0%   0.000      0.9754E-01   0.000      0.9754E-01   0.000      0.1440E+05   0.000    
      25  0.2440E-04  0.9759E-06 SHELL         71   0.0%   0.000      0.1058       0.000      0.1058       0.000      0.1440E+05   0.000    
      26  0.2537E-04  0.9759E-06 SHELL         71   0.0%   0.000      0.1145       0.000      0.1145       0.000      0.1440E+05   0.000    
      27  0.2635E-04  0.9759E-06 SHELL         71   0.0%   0.000      0.1234       0.000      0.1234       0.000      0.1440E+05   0.000    
      28  0.2733E-04  0.9759E-06 SHELL         71   0.0%   0.000      0.1328       0.000      0.1328       0.000      0.1440E+05   0.000    
      29  0.2830E-04  0.9759E-06 SHELL         71   0.0%   0.000      0.1424       0.000      0.1424       0.000      0.1440E+05   0.000    
      30  0.2928E-04  0.9759E-06 SHELL         71   0.0%   0.000      0.1524       0.000      0.1524       0.000      0.1440E+05   0.000    
      31  0.3025E-04  0.9759E-06 SHELL         71   0.0%   0.000      0.1627       0.000      0.1627       0.000      0.1440E+05   0.000    
      32  0.3123E-04  0.9759E-06 SHELL         71   0.0%   0.000      0.1734       0.000      0.1734       0.000      0.1440E+05   0.000    
      33  0.3220E-04  0.9759E-06 SHELL         71   0.0%   0.000      0.1844       0.000      0.1844       0.000      0.1440E+05   0.000    
      34  0.3318E-04  0.9759E-06 SHELL         71   0.0%   0.000      0.1958       0.000      0.1958       0.000      0.1440E+05   0.000    
      35  0.3416E-04  0.9759E-06 SHELL         71   0.0%   0.000      0.2075       0.000      0.2075       0.000      0.1440E+05   0.000    
      36  0.3513E-04  0.9759E-06 SHELL         71   0.0%   0.000      0.2195       0.000      0.2195       0.000      0.1440E+05   0.000    
      37  0.3611E-04  0.9759E-06 SHELL         71   0.0%   0.000      0.2319       0.000      0.2319       0.000      0.1440E+05   0.000    
      38  0.3708E-04  0.9759E-06 SHELL         71   0.0%   0.000      0.2446       0.000      0.2446       0.000      0.1440E+05   0.000    
      39  0.3806E-04  0.9759E-06 SHELL         71   0.0%   0.000      0.2576       0.000      0.2576       0.000      0.1440E+05   0.000    
      40  0.3904E-04  0.9759E-06 SHELL         71   0.0%   0.000      0.2710       0.000      0.2710       0.000      0.1440E+05   0.000    
      41  0.4001E-04  0.9759E-06 SHELL         71   0.0%   0.000      0.2847       0.000      0.2847       0.000      0.1440E+05   0.000    
      42  0.4099E-04  0.9759E-06 SHELL         71   0.0%   0.000      0.2988       0.000      0.2988       0.000      0.1440E+05   0.000    
      43  0.4196E-04  0.9759E-06 SHELL         71   0.0%   0.000      0.3132       0.000      0.3132       0.000      0.1440E+05   0.000    
      44  0.4294E-04  0.9759E-06 SHELL         71   0.0%   0.000      0.3279       0.000      0.3279       0.000      0.1440E+05   0.000    
      45  0.4392E-04  0.9759E-06 SHELL         71   0.0%   0.000      0.3430       0.000      0.3430       0.000      0.1440E+05   0.000    
      46  0.4489E-04  0.9759E-06 SHELL         71   0.0%   0.000      0.3584       0.000      0.3584       0.000      0.1440E+05   0.000    
      47  0.4587E-04  0.9759E-06 SHELL         71   0.0%   0.000      0.3742       0.000      0.3742       0.000      0.1440E+05   0.000    
      48  0.4684E-04  0.9759E-06 SHELL         71   0.0%   0.000      0.3903       0.000      0.3903       0.000      0.1440E+05   0.000    
      49  0.4782E-04  0.9759E-06 SHELL         71   0.0%   0.000      0.4068       0.000      0.4068       0.000      0.1440E+05   0.000    
      50  0.4880E-04  0.9759E-06 SHELL         71   0.0%   0.000      0.4235       0.000      0.4235       0.000      0.1440E+05   0.000    
      51  0.4977E-04  0.9759E-06 SHELL         71   0.0%   0.000      0.4407       0.000      0.4407       0.000      0.1440E+05   0.000    
      52  0.5075E-04  0.9759E-06 SHELL         71   0.0%   0.000      0.4581       0.000      0.4581       0.000      0.1440E+05   0.000    
      53  0.5172E-04  0.9759E-06 SHELL         71   0.0%   0.000      0.4759       0.000      0.4759       0.000      0.1440E+05   0.000    
      54  0.5270E-04  0.9759E-06 SHELL         71   0.0%   0.000      0.4941       0.000      0.4941       0.000      0.1440E+05   0.000    
   CYCLE    TIME      TIME-STEP  ELEMENT          ERROR  I-ENERGY    K-ENERGY T  K-ENERGY R  EXT-WORK     MAS.ERR     TOTAL MASS  MASS ADDED
      55  0.5367E-04  0.9759E-06 SHELL         71   0.0%   0.000      0.5125       0.000      0.5125       0.000      0.1440E+05   0.000    
      56  0.5465E-04  0.9759E-06 SHELL         71   0.0%   0.000      0.5314       0.000      0.5314       0.000      0.1440E+05   0.000    
      57  0.5563E-04  0.9759E-06 SHELL         71   0.0%   0.000      0.5505       0.000      0.5505       0.000      0.1440E+05   0.000    
      58  0.5660E-04  0.9759E-06 SHELL         71   0.0%   0.000      0.5700       0.000      0.5700       0.000      0.1440E+05   0.000    
      59  0.5758E-04  0.9759E-06 SHELL         71   0.0%   0.000      0.5899       0.000      0.5899       0.000      0.1440E+05   0.000    
      60  0.5855E-04  0.9759E-06 SHELL         71   0.0%   0.000      0.6100       0.000      0.6100       0.000      0.1440E+05   0.000    
      61  0.5953E-04  0.9759E-06 SHELL         71   0.0%   0.000      0.6306       0.000      0.6306       0.000      0.1440E+05   0.000    
      62  0.6051E-04  0.9759E-06 SHELL         71   0.0%   0.000      0.6514       0.000      0.6514       0.000      0.1440E+05   0.000    
      63  0.6148E-04  0.9759E-06 SHELL         71   0.0%   0.000      0.6726       0.000      0.6726       0.000      0.1440E+05   0.000    
      64  0.6246E-04  0.9759E-06 SHELL         71   0.0%   0.000      0.6942       0.000      0.6942       0.000      0.1440E+05   0.000    
      65  0.6343E-04  0.9759E-06 SHELL         71   0.0%   0.000      0.7161       0.000      0.7161       0.000      0.1440E+05   0.000    
      66  0.6441E-04  0.9759E-06 SHELL         71   0.0%   0.000      0.7383       0.000      0.7383       0.000      0.1440E+05   0.000    
      67  0.6539E-04  0.9759E-06 SHELL         71   0.0%   0.000      0.7609       0.000      0.7609       0.000      0.1440E+05   0.000    
      68  0.6636E-04  0.9759E-06 SHELL         71   0.0%   0.000      0.7838       0.000      0.7838       0.000      0.1440E+05   0.000    
      69  0.6734E-04  0.9759E-06 SHELL         71   0.0%   0.000      0.8070       0.000      0.8070       0.000      0.1440E+05   0.000    
      70  0.6831E-04  0.9759E-06 SHELL         71   0.0%   0.000      0.8306       0.000      0.8306       0.000      0.1440E+05   0.000    
      71  0.6929E-04  0.9759E-06 SHELL         71   0.0%   0.000      0.8545       0.000      0.8545       0.000      0.1440E+05   0.000    
      72  0.7026E-04  0.9759E-06 SHELL         71   0.0%   0.000      0.8788       0.000      0.8788       0.000      0.1440E+05   0.000    
      73  0.7124E-04  0.9759E-06 SHELL         71   0.0%   0.000      0.9034       0.000      0.9034       0.000      0.1440E+05   0.000    
      74  0.7222E-04  0.9759E-06 SHELL         71   0.0%   0.000      0.9284       0.000      0.9284       0.000      0.1440E+05   0.000    
      75  0.7319E-04  0.9759E-06 SHELL         71   0.0%   0.000      0.9537       0.000      0.9537       0.000      0.1440E+05   0.000    
      76  0.7417E-04  0.9759E-06 SHELL         71   0.0%   0.000      0.9793       0.000      0.9793       0.000      0.1440E+05   0.000    
      77  0.7514E-04  0.9759E-06 SHELL         71   0.0%   0.000       1.005       0.000       1.005       0.000      0.1440E+05   0.000    
      78  0.7612E-04  0.9759E-06 SHELL         71   0.0%   0.000       1.032       0.000       1.032       0.000      0.1440E+05   0.000    
      79  0.7710E-04  0.9759E-06 SHELL         71   0.0%   0.000       1.058       0.000       1.058       0.000      0.1440E+05   0.000    
      80  0.7807E-04  0.9759E-06 SHELL         71   0.0%   0.000       1.085       0.000       1.085       0.000      0.1440E+05   0.000    
      81  0.7905E-04  0.9759E-06 SHELL         71   0.0%   0.000       1.113       0.000       1.113       0.000      0.1440E+05   0.000    
      82  0.8002E-04  0.9759E-06 SHELL         71   0.0%   0.000       1.140       0.000       1.140       0.000      0.1440E+05   0.000    
      83  0.8100E-04  0.9759E-06 SHELL         71   0.0%   0.000       1.168       0.000       1.168       0.000      0.1440E+05   0.000    
      84  0.8198E-04  0.9759E-06 SHELL         71   0.0%   0.000       1.197       0.000       1.197       0.000      0.1440E+05   0.000    
      85  0.8295E-04  0.9759E-06 SHELL         71   0.0%   0.000       1.225       0.000       1.225       0.000      0.1440E+05   0.000    
      86  0.8393E-04  0.9759E-06 SHELL         71   0.0%   0.000       1.254       0.000       1.254       0.000      0.1440E+05   0.000    
      87  0.8490E-04  0.9759E-06 SHELL         71   0.0%   0.000       1.284       0.000       1.284       0.000      0.1440E+05   0.000    
      88  0.8588E-04  0.9759E-06 SHELL         71   0.0%   0.000       1.314       0.000       1.314       0.000      0.1440E+05   0.000    
      89  0.8686E-04  0.9759E-06 SHELL         71   0.0%   0.000       1.344       0.000       1.344       0.000      0.1440E+05   0.000    
      90  0.8783E-04  0.9759E-06 SHELL         71   0.0%   0.000       1.374       0.000       1.374       0.000      0.1440E+05   0.000    
      91  0.8881E-04  0.9759E-06 SHELL         71   0.0%   0.000       1.405       0.000       1.405       0.000      0.1440E+05   0.000    
      92  0.8978E-04  0.9759E-06 SHELL         71   0.0%   0.000       1.436       0.000       1.436       0.000      0.1440E+05   0.000    
      93  0.9076E-04  0.9759E-06 SHELL         71   0.0%   0.000       1.467       0.000       1.467       0.000      0.1440E+05   0.000    
      94  0.9173E-04  0.9759E-06 SHELL         71   0.0%   0.000       1.499       0.000       1.499       0.000      0.1440E+05   0.000    
      95  0.9271E-04  0.9759E-06 SHELL         71   0.0%   0.000       1.531       0.000       1.531       0.000      0.1440E+05   0.000    
      96  0.9369E-04  0.9759E-06 SHELL         71   0.0%   0.000       1.564       0.000       1.564       0.000      0.1440E+05   0.000    
      97  0.9466E-04  0.9759E-06 SHELL         71   0.0%   0.000       1.597       0.000       1.597       0.000      0.1440E+05   0.000    
      98  0.9564E-04  0.9759E-06 SHELL         71   0.0%   0.000       1.630       0.000       1.630       0.000      0.1440E+05   0.000    
      99  0.9661E-04  0.9759E-06 SHELL         71   0.0%   0.000       1.663       0.000       1.663       0.000      0.1440E+05   0.000    
     100  0.9759E-04  0.9759E-06 SHELL         71   0.0%   0.000       1.697       0.000       1.697       0.000      0.1440E+05   0.000    
     101  0.9857E-04  0.9759E-06 SHELL         71   0.0%   0.000       1.731       0.000       1.731       0.000      0.1440E+05   0.000    
     102  0.9954E-04  0.9759E-06 SHELL         71   0.0%   0.000       1.766       0.000       1.766       0.000      0.1440E+05   0.000    
     103  0.1005E-03  0.9759E-06 SHELL         71   0.0%   0.000       1.801       0.000       1.801       0.000      0.1440E+05   0.000    
     ANIMATION FILE: FRICT41A002 WRITTEN
     104  0.1015E-03  0.9759E-06 SHELL         71   0.0%   0.000       1.836       0.000       1.836       0.000      0.1440E+05   0.000    
     105  0.1025E-03  0.9759E-06 SHELL         71   0.0%   0.000       1.872       0.000       1.872       0.000      0.1440E+05   0.000    
     106  0.1034E-03  0.9759E-06 SHELL         71   0.0%   0.000       1.907       0.000       1.907       0.000      0.1440E+05   0.000    
     107  0.1044E-03  0.9759E-06 SHELL         71   0.0%   0.000       1.944       0.000       1.944       0.000      0.1440E+05   0.000    
     108  0.1054E-03  0.9759E-06 SHELL         71   0.0%   0.000       1.980       0.000       1.980       0.000      0.1440E+05   0.000    
     109  0.1064E-03  0.9759E-06 SHELL         71   0.0%   0.000       2.017       0.000       2.017       0.000      0.1440E+05   0.000    
   CYCLE    TIME      TIME-STEP  ELEMENT          ERROR  I-ENERGY    K-ENERGY T  K-ENERGY R  EXT-WORK     MAS.ERR     TOTAL MASS  MASS ADDED
     110  0.1073E-03  0.9759E-06 SHELL         71   0.0%   0.000       2.055       0.000       2.055       0.000      0.1440E+05   0.000    
     111  0.1083E-03  0.9759E-06 SHELL         71   0.0%   0.000       2.092       0.000       2.092       0.000      0.1440E+05   0.000    
     112  0.1093E-03  0.9759E-06 SHELL         71   0.0%   0.000       2.130       0.000       2.130       0.000      0.1440E+05   0.000    
     113  0.1103E-03  0.9759E-06 SHELL         71   0.0%   0.000       2.169       0.000       2.169       0.000      0.1440E+05   0.000    
     114  0.1113E-03  0.9759E-06 SHELL         71   0.0%   0.000       2.207       0.000       2.207       0.000      0.1440E+05   0.000    
     115  0.1122E-03  0.9759E-06 SHELL         71   0.0%   0.000       2.246       0.000       2.246       0.000      0.1440E+05   0.000    
     116  0.1132E-03  0.9759E-06 SHELL         71   0.0%   0.000       2.286       0.000       2.286       0.000      0.1440E+05   0.000    
     117  0.1142E-03  0.9759E-06 SHELL         71   0.0%   0.000       2.325       0.000       2.325       0.000      0.1440E+05   0.000    
     118  0.1152E-03  0.9759E-06 SHELL         71   0.0%   0.000       2.365       0.000       2.365       0.000      0.1440E+05   0.000    
     119  0.1161E-03  0.9759E-06 SHELL         71   0.0%   0.000       2.406       0.000       2.406       0.000      0.1440E+05   0.000    
     120  0.1171E-03  0.9759E-06 SHELL         71   0.0%   0.000       2.446       0.000       2.446       0.000      0.1440E+05   0.000    
     121  0.1181E-03  0.9759E-06 SHELL         71   0.0%   0.000       2.488       0.000       2.488       0.000      0.1440E+05   0.000    
     122  0.1191E-03  0.9759E-06 SHELL         71   0.0%   0.000       2.529       0.000       2.529       0.000      0.1440E+05   0.000    
     123  0.1200E-03  0.9759E-06 SHELL         71   0.0%   0.000       2.571       0.000       2.571       0.000      0.1440E+05   0.000    
     124  0.1210E-03  0.9759E-06 SHELL         71   0.0%   0.000       2.613       0.000       2.613       0.000      0.1440E+05   0.000    
     125  0.1220E-03  0.9759E-06 SHELL         71   0.0%   0.000       2.655       0.000       2.655       0.000      0.1440E+05   0.000    
     126  0.1230E-03  0.9759E-06 SHELL         71   0.0%   0.000       2.698       0.000       2.698       0.000      0.1440E+05   0.000    
     127  0.1239E-03  0.9759E-06 SHELL         71   0.0%   0.000       2.741       0.000       2.741       0.000      0.1440E+05   0.000    
     128  0.1249E-03  0.9759E-06 SHELL         71   0.0%   0.000       2.785       0.000       2.785       0.000      0.1440E+05   0.000    
     129  0.1259E-03  0.9759E-06 SHELL         71   0.0%   0.000       2.829       0.000       2.829       0.000      0.1440E+05   0.000    
     130  0.1269E-03  0.9759E-06 SHELL         71   0.0%   0.000       2.873       0.000       2.873       0.000      0.1440E+05   0.000    
     131  0.1278E-03  0.9759E-06 SHELL         71   0.0%   0.000       2.917       0.000       2.917       0.000      0.1440E+05   0.000    
     132  0.1288E-03  0.9759E-06 SHELL         71   0.0%   0.000       2.962       0.000       2.962       0.000      0.1440E+05   0.000    
     133  0.1298E-03  0.9759E-06 SHELL         71   0.0%   0.000       3.008       0.000       3.008       0.000      0.1440E+05   0.000    
     134  0.1308E-03  0.9759E-06 SHELL         71   0.0%   0.000       3.053       0.000       3.053       0.000      0.1440E+05   0.000    
     135  0.1317E-03  0.9759E-06 SHELL         71   0.0%   0.000       3.099       0.000       3.099       0.000      0.1440E+05   0.000    
     136  0.1327E-03  0.9759E-06 SHELL         71   0.0%   0.000       3.145       0.000       3.145       0.000      0.1440E+05   0.000    
     137  0.1337E-03  0.9759E-06 SHELL         71   0.0%   0.000       3.192       0.000       3.192       0.000      0.1440E+05   0.000    
     138  0.1347E-03  0.9759E-06 SHELL         71   0.0%   0.000       3.239       0.000       3.239       0.000      0.1440E+05   0.000    
     139  0.1357E-03  0.9759E-06 SHELL         71   0.0%   0.000       3.286       0.000       3.286       0.000      0.1440E+05   0.000    
     140  0.1366E-03  0.9759E-06 SHELL         71   0.0%   0.000       3.334       0.000       3.334       0.000      0.1440E+05   0.000    
     141  0.1376E-03  0.9759E-06 SHELL         71   0.0%   0.000       3.382       0.000       3.382       0.000      0.1440E+05   0.000    
     142  0.1386E-03  0.9759E-06 SHELL         71   0.0%   0.000       3.430       0.000       3.430       0.000      0.1440E+05   0.000    
     143  0.1396E-03  0.9759E-06 SHELL         71   0.0%   0.000       3.479       0.000       3.479       0.000      0.1440E+05   0.000    
     144  0.1405E-03  0.9759E-06 SHELL         71   0.0%   0.000       3.528       0.000       3.528       0.000      0.1440E+05   0.000    
     145  0.1415E-03  0.9759E-06 SHELL         71   0.0%   0.000       3.578       0.000       3.578       0.000      0.1440E+05   0.000    
     146  0.1425E-03  0.9759E-06 SHELL         71   0.0%   0.000       3.627       0.000       3.627       0.000      0.1440E+05   0.000    
     147  0.1435E-03  0.9759E-06 SHELL         71   0.0%   0.000       3.677       0.000       3.677       0.000      0.1440E+05   0.000    
     148  0.1444E-03  0.9759E-06 SHELL         71   0.0%   0.000       3.728       0.000       3.728       0.000      0.1440E+05   0.000    
     149  0.1454E-03  0.9759E-06 SHELL         71   0.0%   0.000       3.779       0.000       3.779       0.000      0.1440E+05   0.000    
     150  0.1464E-03  0.9759E-06 SHELL         71   0.0%   0.000       3.830       0.000       3.830       0.000      0.1440E+05   0.000    
     151  0.1474E-03  0.9759E-06 SHELL         71   0.0%   0.000       3.881       0.000       3.881       0.000      0.1440E+05   0.000    
     152  0.1483E-03  0.9759E-06 SHELL         71   0.0%   0.000       3.933       0.000       3.933       0.000      0.1440E+05   0.000    
     153  0.1493E-03  0.9759E-06 SHELL         71  -0.6%   0.000       1.993       0.000       2.004       0.000      0.1440E+05   0.000    
     154  0.1503E-03  0.2968E-06 NODE          33  -1.3%   0.000       1.986       0.000       2.012       0.000      0.1440E+05   0.000    
     155  0.1506E-03  0.1681E-06 NODE          34  -2.3%  0.1353E-14   1.970      0.8917E-18   2.016       0.000      0.1440E+05   0.000    
     156  0.1508E-03  0.1271E-06 NODE          34  -3.1%  0.4756E-14   1.958      0.6161E-17   2.020       0.000      0.1440E+05   0.000    
     157  0.1509E-03  0.1107E-06 NODE          34  -3.7%  0.9951E-14   1.947      0.1883E-16   2.023       0.000      0.1440E+05   0.000    
     158  0.1510E-03  0.1034E-06 NODE          34  -4.4%  0.1733E-13   1.937      0.4301E-16   2.025       0.000      0.1440E+05   0.000    
     159  0.1511E-03  0.9994E-07 NODE          34  -5.0%  0.2758E-13   1.927      0.8511E-16   2.028       0.000      0.1440E+05   0.000    
     160  0.1512E-03  0.9827E-07 NODE          34  -5.7%  0.4160E-13   1.916      0.1545E-15   2.031       0.000      0.1440E+05   0.000    
     161  0.1513E-03  0.9744E-07 NODE          34  -6.4%  0.6048E-13   1.904      0.2645E-15   2.033       0.000      0.1440E+05   0.000    
     162  0.1514E-03  0.9702E-07 NODE          34  -7.1%  0.8553E-13   1.892      0.4331E-15   2.036       0.000      0.1440E+05   0.000    
     163  0.1515E-03  0.9681E-07 NODE          34  -7.8%  0.1183E-12   1.879      0.6846E-15   2.038       0.000      0.1440E+05   0.000    
     164  0.1516E-03  0.9670E-07 NODE          34  -8.6%  0.1605E-12   1.866      0.1051E-14   2.041       0.000      0.1440E+05   0.000    
   CYCLE    TIME      TIME-STEP  ELEMENT          ERROR  I-ENERGY    K-ENERGY T  K-ENERGY R  EXT-WORK     MAS.ERR     TOTAL MASS  MASS ADDED
     165  0.1517E-03  0.9664E-07 NODE          34  -9.4%  0.2143E-12   1.852      0.1573E-14   2.044       0.000      0.1440E+05   0.000    
     166  0.1518E-03  0.9660E-07 NODE          34 -10.2%  0.2821E-12   1.837      0.2303E-14   2.046       0.000      0.1440E+05   0.000    
     167  0.1519E-03  0.9658E-07 NODE          34 -11.1%  0.3665E-12   1.821      0.3307E-14   2.049       0.000      0.1440E+05   0.000    
     168  0.1520E-03  0.9656E-07 NODE          34 -12.0%  0.4706E-12   1.805      0.4668E-14   2.051       0.000      0.1440E+05   0.000    
     169  0.1521E-03  0.9654E-07 NODE          34 -12.9%  0.5980E-12   1.789      0.6488E-14   2.054       0.000      0.1440E+05   0.000    
     170  0.1522E-03  0.9653E-07 NODE          34 -13.8%  0.7525E-12   1.771      0.8890E-14   2.056       0.000      0.1440E+05   0.000    
     171  0.1523E-03  0.9651E-07 NODE          34 -14.8%  0.9385E-12   1.753      0.1203E-13   2.059       0.000      0.1440E+05   0.000    
     172  0.1524E-03  0.9650E-07 NODE          34 -15.8%  0.1161E-11   1.735      0.1608E-13   2.061       0.000      0.1440E+05   0.000    
     173  0.1525E-03  0.9649E-07 NODE          34 -16.8%  0.1425E-11   1.716      0.2126E-13   2.063       0.000      0.1440E+05   0.000    
     174  0.1525E-03  0.9648E-07 NODE          34 -17.9%  0.1736E-11   1.696      0.2783E-13   2.066       0.000      0.1440E+05   0.000    
     175  0.1526E-03  0.9646E-07 NODE          34 -18.9%  0.2102E-11   1.676      0.3609E-13   2.068       0.000      0.1440E+05   0.000    
     176  0.1527E-03  0.9645E-07 NODE          34 -20.0%  0.2528E-11   1.656      0.4640E-13   2.071       0.000      0.1440E+05   0.000    
     177  0.1528E-03  0.9644E-07 NODE          34 -21.1%  0.3021E-11   1.635      0.5917E-13   2.073       0.000      0.1440E+05   0.000    
     178  0.1529E-03  0.9643E-07 NODE          34 -22.3%  0.3588E-11   1.613      0.7488E-13   2.076       0.000      0.1440E+05   0.000    
     179  0.1530E-03  0.9641E-07 NODE          34 -23.4%  0.4234E-11   1.591      0.9406E-13   2.078       0.000      0.1440E+05   0.000    
     180  0.1531E-03  0.9640E-07 NODE          34 -24.6%  0.4965E-11   1.569      0.1173E-12   2.080       0.000      0.1440E+05   0.000    
     181  0.1532E-03  0.9639E-07 NODE          34 -25.8%  0.5787E-11   1.546      0.1454E-12   2.083       0.000      0.1440E+05   0.000    
     182  0.1533E-03  0.9638E-07 NODE          34 -27.0%  0.6707E-11   1.523      0.1790E-12   2.085       0.000      0.1440E+05   0.000    
     183  0.1534E-03  0.9637E-07 NODE          34 -28.2%  0.7731E-11   1.499      0.2190E-12   2.087       0.000      0.1440E+05   0.000    
     184  0.1535E-03  0.9635E-07 NODE          34 -29.4%  0.8864E-11   1.475      0.2664E-12   2.090       0.000      0.1440E+05   0.000    
     185  0.1536E-03  0.9634E-07 NODE          34 -30.6%  0.1011E-10   1.451      0.3221E-12   2.092       0.000      0.1440E+05   0.000    
     186  0.1537E-03  0.9633E-07 NODE          34 -31.9%  0.1148E-10   1.426      0.3874E-12   2.094       0.000      0.1440E+05   0.000    
     187  0.1538E-03  0.9632E-07 NODE          34 -33.2%  0.1297E-10   1.401      0.4636E-12   2.096       0.000      0.1440E+05   0.000    
     188  0.1539E-03  0.9631E-07 NODE          34 -34.4%  0.1459E-10   1.376      0.5519E-12   2.099       0.000      0.1440E+05   0.000    
     189  0.1540E-03  0.9630E-07 NODE          34 -35.7%  0.1635E-10   1.350      0.6538E-12   2.101       0.000      0.1440E+05   0.000    
     190  0.1541E-03  0.9629E-07 NODE          34 -37.0%  0.1825E-10   1.325      0.7709E-12   2.103       0.000      0.1440E+05   0.000    
     191  0.1542E-03  0.9627E-07 NODE          34 -38.3%  0.2028E-10   1.299      0.9050E-12   2.105       0.000      0.1440E+05   0.000    
     192  0.1543E-03  0.9626E-07 NODE          34 -39.6%  0.2247E-10   1.272      0.1058E-11   2.107       0.000      0.1440E+05   0.000    
     193  0.1544E-03  0.9625E-07 NODE          34 -40.9%  0.2480E-10   1.246      0.1231E-11   2.109       0.000      0.1440E+05   0.000    
     194  0.1545E-03  0.9624E-07 NODE          34 -42.2%  0.2728E-10   1.220      0.1428E-11   2.112       0.000      0.1440E+05   0.000    
     195  0.1546E-03  0.9623E-07 NODE          34 -43.6%  0.2992E-10   1.193      0.1649E-11   2.114       0.000      0.1440E+05   0.000    
     196  0.1547E-03  0.9622E-07 NODE          34 -44.9%  0.3271E-10   1.166      0.1898E-11   2.116       0.000      0.1440E+05   0.000    
     197  0.1548E-03  0.9621E-07 NODE          34 -46.2%  0.3566E-10   1.139      0.2176E-11   2.118       0.000      0.1440E+05   0.000    
     198  0.1549E-03  0.9620E-07 NODE          34 -47.5%  0.3877E-10   1.112      0.2487E-11   2.120       0.000      0.1440E+05   0.000    
     199  0.1550E-03  0.9619E-07 NODE          34 -48.9%  0.4203E-10   1.085      0.2833E-11   2.122       0.000      0.1440E+05   0.000    
     200  0.1551E-03  0.9618E-07 NODE          34 -50.2%  0.4545E-10   1.058      0.3216E-11   2.124       0.000      0.1440E+05   0.000    
     201  0.1552E-03  0.9617E-07 NODE          34 -51.5%  0.4902E-10   1.031      0.3641E-11   2.126       0.000      0.1440E+05   0.000    
     202  0.1552E-03  0.9616E-07 NODE          34 -52.8%  0.5275E-10   1.003      0.4109E-11   2.128       0.000      0.1440E+05   0.000    
     203  0.1553E-03  0.9615E-07 NODE          34 -54.2%  0.5663E-10  0.9761      0.4624E-11   2.130       0.000      0.1440E+05   0.000    
     204  0.1554E-03  0.9614E-07 NODE          34 -55.5%  0.6066E-10  0.9490      0.5190E-11   2.131       0.000      0.1440E+05   0.000    
     205  0.1555E-03  0.9613E-07 NODE          34 -56.8%  0.6484E-10  0.9219      0.5810E-11   2.133       0.000      0.1440E+05   0.000    
     206  0.1556E-03  0.9612E-07 NODE          34 -58.1%  0.6916E-10  0.8949      0.6486E-11   2.135       0.000      0.1440E+05   0.000    
     207  0.1557E-03  0.9611E-07 NODE          34 -59.4%  0.7362E-10  0.8680      0.7224E-11   2.137       0.000      0.1440E+05   0.000    
     208  0.1558E-03  0.9610E-07 NODE          34 -60.7%  0.7821E-10  0.8411      0.8026E-11   2.139       0.000      0.1440E+05   0.000    
     209  0.1559E-03  0.9609E-07 NODE          34 -61.9%  0.8293E-10  0.8145      0.8896E-11   2.140       0.000      0.1440E+05   0.000    
     210  0.1560E-03  0.9609E-07 NODE          34 -63.2%  0.8778E-10  0.7880      0.9839E-11   2.142       0.000      0.1440E+05   0.000    
     211  0.1561E-03  0.9608E-07 NODE          34 -64.5%  0.9274E-10  0.7616      0.1086E-10   2.144       0.000      0.1440E+05   0.000    
     212  0.1562E-03  0.9607E-07 NODE          34 -65.7%  0.9782E-10  0.7355      0.1196E-10   2.146       0.000      0.1440E+05   0.000    
     213  0.1563E-03  0.9606E-07 NODE          34 -67.0%  0.1030E-09  0.7095      0.1314E-10   2.147       0.000      0.1440E+05   0.000    
     214  0.1564E-03  0.9605E-07 NODE          34 -68.2%  0.1083E-09  0.6838      0.1441E-10   2.149       0.000      0.1440E+05   0.000    
     215  0.1565E-03  0.9604E-07 NODE          34 -69.4%  0.1136E-09  0.6583      0.1577E-10   2.150       0.000      0.1440E+05   0.000    
     216  0.1566E-03  0.9604E-07 NODE          34 -70.6%  0.1191E-09  0.6332      0.1723E-10   2.152       0.000      0.1440E+05   0.000    
     217  0.1567E-03  0.9603E-07 NODE          34 -71.8%  0.1246E-09  0.6083      0.1879E-10   2.154       0.000      0.1440E+05   0.000    
     218  0.1568E-03  0.9602E-07 NODE          34 -72.9%  0.1302E-09  0.5837      0.2046E-10   2.155       0.000      0.1440E+05   0.000    
     219  0.1569E-03  0.9601E-07 NODE          34 -74.1%  0.1358E-09  0.5594      0.2224E-10   2.157       0.000      0.1440E+05   0.000    
   CYCLE    TIME      TIME-STEP  ELEMENT          ERROR  I-ENERGY    K-ENERGY T  K-ENERGY R  EXT-WORK     MAS.ERR     TOTAL MASS  MASS ADDED
     220  0.1570E-03  0.9601E-07 NODE          34 -75.2%  0.1415E-09  0.5354      0.2412E-10   2.158       0.000      0.1440E+05   0.000    
     221  0.1571E-03  0.9600E-07 NODE          34 -76.3%  0.1472E-09  0.5119      0.2613E-10   2.160       0.000      0.1440E+05   0.000    
     222  0.1572E-03  0.9599E-07 NODE          34 -77.4%  0.1529E-09  0.4887      0.2826E-10   2.161       0.000      0.1440E+05   0.000    
     223  0.1573E-03  0.9599E-07 NODE          34 -78.5%  0.1586E-09  0.4659      0.3051E-10   2.162       0.000      0.1440E+05   0.000    
     224  0.1574E-03  0.9598E-07 NODE          34 -79.5%  0.1644E-09  0.4435      0.3289E-10   2.164       0.000      0.1440E+05   0.000    
     225  0.1575E-03  0.9597E-07 NODE          34 -80.5%  0.1701E-09  0.4215      0.3541E-10   2.165       0.000      0.1440E+05   0.000    
     226  0.1576E-03  0.9597E-07 NODE          34 -81.5%  0.1758E-09  0.3999      0.3806E-10   2.166       0.000      0.1440E+05   0.000    
     227  0.1576E-03  0.9596E-07 NODE          34 -82.5%  0.1815E-09  0.3789      0.4086E-10   2.168       0.000      0.1440E+05   0.000    
     228  0.1577E-03  0.9596E-07 NODE          34 -83.5%  0.1871E-09  0.3582      0.4380E-10   2.169       0.000      0.1440E+05   0.000    
     229  0.1578E-03  0.9595E-07 NODE          34 -84.4%  0.1927E-09  0.3381      0.4689E-10   2.170       0.000      0.1440E+05   0.000    
     230  0.1579E-03  0.9594E-07 NODE          34 -85.3%  0.1982E-09  0.3185      0.5013E-10   2.171       0.000      0.1440E+05   0.000    
     231  0.1580E-03  0.9594E-07 NODE          34 -86.2%  0.2036E-09  0.2994      0.5353E-10   2.172       0.000      0.1440E+05   0.000    
     232  0.1581E-03  0.9593E-07 NODE          34 -87.1%  0.2089E-09  0.2808      0.5708E-10   2.173       0.000      0.1440E+05   0.000    
     233  0.1582E-03  0.9593E-07 NODE          34 -87.9%  0.2141E-09  0.2627      0.6080E-10   2.175       0.000      0.1440E+05   0.000    
     234  0.1583E-03  0.9592E-07 NODE          34 -88.7%  0.2192E-09  0.2452      0.6468E-10   2.176       0.000      0.1440E+05   0.000    
     235  0.1584E-03  0.9592E-07 NODE          34 -89.5%  0.2242E-09  0.2282      0.6872E-10   2.177       0.000      0.1440E+05   0.000    
     236  0.1585E-03  0.9591E-07 NODE          34 -90.3%  0.2290E-09  0.2119      0.7294E-10   2.178       0.000      0.1440E+05   0.000    
     237  0.1586E-03  0.9591E-07 NODE          34 -91.0%  0.2336E-09  0.1961      0.7733E-10   2.179       0.000      0.1440E+05   0.000    
     238  0.1587E-03  0.9591E-07 NODE          34 -91.7%  0.2382E-09  0.1809      0.8189E-10   2.179       0.000      0.1440E+05   0.000    
     239  0.1588E-03  0.9590E-07 NODE          34 -92.4%  0.2425E-09  0.1663      0.8662E-10   2.180       0.000      0.1440E+05   0.000    
     240  0.1589E-03  0.9590E-07 NODE          34 -93.0%  0.2466E-09  0.1523      0.9153E-10   2.181       0.000      0.1440E+05   0.000    
     241  0.1590E-03  0.9589E-07 NODE          34 -93.6%  0.2506E-09  0.1389      0.9662E-10   2.182       0.000      0.1440E+05   0.000    
     242  0.1591E-03  0.9589E-07 NODE          34 -94.2%  0.2543E-09  0.1262      0.1019E-09   2.183       0.000      0.1440E+05   0.000    
     243  0.1592E-03  0.9589E-07 NODE          34 -94.8%  0.2579E-09  0.1141      0.1073E-09   2.184       0.000      0.1440E+05   0.000    
     244  0.1593E-03  0.9588E-07 NODE          34 -95.3%  0.2612E-09  0.1027      0.1130E-09   2.184       0.000      0.1440E+05   0.000    
     245  0.1594E-03  0.9588E-07 NODE          34 -95.8%  0.2642E-09  0.9186E-01  0.1188E-09   2.185       0.000      0.1440E+05   0.000    
     246  0.1595E-03  0.9588E-07 NODE          34 -96.3%  0.2670E-09  0.8173E-01  0.1247E-09   2.186       0.000      0.1440E+05   0.000    
     247  0.1596E-03  0.9587E-07 NODE          34 -96.7%  0.2696E-09  0.7227E-01  0.1309E-09   2.186       0.000      0.1440E+05   0.000    
     248  0.1597E-03  0.9587E-07 NODE          34 -97.1%  0.2719E-09  0.6347E-01  0.1372E-09   2.187       0.000      0.1440E+05   0.000    
     249  0.1598E-03  0.9587E-07 NODE          34 -97.5%  0.2739E-09  0.5536E-01  0.1438E-09   2.188       0.000      0.1440E+05   0.000    
     250  0.1599E-03  0.9587E-07 NODE          34 -97.8%  0.2757E-09  0.4792E-01  0.1505E-09   2.188       0.000      0.1440E+05   0.000    
     251  0.1599E-03  0.9587E-07 NODE          34 -98.1%  0.2772E-09  0.4117E-01  0.1573E-09   2.189       0.000      0.1440E+05   0.000    
     252  0.1600E-03  0.9586E-07 NODE          34 -98.4%  0.2784E-09  0.3510E-01  0.1643E-09   2.189       0.000      0.1440E+05   0.000    
     253  0.1601E-03  0.9586E-07 NODE          34 -98.6%  0.2793E-09  0.2973E-01  0.1715E-09   2.190       0.000      0.1440E+05   0.000    
     254  0.1602E-03  0.9586E-07 NODE          34 -98.9%  0.2799E-09  0.2505E-01  0.1789E-09   2.190       0.000      0.1440E+05   0.000    
     255  0.1603E-03  0.9586E-07 NODE          34 -99.0%  0.2802E-09  0.2106E-01  0.1864E-09   2.190       0.000      0.1440E+05   0.000    
     256  0.1604E-03  0.9586E-07 NODE          34 -99.2%  0.2802E-09  0.1777E-01  0.1941E-09   2.191       0.000      0.1440E+05   0.000    
     257  0.1605E-03  0.9586E-07 NODE          34 -99.3%  0.2799E-09  0.1517E-01  0.2019E-09   2.191       0.000      0.1440E+05   0.000    
     258  0.1606E-03  0.9586E-07 NODE          34 -99.4%  0.2793E-09  0.1327E-01  0.2099E-09   2.191       0.000      0.1440E+05   0.000    
     259  0.1607E-03  0.9586E-07 NODE          34 -99.4%  0.2784E-09  0.1207E-01  0.2181E-09   2.192       0.000      0.1440E+05   0.000    
     260  0.1608E-03  0.9586E-07 NODE          34 -99.5%  0.2772E-09  0.1156E-01  0.2263E-09   2.192       0.000      0.1440E+05   0.000    
     261  0.1609E-03  0.9586E-07 NODE          34 -99.5%  0.2757E-09  0.1174E-01  0.2347E-09   2.192       0.000      0.1440E+05   0.000    
     262  0.1610E-03  0.9610E-07 NODE          34 -99.4%  0.2738E-09  0.1262E-01  0.2432E-09   2.192       0.000      0.1440E+05   0.000    
     263  0.1611E-03  0.9622E-07 NODE          34 -99.4%  0.2717E-09  0.1419E-01  0.2519E-09   2.192       0.000      0.1440E+05   0.000    
     264  0.1612E-03  0.9627E-07 NODE          34 -99.2%  0.2692E-09  0.1645E-01  0.2607E-09   2.193       0.000      0.1440E+05   0.000    
     265  0.1613E-03  0.9630E-07 NODE          34 -99.1%  0.2664E-09  0.1940E-01  0.2696E-09   2.193       0.000      0.1440E+05   0.000    
     266  0.1614E-03  0.9632E-07 NODE          34 -98.9%  0.2634E-09  0.2303E-01  0.2786E-09   2.193       0.000      0.1440E+05   0.000    
     267  0.1615E-03  0.9633E-07 NODE          34 -98.8%  0.2600E-09  0.2734E-01  0.2877E-09   2.193       0.000      0.1440E+05   0.000    
     268  0.1616E-03  0.9633E-07 NODE          34 -98.5%  0.2563E-09  0.3233E-01  0.2969E-09   2.193       0.000      0.1440E+05   0.000    
     269  0.1617E-03  0.9633E-07 NODE          34 -98.3%  0.2524E-09  0.3799E-01  0.3061E-09   2.193       0.000      0.1440E+05   0.000    
     270  0.1618E-03  0.9634E-07 NODE          34 -98.0%  0.2482E-09  0.4430E-01  0.3155E-09   2.193       0.000      0.1440E+05   0.000    
     271  0.1619E-03  0.9634E-07 NODE          34 -97.7%  0.2437E-09  0.5128E-01  0.3248E-09   2.192       0.000      0.1440E+05   0.000    
     272  0.1620E-03  0.9634E-07 NODE          34 -97.3%  0.2390E-09  0.5890E-01  0.3343E-09   2.192       0.000      0.1440E+05   0.000    
     273  0.1621E-03  0.9634E-07 NODE          34 -96.9%  0.2340E-09  0.6716E-01  0.3437E-09   2.192       0.000      0.1440E+05   0.000    
     274  0.1622E-03  0.9634E-07 NODE          34 -96.5%  0.2287E-09  0.7605E-01  0.3532E-09   2.192       0.000      0.1440E+05   0.000    
   CYCLE    TIME      TIME-STEP  ELEMENT          ERROR  I-ENERGY    K-ENERGY T  K-ENERGY R  EXT-WORK     MAS.ERR     TOTAL MASS  MASS ADDED
     275  0.1623E-03  0.9634E-07 NODE          34 -96.1%  0.2233E-09  0.8556E-01  0.3627E-09   2.192       0.000      0.1440E+05   0.000    
     276  0.1624E-03  0.9634E-07 NODE          34 -95.6%  0.2176E-09  0.9569E-01  0.3722E-09   2.191       0.000      0.1440E+05   0.000    
     277  0.1624E-03  0.9634E-07 NODE          34 -95.1%  0.2117E-09  0.1064      0.3818E-09   2.191       0.000      0.1440E+05   0.000    
     278  0.1625E-03  0.9635E-07 NODE          34 -94.6%  0.2056E-09  0.1177      0.3912E-09   2.191       0.000      0.1440E+05   0.000    
     279  0.1626E-03  0.9635E-07 NODE          34 -94.1%  0.1994E-09  0.1297      0.4007E-09   2.190       0.000      0.1440E+05   0.000    
     280  0.1627E-03  0.9635E-07 NODE          34 -93.5%  0.1929E-09  0.1421      0.4101E-09   2.190       0.000      0.1440E+05   0.000    
     281  0.1628E-03  0.9635E-07 NODE          34 -92.9%  0.1864E-09  0.1552      0.4195E-09   2.189       0.000      0.1440E+05   0.000    
     282  0.1629E-03  0.9635E-07 NODE          34 -92.3%  0.1796E-09  0.1688      0.4288E-09   2.189       0.000      0.1440E+05   0.000    
     283  0.1630E-03  0.9635E-07 NODE          34 -91.6%  0.1728E-09  0.1829      0.4381E-09   2.189       0.000      0.1440E+05   0.000    
     284  0.1631E-03  0.9636E-07 NODE          34 -91.0%  0.1659E-09  0.1975      0.4472E-09   2.188       0.000      0.1440E+05   0.000    
     285  0.1632E-03  0.9636E-07 NODE          34 -90.3%  0.1588E-09  0.2127      0.4563E-09   2.187       0.000      0.1440E+05   0.000    
     286  0.1633E-03  0.9636E-07 NODE          34 -89.6%  0.1517E-09  0.2284      0.4652E-09   2.187       0.000      0.1440E+05   0.000    
     287  0.1634E-03  0.9636E-07 NODE          34 -88.8%  0.1446E-09  0.2445      0.4740E-09   2.186       0.000      0.1440E+05   0.000    
     288  0.1635E-03  0.9636E-07 NODE          34 -88.1%  0.1374E-09  0.2611      0.4827E-09   2.186       0.000      0.1440E+05   0.000    
     289  0.1636E-03  0.9637E-07 NODE          34 -87.3%  0.1302E-09  0.2782      0.4913E-09   2.185       0.000      0.1440E+05   0.000    
     290  0.1637E-03  0.9637E-07 NODE          34 -86.5%  0.1230E-09  0.2957      0.4996E-09   2.184       0.000      0.1440E+05   0.000    
     291  0.1638E-03  0.9637E-07 NODE          34 -85.6%  0.1158E-09  0.3136      0.5078E-09   2.184       0.000      0.1440E+05   0.000    
     292  0.1639E-03  0.9637E-07 NODE          34 -84.8%  0.1086E-09  0.3319      0.5158E-09   2.183       0.000      0.1440E+05   0.000    
     293  0.1640E-03  0.9638E-07 NODE          34 -83.9%  0.1015E-09  0.3506      0.5237E-09   2.182       0.000      0.1440E+05   0.000    
     294  0.1641E-03  0.9638E-07 NODE          34 -83.8%  0.9453E-10  0.3511      0.5313E-09   2.163       0.000      0.1440E+05   0.000    
     295  0.1642E-03  0.9638E-07 NODE          34 -82.9%  0.8762E-10  0.3704      0.5386E-09   2.162       0.000      0.1440E+05   0.000    
     296  0.1643E-03  0.9639E-07 NODE          34 -82.0%  0.8083E-10  0.3899      0.5458E-09   2.161       0.000      0.1440E+05   0.000    
     297  0.1644E-03  0.9639E-07 NODE          34 -81.0%  0.7418E-10  0.4098      0.5527E-09   2.160       0.000      0.1440E+05   0.000    
     298  0.1645E-03  0.9639E-07 NODE          34 -80.1%  0.6769E-10  0.4300      0.5593E-09   2.159       0.000      0.1440E+05   0.000    
     299  0.1646E-03  0.9639E-07 NODE          34 -79.1%  0.6137E-10  0.4505      0.5657E-09   2.157       0.000      0.1440E+05   0.000    
     300  0.1647E-03  0.9640E-07 NODE          34 -78.1%  0.5526E-10  0.4712      0.5718E-09   2.156       0.000      0.1440E+05   0.000    
     301  0.1648E-03  0.9640E-07 NODE          34 -77.2%  0.4936E-10  0.4922      0.5776E-09   2.155       0.000      0.1440E+05   0.000    
     302  0.1649E-03  0.9640E-07 NODE          34 -76.2%  0.4371E-10  0.5135      0.5831E-09   2.154       0.000      0.1440E+05   0.000    
     303  0.1650E-03  0.9641E-07 NODE          34 -75.1%  0.3831E-10  0.5350      0.5883E-09   2.152       0.000      0.1440E+05   0.000    
     304  0.1651E-03  0.9641E-07 NODE          34 -74.1%  0.3319E-10  0.5567      0.5931E-09   2.151       0.000      0.1440E+05   0.000    
     305  0.1651E-03  0.9641E-07 NODE          34 -73.1%  0.2837E-10  0.5785      0.5976E-09   2.150       0.000      0.1440E+05   0.000    
     306  0.1652E-03  0.9642E-07 NODE          34 -72.0%  0.2386E-10  0.6006      0.6018E-09   2.148       0.000      0.1440E+05   0.000    
     307  0.1653E-03  0.9642E-07 NODE          34 -71.0%  0.1969E-10  0.6227      0.6056E-09   2.147       0.000      0.1440E+05   0.000    
     308  0.1654E-03  0.9643E-07 NODE          34 -69.9%  0.1587E-10  0.6449      0.6091E-09   2.145       0.000      0.1440E+05   0.000    
     309  0.1655E-03  0.9643E-07 NODE          34 -68.9%  0.1242E-10  0.6673      0.6122E-09   2.144       0.000      0.1440E+05   0.000    
     310  0.1656E-03  0.9643E-07 NODE          34 -67.8%  0.9362E-11  0.6898      0.6149E-09   2.142       0.000      0.1440E+05   0.000    
     311  0.1657E-03  0.9644E-07 NODE          34 -66.7%  0.6706E-11  0.7124      0.6173E-09   2.141       0.000      0.1440E+05   0.000    
     312  0.1658E-03  0.9644E-07 NODE          34 -65.6%  0.4472E-11  0.7350      0.6192E-09   2.139       0.000      0.1440E+05   0.000    
     313  0.1659E-03  0.9645E-07 NODE          34 -64.6%  0.2674E-11  0.7576      0.6208E-09   2.138       0.000      0.1440E+05   0.000    
     314  0.1660E-03  0.9645E-07 NODE          34 -63.5%  0.1329E-11  0.7803      0.6220E-09   2.136       0.000      0.1440E+05   0.000    
     315  0.1661E-03  0.9645E-07 NODE          34 -62.4%  0.4502E-12  0.8030      0.6227E-09   2.135       0.000      0.1440E+05   0.000    
     316  0.1662E-03  0.9646E-07 NODE          34 -61.3%  0.5169E-13  0.8256      0.6230E-09   2.133       0.000      0.1440E+05   0.000    
     317  0.1663E-03  0.9646E-07 NODE          34 -60.2%  0.1467E-12  0.8483      0.6230E-09   2.131       0.000      0.1440E+05   0.000    
     318  0.1664E-03  0.9647E-07 NODE          34 -59.1%  0.7476E-12  0.8708      0.6225E-09   2.130       0.000      0.1440E+05   0.000    
     319  0.1665E-03  0.9647E-07 NODE          34 -58.0%  0.1866E-11  0.8933      0.6215E-09   2.128       0.000      0.1440E+05   0.000    
     320  0.1666E-03  0.9648E-07 NODE          34 -56.9%  0.3513E-11  0.9157      0.6202E-09   2.126       0.000      0.1440E+05   0.000    
     321  0.1667E-03  0.9648E-07 NODE          34 -55.8%  0.5698E-11  0.9380      0.6184E-09   2.124       0.000      0.1440E+05   0.000    
     322  0.1668E-03  0.9649E-07 NODE          34 -54.8%  0.8431E-11  0.9601      0.6162E-09   2.123       0.000      0.1440E+05   0.000    
     323  0.1669E-03  0.9649E-07 NODE          34 -53.7%  0.1172E-10  0.9821      0.6136E-09   2.121       0.000      0.1440E+05   0.000    
     324  0.1670E-03  0.9649E-07 NODE          34 -52.6%  0.1557E-10   1.004      0.6106E-09   2.119       0.000      0.1440E+05   0.000    
     325  0.1671E-03  0.9650E-07 NODE          34 -51.6%  0.1999E-10   1.026      0.6071E-09   2.117       0.000      0.1440E+05   0.000    
     326  0.1672E-03  0.9650E-07 NODE          34 -50.5%  0.2499E-10   1.047      0.6032E-09   2.115       0.000      0.1440E+05   0.000    
     327  0.1673E-03  0.9651E-07 NODE          34 -49.5%  0.3056E-10   1.068      0.5989E-09   2.113       0.000      0.1440E+05   0.000    
     328  0.1674E-03  0.9651E-07 NODE          34 -48.4%  0.3672E-10   1.089      0.5941E-09   2.112       0.000      0.1440E+05   0.000    
     329  0.1675E-03  0.9652E-07 NODE          34 -47.4%  0.4347E-10   1.110      0.5890E-09   2.110       0.000      0.1440E+05   0.000    
   CYCLE    TIME      TIME-STEP  ELEMENT          ERROR  I-ENERGY    K-ENERGY T  K-ENERGY R  EXT-WORK     MAS.ERR     TOTAL MASS  MASS ADDED
     330  0.1676E-03  0.9652E-07 NODE          34 -46.4%  0.5080E-10   1.131      0.5834E-09   2.108       0.000      0.1440E+05   0.000    
     331  0.1677E-03  0.9653E-07 NODE          34 -45.4%  0.5872E-10   1.151      0.5775E-09   2.106       0.000      0.1440E+05   0.000    
     332  0.1678E-03  0.9653E-07 NODE          34 -44.4%  0.6722E-10   1.171      0.5711E-09   2.104       0.000      0.1440E+05   0.000    
     333  0.1678E-03  0.9654E-07 NODE          34 -43.4%  0.7631E-10   1.190      0.5643E-09   2.102       0.000      0.1440E+05   0.000    
     334  0.1679E-03  0.9655E-07 NODE          34 -42.4%  0.8599E-10   1.209      0.5572E-09   2.100       0.000      0.1440E+05   0.000    
     335  0.1680E-03  0.9655E-07 NODE          34 -41.4%  0.9624E-10   1.228      0.5497E-09   2.098       0.000      0.1440E+05   0.000    
     336  0.1681E-03  0.9656E-07 NODE          34 -40.5%  0.1071E-09   1.247      0.5418E-09   2.096       0.000      0.1440E+05   0.000    
     337  0.1682E-03  0.9656E-07 NODE          34 -39.6%  0.1185E-09   1.265      0.5335E-09   2.094       0.000      0.1440E+05   0.000    
     338  0.1683E-03  0.9657E-07 NODE          34 -38.7%  0.1304E-09   1.283      0.5249E-09   2.092       0.000      0.1440E+05   0.000    
     339  0.1684E-03  0.9657E-07 NODE          34 -37.8%  0.1429E-09   1.300      0.5160E-09   2.090       0.000      0.1440E+05   0.000    
     340  0.1685E-03  0.9658E-07 NODE          34 -36.9%  0.1560E-09   1.317      0.5068E-09   2.088       0.000      0.1440E+05   0.000    
     341  0.1686E-03  0.9658E-07 NODE          34 -36.0%  0.1696E-09   1.334      0.4972E-09   2.086       0.000      0.1440E+05   0.000    
     342  0.1687E-03  0.9659E-07 NODE          34 -35.2%  0.1837E-09   1.350      0.4873E-09   2.083       0.000      0.1440E+05   0.000    
     343  0.1688E-03  0.9659E-07 NODE          34 -34.4%  0.1983E-09   1.365      0.4771E-09   2.081       0.000      0.1440E+05   0.000    
     344  0.1689E-03  0.9660E-07 NODE          34 -33.6%  0.2134E-09   1.381      0.4667E-09   2.079       0.000      0.1440E+05   0.000    
     345  0.1690E-03  0.9661E-07 NODE          34 -32.8%  0.2290E-09   1.395      0.4560E-09   2.077       0.000      0.1440E+05   0.000    
     346  0.1691E-03  0.9661E-07 NODE          34 -32.1%  0.2451E-09   1.410      0.4450E-09   2.075       0.000      0.1440E+05   0.000    
     347  0.1692E-03  0.9662E-07 NODE          34 -31.3%  0.2616E-09   1.423      0.4338E-09   2.073       0.000      0.1440E+05   0.000    
     348  0.1693E-03  0.9662E-07 NODE          34 -30.6%  0.2786E-09   1.436      0.4224E-09   2.071       0.000      0.1440E+05   0.000    
     349  0.1694E-03  0.9663E-07 NODE          34 -29.9%  0.2959E-09   1.449      0.4108E-09   2.068       0.000      0.1440E+05   0.000    
     350  0.1695E-03  0.9663E-07 NODE          34 -29.3%  0.3137E-09   1.461      0.3991E-09   2.066       0.000      0.1440E+05   0.000    
     351  0.1696E-03  0.9664E-07 NODE          34 -28.6%  0.3319E-09   1.473      0.3871E-09   2.064       0.000      0.1440E+05   0.000    
     352  0.1697E-03  0.9665E-07 NODE          34 -28.0%  0.3504E-09   1.484      0.3750E-09   2.062       0.000      0.1440E+05   0.000    
     353  0.1698E-03  0.9665E-07 NODE          34 -27.4%  0.3692E-09   1.494      0.3628E-09   2.060       0.000      0.1440E+05   0.000    
     354  0.1699E-03  0.9666E-07 NODE          34 -26.9%  0.3884E-09   1.504      0.3505E-09   2.057       0.000      0.1440E+05   0.000    
     355  0.1700E-03  0.9666E-07 NODE          34 -26.3%  0.4078E-09   1.514      0.3381E-09   2.055       0.000      0.1440E+05   0.000    
     356  0.1701E-03  0.9667E-07 NODE          34 -25.8%  0.4275E-09   1.522      0.3256E-09   2.053       0.000      0.1440E+05   0.000    
     357  0.1702E-03  0.9668E-07 NODE          34 -25.4%  0.4475E-09   1.531      0.3131E-09   2.051       0.000      0.1440E+05   0.000    
     358  0.1703E-03  0.9668E-07 NODE          34 -24.9%  0.4677E-09   1.538      0.3005E-09   2.048       0.000      0.1440E+05   0.000    
     359  0.1704E-03  0.9669E-07 NODE          34 -24.5%  0.4880E-09   1.545      0.2879E-09   2.046       0.000      0.1440E+05   0.000    
     360  0.1705E-03  0.9669E-07 NODE          34 -24.1%  0.5086E-09   1.552      0.2753E-09   2.044       0.000      0.1440E+05   0.000    
     361  0.1706E-03  0.9670E-07 NODE          34 -23.7%  0.5292E-09   1.557      0.2628E-09   2.042       0.000      0.1440E+05   0.000    
     362  0.1707E-03  0.9671E-07 NODE          34 -23.4%  0.5500E-09   1.562      0.2503E-09   2.039       0.000      0.1440E+05   0.000    
     363  0.1707E-03  0.9671E-07 NODE          34 -23.1%  0.5709E-09   1.567      0.2379E-09   2.037       0.000      0.1440E+05   0.000    
     364  0.1708E-03  0.9672E-07 NODE          34 -22.8%  0.5918E-09   1.571      0.2256E-09   2.035       0.000      0.1440E+05   0.000    
     365  0.1709E-03  0.9672E-07 NODE          34 -22.5%  0.6128E-09   1.574      0.2134E-09   2.032       0.000      0.1440E+05   0.000    
     366  0.1710E-03  0.9673E-07 NODE          34 -22.3%  0.6337E-09   1.577      0.2013E-09   2.030       0.000      0.1440E+05   0.000    
     367  0.1711E-03  0.9674E-07 NODE          34 -22.1%  0.6547E-09   1.579      0.1894E-09   2.028       0.000      0.1440E+05   0.000    
     368  0.1712E-03  0.9674E-07 NODE          34 -22.0%  0.6755E-09   1.581      0.1777E-09   2.026       0.000      0.1440E+05   0.000    
     369  0.1713E-03  0.9675E-07 NODE          34 -21.8%  0.6963E-09   1.581      0.1662E-09   2.023       0.000      0.1440E+05   0.000    
     370  0.1714E-03  0.9675E-07 NODE          34 -21.7%  0.7170E-09   1.582      0.1549E-09   2.021       0.000      0.1440E+05   0.000    
     371  0.1715E-03  0.9676E-07 NODE          34 -21.7%  0.7375E-09   1.581      0.1438E-09   2.019       0.000      0.1440E+05   0.000    
     372  0.1716E-03  0.9677E-07 NODE          34 -21.6%  0.7579E-09   1.580      0.1330E-09   2.016       0.000      0.1440E+05   0.000    
     373  0.1717E-03  0.9677E-07 NODE          34 -21.6%  0.7781E-09   1.579      0.1225E-09   2.014       0.000      0.1440E+05   0.000    
     374  0.1718E-03  0.9678E-07 NODE          34 -21.6%  0.7981E-09   1.576      0.1123E-09   2.012       0.000      0.1440E+05   0.000    
     375  0.1719E-03  0.9678E-07 NODE          34 -21.7%  0.8179E-09   1.573      0.1024E-09   2.009       0.000      0.1440E+05   0.000    
     376  0.1720E-03  0.9679E-07 NODE          34 -21.8%  0.8375E-09   1.570      0.9285E-10   2.007       0.000      0.1440E+05   0.000    
     377  0.1721E-03  0.9680E-07 NODE          34 -21.9%  0.8568E-09   1.566      0.8367E-10   2.005       0.000      0.1440E+05   0.000    
     378  0.1722E-03  0.9680E-07 NODE          34 -22.0%  0.8758E-09   1.561      0.7487E-10   2.003       0.000      0.1440E+05   0.000    
     379  0.1723E-03  0.1065E-06 SHELL         31 -22.1%  0.8943E-09   1.558      0.6647E-10   2.000       0.000      0.1440E+05   0.000    
     380  0.1724E-03  0.1171E-06 SHELL         31 -22.1%  0.9141E-09   1.555      0.5772E-10   1.997       0.000      0.1440E+05   0.000    
     381  0.1725E-03  0.1288E-06 SHELL         31 -22.2%  0.9351E-09   1.552      0.4871E-10   1.994       0.000      0.1440E+05   0.000    
     382  0.1726E-03  0.1417E-06 SHELL         31 -22.2%  0.9572E-09   1.549      0.3959E-10   1.991       0.000      0.1440E+05   0.000    
     383  0.1728E-03  0.1559E-06 SHELL         31 -22.2%  0.9801E-09   1.546      0.3054E-10   1.987       0.000      0.1440E+05   0.000    
     384  0.1729E-03  0.1715E-06 SHELL         31 -22.2%  0.1004E-08   1.542      0.2185E-10   1.983       0.000      0.1440E+05   0.000    
   CYCLE    TIME      TIME-STEP  ELEMENT          ERROR  I-ENERGY    K-ENERGY T  K-ENERGY R  EXT-WORK     MAS.ERR     TOTAL MASS  MASS ADDED
     385  0.1731E-03  0.1886E-06 SHELL         31 -22.3%  0.1027E-08   1.538      0.1389E-10   1.979       0.000      0.1440E+05   0.000    
     386  0.1733E-03  0.2075E-06 SHELL         31 -22.3%  0.1051E-08   1.534      0.7138E-11   1.974       0.000      0.1440E+05   0.000    
     387  0.1735E-03  0.2283E-06 SHELL         31 -22.3%  0.1073E-08   1.529      0.2245E-11   1.969       0.000      0.1440E+05   0.000    
     388  0.1737E-03  0.2511E-06 SHELL         31 -22.4%  0.1093E-08   1.524      0.3812E-13   1.963       0.000      0.1440E+05   0.000    
     389  0.1740E-03  0.2762E-06 SHELL         31 -22.4%  0.1109E-08   1.518      0.1563E-11   1.957       0.000      0.1440E+05   0.000    
     390  0.1743E-03  0.3038E-06 SHELL         31 -22.5%  0.1120E-08   1.512      0.8124E-11   1.950       0.000      0.1440E+05   0.000    
     391  0.1746E-03  0.3342E-06 SHELL         31 -22.5%  0.1124E-08   1.504      0.2131E-10   1.942       0.000      0.1440E+05   0.000    
     392  0.1749E-03  0.3676E-06 SHELL         31 -22.6%  0.1118E-08   1.497      0.4300E-10   1.933       0.000      0.1440E+05   0.000    
     393  0.1753E-03  0.4044E-06 SHELL         31 -22.6%  0.1098E-08   1.488      0.7534E-10   1.924       0.000      0.1440E+05   0.000    
     394  0.1757E-03  0.4448E-06 SHELL         31 -22.7%  0.1062E-08   1.479      0.1207E-09   1.914       0.000      0.1440E+05   0.000    
     395  0.1761E-03  0.4893E-06 SHELL         31 -22.8%  0.1006E-08   1.469      0.1814E-09   1.903       0.000      0.1440E+05   0.000    
     396  0.1766E-03  0.5382E-06 SHELL         31 -22.9%  0.9268E-09   1.458      0.2594E-09   1.890       0.000      0.1440E+05   0.000    
     397  0.1772E-03  0.5920E-06 SHELL         31 -23.0%  0.8223E-09   1.446      0.3559E-09   1.877       0.000      0.1440E+05   0.000    
     398  0.1777E-03  0.6512E-06 SHELL         31 -23.1%  0.6924E-09   1.432      0.4704E-09   1.862       0.000      0.1440E+05   0.000    
     399  0.1784E-03  0.7164E-06 SHELL         31 -23.2%  0.5405E-09   1.418      0.5997E-09   1.846       0.000      0.1440E+05   0.000    
     400  0.1791E-03  0.7880E-06 SHELL         31 -23.4%  0.3758E-09   1.402      0.7365E-09   1.829       0.000      0.1440E+05   0.000    
     401  0.1799E-03  0.8668E-06 SHELL         31 -23.5%  0.2141E-09   1.384      0.8681E-09   1.809       0.000      0.1440E+05   0.000    
     402  0.1808E-03  0.9535E-06 SHELL         31 -23.7%  0.8012E-10   1.365      0.9757E-09   1.788       0.000      0.1440E+05   0.000    
     403  0.1817E-03  0.9759E-06 SHELL         31 -23.9%  0.5671E-11   1.344      0.1035E-08   1.767       0.000      0.1440E+05   0.000    
     404  0.1827E-03  0.9759E-06 SHELL         31 -24.2%  0.2032E-10   1.323      0.1023E-08   1.746       0.000      0.1440E+05   0.000    
     405  0.1837E-03  0.9759E-06 SHELL         31 -24.5%  0.1244E-09   1.302      0.9404E-09   1.725       0.000      0.1440E+05   0.000    
     406  0.1846E-03  0.9759E-06 SHELL         31 -24.8%  0.3009E-09   1.281      0.7983E-09   1.704       0.000      0.1440E+05   0.000    
     407  0.1856E-03  0.9759E-06 SHELL         31 -25.1%  0.5208E-09   1.261      0.6177E-09   1.684       0.000      0.1440E+05   0.000    
     408  0.1866E-03  0.9759E-06 SHELL         31 -25.4%  0.7479E-09   1.240      0.4246E-09   1.663       0.000      0.1440E+05   0.000    
     409  0.1876E-03  0.9759E-06 SHELL         31 -25.7%  0.9451E-09   1.220      0.2461E-09   1.643       0.000      0.1440E+05   0.000    
     410  0.1885E-03  0.9759E-06 SHELL         31 -26.1%  0.1080E-08   1.200      0.1062E-09   1.623       0.000      0.1440E+05   0.000    
     411  0.1895E-03  0.9759E-06 SHELL         31 -26.4%  0.1130E-08   1.180      0.2188E-10   1.603       0.000      0.1440E+05   0.000    
     412  0.1905E-03  0.9759E-06 SHELL         31 -26.7%  0.1087E-08   1.160      0.9215E-12   1.583       0.000      0.1440E+05   0.000    
     413  0.1915E-03  0.9759E-06 SHELL         31 -27.0%  0.9590E-09   1.141      0.4061E-10   1.564       0.000      0.1440E+05   0.000    
     414  0.1925E-03  0.9759E-06 SHELL         31 -27.4%  0.7659E-09   1.121      0.1285E-09   1.544       0.000      0.1440E+05   0.000    
     415  0.1934E-03  0.9759E-06 SHELL         31 -27.7%  0.5399E-09   1.102      0.2448E-09   1.525       0.000      0.1440E+05   0.000    
     416  0.1944E-03  0.9759E-06 SHELL         31 -28.1%  0.3180E-09   1.083      0.3657E-09   1.506       0.000      0.1440E+05   0.000    
     417  0.1954E-03  0.9759E-06 SHELL         31 -28.4%  0.1367E-09   1.064      0.4674E-09   1.487       0.000      0.1440E+05   0.000    
     418  0.1964E-03  0.9759E-06 SHELL         31 -28.8%  0.2578E-10   1.045      0.5307E-09   1.468       0.000      0.1440E+05   0.000    
     419  0.1973E-03  0.9759E-06 SHELL         31 -29.2%  0.3448E-11   1.027      0.5435E-09   1.450       0.000      0.1440E+05   0.000    
     420  0.1983E-03  0.9759E-06 SHELL         31 -29.5%  0.7338E-10   1.009      0.5035E-09   1.432       0.000      0.1440E+05   0.000    
     421  0.1993E-03  0.9759E-06 SHELL         31 -29.9%  0.2241E-09  0.9904      0.4181E-09   1.413       0.000      0.1440E+05   0.000    
     422  0.2003E-03  0.9759E-06 SHELL         31 -30.3%  0.4308E-09  0.9725      0.3036E-09   1.395       0.000      0.1440E+05   0.000    
     ANIMATION FILE: FRICT41A003 WRITTEN
     423  0.2012E-03  0.9759E-06 SHELL         31 -30.7%  0.6596E-09  0.9547      0.1821E-09   1.378       0.000      0.1440E+05   0.000    
     424  0.2022E-03  0.9759E-06 SHELL         31 -31.1%  0.8729E-09  0.9370      0.7778E-10   1.360       0.000      0.1440E+05   0.000    
     425  0.2032E-03  0.9759E-06 SHELL         31 -31.5%  0.1036E-08  0.9196      0.1292E-10   1.343       0.000      0.1440E+05   0.000    
     426  0.2042E-03  0.9759E-06 SHELL         31 -31.9%  0.1121E-08  0.9023      0.3858E-11   1.325       0.000      0.1440E+05   0.000    
     427  0.2051E-03  0.9759E-06 SHELL         31 -32.3%  0.1115E-08  0.8852      0.5815E-10   1.308       0.000      0.1440E+05   0.000    
     428  0.2061E-03  0.9759E-06 SHELL         31 -32.8%  0.1019E-08  0.8683      0.1731E-09   1.291       0.000      0.1440E+05   0.000    
     429  0.2071E-03  0.9759E-06 SHELL         31 -33.2%  0.8484E-09  0.8516      0.3357E-09   1.274       0.000      0.1440E+05   0.000    
     430  0.2081E-03  0.9759E-06 SHELL         31 -33.6%  0.6312E-09  0.8350      0.5251E-09   1.258       0.000      0.1440E+05   0.000    
     431  0.2090E-03  0.9759E-06 SHELL         31 -34.1%  0.4031E-09  0.8186      0.7150E-09   1.242       0.000      0.1440E+05   0.000    
     432  0.2100E-03  0.9759E-06 SHELL         31 -34.5%  0.2017E-09  0.8024      0.8786E-09   1.225       0.000      0.1440E+05   0.000    
     433  0.2110E-03  0.9759E-06 SHELL         31 -35.0%  0.5997E-10  0.7864      0.9920E-09   1.209       0.000      0.1440E+05   0.000    
     434  0.2120E-03  0.9759E-06 SHELL         31 -35.4%  0.1234E-11  0.7706      0.1039E-08   1.193       0.000      0.1440E+05   0.000    
     435  0.2129E-03  0.9759E-06 SHELL         31 -35.9%  0.3514E-10  0.7549      0.1012E-08   1.178       0.000      0.1440E+05   0.000    
     436  0.2139E-03  0.9759E-06 SHELL         31 -36.4%  0.1561E-09  0.7394      0.9152E-09   1.162       0.000      0.1440E+05   0.000    
     437  0.2149E-03  0.9759E-06 SHELL         31 -36.9%  0.3443E-09  0.7241      0.7632E-09   1.147       0.000      0.1440E+05   0.000    
     438  0.2159E-03  0.9759E-06 SHELL         31 -37.4%  0.5688E-09  0.7090      0.5778E-09   1.132       0.000      0.1440E+05   0.000    
     439  0.2169E-03  0.9759E-06 SHELL         31 -37.9%  0.7927E-09  0.6940      0.3856E-09   1.117       0.000      0.1440E+05   0.000    
   CYCLE    TIME      TIME-STEP  ELEMENT          ERROR  I-ENERGY    K-ENERGY T  K-ENERGY R  EXT-WORK     MAS.ERR     TOTAL MASS  MASS ADDED
     440  0.2178E-03  0.9759E-06 SHELL         31 -38.4%  0.9792E-09  0.6793      0.2133E-09   1.102       0.000      0.1440E+05   0.000    
     441  0.2188E-03  0.9759E-06 SHELL         31 -38.9%  0.1098E-08  0.6647      0.8374E-10   1.088       0.000      0.1440E+05   0.000    
     442  0.2198E-03  0.9759E-06 SHELL         31 -39.4%  0.1129E-08  0.6502      0.1227E-10   1.073       0.000      0.1440E+05   0.000    
     443  0.2208E-03  0.9759E-06 SHELL         31 -39.9%  0.1067E-08  0.6360      0.4441E-11   1.059       0.000      0.1440E+05   0.000    
     444  0.2217E-03  0.9759E-06 SHELL         31 -40.5%  0.9236E-09  0.6220      0.5543E-10   1.045       0.000      0.1440E+05   0.000    
     445  0.2227E-03  0.9759E-06 SHELL         31 -41.0%  0.7208E-09  0.6081      0.1510E-09   1.031       0.000      0.1440E+05   0.000    
     446  0.2237E-03  0.9759E-06 SHELL         31 -41.6%  0.4925E-09  0.5944      0.2703E-09   1.017       0.000      0.1440E+05   0.000    
     447  0.2247E-03  0.9759E-06 SHELL         31 -42.1%  0.2762E-09  0.5809      0.3890E-09   1.004       0.000      0.1440E+05   0.000    
     448  0.2256E-03  0.9759E-06 SHELL         31 -42.7%  0.1074E-09  0.5675      0.4842E-09  0.9904       0.000      0.1440E+05   0.000    
     449  0.2266E-03  0.9759E-06 SHELL         31 -43.3%  0.1375E-10  0.5544      0.5377E-09  0.9773       0.000      0.1440E+05   0.000    
     450  0.2276E-03  0.9759E-06 SHELL         31 -43.9%  0.1074E-10  0.5414      0.5395E-09  0.9643       0.000      0.1440E+05   0.000    
     451  0.2286E-03  0.9759E-06 SHELL         31 -44.4%  0.9882E-10  0.5286      0.4891E-09  0.9515       0.000      0.1440E+05   0.000    
     452  0.2295E-03  0.9759E-06 SHELL         31 -45.0%  0.2635E-09  0.5160      0.3961E-09  0.9389       0.000      0.1440E+05   0.000    
     453  0.2305E-03  0.9759E-06 SHELL         31 -45.6%  0.4778E-09  0.5035      0.2782E-09  0.9265       0.000      0.1440E+05   0.000    
     454  0.2315E-03  0.9759E-06 SHELL         31 -46.3%  0.7065E-09  0.4913      0.1583E-09  0.9142       0.000      0.1440E+05   0.000    
     455  0.2325E-03  0.9759E-06 SHELL         31 -46.9%  0.9120E-09  0.4792      0.6046E-10  0.9021       0.000      0.1440E+05   0.000    
     456  0.2334E-03  0.9759E-06 SHELL         31 -47.5%  0.1061E-08  0.4673      0.6069E-11  0.8902       0.000      0.1440E+05   0.000    
     457  0.2344E-03  0.9759E-06 SHELL         31 -48.1%  0.1128E-08  0.4556      0.9831E-11  0.8785       0.000      0.1440E+05   0.000    
     458  0.2354E-03  0.9759E-06 SHELL         31 -48.8%  0.1103E-08  0.4441      0.7724E-10  0.8670       0.000      0.1440E+05   0.000    
     459  0.2364E-03  0.9759E-06 SHELL         31 -49.4%  0.9894E-09  0.4327      0.2034E-09  0.8556       0.000      0.1440E+05   0.000    
     460  0.2373E-03  0.9759E-06 SHELL         31 -50.1%  0.8064E-09  0.4216      0.3735E-09  0.8445       0.000      0.1440E+05   0.000    
     461  0.2383E-03  0.9759E-06 SHELL         31 -50.7%  0.5839E-09  0.4106      0.5653E-09  0.8335       0.000      0.1440E+05   0.000    
     462  0.2393E-03  0.9759E-06 SHELL         31 -51.4%  0.3583E-09  0.3998      0.7519E-09  0.8227       0.000      0.1440E+05   0.000    
     463  0.2403E-03  0.9759E-06 SHELL         31 -52.1%  0.1667E-09  0.3892      0.9068E-09  0.8121       0.000      0.1440E+05   0.000    
     464  0.2412E-03  0.9759E-06 SHELL         31 -52.8%  0.4069E-10  0.3787      0.1007E-08  0.8016       0.000      0.1440E+05   0.000    
     465  0.2422E-03  0.9759E-06 SHELL         31 -53.4%  0.8301E-12  0.3685      0.1039E-08  0.7914       0.000      0.1440E+05   0.000    
     466  0.2432E-03  0.9759E-06 SHELL         31 -54.1%  0.5371E-10  0.3584      0.9972E-09  0.7813       0.000      0.1440E+05   0.000    
     467  0.2442E-03  0.9759E-06 SHELL         31 -54.8%  0.1906E-09  0.3485      0.8877E-09  0.7714       0.000      0.1440E+05   0.000    
     468  0.2452E-03  0.9759E-06 SHELL         31 -55.5%  0.3891E-09  0.3388      0.7267E-09  0.7617       0.000      0.1440E+05   0.000    
     469  0.2461E-03  0.9759E-06 SHELL         31 -56.2%  0.6166E-09  0.3293      0.5377E-09  0.7522       0.000      0.1440E+05   0.000    
     470  0.2471E-03  0.9759E-06 SHELL         31 -56.9%  0.8357E-09  0.3199      0.3475E-09  0.7428       0.000      0.1440E+05   0.000    
     471  0.2481E-03  0.9759E-06 SHELL         31 -57.6%  0.1010E-08  0.3107      0.1823E-09  0.7337       0.000      0.1440E+05   0.000    
     472  0.2491E-03  0.9759E-06 SHELL         31 -58.4%  0.1112E-08  0.3018      0.6386E-10  0.7247       0.000      0.1440E+05   0.000    
     473  0.2500E-03  0.9759E-06 SHELL         31 -59.1%  0.1124E-08  0.2930      0.5434E-11  0.7159       0.000      0.1440E+05   0.000    
     474  0.2510E-03  0.9759E-06 SHELL         31 -59.8%  0.1044E-08  0.2844      0.1050E-10  0.7073       0.000      0.1440E+05   0.000    
     475  0.2520E-03  0.9759E-06 SHELL         31 -60.5%  0.8857E-09  0.2759      0.7215E-10  0.6988       0.000      0.1440E+05   0.000    
     476  0.2530E-03  0.9759E-06 SHELL         31 -61.2%  0.6747E-09  0.2677      0.1745E-09  0.6906       0.000      0.1440E+05   0.000    
     477  0.2539E-03  0.9759E-06 SHELL         31 -62.0%  0.4458E-09  0.2596      0.2957E-09  0.6825       0.000      0.1440E+05   0.000    
     478  0.2549E-03  0.9759E-06 SHELL         31 -62.7%  0.2366E-09  0.2518      0.4113E-09  0.6747       0.000      0.1440E+05   0.000    
     479  0.2559E-03  0.9759E-06 SHELL         31 -63.4%  0.8136E-10  0.2441      0.4992E-09  0.6670       0.000      0.1440E+05   0.000    
     480  0.2569E-03  0.9759E-06 SHELL         31 -64.1%  0.5682E-11  0.2366      0.5425E-09  0.6595       0.000      0.1440E+05   0.000    
     481  0.2578E-03  0.9759E-06 SHELL         31 -64.8%  0.2197E-10  0.2292      0.5331E-09  0.6521       0.000      0.1440E+05   0.000    
     482  0.2588E-03  0.9759E-06 SHELL         31 -65.6%  0.1275E-09  0.2221      0.4729E-09  0.6450       0.000      0.1440E+05   0.000    
     483  0.2598E-03  0.9759E-06 SHELL         31 -66.3%  0.3051E-09  0.2151      0.3731E-09  0.6381       0.000      0.1440E+05   0.000    
     484  0.2608E-03  0.9759E-06 SHELL         31 -67.0%  0.5254E-09  0.2084      0.2528E-09  0.6313       0.000      0.1440E+05   0.000    
     485  0.2617E-03  0.9759E-06 SHELL         31 -67.7%  0.7523E-09  0.2018      0.1355E-09  0.6247       0.000      0.1440E+05   0.000    
     486  0.2627E-03  0.9759E-06 SHELL         31 -68.4%  0.9486E-09  0.1954      0.4506E-10  0.6183       0.000      0.1440E+05   0.000    
     487  0.2637E-03  0.9759E-06 SHELL         31 -69.1%  0.1082E-08  0.1892      0.1749E-11  0.6121       0.000      0.1440E+05   0.000    
     488  0.2647E-03  0.9759E-06 SHELL         31 -69.8%  0.1131E-08  0.1832      0.1855E-10  0.6061       0.000      0.1440E+05   0.000    
     489  0.2656E-03  0.9759E-06 SHELL         31 -70.5%  0.1086E-08  0.1773      0.9884E-10  0.6002       0.000      0.1440E+05   0.000    
     490  0.2666E-03  0.9759E-06 SHELL         31 -71.1%  0.9567E-09  0.1717      0.2356E-09  0.5946       0.000      0.1440E+05   0.000    
     491  0.2676E-03  0.9759E-06 SHELL         31 -71.8%  0.7628E-09  0.1662      0.4122E-09  0.5891       0.000      0.1440E+05   0.000    
     492  0.2686E-03  0.9759E-06 SHELL         31 -72.4%  0.5365E-09  0.1609      0.6051E-09  0.5838       0.000      0.1440E+05   0.000    
     493  0.2695E-03  0.9759E-06 SHELL         31 -73.1%  0.3150E-09  0.1558      0.7873E-09  0.5787       0.000      0.1440E+05   0.000    
     494  0.2705E-03  0.9759E-06 SHELL         31 -73.7%  0.1347E-09  0.1509      0.9327E-09  0.5738       0.000      0.1440E+05   0.000    
   CYCLE    TIME      TIME-STEP  ELEMENT          ERROR  I-ENERGY    K-ENERGY T  K-ENERGY R  EXT-WORK     MAS.ERR     TOTAL MASS  MASS ADDED
     495  0.2715E-03  0.9759E-06 SHELL         31 -74.3%  0.2518E-10  0.1462      0.1020E-08  0.5691       0.000      0.1440E+05   0.000    
     496  0.2725E-03  0.9759E-06 SHELL         31 -74.9%  0.4439E-11  0.1417      0.1036E-08  0.5646       0.000      0.1440E+05   0.000    
     497  0.2735E-03  0.9759E-06 SHELL         31 -75.5%  0.7588E-10  0.1373      0.9797E-09  0.5602       0.000      0.1440E+05   0.000    
     498  0.2744E-03  0.9759E-06 SHELL         31 -76.1%  0.2278E-09  0.1331      0.8580E-09  0.5561       0.000      0.1440E+05   0.000    
     499  0.2754E-03  0.9759E-06 SHELL         31 -76.6%  0.4352E-09  0.1292      0.6891E-09  0.5521       0.000      0.1440E+05   0.000    
     500  0.2764E-03  0.9759E-06 SHELL         31 -77.1%  0.6640E-09  0.1254      0.4976E-09  0.5483       0.000      0.1440E+05   0.000    
     501  0.2774E-03  0.9759E-06 SHELL         31 -77.6%  0.8767E-09  0.1218      0.3105E-09  0.5447       0.000      0.1440E+05   0.000    
     502  0.2783E-03  0.9759E-06 SHELL         31 -78.1%  0.1038E-08  0.1184      0.1535E-09  0.5413       0.000      0.1440E+05   0.000    
     503  0.2793E-03  0.9759E-06 SHELL         31 -78.6%  0.1122E-08  0.1152      0.4661E-10  0.5381       0.000      0.1440E+05   0.000    
     504  0.2803E-03  0.9759E-06 SHELL         31 -79.0%  0.1115E-08  0.1121      0.1360E-11  0.5350       0.000      0.1440E+05   0.000    
     505  0.2813E-03  0.9759E-06 SHELL         31 -79.5%  0.1017E-08  0.1093      0.1900E-10  0.5322       0.000      0.1440E+05   0.000    
     506  0.2822E-03  0.9759E-06 SHELL         31 -79.9%  0.8456E-09  0.1066      0.9060E-10  0.5295       0.000      0.1440E+05   0.000    
     507  0.2832E-03  0.9759E-06 SHELL         31 -80.2%  0.6279E-09  0.1042      0.1988E-09  0.5271       0.000      0.1440E+05   0.000    
     508  0.2842E-03  0.9759E-06 SHELL         31 -80.6%  0.4000E-09  0.1019      0.3208E-09  0.5248       0.000      0.1440E+05   0.000    
     509  0.2852E-03  0.9759E-06 SHELL         31 -80.9%  0.1993E-09  0.9980E-01  0.4324E-09  0.5227       0.000      0.1440E+05   0.000    
     510  0.2861E-03  0.9759E-06 SHELL         31 -81.2%  0.5883E-10  0.9790E-01  0.5122E-09  0.5208       0.000      0.1440E+05   0.000    
     511  0.2871E-03  0.9759E-06 SHELL         31 -81.5%  0.1597E-11  0.9619E-01  0.5450E-09  0.5191       0.000      0.1440E+05   0.000    
     512  0.2881E-03  0.9759E-06 SHELL         31 -81.7%  0.3702E-10  0.9467E-01  0.5246E-09  0.5176       0.000      0.1440E+05   0.000    
     513  0.2891E-03  0.9759E-06 SHELL         31 -81.9%  0.1593E-09  0.9334E-01  0.4550E-09  0.5163       0.000      0.1440E+05   0.000    
     514  0.2900E-03  0.9759E-06 SHELL         31 -82.1%  0.3483E-09  0.9220E-01  0.3492E-09  0.5151       0.000      0.1440E+05   0.000    
     515  0.2910E-03  0.9759E-06 SHELL         31 -82.3%  0.5731E-09  0.9125E-01  0.2276E-09  0.5142       0.000      0.1440E+05   0.000    
     516  0.2920E-03  0.9759E-06 SHELL         31 -82.4%  0.7967E-09  0.9050E-01  0.1139E-09  0.5134       0.000      0.1440E+05   0.000    
     517  0.2930E-03  0.9759E-06 SHELL         31 -82.5%  0.9823E-09  0.8993E-01  0.3172E-10  0.5128       0.000      0.1440E+05   0.000    
     518  0.2939E-03  0.9758E-06 SHELL         31 -82.5%  0.1100E-08  0.8955E-01  0.3012E-13  0.5125       0.000      0.1440E+05   0.000    
     519  0.2949E-03  0.9758E-06 SHELL         31 -82.6%  0.1129E-08  0.8937E-01  0.2999E-10  0.5123       0.000      0.1440E+05   0.000    
     520  0.2959E-03  0.9758E-06 SHELL         31 -82.6%  0.1066E-08  0.8938E-01  0.1228E-09  0.5123       0.000      0.1440E+05   0.000    
     521  0.2969E-03  0.9758E-06 SHELL         31 -82.5%  0.9212E-09  0.8957E-01  0.2694E-09  0.5125       0.000      0.1440E+05   0.000    
     522  0.2978E-03  0.9758E-06 SHELL         31 -82.5%  0.7178E-09  0.8996E-01  0.4515E-09  0.5129       0.000      0.1440E+05   0.000    
     523  0.2988E-03  0.9758E-06 SHELL         31 -82.4%  0.4894E-09  0.9055E-01  0.6445E-09  0.5135       0.000      0.1440E+05   0.000    
     524  0.2998E-03  0.9758E-06 SHELL         31 -82.2%  0.2736E-09  0.9132E-01  0.8211E-09  0.5142       0.000      0.1440E+05   0.000    
     525  0.3008E-03  0.9758E-06 SHELL         31 -82.1%  0.1058E-09  0.9229E-01  0.9560E-09  0.5152       0.000      0.1440E+05   0.000    
     ANIMATION FILE: FRICT41A004 WRITTEN
     526  0.3018E-03  0.9758E-06 SHELL         31 -81.9%  0.1353E-10  0.9344E-01  0.1029E-08  0.5164       0.000      0.1440E+05   0.000    
     527  0.3027E-03  0.9758E-06 SHELL         31 -81.7%  0.1201E-10  0.9480E-01  0.1031E-08  0.5177       0.000      0.1440E+05   0.000    
     528  0.3037E-03  0.9758E-06 SHELL         31 -81.4%  0.1015E-09  0.9634E-01  0.9594E-09  0.5193       0.000      0.1440E+05   0.000    
     529  0.3047E-03  0.9758E-06 SHELL         31 -81.2%  0.2672E-09  0.9808E-01  0.8263E-09  0.5210       0.000      0.1440E+05   0.000    
     530  0.3057E-03  0.9758E-06 SHELL         31 -80.9%  0.4820E-09  0.1000      0.6506E-09  0.5229       0.000      0.1440E+05   0.000    
     531  0.3066E-03  0.9758E-06 SHELL         31 -80.5%  0.7106E-09  0.1021      0.4578E-09  0.5250       0.000      0.1440E+05   0.000    
     532  0.3076E-03  0.9758E-06 SHELL         31 -80.2%  0.9154E-09  0.1045      0.2749E-09  0.5274       0.000      0.1440E+05   0.000    
     533  0.3086E-03  0.9758E-06 SHELL         31 -79.8%  0.1063E-08  0.1070      0.1268E-09  0.5299       0.000      0.1440E+05   0.000    
     534  0.3096E-03  0.9758E-06 SHELL         31 -79.4%  0.1129E-08  0.1097      0.3205E-10  0.5326       0.000      0.1440E+05   0.000    
     535  0.3105E-03  0.9758E-06 SHELL         31 -79.0%  0.1102E-08  0.1126      0.8720E-16  0.5355       0.000      0.1440E+05   0.000    
     536  0.3115E-03  0.9758E-06 SHELL         31 -78.5%  0.9875E-09  0.1157      0.2980E-10  0.5386       0.000      0.1440E+05   0.000    
     537  0.3125E-03  0.9758E-06 SHELL         31 -78.0%  0.8037E-09  0.1190      0.1106E-09  0.5419       0.000      0.1440E+05   0.000    
     538  0.3135E-03  0.9758E-06 SHELL         31 -77.5%  0.5808E-09  0.1224      0.2236E-09  0.5454       0.000      0.1440E+05   0.000    
     539  0.3144E-03  0.9758E-06 SHELL         31 -77.0%  0.3555E-09  0.1261      0.3454E-09  0.5490       0.000      0.1440E+05   0.000    
     540  0.3154E-03  0.9758E-06 SHELL         31 -76.5%  0.1648E-09  0.1300      0.4520E-09  0.5529       0.000      0.1440E+05   0.000    
     541  0.3164E-03  0.9758E-06 SHELL         31 -75.9%  0.3994E-10  0.1341      0.5231E-09  0.5570       0.000      0.1440E+05   0.000    
     542  0.3174E-03  0.9758E-06 SHELL         31 -75.4%  0.1506E-11  0.1383      0.5451E-09  0.5612       0.000      0.1440E+05   0.000    
     543  0.3183E-03  0.9758E-06 SHELL         31 -74.8%  0.5579E-10  0.1428      0.5140E-09  0.5657       0.000      0.1440E+05   0.000    
     544  0.3193E-03  0.9758E-06 SHELL         31 -74.1%  0.1939E-09  0.1475      0.4356E-09  0.5704       0.000      0.1440E+05   0.000    
     545  0.3203E-03  0.9758E-06 SHELL         31 -73.5%  0.3931E-09  0.1523      0.3247E-09  0.5752       0.000      0.1440E+05   0.000    
     546  0.3213E-03  0.9758E-06 SHELL         31 -72.9%  0.6207E-09  0.1574      0.2027E-09  0.5803       0.000      0.1440E+05   0.000    
     547  0.3222E-03  0.9758E-06 SHELL         31 -72.2%  0.8393E-09  0.1626      0.9368E-10  0.5855       0.000      0.1440E+05   0.000    
     548  0.3232E-03  0.9758E-06 SHELL         31 -71.6%  0.1013E-08  0.1681      0.2057E-10  0.5910       0.000      0.1440E+05   0.000    
     549  0.3242E-03  0.9758E-06 SHELL         31 -70.9%  0.1113E-08  0.1737      0.9628E-12  0.5966       0.000      0.1440E+05   0.000    
   CYCLE    TIME      TIME-STEP  ELEMENT          ERROR  I-ENERGY    K-ENERGY T  K-ENERGY R  EXT-WORK     MAS.ERR     TOTAL MASS  MASS ADDED
     550  0.3252E-03  0.9758E-06 SHELL         31 -70.2%  0.1124E-08  0.1796      0.4411E-10  0.6025       0.000      0.1440E+05   0.000    
     551  0.3261E-03  0.9758E-06 SHELL         31 -69.5%  0.1043E-08  0.1856      0.1491E-09  0.6085       0.000      0.1440E+05   0.000    
     552  0.3271E-03  0.9758E-06 SHELL         31 -68.8%  0.8834E-09  0.1918      0.3047E-09  0.6147       0.000      0.1440E+05   0.000    
     553  0.3281E-03  0.9758E-06 SHELL         31 -68.1%  0.6718E-09  0.1983      0.4912E-09  0.6212       0.000      0.1440E+05   0.000    
     554  0.3291E-03  0.9758E-06 SHELL         31 -67.4%  0.4430E-09  0.2049      0.6830E-09  0.6278       0.000      0.1440E+05   0.000    
     555  0.3301E-03  0.9758E-06 SHELL         31 -66.6%  0.2343E-09  0.2117      0.8530E-09  0.6346       0.000      0.1440E+05   0.000    
     556  0.3310E-03  0.9758E-06 SHELL         31 -65.9%  0.8014E-10  0.2188      0.9766E-09  0.6417       0.000      0.1440E+05   0.000    
     557  0.3320E-03  0.9758E-06 SHELL         31 -65.2%  0.5795E-11  0.2260      0.1036E-08  0.6489       0.000      0.1440E+05   0.000    
     558  0.3330E-03  0.9758E-06 SHELL         31 -64.4%  0.2348E-10  0.2334      0.1022E-08  0.6563       0.000      0.1440E+05   0.000    
     559  0.3340E-03  0.9758E-06 SHELL         31 -63.7%  0.1303E-09  0.2411      0.9366E-09  0.6640       0.000      0.1440E+05   0.000    
     560  0.3349E-03  0.9758E-06 SHELL         31 -63.0%  0.3087E-09  0.2489      0.7929E-09  0.6718       0.000      0.1440E+05   0.000    
     561  0.3359E-03  0.9758E-06 SHELL         31 -62.2%  0.5293E-09  0.2569      0.6115E-09  0.6798       0.000      0.1440E+05   0.000    
     562  0.3369E-03  0.9758E-06 SHELL         31 -61.5%  0.7561E-09  0.2651      0.4185E-09  0.6881       0.000      0.1440E+05   0.000    
     563  0.3379E-03  0.9758E-06 SHELL         31 -60.7%  0.9516E-09  0.2736      0.2409E-09  0.6965       0.000      0.1440E+05   0.000    
     564  0.3388E-03  0.9758E-06 SHELL         31 -60.0%  0.1084E-08  0.2822      0.1025E-09  0.7051       0.000      0.1440E+05   0.000    
     565  0.3398E-03  0.9758E-06 SHELL         31 -59.2%  0.1131E-08  0.2910      0.2021E-10  0.7140       0.000      0.1440E+05   0.000    
     566  0.3408E-03  0.9758E-06 SHELL         31 -58.5%  0.1086E-08  0.3001      0.1294E-11  0.7230       0.000      0.1440E+05   0.000    
     567  0.3418E-03  0.9758E-06 SHELL         31 -57.8%  0.9548E-09  0.3093      0.4276E-10  0.7322       0.000      0.1440E+05   0.000    
     568  0.3427E-03  0.9758E-06 SHELL         31 -57.0%  0.7601E-09  0.3187      0.1319E-09  0.7417       0.000      0.1440E+05   0.000    
     569  0.3437E-03  0.9758E-06 SHELL         31 -56.3%  0.5337E-09  0.3284      0.2487E-09  0.7513       0.000      0.1440E+05   0.000    
     570  0.3447E-03  0.9758E-06 SHELL         31 -55.6%  0.3126E-09  0.3382      0.3693E-09  0.7611       0.000      0.1440E+05   0.000    
     571  0.3457E-03  0.9758E-06 SHELL         31 -54.8%  0.1331E-09  0.3483      0.4701E-09  0.7712       0.000      0.1440E+05   0.000    
     572  0.3466E-03  0.9758E-06 SHELL         31 -54.1%  0.2478E-10  0.3585      0.5319E-09  0.7814       0.000      0.1440E+05   0.000    
     573  0.3476E-03  0.9758E-06 SHELL         31 -53.4%  0.5387E-11  0.3690      0.5430E-09  0.7919       0.000      0.1440E+05   0.000    
     574  0.3486E-03  0.9758E-06 SHELL         31 -52.7%  0.7811E-10  0.3796      0.5014E-09  0.8025       0.000      0.1440E+05   0.000    
     575  0.3496E-03  0.9758E-06 SHELL         31 -52.0%  0.2310E-09  0.3905      0.4148E-09  0.8134       0.000      0.1440E+05   0.000    
     576  0.3505E-03  0.9758E-06 SHELL         31 -51.3%  0.4389E-09  0.4015      0.2998E-09  0.8244       0.000      0.1440E+05   0.000    
     577  0.3515E-03  0.9758E-06 SHELL         31 -50.6%  0.6678E-09  0.4128      0.1784E-09  0.8357       0.000      0.1440E+05   0.000    
     578  0.3525E-03  0.9758E-06 SHELL         31 -49.9%  0.8800E-09  0.4243      0.7505E-10  0.8472       0.000      0.1440E+05   0.000    
     579  0.3535E-03  0.9758E-06 SHELL         31 -49.2%  0.1041E-08  0.4359      0.1173E-10  0.8589       0.000      0.1440E+05   0.000    
     580  0.3544E-03  0.9758E-06 SHELL         31 -48.6%  0.1123E-08  0.4478      0.4579E-11  0.8707       0.000      0.1440E+05   0.000    
     581  0.3554E-03  0.9758E-06 SHELL         31 -47.9%  0.1115E-08  0.4599      0.6084E-10  0.8828       0.000      0.1440E+05   0.000    
     582  0.3564E-03  0.9758E-06 SHELL         31 -47.2%  0.1016E-08  0.4722      0.1775E-09  0.8951       0.000      0.1440E+05   0.000    
     583  0.3574E-03  0.9758E-06 SHELL         31 -46.6%  0.8434E-09  0.4847      0.3413E-09  0.9076       0.000      0.1440E+05   0.000    
     584  0.3583E-03  0.9758E-06 SHELL         31 -46.0%  0.6253E-09  0.4974      0.5311E-09  0.9203       0.000      0.1440E+05   0.000    
     585  0.3593E-03  0.9758E-06 SHELL         31 -45.3%  0.3975E-09  0.5103      0.7206E-09  0.9332       0.000      0.1440E+05   0.000    
     586  0.3603E-03  0.9758E-06 SHELL         31 -44.7%  0.1974E-09  0.5234      0.8829E-09  0.9463       0.000      0.1440E+05   0.000    
     587  0.3613E-03  0.9758E-06 SHELL         31 -44.1%  0.5798E-10  0.5367      0.9944E-09  0.9596       0.000      0.1440E+05   0.000    
     588  0.3623E-03  0.9758E-06 SHELL         31 -43.5%  0.2011E-11  0.5502      0.1039E-08  0.9731       0.000      0.1440E+05   0.000    
     589  0.3632E-03  0.9758E-06 SHELL         31 -42.9%  0.3873E-10  0.5640      0.1010E-08  0.9869       0.000      0.1440E+05   0.000    
     590  0.3642E-03  0.9758E-06 SHELL         31 -42.3%  0.1621E-09  0.5779      0.9113E-09   1.001       0.000      0.1440E+05   0.000    
     591  0.3652E-03  0.9758E-06 SHELL         31 -41.7%  0.3519E-09  0.5920      0.7579E-09   1.015       0.000      0.1440E+05   0.000    
     592  0.3662E-03  0.9758E-06 SHELL         31 -41.1%  0.5769E-09  0.6064      0.5719E-09   1.029       0.000      0.1440E+05   0.000    
     593  0.3671E-03  0.9758E-06 SHELL         31 -40.5%  0.8001E-09  0.6210      0.3799E-09   1.044       0.000      0.1440E+05   0.000    
     594  0.3681E-03  0.9758E-06 SHELL         31 -39.9%  0.9850E-09  0.6357      0.2087E-09   1.059       0.000      0.1440E+05   0.000    
     595  0.3691E-03  0.9758E-06 SHELL         31 -39.4%  0.1101E-08  0.6507      0.8069E-10   1.074       0.000      0.1440E+05   0.000    
     596  0.3701E-03  0.9758E-06 SHELL         31 -38.8%  0.1130E-08  0.6659      0.1110E-10   1.089       0.000      0.1440E+05   0.000    
     597  0.3710E-03  0.9758E-06 SHELL         31 -38.3%  0.1065E-08  0.6813      0.5162E-11   1.104       0.000      0.1440E+05   0.000    
     598  0.3720E-03  0.9758E-06 SHELL         31 -37.8%  0.9193E-09  0.6969      0.5773E-10   1.120       0.000      0.1440E+05   0.000    
     599  0.3730E-03  0.9758E-06 SHELL         31 -37.2%  0.7153E-09  0.7127      0.1544E-09   1.136       0.000      0.1440E+05   0.000    
     600  0.3740E-03  0.9758E-06 SHELL         31 -36.7%  0.4869E-09  0.7287      0.2739E-09   1.152       0.000      0.1440E+05   0.000    
     601  0.3749E-03  0.9758E-06 SHELL         31 -36.2%  0.2715E-09  0.7450      0.3923E-09   1.168       0.000      0.1440E+05   0.000    
     602  0.3759E-03  0.9758E-06 SHELL         31 -35.7%  0.1045E-09  0.7614      0.4865E-09   1.184       0.000      0.1440E+05   0.000    
     603  0.3769E-03  0.9758E-06 SHELL         31 -35.2%  0.1345E-10  0.7781      0.5385E-09   1.201       0.000      0.1440E+05   0.000    
     604  0.3779E-03  0.9758E-06 SHELL         31 -34.7%  0.1319E-10  0.7949      0.5387E-09   1.218       0.000      0.1440E+05   0.000    
   CYCLE    TIME      TIME-STEP  ELEMENT          ERROR  I-ENERGY    K-ENERGY T  K-ENERGY R  EXT-WORK     MAS.ERR     TOTAL MASS  MASS ADDED
     605  0.3788E-03  0.9758E-06 SHELL         31 -34.2%  0.1038E-09  0.8120      0.4869E-09   1.235       0.000      0.1440E+05   0.000    
     606  0.3798E-03  0.9758E-06 SHELL         31 -33.8%  0.2704E-09  0.8293      0.3929E-09   1.252       0.000      0.1440E+05   0.000    
     607  0.3808E-03  0.9758E-06 SHELL         31 -33.3%  0.4856E-09  0.8468      0.2746E-09   1.270       0.000      0.1440E+05   0.000    
     608  0.3818E-03  0.9758E-06 SHELL         31 -32.8%  0.7141E-09  0.8645      0.1550E-09   1.287       0.000      0.1440E+05   0.000    
     609  0.3827E-03  0.9758E-06 SHELL         31 -32.4%  0.9184E-09  0.8824      0.5817E-10   1.305       0.000      0.1440E+05   0.000    
     610  0.3837E-03  0.9758E-06 SHELL         31 -32.0%  0.1065E-08  0.9006      0.5305E-11   1.323       0.000      0.1440E+05   0.000    
     611  0.3847E-03  0.9758E-06 SHELL         31 -31.5%  0.1130E-08  0.9189      0.1089E-10   1.342       0.000      0.1440E+05   0.000    
     612  0.3857E-03  0.9758E-06 SHELL         31 -31.1%  0.1102E-08  0.9375      0.8012E-10   1.360       0.000      0.1440E+05   0.000    
     613  0.3866E-03  0.9758E-06 SHELL         31 -30.7%  0.9861E-09  0.9563      0.2078E-09   1.379       0.000      0.1440E+05   0.000    
     614  0.3876E-03  0.9758E-06 SHELL         31 -30.2%  0.8015E-09  0.9753      0.3789E-09   1.398       0.000      0.1440E+05   0.000    
     615  0.3886E-03  0.9758E-06 SHELL         31 -29.8%  0.5783E-09  0.9945      0.5708E-09   1.417       0.000      0.1440E+05   0.000    
     616  0.3896E-03  0.9758E-06 SHELL         31 -29.4%  0.3533E-09   1.014      0.7569E-09   1.437       0.000      0.1440E+05   0.000    
     617  0.3906E-03  0.9758E-06 SHELL         31 -29.0%  0.1632E-09   1.034      0.9105E-09   1.456       0.000      0.1440E+05   0.000    
     618  0.3915E-03  0.9758E-06 SHELL         31 -28.6%  0.3941E-10   1.053      0.1009E-08   1.476       0.000      0.1440E+05   0.000    
     619  0.3925E-03  0.9758E-06 SHELL         31 -28.3%  0.2181E-11   1.073      0.1039E-08   1.496       0.000      0.1440E+05   0.000    
     620  0.3935E-03  0.9758E-06 SHELL         31 -27.9%  0.5764E-10   1.094      0.9949E-09   1.517       0.000      0.1440E+05   0.000    
     621  0.3945E-03  0.9758E-06 SHELL         31 -27.5%  0.1967E-09   1.114      0.8837E-09   1.537       0.000      0.1440E+05   0.000    
     622  0.3954E-03  0.9758E-06 SHELL         31 -27.1%  0.3965E-09   1.135      0.7216E-09   1.558       0.000      0.1440E+05   0.000    
     623  0.3964E-03  0.9758E-06 SHELL         31 -26.8%  0.6242E-09   1.156      0.5322E-09   1.579       0.000      0.1440E+05   0.000    
     624  0.3974E-03  0.9758E-06 SHELL         31 -26.4%  0.8425E-09   1.177      0.3423E-09   1.600       0.000      0.1440E+05   0.000    
     625  0.3984E-03  0.9758E-06 SHELL         31 -26.1%  0.1015E-08   1.198      0.1783E-09   1.621       0.000      0.1440E+05   0.000    
     626  0.3993E-03  0.9758E-06 SHELL         31 -25.7%  0.1115E-08   1.220      0.6136E-10   1.643       0.000      0.1440E+05   0.000    
     627  0.4003E-03  0.9758E-06 SHELL         31 -25.4%  0.1124E-08   1.242      0.4723E-11   1.665       0.000      0.1440E+05   0.000    
     ANIMATION FILE: FRICT41A005 WRITTEN
     628  0.4013E-03  0.9758E-06 SHELL         31 -25.1%  0.1042E-08   1.264      0.1151E-10   1.687       0.000      0.1440E+05   0.000    
     629  0.4023E-03  0.9758E-06 SHELL         31 -24.7%  0.8815E-09   1.286      0.7454E-10   1.709       0.000      0.1440E+05   0.000    
     630  0.4032E-03  0.9758E-06 SHELL         31 -24.4%  0.6695E-09   1.308      0.1777E-09   1.731       0.000      0.1440E+05   0.000    
     631  0.4042E-03  0.9758E-06 SHELL         31 -24.1%  0.4407E-09   1.331      0.2990E-09   1.754       0.000      0.1440E+05   0.000    
     632  0.4052E-03  0.9758E-06 SHELL         31 -23.8%  0.2325E-09   1.354      0.4142E-09   1.777       0.000      0.1440E+05   0.000    
     633  0.4062E-03  0.9758E-06 SHELL         31 -23.5%  0.7924E-10   1.377      0.5010E-09   1.800       0.000      0.1440E+05   0.000    
     634  0.4071E-03  0.9758E-06 SHELL         31 -23.2%  0.5999E-11   1.400      0.5429E-09   1.823       0.000      0.1440E+05   0.000    
     635  0.4081E-03  0.9758E-06 SHELL         31 -22.9%  0.2484E-10   1.424      0.5321E-09   1.847       0.000      0.1440E+05   0.000    
     636  0.4091E-03  0.9758E-06 SHELL         31 -22.6%  0.1327E-09   1.448      0.4706E-09   1.871       0.000      0.1440E+05   0.000    
     637  0.4101E-03  0.9758E-06 SHELL         31 -22.3%  0.3118E-09   1.472      0.3700E-09   1.895       0.000      0.1440E+05   0.000    
     638  0.4110E-03  0.9758E-06 SHELL         31 -22.0%  0.5328E-09   1.496      0.2494E-09   1.919       0.000      0.1440E+05   0.000    
     639  0.4120E-03  0.9758E-06 SHELL         31 -21.8%  0.7593E-09   1.520      0.1326E-09   1.943       0.000      0.1440E+05   0.000    
     640  0.4130E-03  0.9758E-06 SHELL         31 -21.5%  0.9543E-09   1.545      0.4318E-10   1.968       0.000      0.1440E+05   0.000    
     641  0.4140E-03  0.9758E-06 SHELL         31 -21.2%  0.1086E-08   1.570      0.1374E-11   1.993       0.000      0.1440E+05   0.000    
     642  0.4149E-03  0.9758E-06 SHELL         31 -21.0%  0.1132E-08   1.595      0.1989E-10   2.018       0.000      0.1440E+05   0.000    
     643  0.4159E-03  0.9758E-06 SHELL         31 -20.7%  0.1085E-08   1.620      0.1018E-09   2.043       0.000      0.1440E+05   0.000    
     644  0.4169E-03  0.9758E-06 SHELL         31 -20.4%  0.9533E-09   1.646      0.2399E-09   2.069       0.000      0.1440E+05   0.000    
     645  0.4179E-03  0.9758E-06 SHELL         31 -20.2%  0.7581E-09   1.672      0.4173E-09   2.095       0.000      0.1440E+05   0.000    
     646  0.4188E-03  0.9758E-06 SHELL         31 -19.9%  0.5314E-09   1.698      0.6103E-09   2.121       0.000      0.1440E+05   0.000    
     647  0.4198E-03  0.9758E-06 SHELL         31 -19.7%  0.3106E-09   1.724      0.7918E-09   2.147       0.000      0.1440E+05   0.000    
     648  0.4208E-03  0.9758E-06 SHELL         31 -19.5%  0.1319E-09   1.750      0.9358E-09   2.173       0.000      0.1440E+05   0.000    
     649  0.4218E-03  0.9758E-06 SHELL         31 -19.2%  0.2456E-10   1.777      0.1021E-08   2.200       0.000      0.1440E+05   0.000    
     650  0.4228E-03  0.9758E-06 SHELL         31 -19.0%  0.6283E-11   1.804      0.1036E-08   2.227       0.000      0.1440E+05   0.000    
     651  0.4237E-03  0.9758E-06 SHELL         31 -18.8%  0.8006E-10   1.831      0.9772E-09   2.254       0.000      0.1440E+05   0.000    
     652  0.4247E-03  0.9758E-06 SHELL         31 -18.5%  0.2338E-09   1.858      0.8540E-09   2.281       0.000      0.1440E+05   0.000    
     653  0.4257E-03  0.9758E-06 SHELL         31 -18.3%  0.4422E-09   1.886      0.6843E-09   2.309       0.000      0.1440E+05   0.000    
     654  0.4267E-03  0.9758E-06 SHELL         31 -18.1%  0.6711E-09   1.914      0.4925E-09   2.337       0.000      0.1440E+05   0.000    
     655  0.4276E-03  0.9758E-06 SHELL         31 -17.9%  0.8828E-09   1.942      0.3059E-09   2.365       0.000      0.1440E+05   0.000    
     656  0.4286E-03  0.9758E-06 SHELL         31 -17.7%  0.1043E-08   1.970      0.1500E-09   2.393       0.000      0.1440E+05   0.000    
     657  0.4296E-03  0.9758E-06 SHELL         31 -17.5%  0.1124E-08   1.998      0.4462E-10   2.421       0.000      0.1440E+05   0.000    
     658  0.4306E-03  0.9758E-06 SHELL         31 -17.3%  0.1115E-08   2.027      0.1041E-11   2.450       0.000      0.1440E+05   0.000    
     659  0.4315E-03  0.9758E-06 SHELL         31 -17.1%  0.1015E-08   2.056      0.2023E-10   2.479       0.000      0.1440E+05   0.000    
   CYCLE    TIME      TIME-STEP  ELEMENT          ERROR  I-ENERGY    K-ENERGY T  K-ENERGY R  EXT-WORK     MAS.ERR     TOTAL MASS  MASS ADDED
     660  0.4325E-03  0.9758E-06 SHELL         31 -16.9%  0.8416E-09   2.085      0.9302E-10   2.508       0.000      0.1440E+05   0.000    
     661  0.4335E-03  0.9758E-06 SHELL         31 -16.7%  0.6232E-09   2.114      0.2018E-09   2.537       0.000      0.1440E+05   0.000    
     662  0.4345E-03  0.9758E-06 SHELL         31 -16.5%  0.3955E-09   2.144      0.3239E-09   2.567       0.000      0.1440E+05   0.000    
     663  0.4354E-03  0.9758E-06 SHELL         31 -16.3%  0.1960E-09   2.174      0.4349E-09   2.597       0.000      0.1440E+05   0.000    
     664  0.4364E-03  0.9758E-06 SHELL         31 -16.1%  0.5739E-10   2.204      0.5136E-09   2.627       0.000      0.1440E+05   0.000    
     665  0.4374E-03  0.2967E-06 NODE          31 -16.4%  0.2464E-11   2.204      0.5451E-09   2.636       0.000      0.1440E+05   0.000    
     666  0.4377E-03  0.1680E-06 NODE          31 -17.0%  0.2572E-11   2.192      0.5450E-09   2.641       0.000      0.1440E+05   0.000    
     667  0.4379E-03  0.1271E-06 NODE          31 -17.5%  0.3867E-11   2.183      0.5436E-09   2.645       0.000      0.1440E+05   0.000    
     668  0.4380E-03  0.1107E-06 NODE          31 -17.9%  0.5115E-11   2.174      0.5420E-09   2.648       0.000      0.1440E+05   0.000    
     669  0.4381E-03  0.1034E-06 NODE          31 -18.3%  0.6259E-11   2.166      0.5403E-09   2.651       0.000      0.1440E+05   0.000    
     670  0.4382E-03  0.9995E-07 NODE          31 -18.7%  0.7296E-11   2.157      0.5385E-09   2.654       0.000      0.1440E+05   0.000    
     671  0.4383E-03  0.9828E-07 NODE          31 -19.2%  0.8215E-11   2.148      0.5366E-09   2.657       0.000      0.1440E+05   0.000    
     672  0.4384E-03  0.9745E-07 NODE          31 -19.6%  0.8994E-11   2.139      0.5346E-09   2.660       0.000      0.1440E+05   0.000    
     673  0.4385E-03  0.9704E-07 NODE          31 -20.1%  0.9612E-11   2.129      0.5324E-09   2.663       0.000      0.1440E+05   0.000    
     674  0.4386E-03  0.9683E-07 NODE          31 -20.6%  0.1005E-10   2.118      0.5303E-09   2.666       0.000      0.1440E+05   0.000    
     675  0.4387E-03  0.9672E-07 NODE          31 -21.1%  0.1029E-10   2.107      0.5281E-09   2.669       0.000      0.1440E+05   0.000    
     676  0.4388E-03  0.9666E-07 NODE          31 -21.6%  0.1034E-10   2.095      0.5259E-09   2.672       0.000      0.1440E+05   0.000    
     677  0.4389E-03  0.9662E-07 NODE          31 -22.1%  0.1018E-10   2.083      0.5237E-09   2.675       0.000      0.1440E+05   0.000    
     678  0.4390E-03  0.9660E-07 NODE          31 -22.7%  0.9825E-11   2.070      0.5215E-09   2.678       0.000      0.1440E+05   0.000    
     679  0.4391E-03  0.9658E-07 NODE          31 -23.3%  0.9290E-11   2.057      0.5194E-09   2.681       0.000      0.1440E+05   0.000    
     680  0.4392E-03  0.9657E-07 NODE          31 -23.9%  0.8596E-11   2.043      0.5174E-09   2.684       0.000      0.1440E+05   0.000    
     681  0.4393E-03  0.9655E-07 NODE          31 -24.5%  0.7756E-11   2.028      0.5155E-09   2.687       0.000      0.1440E+05   0.000    
     682  0.4394E-03  0.9654E-07 NODE          31 -25.2%  0.6796E-11   2.013      0.5138E-09   2.689       0.000      0.1440E+05   0.000    
     683  0.4395E-03  0.9653E-07 NODE          31 -25.8%  0.5759E-11   1.997      0.5122E-09   2.692       0.000      0.1440E+05   0.000    
     684  0.4396E-03  0.9652E-07 NODE          31 -26.5%  0.4702E-11   1.981      0.5109E-09   2.695       0.000      0.1440E+05   0.000    
     685  0.4397E-03  0.9651E-07 NODE          31 -27.2%  0.3702E-11   1.965      0.5098E-09   2.698       0.000      0.1440E+05   0.000    
     686  0.4397E-03  0.9650E-07 NODE          31 -27.9%  0.2852E-11   1.948      0.5090E-09   2.701       0.000      0.1440E+05   0.000    
     687  0.4398E-03  0.9649E-07 NODE          31 -28.6%  0.2264E-11   1.930      0.5085E-09   2.704       0.000      0.1440E+05   0.000    
     688  0.4399E-03  0.9648E-07 NODE          31 -29.3%  0.2072E-11   1.913      0.5083E-09   2.706       0.000      0.1440E+05   0.000    
     689  0.4400E-03  0.9646E-07 NODE          31 -30.1%  0.2428E-11   1.894      0.5086E-09   2.709       0.000      0.1440E+05   0.000    
     690  0.4401E-03  0.9645E-07 NODE          31 -30.8%  0.3509E-11   1.875      0.5093E-09   2.712       0.000      0.1440E+05   0.000    
     691  0.4402E-03  0.9644E-07 NODE          31 -31.6%  0.5515E-11   1.856      0.5104E-09   2.715       0.000      0.1440E+05   0.000    
     692  0.4403E-03  0.9643E-07 NODE          31 -32.4%  0.8667E-11   1.837      0.5121E-09   2.717       0.000      0.1440E+05   0.000    
     693  0.4404E-03  0.9642E-07 NODE          31 -33.2%  0.1322E-10   1.817      0.5143E-09   2.720       0.000      0.1440E+05   0.000    
     694  0.4405E-03  0.9641E-07 NODE          31 -34.0%  0.1943E-10   1.797      0.5172E-09   2.723       0.000      0.1440E+05   0.000    
     695  0.4406E-03  0.9640E-07 NODE          31 -34.8%  0.2762E-10   1.776      0.5207E-09   2.725       0.000      0.1440E+05   0.000    
     696  0.4407E-03  0.9639E-07 NODE          31 -35.7%  0.3810E-10   1.755      0.5249E-09   2.728       0.000      0.1440E+05   0.000    
     697  0.4408E-03  0.9638E-07 NODE          31 -36.5%  0.5122E-10   1.734      0.5299E-09   2.731       0.000      0.1440E+05   0.000    
     698  0.4409E-03  0.9637E-07 NODE          31 -37.4%  0.6738E-10   1.712      0.5357E-09   2.733       0.000      0.1440E+05   0.000    
     699  0.4410E-03  0.9636E-07 NODE          31 -38.2%  0.8698E-10   1.691      0.5425E-09   2.736       0.000      0.1440E+05   0.000    
     700  0.4411E-03  0.9635E-07 NODE          31 -39.1%  0.1104E-09   1.668      0.5501E-09   2.738       0.000      0.1440E+05   0.000    
     701  0.4412E-03  0.9634E-07 NODE          31 -39.9%  0.1383E-09   1.646      0.5588E-09   2.741       0.000      0.1440E+05   0.000    
     702  0.4413E-03  0.9633E-07 NODE          31 -40.8%  0.1709E-09   1.624      0.5686E-09   2.744       0.000      0.1440E+05   0.000    
     703  0.4414E-03  0.9632E-07 NODE          31 -41.7%  0.2089E-09   1.601      0.5796E-09   2.746       0.000      0.1440E+05   0.000    
     704  0.4415E-03  0.9631E-07 NODE          31 -42.6%  0.2529E-09   1.578      0.5918E-09   2.749       0.000      0.1440E+05   0.000    
     705  0.4416E-03  0.9630E-07 NODE          31 -43.5%  0.3033E-09   1.555      0.6054E-09   2.751       0.000      0.1440E+05   0.000    
     706  0.4417E-03  0.9629E-07 NODE          31 -44.4%  0.3608E-09   1.531      0.6204E-09   2.753       0.000      0.1440E+05   0.000    
     707  0.4418E-03  0.9628E-07 NODE          31 -45.3%  0.4263E-09   1.508      0.6369E-09   2.756       0.000      0.1440E+05   0.000    
     708  0.4419E-03  0.9627E-07 NODE          31 -46.2%  0.5005E-09   1.484      0.6552E-09   2.758       0.000      0.1440E+05   0.000    
     709  0.4420E-03  0.9626E-07 NODE          31 -47.1%  0.5843E-09   1.461      0.6752E-09   2.761       0.000      0.1440E+05   0.000    
     710  0.4421E-03  0.9626E-07 NODE          31 -48.0%  0.6787E-09   1.437      0.6971E-09   2.763       0.000      0.1440E+05   0.000    
     711  0.4422E-03  0.9625E-07 NODE          31 -48.9%  0.7848E-09   1.413      0.7211E-09   2.765       0.000      0.1440E+05   0.000    
     712  0.4423E-03  0.9624E-07 NODE          31 -49.8%  0.9035E-09   1.389      0.7474E-09   2.768       0.000      0.1440E+05   0.000    
     713  0.4423E-03  0.9623E-07 NODE          31 -50.7%  0.1036E-08   1.365      0.7760E-09   2.770       0.000      0.1440E+05   0.000    
     714  0.4424E-03  0.9622E-07 NODE          31 -51.6%  0.1184E-08   1.341      0.8073E-09   2.772       0.000      0.1440E+05   0.000    
   CYCLE    TIME      TIME-STEP  ELEMENT          ERROR  I-ENERGY    K-ENERGY T  K-ENERGY R  EXT-WORK     MAS.ERR     TOTAL MASS  MASS ADDED
     715  0.4425E-03  0.9621E-07 NODE          31 -52.5%  0.1348E-08   1.317      0.8413E-09   2.775       0.000      0.1440E+05   0.000    
     716  0.4426E-03  0.9620E-07 NODE          31 -53.4%  0.1530E-08   1.293      0.8784E-09   2.777       0.000      0.1440E+05   0.000    
     717  0.4427E-03  0.9620E-07 NODE          31 -54.3%  0.1732E-08   1.269      0.9188E-09   2.779       0.000      0.1440E+05   0.000    
     718  0.4428E-03  0.9619E-07 NODE          31 -55.2%  0.1954E-08   1.245      0.9627E-09   2.781       0.000      0.1440E+05   0.000    
     719  0.4429E-03  0.9618E-07 NODE          31 -56.1%  0.2198E-08   1.221      0.1010E-08   2.783       0.000      0.1440E+05   0.000    
     720  0.4430E-03  0.9617E-07 NODE          31 -57.0%  0.2467E-08   1.197      0.1062E-08   2.786       0.000      0.1440E+05   0.000    
     721  0.4431E-03  0.9616E-07 NODE          31 -57.9%  0.2762E-08   1.174      0.1119E-08   2.788       0.000      0.1440E+05   0.000    
     722  0.4432E-03  0.9616E-07 NODE          31 -58.8%  0.3084E-08   1.150      0.1180E-08   2.790       0.000      0.1440E+05   0.000    
     723  0.4433E-03  0.9615E-07 NODE          31 -59.6%  0.3436E-08   1.127      0.1246E-08   2.792       0.000      0.1440E+05   0.000    
     724  0.4434E-03  0.9614E-07 NODE          31 -60.5%  0.3820E-08   1.103      0.1318E-08   2.794       0.000      0.1440E+05   0.000    
     725  0.4435E-03  0.9614E-07 NODE          31 -61.4%  0.4237E-08   1.080      0.1396E-08   2.796       0.000      0.1440E+05   0.000    
     726  0.4436E-03  0.9613E-07 NODE          31 -62.2%  0.4690E-08   1.057      0.1480E-08   2.798       0.000      0.1440E+05   0.000    
     727  0.4437E-03  0.9612E-07 NODE          31 -63.1%  0.5181E-08   1.034      0.1572E-08   2.800       0.000      0.1440E+05   0.000    
     728  0.4438E-03  0.9611E-07 NODE          31 -63.9%  0.5713E-08   1.012      0.1671E-08   2.802       0.000      0.1440E+05   0.000    
     729  0.4439E-03  0.9611E-07 NODE          31 -64.7%  0.6286E-08  0.9894      0.1778E-08   2.804       0.000      0.1440E+05   0.000    
     730  0.4440E-03  0.9610E-07 NODE          31 -65.5%  0.6904E-08  0.9672      0.1894E-08   2.806       0.000      0.1440E+05   0.000    
     731  0.4441E-03  0.9610E-07 NODE          31 -66.3%  0.7570E-08  0.9453      0.2019E-08   2.807       0.000      0.1440E+05   0.000    
     732  0.4442E-03  0.9609E-07 NODE          31 -67.1%  0.8285E-08  0.9236      0.2155E-08   2.809       0.000      0.1440E+05   0.000    
     733  0.4443E-03  0.9608E-07 NODE          31 -67.9%  0.9051E-08  0.9023      0.2301E-08   2.811       0.000      0.1440E+05   0.000    
     734  0.4444E-03  0.9608E-07 NODE          31 -68.7%  0.9873E-08  0.8812      0.2460E-08   2.813       0.000      0.1440E+05   0.000    
     735  0.4445E-03  0.9607E-07 NODE          31 -69.4%  0.1075E-07  0.8604      0.2630E-08   2.814       0.000      0.1440E+05   0.000    
     736  0.4446E-03  0.9607E-07 NODE          31 -70.2%  0.1169E-07  0.8400      0.2815E-08   2.816       0.000      0.1440E+05   0.000    
     737  0.4447E-03  0.9606E-07 NODE          31 -70.9%  0.1269E-07  0.8198      0.3013E-08   2.818       0.000      0.1440E+05   0.000    
     738  0.4448E-03  0.9605E-07 NODE          31 -71.6%  0.1375E-07  0.8001      0.3227E-08   2.820       0.000      0.1440E+05   0.000    
     739  0.4448E-03  0.9605E-07 NODE          31 -72.3%  0.1488E-07  0.7806      0.3458E-08   2.821       0.000      0.1440E+05   0.000    
     740  0.4449E-03  0.9604E-07 NODE          31 -73.0%  0.1608E-07  0.7616      0.3706E-08   2.823       0.000      0.1440E+05   0.000    
     741  0.4450E-03  0.9604E-07 NODE          31 -73.7%  0.1736E-07  0.7429      0.3973E-08   2.824       0.000      0.1440E+05   0.000    
     742  0.4451E-03  0.9604E-07 NODE          33 -74.4%  0.1870E-07  0.7246      0.4260E-08   2.826       0.000      0.1440E+05   0.000    
     743  0.4452E-03  0.9603E-07 NODE          33 -75.0%  0.2013E-07  0.7068      0.4568E-08   2.827       0.000      0.1440E+05   0.000    
     744  0.4453E-03  0.9603E-07 NODE          33 -75.6%  0.2163E-07  0.6893      0.4899E-08   2.829       0.000      0.1440E+05   0.000    
     745  0.4454E-03  0.9602E-07 NODE          33 -76.2%  0.2322E-07  0.6723      0.5255E-08   2.830       0.000      0.1440E+05   0.000    
     746  0.4455E-03  0.9602E-07 NODE          33 -76.8%  0.2489E-07  0.6557      0.5636E-08   2.832       0.000      0.1440E+05   0.000    
     747  0.4456E-03  0.9601E-07 NODE          33 -77.4%  0.2664E-07  0.6396      0.6044E-08   2.833       0.000      0.1440E+05   0.000    
     748  0.4457E-03  0.9601E-07 NODE          33 -78.0%  0.2848E-07  0.6239      0.6482E-08   2.834       0.000      0.1440E+05   0.000    
     749  0.4458E-03  0.9601E-07 NODE          33 -78.5%  0.3042E-07  0.6086      0.6950E-08   2.836       0.000      0.1440E+05   0.000    
     750  0.4459E-03  0.9600E-07 NODE          33 -79.1%  0.3244E-07  0.5939      0.7451E-08   2.837       0.000      0.1440E+05   0.000    
     751  0.4460E-03  0.9600E-07 NODE          33 -79.6%  0.3456E-07  0.5796      0.7987E-08   2.838       0.000      0.1440E+05   0.000    
     752  0.4461E-03  0.9600E-07 NODE          33 -80.1%  0.3678E-07  0.5659      0.8559E-08   2.839       0.000      0.1440E+05   0.000    
     753  0.4462E-03  0.9599E-07 NODE          33 -80.5%  0.3909E-07  0.5526      0.9170E-08   2.841       0.000      0.1440E+05   0.000    
     754  0.4463E-03  0.9599E-07 NODE          33 -81.0%  0.4150E-07  0.5398      0.9821E-08   2.842       0.000      0.1440E+05   0.000    
     755  0.4464E-03  0.9599E-07 NODE          33 -81.4%  0.4401E-07  0.5275      0.1052E-07   2.843       0.000      0.1440E+05   0.000    
     756  0.4465E-03  0.9598E-07 NODE          33 -81.9%  0.4662E-07  0.5158      0.1125E-07   2.844       0.000      0.1440E+05   0.000    
     757  0.4466E-03  0.9598E-07 NODE          32 -82.3%  0.4933E-07  0.5046      0.1204E-07   2.845       0.000      0.1440E+05   0.000    
     758  0.4467E-03  0.9598E-07 NODE          32 -82.6%  0.5215E-07  0.4939      0.1288E-07   2.846       0.000      0.1440E+05   0.000    
     759  0.4468E-03  0.9598E-07 NODE          32 -83.0%  0.5507E-07  0.4837      0.1377E-07   2.847       0.000      0.1440E+05   0.000    
     760  0.4469E-03  0.9598E-07 NODE          32 -83.4%  0.5809E-07  0.4741      0.1471E-07   2.848       0.000      0.1440E+05   0.000    
     761  0.4470E-03  0.9597E-07 NODE          32 -83.7%  0.6121E-07  0.4650      0.1572E-07   2.849       0.000      0.1440E+05   0.000    
     762  0.4471E-03  0.9597E-07 NODE          32 -84.0%  0.6444E-07  0.4565      0.1678E-07   2.850       0.000      0.1440E+05   0.000    
     763  0.4472E-03  0.9597E-07 NODE          32 -84.3%  0.6777E-07  0.4485      0.1791E-07   2.851       0.000      0.1440E+05   0.000    
     764  0.4472E-03  0.9597E-07 NODE          32 -84.5%  0.7121E-07  0.4411      0.1910E-07   2.852       0.000      0.1440E+05   0.000    
     765  0.4473E-03  0.9597E-07 NODE          32 -84.8%  0.7474E-07  0.4342      0.2037E-07   2.852       0.000      0.1440E+05   0.000    
     766  0.4474E-03  0.9597E-07 NODE          32 -85.0%  0.7838E-07  0.4279      0.2170E-07   2.853       0.000      0.1440E+05   0.000    
     767  0.4475E-03  0.9596E-07 NODE          32 -85.2%  0.8212E-07  0.4221      0.2311E-07   2.854       0.000      0.1440E+05   0.000    
     768  0.4476E-03  0.9596E-07 NODE          32 -85.4%  0.8595E-07  0.4170      0.2461E-07   2.855       0.000      0.1440E+05   0.000    
     769  0.4477E-03  0.9596E-07 NODE          32 -85.6%  0.8988E-07  0.4123      0.2618E-07   2.855       0.000      0.1440E+05   0.000    
   CYCLE    TIME      TIME-STEP  ELEMENT          ERROR  I-ENERGY    K-ENERGY T  K-ENERGY R  EXT-WORK     MAS.ERR     TOTAL MASS  MASS ADDED
     770  0.4478E-03  0.9596E-07 NODE          32 -85.7%  0.9390E-07  0.4082      0.2784E-07   2.856       0.000      0.1440E+05   0.000    
     771  0.4479E-03  0.9596E-07 NODE          32 -85.8%  0.9801E-07  0.4047      0.2958E-07   2.857       0.000      0.1440E+05   0.000    
     772  0.4480E-03  0.9596E-07 NODE          32 -85.9%  0.1022E-06  0.4018      0.3142E-07   2.857       0.000      0.1440E+05   0.000    
     773  0.4481E-03  0.9618E-07 NODE          32 -86.0%  0.1065E-06  0.3994      0.3336E-07   2.858       0.000      0.1440E+05   0.000    
     774  0.4482E-03  0.9628E-07 NODE          32 -86.1%  0.1109E-06  0.3975      0.3540E-07   2.858       0.000      0.1440E+05   0.000    
     775  0.4483E-03  0.9633E-07 NODE          32 -86.1%  0.1153E-06  0.3963      0.3755E-07   2.859       0.000      0.1440E+05   0.000    
     776  0.4484E-03  0.9636E-07 NODE          32 -86.2%  0.1199E-06  0.3955      0.3980E-07   2.859       0.000      0.1440E+05   0.000    
     777  0.4485E-03  0.9637E-07 NODE          32 -86.2%  0.1245E-06  0.3954      0.4217E-07   2.860       0.000      0.1440E+05   0.000    
     778  0.4486E-03  0.9638E-07 NODE          32 -86.2%  0.1292E-06  0.3957      0.4465E-07   2.860       0.000      0.1440E+05   0.000    
     779  0.4487E-03  0.9638E-07 NODE          32 -86.1%  0.1339E-06  0.3967      0.4725E-07   2.860       0.000      0.1440E+05   0.000    
     780  0.4488E-03  0.9639E-07 NODE          32 -86.1%  0.1387E-06  0.3981      0.4997E-07   2.861       0.000      0.1440E+05   0.000    
     781  0.4489E-03  0.9639E-07 NODE          32 -86.0%  0.1436E-06  0.4001      0.5282E-07   2.861       0.000      0.1440E+05   0.000    
     782  0.4490E-03  0.9639E-07 NODE          32 -85.9%  0.1485E-06  0.4027      0.5579E-07   2.861       0.000      0.1440E+05   0.000    
     783  0.4491E-03  0.9639E-07 NODE          32 -85.8%  0.1534E-06  0.4058      0.5891E-07   2.861       0.000      0.1440E+05   0.000    
     784  0.4492E-03  0.9639E-07 NODE          32 -85.7%  0.1583E-06  0.4094      0.6215E-07   2.862       0.000      0.1440E+05   0.000    
     785  0.4493E-03  0.9639E-07 NODE          32 -85.6%  0.1633E-06  0.4135      0.6554E-07   2.862       0.000      0.1440E+05   0.000    
     786  0.4494E-03  0.9639E-07 NODE          32 -85.4%  0.1683E-06  0.4181      0.6908E-07   2.862       0.000      0.1440E+05   0.000    
     787  0.4495E-03  0.9639E-07 NODE          32 -85.2%  0.1734E-06  0.4232      0.7276E-07   2.862       0.000      0.1440E+05   0.000    
     788  0.4496E-03  0.9640E-07 NODE          32 -85.0%  0.1784E-06  0.4289      0.7659E-07   2.862       0.000      0.1440E+05   0.000    
     789  0.4497E-03  0.9640E-07 NODE          32 -84.8%  0.1834E-06  0.4350      0.8058E-07   2.862       0.000      0.1440E+05   0.000    
     790  0.4498E-03  0.9640E-07 NODE          32 -84.6%  0.1884E-06  0.4416      0.8472E-07   2.862       0.000      0.1440E+05   0.000    
     791  0.4498E-03  0.9640E-07 NODE          32 -84.3%  0.1934E-06  0.4487      0.8903E-07   2.862       0.000      0.1440E+05   0.000    
     792  0.4499E-03  0.9640E-07 NODE          32 -84.1%  0.1983E-06  0.4562      0.9350E-07   2.862       0.000      0.1440E+05   0.000    
     793  0.4500E-03  0.9640E-07 NODE          32 -83.8%  0.2032E-06  0.4642      0.9814E-07   2.862       0.000      0.1440E+05   0.000    
     794  0.4501E-03  0.9640E-07 NODE          34 -83.5%  0.2081E-06  0.4726      0.1030E-06   2.862       0.000      0.1440E+05   0.000    
     795  0.4502E-03  0.9641E-07 NODE          34 -83.2%  0.2129E-06  0.4815      0.1079E-06   2.862       0.000      0.1440E+05   0.000    
     796  0.4503E-03  0.9641E-07 NODE          34 -82.9%  0.2176E-06  0.4908      0.1131E-06   2.862       0.000      0.1440E+05   0.000    
     797  0.4504E-03  0.9641E-07 NODE          34 -82.5%  0.2223E-06  0.5005      0.1184E-06   2.862       0.000      0.1440E+05   0.000    
     798  0.4505E-03  0.9641E-07 NODE          34 -82.2%  0.2269E-06  0.5106      0.1240E-06   2.861       0.000      0.1440E+05   0.000    
     799  0.4506E-03  0.9641E-07 NODE          34 -81.8%  0.2313E-06  0.5211      0.1297E-06   2.861       0.000      0.1440E+05   0.000    
     800  0.4507E-03  0.9642E-07 NODE          34 -81.4%  0.2357E-06  0.5320      0.1355E-06   2.861       0.000      0.1440E+05   0.000    
     801  0.4508E-03  0.9642E-07 NODE          34 -81.0%  0.2400E-06  0.5433      0.1416E-06   2.861       0.000      0.1440E+05   0.000    
     802  0.4509E-03  0.9642E-07 NODE          34 -80.6%  0.2441E-06  0.5549      0.1479E-06   2.860       0.000      0.1440E+05   0.000    
     803  0.4510E-03  0.9642E-07 NODE          34 -80.2%  0.2481E-06  0.5669      0.1543E-06   2.860       0.000      0.1440E+05   0.000    
     804  0.4511E-03  0.9642E-07 NODE          34 -79.7%  0.2520E-06  0.5792      0.1610E-06   2.859       0.000      0.1440E+05   0.000    
     805  0.4512E-03  0.9643E-07 NODE          34 -79.3%  0.2557E-06  0.5918      0.1678E-06   2.859       0.000      0.1440E+05   0.000    
     806  0.4513E-03  0.9643E-07 NODE          34 -78.8%  0.2592E-06  0.6048      0.1748E-06   2.859       0.000      0.1440E+05   0.000    
     807  0.4514E-03  0.9643E-07 NODE          34 -78.4%  0.2626E-06  0.6180      0.1821E-06   2.858       0.000      0.1440E+05   0.000    
     808  0.4515E-03  0.9643E-07 NODE          34 -77.9%  0.2657E-06  0.6315      0.1895E-06   2.858       0.000      0.1440E+05   0.000    
     809  0.4516E-03  0.9644E-07 NODE          34 -77.4%  0.2687E-06  0.6453      0.1971E-06   2.857       0.000      0.1440E+05   0.000    
     810  0.4517E-03  0.9644E-07 NODE          34 -76.9%  0.2715E-06  0.6594      0.2049E-06   2.857       0.000      0.1440E+05   0.000    
     811  0.4518E-03  0.9644E-07 NODE          34 -76.4%  0.2740E-06  0.6737      0.2128E-06   2.856       0.000      0.1440E+05   0.000    
     812  0.4519E-03  0.9645E-07 NODE          34 -75.9%  0.2764E-06  0.6882      0.2210E-06   2.855       0.000      0.1440E+05   0.000    
     813  0.4520E-03  0.9645E-07 NODE          34 -75.4%  0.2785E-06  0.7029      0.2294E-06   2.855       0.000      0.1440E+05   0.000    
     814  0.4521E-03  0.9645E-07 NODE          34 -74.8%  0.2803E-06  0.7179      0.2379E-06   2.854       0.000      0.1440E+05   0.000    
     815  0.4522E-03  0.9645E-07 NODE          34 -74.3%  0.2819E-06  0.7330      0.2467E-06   2.853       0.000      0.1440E+05   0.000    
     816  0.4523E-03  0.9646E-07 NODE          34 -73.8%  0.2833E-06  0.7483      0.2556E-06   2.853       0.000      0.1440E+05   0.000    
     817  0.4524E-03  0.9646E-07 NODE          34 -73.2%  0.2844E-06  0.7638      0.2647E-06   2.852       0.000      0.1440E+05   0.000    
     818  0.4525E-03  0.9646E-07 NODE          34 -72.7%  0.2852E-06  0.7794      0.2740E-06   2.851       0.000      0.1440E+05   0.000    
     819  0.4525E-03  0.9647E-07 NODE          34 -72.1%  0.2857E-06  0.7951      0.2834E-06   2.850       0.000      0.1440E+05   0.000    
     820  0.4526E-03  0.9647E-07 NODE          34 -71.5%  0.2860E-06  0.8110      0.2930E-06   2.850       0.000      0.1440E+05   0.000    
     821  0.4527E-03  0.9647E-07 NODE          34 -71.0%  0.2859E-06  0.8269      0.3028E-06   2.849       0.000      0.1440E+05   0.000    
     822  0.4528E-03  0.9648E-07 NODE          34 -70.4%  0.2856E-06  0.8430      0.3127E-06   2.848       0.000      0.1440E+05   0.000    
     823  0.4529E-03  0.9648E-07 NODE          34 -69.8%  0.2850E-06  0.8591      0.3228E-06   2.847       0.000      0.1440E+05   0.000    
     824  0.4530E-03  0.9648E-07 NODE          34 -69.2%  0.2840E-06  0.8753      0.3330E-06   2.846       0.000      0.1440E+05   0.000    
   CYCLE    TIME      TIME-STEP  ELEMENT          ERROR  I-ENERGY    K-ENERGY T  K-ENERGY R  EXT-WORK     MAS.ERR     TOTAL MASS  MASS ADDED
     825  0.4531E-03  0.9649E-07 NODE          34 -68.7%  0.2827E-06  0.8915      0.3434E-06   2.845       0.000      0.1440E+05   0.000    
     826  0.4532E-03  0.9649E-07 NODE          34 -68.1%  0.2812E-06  0.9078      0.3539E-06   2.844       0.000      0.1440E+05   0.000    
     827  0.4533E-03  0.9650E-07 NODE          34 -67.5%  0.2793E-06  0.9240      0.3645E-06   2.843       0.000      0.1440E+05   0.000    
     828  0.4534E-03  0.9650E-07 NODE          34 -66.9%  0.2771E-06  0.9403      0.3752E-06   2.842       0.000      0.1440E+05   0.000    
     829  0.4535E-03  0.9650E-07 NODE          34 -66.3%  0.2745E-06  0.9565      0.3861E-06   2.841       0.000      0.1440E+05   0.000    
     830  0.4536E-03  0.9651E-07 NODE          34 -65.8%  0.2717E-06  0.9727      0.3970E-06   2.840       0.000      0.1440E+05   0.000    
     831  0.4537E-03  0.9651E-07 NODE          34 -65.2%  0.2685E-06  0.9889      0.4081E-06   2.839       0.000      0.1440E+05   0.000    
     832  0.4538E-03  0.9652E-07 NODE          34 -64.6%  0.2650E-06   1.005      0.4192E-06   2.838       0.000      0.1440E+05   0.000    
     833  0.4539E-03  0.9652E-07 NODE          34 -64.0%  0.2612E-06   1.021      0.4304E-06   2.837       0.000      0.1440E+05   0.000    
     834  0.4540E-03  0.9652E-07 NODE          34 -63.4%  0.2571E-06   1.037      0.4416E-06   2.836       0.000      0.1440E+05   0.000    
     835  0.4541E-03  0.9653E-07 NODE          34 -62.9%  0.2526E-06   1.053      0.4530E-06   2.835       0.000      0.1440E+05   0.000    
     836  0.4542E-03  0.9653E-07 NODE          34 -62.3%  0.2479E-06   1.069      0.4643E-06   2.834       0.000      0.1440E+05   0.000    
     837  0.4543E-03  0.9654E-07 NODE          34 -61.7%  0.2430E-06   1.084      0.4757E-06   2.833       0.000      0.1440E+05   0.000    
     838  0.4544E-03  0.9654E-07 NODE          34 -61.2%  0.2377E-06   1.100      0.4871E-06   2.832       0.000      0.1440E+05   0.000    
     839  0.4545E-03  0.9655E-07 NODE          34 -60.6%  0.2322E-06   1.115      0.4985E-06   2.830       0.000      0.1440E+05   0.000    
     840  0.4546E-03  0.9655E-07 NODE          34 -60.1%  0.2264E-06   1.130      0.5099E-06   2.829       0.000      0.1440E+05   0.000    
     841  0.4547E-03  0.9655E-07 NODE          34 -59.5%  0.2204E-06   1.145      0.5212E-06   2.828       0.000      0.1440E+05   0.000    
     842  0.4548E-03  0.9656E-07 NODE          34 -59.0%  0.2142E-06   1.160      0.5326E-06   2.827       0.000      0.1440E+05   0.000    
     843  0.4549E-03  0.9656E-07 NODE          34 -58.4%  0.2077E-06   1.175      0.5439E-06   2.825       0.000      0.1440E+05   0.000    
     844  0.4550E-03  0.9657E-07 NODE          34 -57.9%  0.2011E-06   1.189      0.5551E-06   2.824       0.000      0.1440E+05   0.000    
     845  0.4551E-03  0.9657E-07 NODE          34 -57.4%  0.1942E-06   1.203      0.5662E-06   2.823       0.000      0.1440E+05   0.000    
     846  0.4552E-03  0.9658E-07 NODE          34 -56.9%  0.1873E-06   1.217      0.5773E-06   2.822       0.000      0.1440E+05   0.000    
     847  0.4553E-03  0.9658E-07 NODE          34 -56.4%  0.1801E-06   1.231      0.5883E-06   2.820       0.000      0.1440E+05   0.000    
     848  0.4553E-03  0.9659E-07 NODE          34 -55.9%  0.1728E-06   1.244      0.5991E-06   2.819       0.000      0.1440E+05   0.000    
     849  0.4554E-03  0.9659E-07 NODE          34 -55.4%  0.1654E-06   1.257      0.6098E-06   2.818       0.000      0.1440E+05   0.000    
     850  0.4555E-03  0.9660E-07 NODE          34 -54.9%  0.1579E-06   1.270      0.6204E-06   2.816       0.000      0.1440E+05   0.000    
     851  0.4556E-03  0.9660E-07 NODE          34 -54.4%  0.1504E-06   1.283      0.6308E-06   2.815       0.000      0.1440E+05   0.000    
     852  0.4557E-03  0.9661E-07 NODE          34 -54.0%  0.1427E-06   1.295      0.6410E-06   2.813       0.000      0.1440E+05   0.000    
     853  0.4558E-03  0.9661E-07 NODE          34 -53.5%  0.1351E-06   1.307      0.6511E-06   2.812       0.000      0.1440E+05   0.000    
     854  0.4559E-03  0.9662E-07 NODE          34 -53.1%  0.1274E-06   1.318      0.6609E-06   2.811       0.000      0.1440E+05   0.000    
     855  0.4560E-03  0.9662E-07 NODE          34 -52.7%  0.1197E-06   1.329      0.6705E-06   2.809       0.000      0.1440E+05   0.000    
     856  0.4561E-03  0.9663E-07 NODE          34 -52.3%  0.1121E-06   1.340      0.6799E-06   2.808       0.000      0.1440E+05   0.000    
     857  0.4562E-03  0.9663E-07 NODE          34 -51.9%  0.1045E-06   1.351      0.6890E-06   2.806       0.000      0.1440E+05   0.000    
     858  0.4563E-03  0.9664E-07 NODE          34 -51.5%  0.9694E-07   1.361      0.6979E-06   2.805       0.000      0.1440E+05   0.000    
     859  0.4564E-03  0.9664E-07 NODE          34 -51.1%  0.8950E-07   1.371      0.7065E-06   2.804       0.000      0.1440E+05   0.000    
     860  0.4565E-03  0.9665E-07 NODE          34 -50.7%  0.8219E-07   1.380      0.7148E-06   2.802       0.000      0.1440E+05   0.000    
     861  0.4566E-03  0.9665E-07 NODE          34 -50.4%  0.7502E-07   1.389      0.7227E-06   2.801       0.000      0.1440E+05   0.000    
     862  0.4567E-03  0.9666E-07 NODE          34 -50.1%  0.6802E-07   1.398      0.7304E-06   2.799       0.000      0.1440E+05   0.000    
     863  0.4568E-03  0.9666E-07 NODE          34 -49.7%  0.6122E-07   1.406      0.7377E-06   2.798       0.000      0.1440E+05   0.000    
     864  0.4569E-03  0.9667E-07 NODE          34 -49.4%  0.5464E-07   1.414      0.7446E-06   2.796       0.000      0.1440E+05   0.000    
     865  0.4570E-03  0.9667E-07 NODE          34 -49.1%  0.4830E-07   1.422      0.7512E-06   2.795       0.000      0.1440E+05   0.000    
     866  0.4571E-03  0.9668E-07 NODE          34 -48.9%  0.4225E-07   1.429      0.7574E-06   2.793       0.000      0.1440E+05   0.000    
     867  0.4572E-03  0.9668E-07 NODE          34 -48.6%  0.3649E-07   1.435      0.7632E-06   2.792       0.000      0.1440E+05   0.000    
     868  0.4573E-03  0.9669E-07 NODE          34 -48.3%  0.3106E-07   1.441      0.7686E-06   2.790       0.000      0.1440E+05   0.000    
     869  0.4574E-03  0.9669E-07 NODE          34 -48.1%  0.2598E-07   1.447      0.7735E-06   2.789       0.000      0.1440E+05   0.000    
     870  0.4575E-03  0.9670E-07 NODE          34 -47.9%  0.2128E-07   1.452      0.7781E-06   2.787       0.000      0.1440E+05   0.000    
     871  0.4576E-03  0.9670E-07 NODE          34 -47.7%  0.1698E-07   1.457      0.7822E-06   2.785       0.000      0.1440E+05   0.000    
     872  0.4577E-03  0.9671E-07 NODE          34 -47.5%  0.1312E-07   1.462      0.7858E-06   2.784       0.000      0.1440E+05   0.000    
     873  0.4578E-03  0.9671E-07 NODE          34 -47.3%  0.9702E-08   1.466      0.7890E-06   2.782       0.000      0.1440E+05   0.000    
     874  0.4579E-03  0.9672E-07 NODE          34 -47.2%  0.6764E-08   1.469      0.7917E-06   2.781       0.000      0.1440E+05   0.000    
     875  0.4580E-03  0.9672E-07 NODE          34 -47.0%  0.4326E-08   1.472      0.7939E-06   2.779       0.000      0.1440E+05   0.000    
     876  0.4581E-03  0.9673E-07 NODE          34 -46.9%  0.2410E-08   1.475      0.7956E-06   2.778       0.000      0.1440E+05   0.000    
     877  0.4581E-03  0.9674E-07 NODE          34 -46.8%  0.1039E-08   1.477      0.7968E-06   2.776       0.000      0.1440E+05   0.000    
     878  0.4582E-03  0.9674E-07 NODE          34 -46.7%  0.2337E-09   1.479      0.7975E-06   2.775       0.000      0.1440E+05   0.000    
     879  0.4583E-03  0.9675E-07 NODE          34 -46.6%  0.1454E-10   1.480      0.7977E-06   2.773       0.000      0.1440E+05   0.000    
   CYCLE    TIME      TIME-STEP  ELEMENT          ERROR  I-ENERGY    K-ENERGY T  K-ENERGY R  EXT-WORK     MAS.ERR     TOTAL MASS  MASS ADDED
     880  0.4584E-03  0.9675E-07 NODE          34 -46.6%  0.4012E-09   1.481      0.7974E-06   2.771       0.000      0.1440E+05   0.000    
     881  0.4585E-03  0.9676E-07 NODE          34 -46.5%  0.1412E-08   1.482      0.7965E-06   2.770       0.000      0.1440E+05   0.000    
     882  0.4586E-03  0.9676E-07 NODE          34 -46.5%  0.3066E-08   1.482      0.7951E-06   2.768       0.000      0.1440E+05   0.000    
     883  0.4587E-03  0.9677E-07 NODE          34 -46.5%  0.5379E-08   1.481      0.7932E-06   2.767       0.000      0.1440E+05   0.000    
     884  0.4588E-03  0.9677E-07 NODE          34 -46.5%  0.8367E-08   1.480      0.7907E-06   2.765       0.000      0.1440E+05   0.000    
     885  0.4589E-03  0.9678E-07 NODE          34 -46.5%  0.1204E-07   1.479      0.7877E-06   2.764       0.000      0.1440E+05   0.000    
     886  0.4590E-03  0.9678E-07 NODE          34 -46.5%  0.1643E-07   1.477      0.7842E-06   2.762       0.000      0.1440E+05   0.000    
     887  0.4591E-03  0.9679E-07 NODE          34 -46.6%  0.2152E-07   1.474      0.7801E-06   2.761       0.000      0.1440E+05   0.000    
     888  0.4592E-03  0.9679E-07 NODE          34 -46.7%  0.2735E-07   1.472      0.7755E-06   2.759       0.000      0.1440E+05   0.000    
     889  0.4593E-03  0.9680E-07 NODE          34 -46.8%  0.3391E-07   1.468      0.7703E-06   2.758       0.000      0.1440E+05   0.000    
     890  0.4594E-03  0.9681E-07 NODE          34 -46.8%  0.4122E-07   1.465      0.7646E-06   2.756       0.000      0.1440E+05   0.000    
     891  0.4595E-03  0.1065E-06 SHELL         31 -46.9%  0.4921E-07   1.463      0.7584E-06   2.754       0.000      0.1440E+05   0.000    
     892  0.4596E-03  0.1171E-06 SHELL         31 -46.9%  0.5876E-07   1.461      0.7510E-06   2.752       0.000      0.1440E+05   0.000    
     893  0.4597E-03  0.1288E-06 SHELL         31 -46.9%  0.7017E-07   1.459      0.7421E-06   2.750       0.000      0.1440E+05   0.000    
     894  0.4599E-03  0.1417E-06 SHELL         31 -47.0%  0.8378E-07   1.457      0.7314E-06   2.748       0.000      0.1440E+05   0.000    
     895  0.4600E-03  0.1559E-06 SHELL         31 -47.0%  0.1000E-06   1.455      0.7187E-06   2.746       0.000      0.1440E+05   0.000    
     896  0.4602E-03  0.1715E-06 SHELL         31 -47.0%  0.1193E-06   1.453      0.7037E-06   2.743       0.000      0.1440E+05   0.000    
     897  0.4603E-03  0.1886E-06 SHELL         31 -47.1%  0.1421E-06   1.450      0.6857E-06   2.740       0.000      0.1440E+05   0.000    
     898  0.4605E-03  0.2075E-06 SHELL         31 -47.1%  0.1691E-06   1.447      0.6645E-06   2.737       0.000      0.1440E+05   0.000    
     899  0.4607E-03  0.2283E-06 SHELL         31 -47.2%  0.2008E-06   1.444      0.6396E-06   2.733       0.000      0.1440E+05   0.000    
     900  0.4610E-03  0.2511E-06 SHELL         31 -47.2%  0.2379E-06   1.440      0.6103E-06   2.729       0.000      0.1440E+05   0.000    
     901  0.4612E-03  0.2762E-06 SHELL         31 -47.3%  0.2810E-06   1.436      0.5761E-06   2.725       0.000      0.1440E+05   0.000    
     902  0.4615E-03  0.3038E-06 SHELL         31 -47.4%  0.3306E-06   1.432      0.5366E-06   2.721       0.000      0.1440E+05   0.000    
     903  0.4618E-03  0.3342E-06 SHELL         31 -47.4%  0.3870E-06   1.427      0.4914E-06   2.715       0.000      0.1440E+05   0.000    
     904  0.4621E-03  0.3676E-06 SHELL         31 -47.5%  0.4503E-06   1.422      0.4402E-06   2.710       0.000      0.1440E+05   0.000    
     905  0.4625E-03  0.4044E-06 SHELL         31 -47.6%  0.5201E-06   1.417      0.3833E-06   2.704       0.000      0.1440E+05   0.000    
     906  0.4629E-03  0.4448E-06 SHELL         31 -47.7%  0.5950E-06   1.411      0.3212E-06   2.697       0.000      0.1440E+05   0.000    
     907  0.4633E-03  0.4893E-06 SHELL         31 -47.8%  0.6728E-06   1.404      0.2554E-06   2.690       0.000      0.1440E+05   0.000    
     908  0.4638E-03  0.5382E-06 SHELL         31 -47.9%  0.7497E-06   1.397      0.1882E-06   2.682       0.000      0.1440E+05   0.000    
     909  0.4644E-03  0.5921E-06 SHELL         31 -48.0%  0.8201E-06   1.389      0.1232E-06   2.673       0.000      0.1440E+05   0.000    
     910  0.4650E-03  0.6513E-06 SHELL         31 -48.2%  0.8763E-06   1.380      0.6577E-07   2.664       0.000      0.1440E+05   0.000    
     911  0.4656E-03  0.7164E-06 SHELL         31 -48.3%  0.9085E-06   1.371      0.2242E-07   2.653       0.000      0.1440E+05   0.000    
     912  0.4663E-03  0.7880E-06 SHELL         31 -48.5%  0.9055E-06   1.360      0.9835E-09   2.642       0.000      0.1440E+05   0.000    
     913  0.4671E-03  0.8668E-06 SHELL         31 -48.7%  0.8561E-06   1.349      0.9397E-08   2.630       0.000      0.1440E+05   0.000    
     914  0.4680E-03  0.9535E-06 SHELL         31 -48.9%  0.7524E-06   1.337      0.5370E-07   2.617       0.000      0.1440E+05   0.000    
     915  0.4689E-03  0.9756E-06 SHELL         31 -49.1%  0.5944E-06   1.324      0.1349E-06   2.603       0.000      0.1440E+05   0.000    
     916  0.4699E-03  0.9756E-06 SHELL         31 -49.4%  0.4105E-06   1.311      0.2369E-06   2.590       0.000      0.1440E+05   0.000    
     917  0.4709E-03  0.9756E-06 SHELL         31 -49.6%  0.2341E-06   1.298      0.3386E-06   2.577       0.000      0.1440E+05   0.000    
     918  0.4719E-03  0.9756E-06 SHELL         31 -49.9%  0.9421E-07   1.286      0.4209E-06   2.565       0.000      0.1440E+05   0.000    
     919  0.4728E-03  0.9756E-06 SHELL         31 -50.1%  0.1378E-07   1.273      0.4688E-06   2.552       0.000      0.1440E+05   0.000    
     920  0.4738E-03  0.9756E-06 SHELL         31 -50.4%  0.6001E-08   1.261      0.4734E-06   2.540       0.000      0.1440E+05   0.000    
     921  0.4748E-03  0.9756E-06 SHELL         31 -50.6%  0.7214E-07   1.249      0.4340E-06   2.528       0.000      0.1440E+05   0.000    
     922  0.4758E-03  0.9756E-06 SHELL         31 -50.8%  0.2013E-06   1.237      0.3577E-06   2.517       0.000      0.1440E+05   0.000    
     923  0.4767E-03  0.9756E-06 SHELL         31 -51.1%  0.3724E-06   1.226      0.2586E-06   2.505       0.000      0.1440E+05   0.000    
     924  0.4777E-03  0.9755E-06 SHELL         31 -51.3%  0.5573E-06   1.215      0.1550E-06   2.494       0.000      0.1440E+05   0.000    
     925  0.4787E-03  0.9755E-06 SHELL         31 -51.5%  0.7255E-06   1.204      0.6679E-07   2.483       0.000      0.1440E+05   0.000    
     926  0.4797E-03  0.9755E-06 SHELL         31 -51.7%  0.8497E-06   1.193      0.1174E-07   2.472       0.000      0.1440E+05   0.000    
     927  0.4806E-03  0.9755E-06 SHELL         31 -52.0%  0.9092E-06   1.182      0.2534E-08   2.462       0.000      0.1440E+05   0.000    
     928  0.4816E-03  0.9755E-06 SHELL         31 -52.2%  0.8945E-06   1.172      0.4455E-07   2.451       0.000      0.1440E+05   0.000    
     929  0.4826E-03  0.9755E-06 SHELL         31 -52.4%  0.8078E-06   1.162      0.1348E-06   2.441       0.000      0.1440E+05   0.000    
     930  0.4836E-03  0.9755E-06 SHELL         31 -52.6%  0.6635E-06   1.152      0.2623E-06   2.431       0.000      0.1440E+05   0.000    
     931  0.4845E-03  0.9755E-06 SHELL         31 -52.8%  0.4852E-06   1.143      0.4096E-06   2.422       0.000      0.1440E+05   0.000    
     932  0.4855E-03  0.9755E-06 SHELL         31 -53.0%  0.3022E-06   1.133      0.5557E-06   2.413       0.000      0.1440E+05   0.000    
     933  0.4865E-03  0.9755E-06 SHELL         31 -53.2%  0.1445E-06   1.124      0.6792E-06   2.403       0.000      0.1440E+05   0.000    
     934  0.4875E-03  0.9755E-06 SHELL         31 -53.4%  0.3793E-07   1.115      0.7617E-06   2.395       0.000      0.1440E+05   0.000    
   CYCLE    TIME      TIME-STEP  ELEMENT          ERROR  I-ENERGY    K-ENERGY T  K-ENERGY R  EXT-WORK     MAS.ERR     TOTAL MASS  MASS ADDED
     935  0.4884E-03  0.9755E-06 SHELL         31 -53.6%  0.6095E-10   1.107      0.7909E-06   2.386       0.000      0.1440E+05   0.000    
     936  0.4894E-03  0.9754E-06 SHELL         31 -53.8%  0.3707E-07   1.098      0.7624E-06   2.378       0.000      0.1440E+05   0.000    
     937  0.4904E-03  0.9754E-06 SHELL         31 -54.0%  0.1429E-06   1.090      0.6804E-06   2.369       0.000      0.1440E+05   0.000    
     938  0.4914E-03  0.9754E-06 SHELL         31 -54.2%  0.3001E-06   1.082      0.5573E-06   2.362       0.000      0.1440E+05   0.000    
     939  0.4923E-03  0.9754E-06 SHELL         31 -54.3%  0.4830E-06   1.075      0.4114E-06   2.354       0.000      0.1440E+05   0.000    
     940  0.4933E-03  0.9754E-06 SHELL         31 -54.5%  0.6616E-06   1.067      0.2640E-06   2.347       0.000      0.1440E+05   0.000    
     941  0.4943E-03  0.9754E-06 SHELL         31 -54.7%  0.8064E-06   1.060      0.1361E-06   2.339       0.000      0.1440E+05   0.000    
     942  0.4953E-03  0.9754E-06 SHELL         31 -54.8%  0.8939E-06   1.053      0.4537E-07   2.332       0.000      0.1440E+05   0.000    
     943  0.4962E-03  0.9754E-06 SHELL         31 -55.0%  0.9095E-06   1.047      0.2738E-08   2.326       0.000      0.1440E+05   0.000    
     944  0.4972E-03  0.9754E-06 SHELL         31 -55.2%  0.8508E-06   1.040      0.1132E-07   2.319       0.000      0.1440E+05   0.000    
     945  0.4982E-03  0.9754E-06 SHELL         31 -55.3%  0.7274E-06   1.034      0.6585E-07   2.313       0.000      0.1440E+05   0.000    
     946  0.4992E-03  0.9754E-06 SHELL         31 -55.4%  0.5596E-06   1.028      0.1537E-06   2.307       0.000      0.1440E+05   0.000    
     947  0.5001E-03  0.9754E-06 SHELL         31 -55.6%  0.3748E-06   1.022      0.2572E-06   2.301       0.000      0.1440E+05   0.000    
     ANIMATION FILE: FRICT41A006 WRITTEN
     948  0.5011E-03  0.9753E-06 SHELL         31 -55.7%  0.2034E-06   1.017      0.3565E-06   2.296       0.000      0.1440E+05   0.000    
     949  0.5021E-03  0.9753E-06 SHELL         31 -55.8%  0.7354E-07   1.012      0.4332E-06   2.291       0.000      0.1440E+05   0.000    
     950  0.5031E-03  0.9753E-06 SHELL         31 -56.0%  0.6467E-08   1.007      0.4731E-06   2.286       0.000      0.1440E+05   0.000    
     951  0.5040E-03  0.9753E-06 SHELL         31 -56.1%  0.1321E-07   1.002      0.4691E-06   2.281       0.000      0.1440E+05   0.000    
     952  0.5050E-03  0.9753E-06 SHELL         31 -56.2%  0.9265E-07  0.9974      0.4218E-06   2.277       0.000      0.1440E+05   0.000    
     953  0.5060E-03  0.9753E-06 SHELL         31 -56.3%  0.2318E-06  0.9931      0.3399E-06   2.272       0.000      0.1440E+05   0.000    
     954  0.5070E-03  0.9753E-06 SHELL         31 -56.4%  0.4077E-06  0.9891      0.2384E-06   2.268       0.000      0.1440E+05   0.000    
     955  0.5079E-03  0.9753E-06 SHELL         31 -56.5%  0.5917E-06  0.9854      0.1363E-06   2.265       0.000      0.1440E+05   0.000    
     956  0.5089E-03  0.9753E-06 SHELL         31 -56.6%  0.7535E-06  0.9819      0.5322E-07   2.261       0.000      0.1440E+05   0.000    
     957  0.5099E-03  0.9753E-06 SHELL         31 -56.7%  0.8665E-06  0.9786      0.6165E-08   2.258       0.000      0.1440E+05   0.000    
     958  0.5109E-03  0.9753E-06 SHELL         31 -56.7%  0.9123E-06  0.9756      0.6566E-08   2.255       0.000      0.1440E+05   0.000    
     959  0.5118E-03  0.9753E-06 SHELL         31 -56.8%  0.8833E-06  0.9729      0.5824E-07   2.252       0.000      0.1440E+05   0.000    
     960  0.5128E-03  0.9753E-06 SHELL         31 -56.9%  0.7843E-06  0.9704      0.1566E-06   2.250       0.000      0.1440E+05   0.000    
     961  0.5138E-03  0.9752E-06 SHELL         31 -56.9%  0.6315E-06  0.9681      0.2893E-06   2.247       0.000      0.1440E+05   0.000    
     962  0.5148E-03  0.9752E-06 SHELL         31 -57.0%  0.4500E-06  0.9661      0.4380E-06   2.245       0.000      0.1440E+05   0.000    
     963  0.5157E-03  0.9752E-06 SHELL         31 -57.0%  0.2696E-06  0.9644      0.5814E-06   2.244       0.000      0.1440E+05   0.000    
     964  0.5167E-03  0.9752E-06 SHELL         31 -57.1%  0.1198E-06  0.9628      0.6984E-06   2.242       0.000      0.1440E+05   0.000    
     965  0.5177E-03  0.9752E-06 SHELL         31 -57.1%  0.2523E-07  0.9616      0.7715E-06   2.241       0.000      0.1440E+05   0.000    
     966  0.5187E-03  0.9752E-06 SHELL         31 -57.1%  0.1373E-08  0.9606      0.7899E-06   2.240       0.000      0.1440E+05   0.000    
     967  0.5196E-03  0.9752E-06 SHELL         31 -57.1%  0.5215E-07  0.9599      0.7507E-06   2.239       0.000      0.1440E+05   0.000    
     968  0.5206E-03  0.9752E-06 SHELL         31 -57.1%  0.1692E-06  0.9594      0.6599E-06   2.239       0.000      0.1440E+05   0.000    
     969  0.5216E-03  0.9752E-06 SHELL         31 -57.1%  0.3334E-06  0.9591      0.5311E-06   2.238       0.000      0.1440E+05   0.000    
     970  0.5226E-03  0.9752E-06 SHELL         31 -57.1%  0.5178E-06  0.9591      0.3832E-06   2.238       0.000      0.1440E+05   0.000    
     971  0.5236E-03  0.9752E-06 SHELL         31 -57.1%  0.6921E-06  0.9594      0.2380E-06   2.239       0.000      0.1440E+05   0.000    
     972  0.5245E-03  0.9752E-06 SHELL         31 -57.1%  0.8277E-06  0.9599      0.1160E-06   2.239       0.000      0.1440E+05   0.000    
     973  0.5255E-03  0.9751E-06 SHELL         31 -57.1%  0.9025E-06  0.9607      0.3357E-07   2.240       0.000      0.1440E+05   0.000    
     974  0.5265E-03  0.9751E-06 SHELL         31 -57.1%  0.9041E-06  0.9617      0.5040E-09   2.241       0.000      0.1440E+05   0.000    
     975  0.5275E-03  0.9751E-06 SHELL         31 -57.1%  0.8324E-06  0.9630      0.1826E-07   2.242       0.000      0.1440E+05   0.000    
     976  0.5284E-03  0.9751E-06 SHELL         31 -57.0%  0.6989E-06  0.9645      0.8009E-07   2.244       0.000      0.1440E+05   0.000    
     977  0.5294E-03  0.9751E-06 SHELL         31 -57.0%  0.5258E-06  0.9663      0.1723E-06   2.246       0.000      0.1440E+05   0.000    
     978  0.5304E-03  0.9751E-06 SHELL         31 -56.9%  0.3412E-06  0.9684      0.2764E-06   2.248       0.000      0.1440E+05   0.000    
     979  0.5314E-03  0.9751E-06 SHELL         31 -56.9%  0.1756E-06  0.9707      0.3728E-06   2.250       0.000      0.1440E+05   0.000    
     980  0.5323E-03  0.9751E-06 SHELL         31 -56.8%  0.5601E-07  0.9733      0.4436E-06   2.252       0.000      0.1440E+05   0.000    
     981  0.5333E-03  0.9751E-06 SHELL         31 -56.7%  0.2077E-08  0.9761      0.4757E-06   2.255       0.000      0.1440E+05   0.000    
     982  0.5343E-03  0.9751E-06 SHELL         31 -56.6%  0.2265E-07  0.9792      0.4634E-06   2.258       0.000      0.1440E+05   0.000    
     983  0.5353E-03  0.9751E-06 SHELL         31 -56.6%  0.1143E-06  0.9825      0.4090E-06   2.262       0.000      0.1440E+05   0.000    
     984  0.5362E-03  0.9751E-06 SHELL         31 -56.5%  0.2621E-06  0.9861      0.3222E-06   2.265       0.000      0.1440E+05   0.000    
     985  0.5372E-03  0.9751E-06 SHELL         31 -56.4%  0.4418E-06  0.9900      0.2191E-06   2.269       0.000      0.1440E+05   0.000    
     986  0.5382E-03  0.9750E-06 SHELL         31 -56.3%  0.6238E-06  0.9941      0.1191E-06   2.273       0.000      0.1440E+05   0.000    
     987  0.5392E-03  0.9750E-06 SHELL         31 -56.2%  0.7784E-06  0.9985      0.4150E-07   2.278       0.000      0.1440E+05   0.000    
     988  0.5401E-03  0.9750E-06 SHELL         31 -56.0%  0.8803E-06   1.003      0.2477E-08   2.282       0.000      0.1440E+05   0.000    
     989  0.5411E-03  0.9750E-06 SHELL         31 -55.9%  0.9126E-06   1.008      0.1218E-07   2.287       0.000      0.1440E+05   0.000    
   CYCLE    TIME      TIME-STEP  ELEMENT          ERROR  I-ENERGY    K-ENERGY T  K-ENERGY R  EXT-WORK     MAS.ERR     TOTAL MASS  MASS ADDED
     990  0.5421E-03  0.9750E-06 SHELL         31 -55.8%  0.8702E-06   1.013      0.7292E-07   2.292       0.000      0.1440E+05   0.000    
     991  0.5431E-03  0.9750E-06 SHELL         31 -55.7%  0.7600E-06   1.019      0.1786E-06   2.298       0.000      0.1440E+05   0.000    
     992  0.5440E-03  0.9750E-06 SHELL         31 -55.5%  0.6000E-06   1.024      0.3157E-06   2.303       0.000      0.1440E+05   0.000    
     993  0.5450E-03  0.9750E-06 SHELL         31 -55.4%  0.4165E-06   1.030      0.4650E-06   2.309       0.000      0.1440E+05   0.000    
     994  0.5460E-03  0.9750E-06 SHELL         31 -55.2%  0.2395E-06   1.037      0.6050E-06   2.316       0.000      0.1440E+05   0.000    
     995  0.5470E-03  0.9750E-06 SHELL         31 -55.1%  0.9813E-07   1.043      0.7152E-06   2.322       0.000      0.1440E+05   0.000    
     996  0.5479E-03  0.9750E-06 SHELL         31 -54.9%  0.1549E-07   1.050      0.7790E-06   2.329       0.000      0.1440E+05   0.000    
     997  0.5489E-03  0.9750E-06 SHELL         31 -54.8%  0.5131E-08   1.057      0.7870E-06   2.336       0.000      0.1440E+05   0.000    
     998  0.5499E-03  0.9749E-06 SHELL         31 -54.6%  0.6876E-07   1.064      0.7379E-06   2.343       0.000      0.1440E+05   0.000    
     999  0.5509E-03  0.9749E-06 SHELL         31 -54.4%  0.1959E-06   1.072      0.6391E-06   2.351       0.000      0.1440E+05   0.000    
    1000  0.5518E-03  0.9749E-06 SHELL         31 -54.2%  0.3658E-06   1.079      0.5054E-06   2.359       0.000      0.1440E+05   0.000    
    1001  0.5528E-03  0.9749E-06 SHELL         31 -54.1%  0.5506E-06   1.087      0.3565E-06   2.367       0.000      0.1440E+05   0.000    
    1002  0.5538E-03  0.9749E-06 SHELL         31 -53.9%  0.7199E-06   1.096      0.2140E-06   2.375       0.000      0.1440E+05   0.000    
    1003  0.5548E-03  0.9749E-06 SHELL         31 -53.7%  0.8460E-06   1.104      0.9800E-07   2.384       0.000      0.1440E+05   0.000    
    1004  0.5557E-03  0.9749E-06 SHELL         31 -53.5%  0.9083E-06   1.113      0.2393E-07   2.392       0.000      0.1440E+05   0.000    
    1005  0.5567E-03  0.9749E-06 SHELL         31 -53.3%  0.8966E-06   1.122      0.3529E-10   2.402       0.000      0.1440E+05   0.000    
    1006  0.5577E-03  0.9749E-06 SHELL         31 -53.1%  0.8127E-06   1.132      0.2632E-07   2.411       0.000      0.1440E+05   0.000    
    1007  0.5587E-03  0.9749E-06 SHELL         31 -52.8%  0.6705E-06   1.142      0.9466E-07   2.421       0.000      0.1440E+05   0.000    
    1008  0.5596E-03  0.9749E-06 SHELL         31 -52.6%  0.4932E-06   1.151      0.1903E-06   2.431       0.000      0.1440E+05   0.000    
    1009  0.5606E-03  0.9749E-06 SHELL         31 -52.4%  0.3098E-06   1.162      0.2945E-06   2.441       0.000      0.1440E+05   0.000    
    1010  0.5616E-03  0.9748E-06 SHELL         31 -52.2%  0.1505E-06   1.172      0.3875E-06   2.451       0.000      0.1440E+05   0.000    
    1011  0.5626E-03  0.9748E-06 SHELL         31 -52.0%  0.4140E-07   1.183      0.4522E-06   2.462       0.000      0.1440E+05   0.000    
    1012  0.5635E-03  0.9748E-06 SHELL         31 -51.7%  0.2813E-09   1.194      0.4768E-06   2.473       0.000      0.1440E+05   0.000    
    1013  0.5645E-03  0.9748E-06 SHELL         31 -51.5%  0.3392E-07   1.205      0.4567E-06   2.484       0.000      0.1440E+05   0.000    
    1014  0.5655E-03  0.9748E-06 SHELL         31 -51.2%  0.1368E-06   1.217      0.3957E-06   2.496       0.000      0.1440E+05   0.000    
    1015  0.5664E-03  0.9748E-06 SHELL         31 -51.0%  0.2921E-06   1.229      0.3048E-06   2.508       0.000      0.1440E+05   0.000    
    1016  0.5674E-03  0.9748E-06 SHELL         31 -50.8%  0.4743E-06   1.241      0.2009E-06   2.520       0.000      0.1440E+05   0.000    
    1017  0.5684E-03  0.9748E-06 SHELL         31 -50.5%  0.6536E-06   1.253      0.1034E-06   2.532       0.000      0.1440E+05   0.000    
    1018  0.5694E-03  0.9748E-06 SHELL         31 -50.3%  0.8006E-06   1.266      0.3156E-07   2.545       0.000      0.1440E+05   0.000    
    1019  0.5703E-03  0.9748E-06 SHELL         31 -50.0%  0.8912E-06   1.279      0.4925E-09   2.558       0.000      0.1440E+05   0.000    
    1020  0.5713E-03  0.9748E-06 SHELL         31 -49.7%  0.9106E-06   1.292      0.1912E-07   2.571       0.000      0.1440E+05   0.000    
    1021  0.5723E-03  0.9748E-06 SHELL         31 -49.5%  0.8556E-06   1.306      0.8830E-07   2.585       0.000      0.1440E+05   0.000    
    1022  0.5733E-03  0.9748E-06 SHELL         31 -49.2%  0.7352E-06   1.319      0.2006E-06   2.599       0.000      0.1440E+05   0.000    
    1023  0.5742E-03  0.9747E-06 SHELL         31 -49.0%  0.5692E-06   1.333      0.3412E-06   2.613       0.000      0.1440E+05   0.000    
    1024  0.5752E-03  0.9747E-06 SHELL         31 -48.7%  0.3847E-06   1.348      0.4904E-06   2.627       0.000      0.1440E+05   0.000    
    1025  0.5762E-03  0.9747E-06 SHELL         31 -48.4%  0.2119E-06   1.362      0.6266E-06   2.642       0.000      0.1440E+05   0.000    
    1026  0.5772E-03  0.9747E-06 SHELL         31 -48.2%  0.7928E-07   1.377      0.7298E-06   2.656       0.000      0.1440E+05   0.000    
    1027  0.5781E-03  0.9747E-06 SHELL         31 -47.9%  0.8419E-08   1.392      0.7845E-06   2.672       0.000      0.1440E+05   0.000    
    1028  0.5791E-03  0.9747E-06 SHELL         31 -47.6%  0.1097E-07   1.408      0.7825E-06   2.687       0.000      0.1440E+05   0.000    
    1029  0.5801E-03  0.9747E-06 SHELL         31 -47.3%  0.8650E-07   1.424      0.7242E-06   2.703       0.000      0.1440E+05   0.000    
    1030  0.5811E-03  0.9747E-06 SHELL         31 -47.0%  0.2227E-06   1.440      0.6183E-06   2.719       0.000      0.1440E+05   0.000    
    1031  0.5820E-03  0.9747E-06 SHELL         31 -46.8%  0.3971E-06   1.456      0.4805E-06   2.735       0.000      0.1440E+05   0.000    
    1032  0.5830E-03  0.9747E-06 SHELL         31 -46.5%  0.5813E-06   1.472      0.3312E-06   2.752       0.000      0.1440E+05   0.000    
    1033  0.5840E-03  0.9747E-06 SHELL         31 -46.2%  0.7451E-06   1.489      0.1919E-06   2.768       0.000      0.1440E+05   0.000    
    1034  0.5850E-03  0.9747E-06 SHELL         31 -45.9%  0.8615E-06   1.506      0.8217E-07   2.786       0.000      0.1440E+05   0.000    
    1035  0.5859E-03  0.9746E-06 SHELL         31 -45.6%  0.9117E-06   1.524      0.1625E-07   2.803       0.000      0.1440E+05   0.000    
    1036  0.5869E-03  0.9746E-06 SHELL         31 -45.3%  0.8873E-06   1.542      0.1078E-08   2.821       0.000      0.1440E+05   0.000    
    1037  0.5879E-03  0.9746E-06 SHELL         31 -45.1%  0.7923E-06   1.559      0.3522E-07   2.839       0.000      0.1440E+05   0.000    
    1038  0.5889E-03  0.9746E-06 SHELL         31 -44.8%  0.6423E-06   1.578      0.1093E-06   2.857       0.000      0.1440E+05   0.000    
    1039  0.5898E-03  0.9746E-06 SHELL         31 -44.5%  0.4619E-06   1.596      0.2078E-06   2.875       0.000      0.1440E+05   0.000    
    1040  0.5908E-03  0.9746E-06 SHELL         31 -44.2%  0.2807E-06   1.615      0.3114E-06   2.894       0.000      0.1440E+05   0.000    
    1041  0.5918E-03  0.9746E-06 SHELL         31 -43.9%  0.1282E-06   1.634      0.4007E-06   2.913       0.000      0.1440E+05   0.000    
    1042  0.5928E-03  0.9746E-06 SHELL         31 -43.6%  0.2950E-07   1.654      0.4593E-06   2.933       0.000      0.1440E+05   0.000    
    1043  0.5937E-03  0.9746E-06 SHELL         31 -43.3%  0.7462E-09   1.673      0.4765E-06   2.952       0.000      0.1440E+05   0.000    
    1044  0.5947E-03  0.9746E-06 SHELL         31 -43.0%  0.4664E-07   1.693      0.4491E-06   2.972       0.000      0.1440E+05   0.000    
   CYCLE    TIME      TIME-STEP  ELEMENT          ERROR  I-ENERGY    K-ENERGY T  K-ENERGY R  EXT-WORK     MAS.ERR     TOTAL MASS  MASS ADDED
    1045  0.5957E-03  0.9746E-06 SHELL         31 -42.7%  0.1597E-06   1.714      0.3821E-06   2.993       0.000      0.1440E+05   0.000    
    1046  0.5967E-03  0.9746E-06 SHELL         31 -42.5%  0.3213E-06   1.734      0.2879E-06   3.013       0.000      0.1440E+05   0.000    
    1047  0.5976E-03  0.9745E-06 SHELL         31 -42.2%  0.5051E-06   1.755      0.1837E-06   3.034       0.000      0.1440E+05   0.000    
    1048  0.5986E-03  0.9745E-06 SHELL         31 -41.9%  0.6809E-06   1.776      0.8927E-07   3.055       0.000      0.1440E+05   0.000    
    1049  0.5996E-03  0.9745E-06 SHELL         31 -41.6%  0.8200E-06   1.797      0.2326E-07   3.077       0.000      0.1440E+05   0.000    
    1050  0.6006E-03  0.9745E-06 SHELL         31 -41.3%  0.8996E-06   1.819      0.1733E-10   3.098       0.000      0.1440E+05   0.000    
     ANIMATION FILE: FRICT41A007 WRITTEN
    1051  0.6015E-03  0.9745E-06 SHELL         31 -41.0%  0.9066E-06   1.841      0.2715E-07   3.120       0.000      0.1440E+05   0.000    
    1052  0.6025E-03  0.9745E-06 SHELL         31 -40.7%  0.8399E-06   1.863      0.1041E-06   3.143       0.000      0.1440E+05   0.000    
    1053  0.6035E-03  0.9745E-06 SHELL         31 -40.4%  0.7105E-06   1.886      0.2222E-06   3.165       0.000      0.1440E+05   0.000    
    1054  0.6045E-03  0.9745E-06 SHELL         31 -40.1%  0.5394E-06   1.909      0.3656E-06   3.188       0.000      0.1440E+05   0.000    
    1055  0.6054E-03  0.9745E-06 SHELL         31 -39.8%  0.3548E-06   1.932      0.5142E-06   3.211       0.000      0.1440E+05   0.000    
    1056  0.6064E-03  0.9745E-06 SHELL         31 -39.5%  0.1869E-06   1.955      0.6462E-06   3.235       0.000      0.1440E+05   0.000    
    1057  0.6074E-03  0.9745E-06 SHELL         31 -39.3%  0.6310E-07   1.979      0.7423E-06   3.258       0.000      0.1440E+05   0.000    
    1058  0.6084E-03  0.9745E-06 SHELL         31 -39.0%  0.3737E-08   2.003      0.7881E-06   3.282       0.000      0.1440E+05   0.000    
    1059  0.6093E-03  0.9745E-06 SHELL         31 -38.7%  0.1852E-07   2.027      0.7767E-06   3.307       0.000      0.1440E+05   0.000    
    1060  0.6103E-03  0.9744E-06 SHELL         31 -38.4%  0.1050E-06   2.052      0.7099E-06   3.331       0.000      0.1440E+05   0.000    
    1061  0.6113E-03  0.9744E-06 SHELL         31 -38.1%  0.2491E-06   2.077      0.5976E-06   3.356       0.000      0.1440E+05   0.000    
    1062  0.6123E-03  0.9744E-06 SHELL         31 -37.8%  0.4271E-06   2.102      0.4565E-06   3.381       0.000      0.1440E+05   0.000    
    1063  0.6132E-03  0.9744E-06 SHELL         31 -37.5%  0.6100E-06   2.128      0.3074E-06   3.407       0.000      0.1440E+05   0.000    
    1064  0.6142E-03  0.9744E-06 SHELL         31 -37.3%  0.7677E-06   2.153      0.1718E-06   3.433       0.000      0.1440E+05   0.000    
    1065  0.6152E-03  0.9744E-06 SHELL         31 -37.0%  0.8745E-06   2.180      0.6832E-07   3.459       0.000      0.1440E+05   0.000    
    1066  0.6162E-03  0.9744E-06 SHELL         31 -36.7%  0.9129E-06   2.206      0.1033E-07   3.485       0.000      0.1440E+05   0.000    
    1067  0.6171E-03  0.9744E-06 SHELL         31 -36.4%  0.8765E-06   2.233      0.3387E-08   3.512       0.000      0.1440E+05   0.000    
    1068  0.6181E-03  0.9744E-06 SHELL         31 -36.1%  0.7715E-06   2.260      0.4474E-07   3.539       0.000      0.1440E+05   0.000    
    1069  0.6191E-03  0.9744E-06 SHELL         31 -35.9%  0.6148E-06   2.287      0.1239E-06   3.566       0.000      0.1440E+05   0.000    
    1070  0.6201E-03  0.9744E-06 SHELL         31 -35.6%  0.4323E-06   2.314      0.2244E-06   3.594       0.000      0.1440E+05   0.000    
    1071  0.6210E-03  0.9744E-06 SHELL         31 -35.3%  0.2538E-06   2.342      0.3270E-06   3.622       0.000      0.1440E+05   0.000    
    1072  0.6220E-03  0.9743E-06 SHELL         31 -35.0%  0.1084E-06   2.371      0.4124E-06   3.650       0.000      0.1440E+05   0.000    
    1073  0.6230E-03  0.9743E-06 SHELL         31 -34.8%  0.2004E-07   2.399      0.4649E-06   3.678       0.000      0.1440E+05   0.000    
    1074  0.6239E-03  0.9743E-06 SHELL         31 -34.5%  0.3143E-08   2.428      0.4750E-06   3.707       0.000      0.1440E+05   0.000    
    1075  0.6249E-03  0.9743E-06 SHELL         31 -34.2%  0.6047E-07   2.457      0.4408E-06   3.736       0.000      0.1440E+05   0.000    
    1076  0.6259E-03  0.9743E-06 SHELL         31 -34.0%  0.1826E-06   2.486      0.3686E-06   3.765       0.000      0.1440E+05   0.000    
    1077  0.6269E-03  0.9743E-06 SHELL         31 -33.7%  0.3496E-06   2.516      0.2716E-06   3.795       0.000      0.1440E+05   0.000    
    1078  0.6278E-03  0.9743E-06 SHELL         31 -33.4%  0.5341E-06   2.546      0.1676E-06   3.825       0.000      0.1440E+05   0.000    
    1079  0.6288E-03  0.9743E-06 SHELL         31 -33.2%  0.7059E-06   2.576      0.7657E-07   3.855       0.000      0.1440E+05   0.000    
    1080  0.6298E-03  0.9743E-06 SHELL         31 -32.9%  0.8369E-06   2.607      0.1650E-07   3.886       0.000      0.1440E+05   0.000    
    1081  0.6308E-03  0.9743E-06 SHELL         31 -32.7%  0.9057E-06   2.638      0.8551E-09   3.917       0.000      0.1440E+05   0.000    
    1082  0.6317E-03  0.9743E-06 SHELL         31 -32.4%  0.9009E-06   2.669      0.3603E-07   3.948       0.000      0.1440E+05   0.000    
    1083  0.6327E-03  0.9743E-06 SHELL         31 -32.1%  0.8235E-06   2.701      0.1202E-06   3.980       0.000      0.1440E+05   0.000    
    1084  0.6337E-03  0.9742E-06 SHELL         31 -31.9%  0.6859E-06   2.732      0.2433E-06   4.012       0.000      0.1440E+05   0.000    
    1085  0.6347E-03  0.9742E-06 SHELL         31 -31.6%  0.5109E-06   2.764      0.3889E-06   4.044       0.000      0.1440E+05   0.000    
    1086  0.6356E-03  0.9742E-06 SHELL         31 -31.4%  0.3270E-06   2.797      0.5363E-06   4.076       0.000      0.1440E+05   0.000    
    1087  0.6366E-03  0.9742E-06 SHELL         31 -31.1%  0.1642E-06   2.830      0.6639E-06   4.109       0.000      0.1440E+05   0.000    
    1088  0.6376E-03  0.9742E-06 SHELL         31 -30.9%  0.4937E-07   2.863      0.7529E-06   4.142       0.000      0.1440E+05   0.000    
    1089  0.6386E-03  0.9742E-06 SHELL         31 -30.6%  0.1147E-08   2.896      0.7901E-06   4.175       0.000      0.1440E+05   0.000    
    1090  0.6395E-03  0.9742E-06 SHELL         31 -30.4%  0.2745E-07   2.930      0.7698E-06   4.209       0.000      0.1440E+05   0.000    
    1091  0.6405E-03  0.9742E-06 SHELL         31 -30.1%  0.1240E-06   2.964      0.6952E-06   4.243       0.000      0.1440E+05   0.000    
    1092  0.6415E-03  0.9742E-06 SHELL         31 -29.9%  0.2749E-06   2.998      0.5773E-06   4.277       0.000      0.1440E+05   0.000    
    1093  0.6425E-03  0.9742E-06 SHELL         31 -29.7%  0.4556E-06   3.033      0.4336E-06   4.312       0.000      0.1440E+05   0.000    
    1094  0.6434E-03  0.9742E-06 SHELL         31 -29.4%  0.6365E-06   3.068      0.2853E-06   4.347       0.000      0.1440E+05   0.000    
    1095  0.6444E-03  0.9742E-06 SHELL         31 -29.2%  0.7879E-06   3.103      0.1535E-06   4.382       0.000      0.1440E+05   0.000    
    1096  0.6454E-03  0.9742E-06 SHELL         31 -29.0%  0.8851E-06   3.138      0.5631E-07   4.417       0.000      0.1440E+05   0.000    
    1097  0.6464E-03  0.9741E-06 SHELL         31 -28.7%  0.9122E-06   3.174      0.5955E-08   4.453       0.000      0.1440E+05   0.000    
    1098  0.6473E-03  0.9741E-06 SHELL         31 -28.5%  0.8647E-06   3.210      0.6732E-08   4.490       0.000      0.1440E+05   0.000    
    1099  0.6483E-03  0.9741E-06 SHELL         31 -28.3%  0.7505E-06   3.247      0.5464E-07   4.526       0.000      0.1440E+05   0.000    
   CYCLE    TIME      TIME-STEP  ELEMENT          ERROR  I-ENERGY    K-ENERGY T  K-ENERGY R  EXT-WORK     MAS.ERR     TOTAL MASS  MASS ADDED
    1100  0.6493E-03  0.9741E-06 SHELL         31 -28.0%  0.5882E-06   3.284      0.1382E-06   4.563       0.000      0.1440E+05   0.000    
    1101  0.6503E-03  0.9741E-06 SHELL         31 -27.8%  0.4044E-06   3.321      0.2403E-06   4.600       0.000      0.1440E+05   0.000    
    1102  0.6512E-03  0.9741E-06 SHELL         31 -27.6%  0.2291E-06   3.358      0.3414E-06   4.637       0.000      0.1440E+05   0.000    
    1103  0.6522E-03  0.9741E-06 SHELL         31 -27.4%  0.9102E-07   3.396      0.4227E-06   4.675       0.000      0.1440E+05   0.000    
    1104  0.6532E-03  0.9741E-06 SHELL         31 -27.1%  0.1278E-07   3.434      0.4692E-06   4.713       0.000      0.1440E+05   0.000    
    1105  0.6542E-03  0.9741E-06 SHELL         31 -26.9%  0.7154E-08   3.472      0.4726E-06   4.752       0.000      0.1440E+05   0.000    
    1106  0.6551E-03  0.9741E-06 SHELL         31 -26.7%  0.7506E-07   3.511      0.4321E-06   4.790       0.000      0.1440E+05   0.000    
    1107  0.6561E-03  0.9741E-06 SHELL         31 -26.5%  0.2054E-06   3.550      0.3552E-06   4.829       0.000      0.1440E+05   0.000    
    1108  0.6571E-03  0.9741E-06 SHELL         31 -26.3%  0.3768E-06   3.589      0.2560E-06   4.869       0.000      0.1440E+05   0.000    
    1109  0.6580E-03  0.9740E-06 SHELL         31 -26.1%  0.5613E-06   3.629      0.1528E-06   4.908       0.000      0.1440E+05   0.000    
    1110  0.6590E-03  0.9740E-06 SHELL         31 -25.9%  0.7286E-06   3.669      0.6528E-07   4.948       0.000      0.1440E+05   0.000    
    1111  0.6600E-03  0.9740E-06 SHELL         31 -25.6%  0.8515E-06   3.709      0.1112E-07   4.988       0.000      0.1440E+05   0.000    
    1112  0.6610E-03  0.9740E-06 SHELL         31 -25.4%  0.9098E-06   3.750      0.2810E-08   5.029       0.000      0.1440E+05   0.000    
    1113  0.6619E-03  0.9740E-06 SHELL         31 -25.2%  0.8939E-06   3.791      0.4554E-07   5.070       0.000      0.1440E+05   0.000    
    1114  0.6629E-03  0.9740E-06 SHELL         31 -25.0%  0.8065E-06   3.832      0.1362E-06   5.111       0.000      0.1440E+05   0.000    
    1115  0.6639E-03  0.9740E-06 SHELL         31 -24.8%  0.6619E-06   3.874      0.2638E-06   5.153       0.000      0.1440E+05   0.000    
    1116  0.6649E-03  0.9740E-06 SHELL         31 -24.6%  0.4837E-06   3.916      0.4110E-06   5.195       0.000      0.1440E+05   0.000    
    1117  0.6658E-03  0.9740E-06 SHELL         31 -24.4%  0.3011E-06   3.958      0.5567E-06   5.237       0.000      0.1440E+05   0.000    
    1118  0.6668E-03  0.9740E-06 SHELL         31 -24.2%  0.1439E-06   4.000      0.6797E-06   5.280       0.000      0.1440E+05   0.000    
    1119  0.6678E-03  0.9740E-06 SHELL         31 -24.0%  0.3790E-07   4.043      0.7618E-06   5.322       0.000      0.1440E+05   0.000    
    1120  0.6688E-03  0.9740E-06 SHELL         31 -23.8%  0.3576E-09   4.087      0.7907E-06   5.366       0.000      0.1440E+05   0.000    
    1121  0.6697E-03  0.9740E-06 SHELL         31 -23.6%  0.3744E-07   4.130      0.7621E-06   5.409       0.000      0.1440E+05   0.000    
    1122  0.6707E-03  0.9739E-06 SHELL         31 -23.5%  0.1431E-06   4.174      0.6803E-06   5.453       0.000      0.1440E+05   0.000    
    1123  0.6717E-03  0.9739E-06 SHELL         31 -23.3%  0.3000E-06   4.218      0.5575E-06   5.497       0.000      0.1440E+05   0.000    
    1124  0.6727E-03  0.9739E-06 SHELL         31 -23.1%  0.4826E-06   4.263      0.4119E-06   5.542       0.000      0.1440E+05   0.000    
    1125  0.6736E-03  0.9739E-06 SHELL         31 -22.9%  0.6609E-06   4.307      0.2647E-06   5.587       0.000      0.1440E+05   0.000    
    1126  0.6746E-03  0.9739E-06 SHELL         31 -22.7%  0.8058E-06   4.353      0.1370E-06   5.632       0.000      0.1440E+05   0.000    
    1127  0.6756E-03  0.9739E-06 SHELL         31 -22.5%  0.8936E-06   4.398      0.4600E-07   5.677       0.000      0.1440E+05   0.000    
    1128  0.6766E-03  0.9739E-06 SHELL         31 -22.4%  0.9099E-06   4.444      0.2927E-08   5.723       0.000      0.1440E+05   0.000    
    1129  0.6775E-03  0.9739E-06 SHELL         31 -22.2%  0.8521E-06   4.490      0.1090E-07   5.769       0.000      0.1440E+05   0.000    
    1130  0.6785E-03  0.9739E-06 SHELL         31 -22.0%  0.7297E-06   4.537      0.6475E-07   5.816       0.000      0.1440E+05   0.000    
    1131  0.6795E-03  0.9739E-06 SHELL         31 -21.8%  0.5626E-06   4.583      0.1520E-06   5.863       0.000      0.1440E+05   0.000    
    1132  0.6804E-03  0.9739E-06 SHELL         31 -21.6%  0.3782E-06   4.631      0.2552E-06   5.910       0.000      0.1440E+05   0.000    
    1133  0.6814E-03  0.9739E-06 SHELL         31 -21.5%  0.2066E-06   4.678      0.3545E-06   5.957       0.000      0.1440E+05   0.000    
    1134  0.6824E-03  0.9738E-06 SHELL         31 -21.3%  0.7590E-07   4.726      0.4316E-06   6.005       0.000      0.1440E+05   0.000    
    1135  0.6834E-03  0.9738E-06 SHELL         31 -21.1%  0.7465E-08   4.774      0.4723E-06   6.053       0.000      0.1440E+05   0.000    
    1136  0.6843E-03  0.9738E-06 SHELL         31 -21.0%  0.1247E-07   4.823      0.4694E-06   6.102       0.000      0.1440E+05   0.000    
    1137  0.6853E-03  0.9738E-06 SHELL         31 -20.8%  0.9011E-07   4.871      0.4232E-06   6.150       0.000      0.1440E+05   0.000    
    1138  0.6863E-03  0.9738E-06 SHELL         31 -20.6%  0.2277E-06   4.921      0.3422E-06   6.200       0.000      0.1440E+05   0.000    
    1139  0.6873E-03  0.9738E-06 SHELL         31 -20.5%  0.4027E-06   4.970      0.2412E-06   6.249       0.000      0.1440E+05   0.000    
    1140  0.6882E-03  0.9738E-06 SHELL         31 -20.3%  0.5865E-06   5.020      0.1391E-06   6.299       0.000      0.1440E+05   0.000    
    1141  0.6892E-03  0.9738E-06 SHELL         31 -20.1%  0.7491E-06   5.070      0.5532E-07   6.349       0.000      0.1440E+05   0.000    
    1142  0.6902E-03  0.9738E-06 SHELL         31 -20.0%  0.8639E-06   5.121      0.6999E-08   6.400       0.000      0.1440E+05   0.000    
    1143  0.6912E-03  0.9738E-06 SHELL         31 -19.8%  0.9121E-06   5.171      0.5691E-08   6.451       0.000      0.1440E+05   0.000    
    1144  0.6921E-03  0.9738E-06 SHELL         31 -19.7%  0.8859E-06   5.223      0.5547E-07   6.502       0.000      0.1440E+05   0.000    
    1145  0.6931E-03  0.2965E-06 NODE          33 -19.4%  0.7894E-06   5.254      0.1521E-06   6.516       0.000      0.1440E+05   0.000    
    1146  0.6934E-03  0.1680E-06 NODE          33 -19.5%  0.7129E-06   5.255      0.1888E-06   6.525       0.000      0.1440E+05   0.000    
    1147  0.6936E-03  0.1271E-06 NODE          33 -19.6%  0.6619E-06   5.253      0.2104E-06   6.531       0.000      0.1440E+05   0.000    
    1148  0.6937E-03  0.1107E-06 NODE          33 -19.7%  0.6203E-06   5.251      0.2269E-06   6.537       0.000      0.1440E+05   0.000    
    1149  0.6938E-03  0.1034E-06 NODE          33 -19.8%  0.5823E-06   5.247      0.2413E-06   6.542       0.000      0.1440E+05   0.000    
    1150  0.6939E-03  0.9998E-07 NODE          33 -19.9%  0.5455E-06   5.244      0.2547E-06   6.548       0.000      0.1440E+05   0.000    
    1151  0.6940E-03  0.9831E-07 NODE          33 -20.0%  0.5091E-06   5.240      0.2675E-06   6.553       0.000      0.1440E+05   0.000    
    1152  0.6941E-03  0.9749E-07 NODE          33 -20.2%  0.4727E-06   5.235      0.2800E-06   6.558       0.000      0.1440E+05   0.000    
    1153  0.6942E-03  0.9708E-07 NODE          33 -20.3%  0.4362E-06   5.230      0.2922E-06   6.563       0.000      0.1440E+05   0.000    
    1154  0.6943E-03  0.9687E-07 NODE          33 -20.5%  0.3997E-06   5.224      0.3041E-06   6.568       0.000      0.1440E+05   0.000    
   CYCLE    TIME      TIME-STEP  ELEMENT          ERROR  I-ENERGY    K-ENERGY T  K-ENERGY R  EXT-WORK     MAS.ERR     TOTAL MASS  MASS ADDED
    1155  0.6944E-03  0.9676E-07 NODE          33 -20.6%  0.3634E-06   5.217      0.3156E-06   6.573       0.000      0.1440E+05   0.000    
    1156  0.6945E-03  0.9670E-07 NODE          33 -20.8%  0.3274E-06   5.210      0.3268E-06   6.578       0.000      0.1440E+05   0.000    
    1157  0.6946E-03  0.9667E-07 NODE          33 -21.0%  0.2920E-06   5.203      0.3376E-06   6.584       0.000      0.1440E+05   0.000    
    1158  0.6947E-03  0.9664E-07 NODE          33 -21.2%  0.2575E-06   5.195      0.3478E-06   6.589       0.000      0.1440E+05   0.000    
    1159  0.6948E-03  0.9663E-07 NODE          33 -21.3%  0.2240E-06   5.186      0.3576E-06   6.594       0.000      0.1440E+05   0.000    
    1160  0.6949E-03  0.9661E-07 NODE          33 -21.5%  0.1918E-06   5.177      0.3668E-06   6.599       0.000      0.1440E+05   0.000    
    1161  0.6950E-03  0.9660E-07 NODE          33 -21.8%  0.1613E-06   5.167      0.3753E-06   6.604       0.000      0.1440E+05   0.000    
    1162  0.6951E-03  0.9659E-07 NODE          33 -22.0%  0.1326E-06   5.157      0.3832E-06   6.609       0.000      0.1440E+05   0.000    
    1163  0.6952E-03  0.9658E-07 NODE          33 -22.2%  0.1060E-06   5.147      0.3904E-06   6.614       0.000      0.1440E+05   0.000    
    1164  0.6953E-03  0.9657E-07 NODE          33 -22.4%  0.8173E-07   5.135      0.3968E-06   6.619       0.000      0.1440E+05   0.000    
    1165  0.6954E-03  0.9656E-07 NODE          33 -22.6%  0.6015E-07   5.124      0.4024E-06   6.624       0.000      0.1440E+05   0.000    
    1166  0.6955E-03  0.9655E-07 NODE          33 -22.9%  0.4148E-07   5.112      0.4072E-06   6.629       0.000      0.1440E+05   0.000    
    1167  0.6956E-03  0.9654E-07 NODE          33 -23.1%  0.2598E-07   5.099      0.4111E-06   6.634       0.000      0.1440E+05   0.000    
    1168  0.6957E-03  0.9653E-07 NODE          33 -23.4%  0.1390E-07   5.086      0.4140E-06   6.639       0.000      0.1440E+05   0.000    
    1169  0.6958E-03  0.9652E-07 NODE          33 -23.6%  0.5519E-08   5.073      0.4161E-06   6.644       0.000      0.1440E+05   0.000    
    1170  0.6959E-03  0.9651E-07 NODE          33 -23.9%  0.1076E-08   5.059      0.4171E-06   6.649       0.000      0.1440E+05   0.000    
    1171  0.6959E-03  0.9650E-07 NODE          33 -24.2%  0.8237E-09   5.044      0.4172E-06   6.654       0.000      0.1440E+05   0.000    
    1172  0.6960E-03  0.9649E-07 NODE          33 -24.5%  0.5008E-08   5.030      0.4162E-06   6.659       0.000      0.1440E+05   0.000    
    1173  0.6961E-03  0.9648E-07 NODE          33 -24.7%  0.1387E-07   5.015      0.4142E-06   6.664       0.000      0.1440E+05   0.000    
    1174  0.6962E-03  0.9647E-07 NODE          33 -25.0%  0.2763E-07   4.999      0.4112E-06   6.668       0.000      0.1440E+05   0.000    
    1175  0.6963E-03  0.9646E-07 NODE          33 -25.3%  0.4653E-07   4.983      0.4071E-06   6.673       0.000      0.1440E+05   0.000    
    1176  0.6964E-03  0.9646E-07 NODE          33 -25.6%  0.7078E-07   4.967      0.4020E-06   6.678       0.000      0.1440E+05   0.000    
    1177  0.6965E-03  0.9645E-07 NODE          33 -25.9%  0.1006E-06   4.950      0.3959E-06   6.683       0.000      0.1440E+05   0.000    
    1178  0.6966E-03  0.9644E-07 NODE          33 -26.2%  0.1362E-06   4.933      0.3887E-06   6.688       0.000      0.1440E+05   0.000    
    1179  0.6967E-03  0.9643E-07 NODE          33 -26.5%  0.1777E-06   4.916      0.3805E-06   6.693       0.000      0.1440E+05   0.000    
    1180  0.6968E-03  0.9642E-07 NODE          33 -26.9%  0.2253E-06   4.898      0.3713E-06   6.698       0.000      0.1440E+05   0.000    
    1181  0.6969E-03  0.9641E-07 NODE          33 -27.2%  0.2793E-06   4.880      0.3612E-06   6.702       0.000      0.1440E+05   0.000    
    1182  0.6970E-03  0.9640E-07 NODE          33 -27.5%  0.3397E-06   4.862      0.3501E-06   6.707       0.000      0.1440E+05   0.000    
    1183  0.6971E-03  0.9639E-07 NODE          33 -27.8%  0.4067E-06   4.844      0.3382E-06   6.712       0.000      0.1440E+05   0.000    
    1184  0.6972E-03  0.9638E-07 NODE          33 -28.2%  0.4804E-06   4.825      0.3254E-06   6.717       0.000      0.1440E+05   0.000    
    1185  0.6973E-03  0.9638E-07 NODE          33 -28.5%  0.5610E-06   4.806      0.3118E-06   6.721       0.000      0.1440E+05   0.000    
    1186  0.6974E-03  0.9637E-07 NODE          33 -28.8%  0.6486E-06   4.787      0.2974E-06   6.726       0.000      0.1440E+05   0.000    
    1187  0.6975E-03  0.9636E-07 NODE          33 -29.2%  0.7432E-06   4.767      0.2824E-06   6.731       0.000      0.1440E+05   0.000    
    1188  0.6976E-03  0.9635E-07 NODE          33 -29.5%  0.8450E-06   4.748      0.2668E-06   6.736       0.000      0.1440E+05   0.000    
    1189  0.6977E-03  0.9634E-07 NODE          33 -29.9%  0.9539E-06   4.728      0.2507E-06   6.740       0.000      0.1440E+05   0.000    
    1190  0.6978E-03  0.9633E-07 NODE          33 -30.2%  0.1070E-05   4.708      0.2342E-06   6.745       0.000      0.1440E+05   0.000    
    1191  0.6979E-03  0.9633E-07 NODE          33 -30.5%  0.1194E-05   4.688      0.2173E-06   6.749       0.000      0.1440E+05   0.000    
    1192  0.6980E-03  0.9632E-07 NODE          33 -30.9%  0.1324E-05   4.668      0.2002E-06   6.754       0.000      0.1440E+05   0.000    
    1193  0.6981E-03  0.9631E-07 NODE          33 -31.2%  0.1463E-05   4.647      0.1829E-06   6.759       0.000      0.1440E+05   0.000    
    1194  0.6982E-03  0.9630E-07 NODE          33 -31.6%  0.1608E-05   4.627      0.1657E-06   6.763       0.000      0.1440E+05   0.000    
    1195  0.6983E-03  0.9629E-07 NODE          33 -31.9%  0.1761E-05   4.606      0.1485E-06   6.768       0.000      0.1440E+05   0.000    
    1196  0.6984E-03  0.9629E-07 NODE          33 -32.3%  0.1921E-05   4.585      0.1316E-06   6.772       0.000      0.1440E+05   0.000    
    1197  0.6985E-03  0.9628E-07 NODE          33 -32.6%  0.2088E-05   4.564      0.1150E-06   6.777       0.000      0.1440E+05   0.000    
    1198  0.6986E-03  0.9627E-07 NODE          33 -33.0%  0.2262E-05   4.543      0.9888E-07   6.781       0.000      0.1440E+05   0.000    
    1199  0.6986E-03  0.9626E-07 NODE          33 -33.4%  0.2443E-05   4.522      0.8344E-07   6.786       0.000      0.1440E+05   0.000    
    1200  0.6987E-03  0.9626E-07 NODE          33 -33.7%  0.2631E-05   4.501      0.6878E-07   6.790       0.000      0.1440E+05   0.000    
    1201  0.6988E-03  0.9625E-07 NODE          33 -34.1%  0.2825E-05   4.480      0.5508E-07   6.795       0.000      0.1440E+05   0.000    
    1202  0.6989E-03  0.9624E-07 NODE          33 -34.4%  0.3027E-05   4.459      0.4250E-07   6.799       0.000      0.1440E+05   0.000    
    1203  0.6990E-03  0.9624E-07 NODE          33 -34.8%  0.3234E-05   4.438      0.3120E-07   6.803       0.000      0.1440E+05   0.000    
    1204  0.6991E-03  0.9623E-07 NODE          33 -35.1%  0.3448E-05   4.417      0.2135E-07   6.808       0.000      0.1440E+05   0.000    
    1205  0.6992E-03  0.9622E-07 NODE          33 -35.5%  0.3669E-05   4.396      0.1314E-07   6.812       0.000      0.1440E+05   0.000    
    1206  0.6993E-03  0.9622E-07 NODE          33 -35.8%  0.3894E-05   4.376      0.6756E-08   6.816       0.000      0.1440E+05   0.000    
    1207  0.6994E-03  0.9621E-07 NODE          33 -36.2%  0.4126E-05   4.355      0.2380E-08   6.821       0.000      0.1440E+05   0.000    
    1208  0.6995E-03  0.9620E-07 NODE          33 -36.5%  0.4363E-05   4.334      0.2078E-09   6.825       0.000      0.1440E+05   0.000    
    1209  0.6996E-03  0.9620E-07 NODE          33 -36.8%  0.4605E-05   4.313      0.4373E-09   6.829       0.000      0.1440E+05   0.000    
   CYCLE    TIME      TIME-STEP  ELEMENT          ERROR  I-ENERGY    K-ENERGY T  K-ENERGY R  EXT-WORK     MAS.ERR     TOTAL MASS  MASS ADDED
    1210  0.6997E-03  0.9619E-07 NODE          33 -37.2%  0.4852E-05   4.293      0.3270E-08   6.833       0.000      0.1440E+05   0.000    
    1211  0.6998E-03  0.9619E-07 NODE          33 -37.5%  0.5104E-05   4.272      0.8912E-08   6.838       0.000      0.1440E+05   0.000    
    1212  0.6999E-03  0.9618E-07 NODE          33 -37.9%  0.5359E-05   4.252      0.1757E-07   6.842       0.000      0.1440E+05   0.000    
    1213  0.7000E-03  0.9618E-07 NODE          33 -38.2%  0.5619E-05   4.232      0.2946E-07   6.846       0.000      0.1440E+05   0.000    
    1214  0.7001E-03  0.9617E-07 NODE          33 -38.5%  0.5883E-05   4.211      0.4479E-07   6.850       0.000      0.1440E+05   0.000    
     ANIMATION FILE: FRICT41A008 WRITTEN
    1215  0.7002E-03  0.9616E-07 NODE          33 -38.8%  0.6149E-05   4.192      0.6377E-07   6.854       0.000      0.1440E+05   0.000    
    1216  0.7003E-03  0.9616E-07 NODE          33 -39.2%  0.6419E-05   4.172      0.8663E-07   6.858       0.000      0.1440E+05   0.000    
    1217  0.7004E-03  0.9615E-07 NODE          33 -39.5%  0.6691E-05   4.152      0.1136E-06   6.862       0.000      0.1440E+05   0.000    
    1218  0.7005E-03  0.9615E-07 NODE          33 -39.8%  0.6966E-05   4.133      0.1449E-06   6.866       0.000      0.1440E+05   0.000    
    1219  0.7006E-03  0.9614E-07 NODE          33 -40.1%  0.7242E-05   4.114      0.1807E-06   6.870       0.000      0.1440E+05   0.000    
    1220  0.7007E-03  0.9614E-07 NODE          33 -40.4%  0.7520E-05   4.095      0.2212E-06   6.874       0.000      0.1440E+05   0.000    
    1221  0.7008E-03  0.9613E-07 NODE          33 -40.7%  0.7799E-05   4.076      0.2668E-06   6.878       0.000      0.1440E+05   0.000    
    1222  0.7009E-03  0.9613E-07 NODE          33 -41.0%  0.8079E-05   4.058      0.3175E-06   6.882       0.000      0.1440E+05   0.000    
    1223  0.7010E-03  0.9613E-07 NODE          33 -41.3%  0.8359E-05   4.040      0.3736E-06   6.886       0.000      0.1440E+05   0.000    
    1224  0.7011E-03  0.9612E-07 NODE          33 -41.6%  0.8639E-05   4.022      0.4354E-06   6.890       0.000      0.1440E+05   0.000    
    1225  0.7011E-03  0.9612E-07 NODE          33 -41.9%  0.8918E-05   4.004      0.5030E-06   6.894       0.000      0.1440E+05   0.000    
    1226  0.7012E-03  0.9611E-07 NODE          33 -42.2%  0.9196E-05   3.987      0.5767E-06   6.897       0.000      0.1440E+05   0.000    
    1227  0.7013E-03  0.9611E-07 NODE          33 -42.5%  0.9473E-05   3.970      0.6566E-06   6.901       0.000      0.1440E+05   0.000    
    1228  0.7014E-03  0.9610E-07 NODE          33 -42.7%  0.9748E-05   3.953      0.7430E-06   6.905       0.000      0.1440E+05   0.000    
    1229  0.7015E-03  0.9610E-07 NODE          33 -43.0%  0.1002E-04   3.937      0.8361E-06   6.909       0.000      0.1440E+05   0.000    
    1230  0.7016E-03  0.9610E-07 NODE          33 -43.3%  0.1029E-04   3.921      0.9361E-06   6.912       0.000      0.1440E+05   0.000    
    1231  0.7017E-03  0.9609E-07 NODE          33 -43.5%  0.1056E-04   3.905      0.1043E-05   6.916       0.000      0.1440E+05   0.000    
    1232  0.7018E-03  0.9609E-07 NODE          33 -43.8%  0.1082E-04   3.889      0.1157E-05   6.920       0.000      0.1440E+05   0.000    
    1233  0.7019E-03  0.9609E-07 NODE          33 -44.0%  0.1108E-04   3.874      0.1279E-05   6.923       0.000      0.1440E+05   0.000    
    1234  0.7020E-03  0.9609E-07 NODE          33 -44.3%  0.1133E-04   3.860      0.1408E-05   6.927       0.000      0.1440E+05   0.000    
    1235  0.7021E-03  0.9608E-07 NODE          33 -44.5%  0.1158E-04   3.845      0.1545E-05   6.930       0.000      0.1440E+05   0.000    
    1236  0.7022E-03  0.9608E-07 NODE          33 -44.7%  0.1183E-04   3.831      0.1690E-05   6.934       0.000      0.1440E+05   0.000    
    1237  0.7023E-03  0.9608E-07 NODE          33 -45.0%  0.1206E-04   3.818      0.1843E-05   6.937       0.000      0.1440E+05   0.000    
    1238  0.7024E-03  0.9607E-07 NODE          33 -45.2%  0.1230E-04   3.804      0.2005E-05   6.941       0.000      0.1440E+05   0.000    
    1239  0.7025E-03  0.9607E-07 NODE          33 -45.4%  0.1252E-04   3.791      0.2174E-05   6.944       0.000      0.1440E+05   0.000    
    1240  0.7026E-03  0.9607E-07 NODE          33 -45.6%  0.1274E-04   3.779      0.2353E-05   6.948       0.000      0.1440E+05   0.000    
    1241  0.7027E-03  0.9607E-07 NODE          33 -45.8%  0.1295E-04   3.767      0.2539E-05   6.951       0.000      0.1440E+05   0.000    
    1242  0.7028E-03  0.9607E-07 NODE          33 -46.0%  0.1315E-04   3.755      0.2735E-05   6.954       0.000      0.1440E+05   0.000    
    1243  0.7029E-03  0.9606E-07 NODE          33 -46.2%  0.1335E-04   3.744      0.2939E-05   6.958       0.000      0.1440E+05   0.000    
    1244  0.7030E-03  0.9606E-07 NODE          33 -46.4%  0.1354E-04   3.733      0.3152E-05   6.961       0.000      0.1440E+05   0.000    
    1245  0.7031E-03  0.9606E-07 NODE          33 -46.5%  0.1371E-04   3.723      0.3374E-05   6.964       0.000      0.1440E+05   0.000    
    1246  0.7032E-03  0.9606E-07 NODE          33 -46.7%  0.1388E-04   3.713      0.3606E-05   6.968       0.000      0.1440E+05   0.000    
    1247  0.7033E-03  0.9606E-07 NODE          33 -46.9%  0.1404E-04   3.703      0.3846E-05   6.971       0.000      0.1440E+05   0.000    
    1248  0.7034E-03  0.9606E-07 NODE          33 -47.0%  0.1419E-04   3.694      0.4095E-05   6.974       0.000      0.1440E+05   0.000    
    1249  0.7035E-03  0.9606E-07 NODE          33 -47.2%  0.1433E-04   3.685      0.4354E-05   6.977       0.000      0.1440E+05   0.000    
    1250  0.7035E-03  0.9606E-07 NODE          33 -47.3%  0.1445E-04   3.677      0.4621E-05   6.980       0.000      0.1440E+05   0.000    
    1251  0.7036E-03  0.9606E-07 NODE          33 -47.5%  0.1457E-04   3.669      0.4898E-05   6.983       0.000      0.1440E+05   0.000    
    1252  0.7037E-03  0.9606E-07 NODE          33 -47.6%  0.1468E-04   3.662      0.5184E-05   6.986       0.000      0.1440E+05   0.000    
    1253  0.7038E-03  0.9605E-07 NODE          33 -47.7%  0.1477E-04   3.655      0.5480E-05   6.989       0.000      0.1440E+05   0.000    
    1254  0.7039E-03  0.9605E-07 NODE          33 -47.8%  0.1485E-04   3.648      0.5784E-05   6.992       0.000      0.1440E+05   0.000    
    1255  0.7040E-03  0.9605E-07 NODE          31 -47.9%  0.1493E-04   3.642      0.6097E-05   6.995       0.000      0.1440E+05   0.000    
    1256  0.7041E-03  0.9624E-07 NODE          33 -48.0%  0.1499E-04   3.637      0.6419E-05   6.998       0.000      0.1440E+05   0.000    
    1257  0.7042E-03  0.9634E-07 NODE          33 -48.1%  0.1503E-04   3.632      0.6751E-05   7.001       0.000      0.1440E+05   0.000    
    1258  0.7043E-03  0.9639E-07 NODE          33 -48.2%  0.1507E-04   3.627      0.7092E-05   7.004       0.000      0.1440E+05   0.000    
    1259  0.7044E-03  0.9641E-07 NODE          33 -48.3%  0.1509E-04   3.622      0.7442E-05   7.007       0.000      0.1440E+05   0.000    
    1260  0.7045E-03  0.9642E-07 NODE          31 -48.4%  0.1510E-04   3.619      0.7801E-05   7.010       0.000      0.1440E+05   0.000    
    1261  0.7046E-03  0.9643E-07 NODE          31 -48.4%  0.1510E-04   3.615      0.8168E-05   7.013       0.000      0.1440E+05   0.000    
    1262  0.7047E-03  0.9643E-07 NODE          31 -48.5%  0.1508E-04   3.612      0.8544E-05   7.016       0.000      0.1440E+05   0.000    
    1263  0.7048E-03  0.9643E-07 NODE          31 -48.6%  0.1505E-04   3.609      0.8927E-05   7.018       0.000      0.1440E+05   0.000    
    1264  0.7049E-03  0.9643E-07 NODE          31 -48.6%  0.1501E-04   3.607      0.9319E-05   7.021       0.000      0.1440E+05   0.000    
   CYCLE    TIME      TIME-STEP  ELEMENT          ERROR  I-ENERGY    K-ENERGY T  K-ENERGY R  EXT-WORK     MAS.ERR     TOTAL MASS  MASS ADDED
    1265  0.7050E-03  0.9643E-07 NODE          31 -48.7%  0.1496E-04   3.606      0.9719E-05   7.024       0.000      0.1440E+05   0.000    
    1266  0.7051E-03  0.9643E-07 NODE          31 -48.7%  0.1489E-04   3.604      0.1013E-04   7.026       0.000      0.1440E+05   0.000    
    1267  0.7052E-03  0.9644E-07 NODE          31 -48.7%  0.1481E-04   3.603      0.1054E-04   7.029       0.000      0.1440E+05   0.000    
    1268  0.7053E-03  0.9644E-07 NODE          31 -48.8%  0.1472E-04   3.603      0.1096E-04   7.032       0.000      0.1440E+05   0.000    
    1269  0.7054E-03  0.9644E-07 NODE          31 -48.8%  0.1462E-04   3.603      0.1139E-04   7.034       0.000      0.1440E+05   0.000    
    1270  0.7055E-03  0.9644E-07 NODE          31 -48.8%  0.1450E-04   3.603      0.1182E-04   7.037       0.000      0.1440E+05   0.000    
    1271  0.7056E-03  0.9644E-07 NODE          31 -48.8%  0.1437E-04   3.604      0.1227E-04   7.039       0.000      0.1440E+05   0.000    
    1272  0.7057E-03  0.9644E-07 NODE          31 -48.8%  0.1423E-04   3.605      0.1271E-04   7.042       0.000      0.1440E+05   0.000    
    1273  0.7058E-03  0.9644E-07 NODE          31 -48.8%  0.1408E-04   3.607      0.1317E-04   7.044       0.000      0.1440E+05   0.000    
    1274  0.7059E-03  0.9644E-07 NODE          31 -48.8%  0.1391E-04   3.609      0.1362E-04   7.047       0.000      0.1440E+05   0.000    
    1275  0.7060E-03  0.9644E-07 NODE          31 -48.8%  0.1374E-04   3.611      0.1409E-04   7.049       0.000      0.1440E+05   0.000    
    1276  0.7061E-03  0.9645E-07 NODE          31 -48.7%  0.1355E-04   3.614      0.1455E-04   7.052       0.000      0.1440E+05   0.000    
    1277  0.7062E-03  0.9645E-07 NODE          31 -48.7%  0.1335E-04   3.617      0.1503E-04   7.054       0.000      0.1440E+05   0.000    
    1278  0.7062E-03  0.9645E-07 NODE          31 -48.7%  0.1314E-04   3.621      0.1550E-04   7.057       0.000      0.1440E+05   0.000    
    1279  0.7063E-03  0.9645E-07 NODE          31 -48.7%  0.1292E-04   3.625      0.1598E-04   7.059       0.000      0.1440E+05   0.000    
    1280  0.7064E-03  0.9645E-07 NODE          31 -48.6%  0.1270E-04   3.629      0.1646E-04   7.061       0.000      0.1440E+05   0.000    
    1281  0.7065E-03  0.9645E-07 NODE          31 -48.6%  0.1246E-04   3.633      0.1695E-04   7.063       0.000      0.1440E+05   0.000    
    1282  0.7066E-03  0.9645E-07 NODE          31 -48.5%  0.1221E-04   3.638      0.1743E-04   7.066       0.000      0.1440E+05   0.000    
    1283  0.7067E-03  0.9646E-07 NODE          31 -48.4%  0.1195E-04   3.644      0.1792E-04   7.068       0.000      0.1440E+05   0.000    
    1284  0.7068E-03  0.9646E-07 NODE          31 -48.4%  0.1169E-04   3.649      0.1841E-04   7.070       0.000      0.1440E+05   0.000    
    1285  0.7069E-03  0.9646E-07 NODE          31 -48.3%  0.1141E-04   3.655      0.1891E-04   7.072       0.000      0.1440E+05   0.000    
    1286  0.7070E-03  0.9646E-07 NODE          31 -48.2%  0.1113E-04   3.661      0.1940E-04   7.074       0.000      0.1440E+05   0.000    
    1287  0.7071E-03  0.9646E-07 NODE          31 -48.2%  0.1084E-04   3.668      0.1989E-04   7.077       0.000      0.1440E+05   0.000    
    1288  0.7072E-03  0.9647E-07 NODE          31 -48.1%  0.1055E-04   3.675      0.2038E-04   7.079       0.000      0.1440E+05   0.000    
    1289  0.7073E-03  0.9647E-07 NODE          31 -48.0%  0.1025E-04   3.682      0.2087E-04   7.081       0.000      0.1440E+05   0.000    
    1290  0.7074E-03  0.9647E-07 NODE          31 -47.9%  0.9944E-05   3.689      0.2136E-04   7.083       0.000      0.1440E+05   0.000    
    1291  0.7075E-03  0.9647E-07 NODE          31 -47.8%  0.9634E-05   3.697      0.2184E-04   7.085       0.000      0.1440E+05   0.000    
    1292  0.7076E-03  0.9648E-07 NODE          31 -47.7%  0.9318E-05   3.705      0.2233E-04   7.087       0.000      0.1440E+05   0.000    
    1293  0.7077E-03  0.9648E-07 NODE          31 -47.6%  0.9000E-05   3.713      0.2281E-04   7.089       0.000      0.1440E+05   0.000    
    1294  0.7078E-03  0.9648E-07 NODE          31 -47.5%  0.8677E-05   3.721      0.2329E-04   7.091       0.000      0.1440E+05   0.000    
    1295  0.7079E-03  0.9648E-07 NODE          31 -47.4%  0.8353E-05   3.730      0.2376E-04   7.093       0.000      0.1440E+05   0.000    
    1296  0.7080E-03  0.9649E-07 NODE          31 -47.3%  0.8026E-05   3.738      0.2423E-04   7.095       0.000      0.1440E+05   0.000    
    1297  0.7081E-03  0.9649E-07 NODE          31 -47.2%  0.7697E-05   3.747      0.2469E-04   7.097       0.000      0.1440E+05   0.000    
    1298  0.7082E-03  0.9649E-07 NODE          31 -47.1%  0.7368E-05   3.757      0.2515E-04   7.098       0.000      0.1440E+05   0.000    
    1299  0.7083E-03  0.9649E-07 NODE          31 -47.0%  0.7039E-05   3.766      0.2560E-04   7.100       0.000      0.1440E+05   0.000    
    1300  0.7084E-03  0.9650E-07 NODE          31 -46.8%  0.6709E-05   3.776      0.2605E-04   7.102       0.000      0.1440E+05   0.000    
    1301  0.7085E-03  0.9650E-07 NODE          31 -46.7%  0.6381E-05   3.785      0.2649E-04   7.104       0.000      0.1440E+05   0.000    
    1302  0.7086E-03  0.9650E-07 NODE          31 -46.6%  0.6055E-05   3.795      0.2692E-04   7.106       0.000      0.1440E+05   0.000    
    1303  0.7087E-03  0.9651E-07 NODE          31 -46.5%  0.5731E-05   3.805      0.2734E-04   7.107       0.000      0.1440E+05   0.000    
    1304  0.7088E-03  0.9651E-07 NODE          31 -46.3%  0.5409E-05   3.815      0.2776E-04   7.109       0.000      0.1440E+05   0.000    
    1305  0.7089E-03  0.9651E-07 NODE          31 -46.2%  0.5092E-05   3.826      0.2816E-04   7.111       0.000      0.1440E+05   0.000    
    1306  0.7089E-03  0.9651E-07 NODE          31 -46.1%  0.4778E-05   3.836      0.2856E-04   7.113       0.000      0.1440E+05   0.000    
    1307  0.7090E-03  0.9652E-07 NODE          31 -45.9%  0.4470E-05   3.847      0.2895E-04   7.114       0.000      0.1440E+05   0.000    
    1308  0.7091E-03  0.9652E-07 NODE          31 -45.8%  0.4166E-05   3.857      0.2932E-04   7.116       0.000      0.1440E+05   0.000    
    1309  0.7092E-03  0.9652E-07 NODE          31 -45.7%  0.3869E-05   3.868      0.2969E-04   7.118       0.000      0.1440E+05   0.000    
    1310  0.7093E-03  0.9653E-07 NODE          31 -45.5%  0.3579E-05   3.879      0.3004E-04   7.119       0.000      0.1440E+05   0.000    
    1311  0.7094E-03  0.9653E-07 NODE          31 -45.4%  0.3296E-05   3.890      0.3038E-04   7.121       0.000      0.1440E+05   0.000    
    1312  0.7095E-03  0.9653E-07 NODE          31 -45.2%  0.3020E-05   3.900      0.3071E-04   7.122       0.000      0.1440E+05   0.000    
    1313  0.7096E-03  0.9654E-07 NODE          31 -45.1%  0.2754E-05   3.911      0.3102E-04   7.124       0.000      0.1440E+05   0.000    
    1314  0.7097E-03  0.9654E-07 NODE          31 -45.0%  0.2496E-05   3.922      0.3133E-04   7.126       0.000      0.1440E+05   0.000    
    1315  0.7098E-03  0.9655E-07 NODE          31 -44.8%  0.2248E-05   3.933      0.3162E-04   7.127       0.000      0.1440E+05   0.000    
    1316  0.7099E-03  0.9655E-07 NODE          31 -44.7%  0.2010E-05   3.944      0.3189E-04   7.129       0.000      0.1440E+05   0.000    
    1317  0.7100E-03  0.9655E-07 NODE          31 -44.5%  0.1784E-05   3.955      0.3215E-04   7.130       0.000      0.1440E+05   0.000    
    1318  0.7101E-03  0.9656E-07 NODE          31 -44.4%  0.1568E-05   3.966      0.3240E-04   7.132       0.000      0.1440E+05   0.000    
    1319  0.7102E-03  0.9656E-07 NODE          31 -44.2%  0.1364E-05   3.977      0.3263E-04   7.133       0.000      0.1440E+05   0.000    
   CYCLE    TIME      TIME-STEP  ELEMENT          ERROR  I-ENERGY    K-ENERGY T  K-ENERGY R  EXT-WORK     MAS.ERR     TOTAL MASS  MASS ADDED
    1320  0.7103E-03  0.9656E-07 NODE          31 -44.1%  0.1173E-05   3.988      0.3285E-04   7.134       0.000      0.1440E+05   0.000    
    1321  0.7104E-03  0.9657E-07 NODE          31 -44.0%  0.9945E-06   3.999      0.3304E-04   7.136       0.000      0.1440E+05   0.000    
    1322  0.7105E-03  0.9657E-07 NODE          31 -43.8%  0.8294E-06   4.010      0.3323E-04   7.137       0.000      0.1440E+05   0.000    
    1323  0.7106E-03  0.9658E-07 NODE          31 -43.7%  0.6780E-06   4.021      0.3340E-04   7.139       0.000      0.1440E+05   0.000    
    1324  0.7107E-03  0.9658E-07 NODE          31 -43.5%  0.5409E-06   4.031      0.3355E-04   7.140       0.000      0.1440E+05   0.000    
    1325  0.7108E-03  0.9658E-07 NODE          31 -43.4%  0.4184E-06   4.042      0.3368E-04   7.142       0.000      0.1440E+05   0.000    
    1326  0.7109E-03  0.9659E-07 NODE          31 -43.3%  0.3109E-06   4.053      0.3380E-04   7.143       0.000      0.1440E+05   0.000    
    1327  0.7110E-03  0.9659E-07 NODE          31 -43.1%  0.2189E-06   4.063      0.3390E-04   7.144       0.000      0.1440E+05   0.000    
    1328  0.7111E-03  0.9660E-07 NODE          31 -43.0%  0.1425E-06   4.073      0.3398E-04   7.146       0.000      0.1440E+05   0.000    
    1329  0.7112E-03  0.9660E-07 NODE          31 -42.9%  0.8230E-07   4.084      0.3405E-04   7.147       0.000      0.1440E+05   0.000    
    1330  0.7113E-03  0.9660E-07 NODE          31 -42.7%  0.3842E-07   4.094      0.3409E-04   7.148       0.000      0.1440E+05   0.000    
    1331  0.7114E-03  0.9661E-07 NODE          31 -42.6%  0.1120E-07   4.104      0.3412E-04   7.150       0.000      0.1440E+05   0.000    
    1332  0.7115E-03  0.9661E-07 NODE          31 -42.5%  0.8703E-09   4.114      0.3413E-04   7.151       0.000      0.1440E+05   0.000    
    1333  0.7116E-03  0.9662E-07 NODE          31 -42.3%  0.7666E-08   4.123      0.3412E-04   7.152       0.000      0.1440E+05   0.000    
    1334  0.7117E-03  0.9662E-07 NODE          31 -42.2%  0.3178E-07   4.133      0.3410E-04   7.153       0.000      0.1440E+05   0.000    
    1335  0.7117E-03  0.9662E-07 NODE          31 -42.1%  0.7339E-07   4.142      0.3406E-04   7.155       0.000      0.1440E+05   0.000    
    1336  0.7118E-03  0.9663E-07 NODE          31 -42.0%  0.1326E-06   4.151      0.3399E-04   7.156       0.000      0.1440E+05   0.000    
    1337  0.7119E-03  0.9663E-07 NODE          31 -41.9%  0.2096E-06   4.161      0.3391E-04   7.157       0.000      0.1440E+05   0.000    
    1338  0.7120E-03  0.9664E-07 NODE          31 -41.8%  0.3045E-06   4.169      0.3382E-04   7.158       0.000      0.1440E+05   0.000    
    1339  0.7121E-03  0.9664E-07 NODE          31 -41.6%  0.4172E-06   4.178      0.3370E-04   7.160       0.000      0.1440E+05   0.000    
    1340  0.7122E-03  0.9665E-07 NODE          31 -41.5%  0.5479E-06   4.187      0.3356E-04   7.161       0.000      0.1440E+05   0.000    
    1341  0.7123E-03  0.9665E-07 NODE          31 -41.4%  0.6964E-06   4.195      0.3341E-04   7.162       0.000      0.1440E+05   0.000    
    1342  0.7124E-03  0.9666E-07 NODE          31 -41.3%  0.8629E-06   4.203      0.3324E-04   7.163       0.000      0.1440E+05   0.000    
    1343  0.7125E-03  0.9666E-07 NODE          31 -41.2%  0.1047E-05   4.211      0.3305E-04   7.164       0.000      0.1440E+05   0.000    
    1344  0.7126E-03  0.9666E-07 NODE          31 -41.1%  0.1249E-05   4.218      0.3285E-04   7.166       0.000      0.1440E+05   0.000    
    1345  0.7127E-03  0.9667E-07 NODE          31 -41.0%  0.1469E-05   4.226      0.3262E-04   7.167       0.000      0.1440E+05   0.000    
    1346  0.7128E-03  0.9667E-07 NODE          31 -40.9%  0.1706E-05   4.233      0.3238E-04   7.168       0.000      0.1440E+05   0.000    
    1347  0.7129E-03  0.9668E-07 NODE          31 -40.9%  0.1961E-05   4.240      0.3213E-04   7.169       0.000      0.1440E+05   0.000    
    1348  0.7130E-03  0.9668E-07 NODE          31 -40.8%  0.2233E-05   4.247      0.3185E-04   7.170       0.000      0.1440E+05   0.000    
    1349  0.7131E-03  0.9669E-07 NODE          31 -40.7%  0.2521E-05   4.253      0.3156E-04   7.171       0.000      0.1440E+05   0.000    
    1350  0.7132E-03  0.9669E-07 NODE          31 -40.6%  0.2827E-05   4.259      0.3125E-04   7.173       0.000      0.1440E+05   0.000    
    1351  0.7133E-03  0.9670E-07 NODE          31 -40.5%  0.3148E-05   4.265      0.3093E-04   7.174       0.000      0.1440E+05   0.000    
    1352  0.7134E-03  0.9670E-07 NODE          31 -40.5%  0.3486E-05   4.271      0.3059E-04   7.175       0.000      0.1440E+05   0.000    
    1353  0.7135E-03  0.9671E-07 NODE          31 -40.4%  0.3839E-05   4.276      0.3024E-04   7.176       0.000      0.1440E+05   0.000    
    1354  0.7136E-03  0.9671E-07 NODE          31 -40.3%  0.4208E-05   4.281      0.2987E-04   7.177       0.000      0.1440E+05   0.000    
    1355  0.7137E-03  0.9672E-07 NODE          31 -40.3%  0.4592E-05   4.286      0.2949E-04   7.178       0.000      0.1440E+05   0.000    
    1356  0.7138E-03  0.9672E-07 NODE          31 -40.2%  0.4990E-05   4.291      0.2909E-04   7.179       0.000      0.1440E+05   0.000    
    1357  0.7139E-03  0.9672E-07 NODE          31 -40.2%  0.5403E-05   4.295      0.2868E-04   7.181       0.000      0.1440E+05   0.000    
    1358  0.7140E-03  0.9673E-07 NODE          31 -40.1%  0.5828E-05   4.300      0.2825E-04   7.182       0.000      0.1440E+05   0.000    
    1359  0.7141E-03  0.9673E-07 NODE          31 -40.1%  0.6268E-05   4.303      0.2782E-04   7.183       0.000      0.1440E+05   0.000    
    1360  0.7142E-03  0.9674E-07 NODE          31 -40.0%  0.6719E-05   4.307      0.2737E-04   7.184       0.000      0.1440E+05   0.000    
    1361  0.7143E-03  0.9674E-07 NODE          31 -40.0%  0.7183E-05   4.310      0.2691E-04   7.185       0.000      0.1440E+05   0.000    
    1362  0.7144E-03  0.9675E-07 NODE          31 -40.0%  0.7658E-05   4.313      0.2643E-04   7.186       0.000      0.1440E+05   0.000    
    1363  0.7145E-03  0.9675E-07 NODE          31 -39.9%  0.8145E-05   4.316      0.2595E-04   7.187       0.000      0.1440E+05   0.000    
    1364  0.7146E-03  0.9676E-07 NODE          31 -39.9%  0.8641E-05   4.319      0.2546E-04   7.188       0.000      0.1440E+05   0.000    
    1365  0.7146E-03  0.9676E-07 NODE          31 -39.9%  0.9147E-05   4.321      0.2496E-04   7.190       0.000      0.1440E+05   0.000    
    1366  0.7147E-03  0.9677E-07 NODE          31 -39.9%  0.9663E-05   4.323      0.2445E-04   7.191       0.000      0.1440E+05   0.000    
    1367  0.7148E-03  0.9677E-07 NODE          31 -39.9%  0.1019E-04   4.324      0.2393E-04   7.192       0.000      0.1440E+05   0.000    
    1368  0.7149E-03  0.9678E-07 NODE          31 -39.9%  0.1072E-04   4.326      0.2340E-04   7.193       0.000      0.1440E+05   0.000    
    1369  0.7150E-03  0.9678E-07 NODE          31 -39.9%  0.1126E-04   4.327      0.2286E-04   7.194       0.000      0.1440E+05   0.000    
    1370  0.7151E-03  0.9679E-07 NODE          31 -39.9%  0.1180E-04   4.328      0.2232E-04   7.195       0.000      0.1440E+05   0.000    
    1371  0.7152E-03  0.9679E-07 NODE          31 -39.9%  0.1235E-04   4.328      0.2177E-04   7.196       0.000      0.1440E+05   0.000    
    1372  0.7153E-03  0.9680E-07 NODE          31 -39.9%  0.1291E-04   4.327      0.2122E-04   7.198       0.000      0.1440E+05   0.000    
    1373  0.7154E-03  0.9680E-07 NODE          31 -39.9%  0.1347E-04   4.327      0.2066E-04   7.199       0.000      0.1440E+05   0.000    
    1374  0.7155E-03  0.1065E-06 SHELL         31 -39.9%  0.1403E-04   4.327      0.2010E-04   7.200       0.000      0.1440E+05   0.000    
   CYCLE    TIME      TIME-STEP  ELEMENT          ERROR  I-ENERGY    K-ENERGY T  K-ENERGY R  EXT-WORK     MAS.ERR     TOTAL MASS  MASS ADDED
    1375  0.7156E-03  0.1171E-06 SHELL         31 -39.9%  0.1465E-04   4.328      0.1948E-04   7.202       0.000      0.1440E+05   0.000    
    1376  0.7157E-03  0.1288E-06 SHELL         31 -39.9%  0.1533E-04   4.330      0.1879E-04   7.203       0.000      0.1440E+05   0.000    
    1377  0.7159E-03  0.1417E-06 SHELL         31 -39.9%  0.1607E-04   4.331      0.1803E-04   7.205       0.000      0.1440E+05   0.000    
    1378  0.7160E-03  0.1559E-06 SHELL         31 -39.9%  0.1689E-04   4.333      0.1719E-04   7.207       0.000      0.1440E+05   0.000    
    1379  0.7162E-03  0.1715E-06 SHELL         31 -39.9%  0.1777E-04   4.335      0.1627E-04   7.209       0.000      0.1440E+05   0.000    
    1380  0.7163E-03  0.1886E-06 SHELL         31 -39.9%  0.1872E-04   4.337      0.1526E-04   7.211       0.000      0.1440E+05   0.000    
    1381  0.7165E-03  0.2075E-06 SHELL         31 -39.8%  0.1973E-04   4.339      0.1416E-04   7.214       0.000      0.1440E+05   0.000    
    1382  0.7167E-03  0.2282E-06 SHELL         31 -39.8%  0.2081E-04   4.342      0.1297E-04   7.217       0.000      0.1440E+05   0.000    
    1383  0.7170E-03  0.2511E-06 SHELL         31 -39.8%  0.2193E-04   4.345      0.1169E-04   7.220       0.000      0.1440E+05   0.000    
    1384  0.7172E-03  0.2762E-06 SHELL         31 -39.8%  0.2309E-04   4.348      0.1032E-04   7.224       0.000      0.1440E+05   0.000    
    1385  0.7175E-03  0.3038E-06 SHELL         31 -39.8%  0.2424E-04   4.351      0.8874E-05   7.228       0.000      0.1440E+05   0.000    
    1386  0.7178E-03  0.3342E-06 SHELL         31 -39.8%  0.2535E-04   4.355      0.7380E-05   7.232       0.000      0.1440E+05   0.000    
    1387  0.7181E-03  0.3676E-06 SHELL         31 -39.8%  0.2635E-04   4.360      0.5866E-05   7.237       0.000      0.1440E+05   0.000    
    1388  0.7185E-03  0.4044E-06 SHELL         31 -39.7%  0.2718E-04   4.364      0.4377E-05   7.242       0.000      0.1440E+05   0.000    
    1389  0.7189E-03  0.4448E-06 SHELL         31 -39.7%  0.2774E-04   4.370      0.2975E-05   7.248       0.000      0.1440E+05   0.000    
    1390  0.7193E-03  0.4893E-06 SHELL         31 -39.7%  0.2789E-04   4.376      0.1737E-05   7.255       0.000      0.1440E+05   0.000    
    1391  0.7198E-03  0.5382E-06 SHELL         31 -39.7%  0.2751E-04   4.382      0.7591E-06   7.262       0.000      0.1440E+05   0.000    
    1392  0.7204E-03  0.5920E-06 SHELL         31 -39.6%  0.2644E-04   4.390      0.1494E-06   7.271       0.000      0.1440E+05   0.000    
    1393  0.7210E-03  0.6512E-06 SHELL         31 -39.6%  0.2454E-04   4.398      0.1735E-07   7.280       0.000      0.1440E+05   0.000    
    1394  0.7216E-03  0.7163E-06 SHELL         31 -39.5%  0.2171E-04   4.407      0.4550E-06   7.290       0.000      0.1440E+05   0.000    
    1395  0.7223E-03  0.7880E-06 SHELL         31 -39.5%  0.1794E-04   4.418      0.1506E-05   7.302       0.000      0.1440E+05   0.000    
    1396  0.7231E-03  0.8668E-06 SHELL         31 -39.4%  0.1340E-04   4.429      0.3121E-05   7.315       0.000      0.1440E+05   0.000    
    1397  0.7240E-03  0.9535E-06 SHELL         31 -39.4%  0.8491E-05   4.442      0.5111E-05   7.329       0.000      0.1440E+05   0.000    
    1398  0.7249E-03  0.9735E-06 SHELL         31 -39.3%  0.3930E-05   4.457      0.7105E-05   7.344       0.000      0.1440E+05   0.000    
    1399  0.7259E-03  0.9735E-06 SHELL         31 -39.2%  0.9036E-06   4.472      0.8485E-05   7.360       0.000      0.1440E+05   0.000    
    1400  0.7269E-03  0.9735E-06 SHELL         31 -39.1%  0.1622E-07   4.488      0.8897E-05   7.375       0.000      0.1440E+05   0.000    
    1401  0.7279E-03  0.9735E-06 SHELL         31 -39.1%  0.1413E-05   4.504      0.8250E-05   7.391       0.000      0.1440E+05   0.000    
    1402  0.7288E-03  0.9735E-06 SHELL         31 -39.0%  0.4865E-05   4.520      0.6687E-05   7.408       0.000      0.1440E+05   0.000    
    1403  0.7298E-03  0.9734E-06 SHELL         31 -38.9%  0.9808E-05   4.537      0.4560E-05   7.424       0.000      0.1440E+05   0.000    
    1404  0.7308E-03  0.9734E-06 SHELL         31 -38.8%  0.1544E-04   4.554      0.2370E-05   7.441       0.000      0.1440E+05   0.000    
    1405  0.7318E-03  0.9734E-06 SHELL         31 -38.7%  0.2083E-04   4.572      0.6767E-06   7.459       0.000      0.1440E+05   0.000    
    1406  0.7327E-03  0.9734E-06 SHELL         31 -38.6%  0.2510E-04   4.590      0.2124E-09   7.477       0.000      0.1440E+05   0.000    
    1407  0.7337E-03  0.9734E-06 SHELL         31 -38.5%  0.2756E-04   4.608      0.7250E-06   7.495       0.000      0.1440E+05   0.000    
    1408  0.7347E-03  0.9734E-06 SHELL         31 -38.4%  0.2781E-04   4.626      0.3027E-05   7.513       0.000      0.1440E+05   0.000    
    1409  0.7357E-03  0.9734E-06 SHELL         31 -38.3%  0.2580E-04   4.645      0.6830E-05   7.532       0.000      0.1440E+05   0.000    
    1410  0.7366E-03  0.9734E-06 SHELL         31 -38.2%  0.2186E-04   4.664      0.1181E-04   7.552       0.000      0.1440E+05   0.000    
    1411  0.7376E-03  0.9734E-06 SHELL         31 -38.1%  0.1663E-04   4.684      0.1743E-04   7.571       0.000      0.1440E+05   0.000    
    1412  0.7386E-03  0.9734E-06 SHELL         31 -38.0%  0.1098E-04   4.704      0.2303E-04   7.591       0.000      0.1440E+05   0.000    
    1413  0.7395E-03  0.9734E-06 SHELL         31 -37.9%  0.5815E-05   4.724      0.2790E-04   7.611       0.000      0.1440E+05   0.000    
    1414  0.7405E-03  0.9734E-06 SHELL         31 -37.8%  0.1990E-05   4.745      0.3142E-04   7.632       0.000      0.1440E+05   0.000    
    1415  0.7415E-03  0.9733E-06 SHELL         31 -37.7%  0.1248E-06   4.766      0.3310E-04   7.653       0.000      0.1440E+05   0.000    
    1416  0.7425E-03  0.9733E-06 SHELL         31 -37.6%  0.5256E-06   4.787      0.3274E-04   7.674       0.000      0.1440E+05   0.000    
    1417  0.7434E-03  0.9733E-06 SHELL         31 -37.5%  0.3126E-05   4.809      0.3038E-04   7.696       0.000      0.1440E+05   0.000    
    1418  0.7444E-03  0.9733E-06 SHELL         31 -37.4%  0.7502E-05   4.831      0.2633E-04   7.718       0.000      0.1440E+05   0.000    
    1419  0.7454E-03  0.9733E-06 SHELL         31 -37.3%  0.1294E-04   4.854      0.2113E-04   7.741       0.000      0.1440E+05   0.000    
    1420  0.7464E-03  0.9733E-06 SHELL         31 -37.2%  0.1855E-04   4.876      0.1544E-04   7.764       0.000      0.1440E+05   0.000    
    1421  0.7473E-03  0.9733E-06 SHELL         31 -37.1%  0.2341E-04   4.900      0.9973E-05   7.787       0.000      0.1440E+05   0.000    
    1422  0.7483E-03  0.9733E-06 SHELL         31 -37.0%  0.2674E-04   4.923      0.5351E-05   7.810       0.000      0.1440E+05   0.000    
    1423  0.7493E-03  0.9733E-06 SHELL         31 -36.9%  0.2799E-04   4.947      0.2046E-05   7.834       0.000      0.1440E+05   0.000    
    1424  0.7503E-03  0.9733E-06 SHELL         31 -36.7%  0.2695E-04   4.972      0.2980E-06   7.859       0.000      0.1440E+05   0.000    
    1425  0.7512E-03  0.9733E-06 SHELL         31 -36.6%  0.2379E-04   4.996      0.9227E-07   7.883       0.000      0.1440E+05   0.000    
    1426  0.7522E-03  0.9733E-06 SHELL         31 -36.5%  0.1904E-04   5.021      0.1174E-05   7.908       0.000      0.1440E+05   0.000    
    1427  0.7532E-03  0.9733E-06 SHELL         31 -36.4%  0.1346E-04   5.047      0.3102E-05   7.934       0.000      0.1440E+05   0.000    
    1428  0.7541E-03  0.9732E-06 SHELL         31 -36.3%  0.7970E-05   5.072      0.5332E-05   7.960       0.000      0.1440E+05   0.000    
    1429  0.7551E-03  0.9732E-06 SHELL         31 -36.2%  0.3464E-05   5.099      0.7313E-05   7.986       0.000      0.1440E+05   0.000    
   CYCLE    TIME      TIME-STEP  ELEMENT          ERROR  I-ENERGY    K-ENERGY T  K-ENERGY R  EXT-WORK     MAS.ERR     TOTAL MASS  MASS ADDED
    1430  0.7561E-03  0.9732E-06 SHELL         31 -36.0%  0.6775E-06   5.125      0.8589E-05   8.012       0.000      0.1440E+05   0.000    
    1431  0.7571E-03  0.9732E-06 SHELL         31 -35.9%  0.6592E-07   5.152      0.8873E-05   8.039       0.000      0.1440E+05   0.000    
    1432  0.7580E-03  0.9732E-06 SHELL         31 -35.8%  0.1729E-05   5.179      0.8103E-05   8.067       0.000      0.1440E+05   0.000    
    1433  0.7590E-03  0.9732E-06 SHELL         31 -35.7%  0.5395E-05   5.207      0.6451E-05   8.094       0.000      0.1440E+05   0.000    
    1434  0.7600E-03  0.9732E-06 SHELL         31 -35.5%  0.1047E-04   5.235      0.4289E-05   8.122       0.000      0.1440E+05   0.000    
    1435  0.7610E-03  0.9732E-06 SHELL         31 -35.4%  0.1611E-04   5.263      0.2130E-05   8.151       0.000      0.1440E+05   0.000    
    1436  0.7619E-03  0.9732E-06 SHELL         31 -35.3%  0.2141E-04   5.292      0.5332E-06   8.179       0.000      0.1440E+05   0.000    
    1437  0.7629E-03  0.9732E-06 SHELL         31 -35.2%  0.2550E-04   5.321      0.7464E-08   8.209       0.000      0.1440E+05   0.000    
    1438  0.7639E-03  0.9732E-06 SHELL         31 -35.0%  0.2771E-04   5.351      0.9152E-06   8.238       0.000      0.1440E+05   0.000    
    1439  0.7649E-03  0.9732E-06 SHELL         31 -34.9%  0.2769E-04   5.381      0.3403E-05   8.268       0.000      0.1440E+05   0.000    
    1440  0.7658E-03  0.9731E-06 SHELL         31 -34.8%  0.2542E-04   5.411      0.7367E-05   8.298       0.000      0.1440E+05   0.000    
    1441  0.7668E-03  0.9731E-06 SHELL         31 -34.7%  0.2129E-04   5.442      0.1245E-04   8.329       0.000      0.1440E+05   0.000    
    1442  0.7678E-03  0.9731E-06 SHELL         31 -34.5%  0.1597E-04   5.473      0.1811E-04   8.360       0.000      0.1440E+05   0.000    
    1443  0.7687E-03  0.9731E-06 SHELL         31 -34.4%  0.1033E-04   5.504      0.2366E-04   8.391       0.000      0.1440E+05   0.000    
    1444  0.7697E-03  0.9731E-06 SHELL         31 -34.3%  0.5285E-05   5.536      0.2840E-04   8.423       0.000      0.1440E+05   0.000    
    1445  0.7707E-03  0.9731E-06 SHELL         31 -34.1%  0.1663E-05   5.568      0.3171E-04   8.455       0.000      0.1440E+05   0.000    
    1446  0.7717E-03  0.9731E-06 SHELL         31 -34.0%  0.5405E-07   5.601      0.3317E-04   8.488       0.000      0.1440E+05   0.000    
    1447  0.7726E-03  0.9731E-06 SHELL         31 -33.9%  0.7212E-06   5.634      0.3257E-04   8.521       0.000      0.1440E+05   0.000    
    1448  0.7736E-03  0.9731E-06 SHELL         31 -33.8%  0.3555E-05   5.667      0.2999E-04   8.554       0.000      0.1440E+05   0.000    
    1449  0.7746E-03  0.9731E-06 SHELL         31 -33.6%  0.8094E-05   5.701      0.2578E-04   8.588       0.000      0.1440E+05   0.000    
    1450  0.7756E-03  0.9731E-06 SHELL         31 -33.5%  0.1360E-04   5.735      0.2049E-04   8.622       0.000      0.1440E+05   0.000    
    1451  0.7765E-03  0.9731E-06 SHELL         31 -33.4%  0.1916E-04   5.769      0.1479E-04   8.656       0.000      0.1440E+05   0.000    
    1452  0.7775E-03  0.9730E-06 SHELL         31 -33.2%  0.2389E-04   5.804      0.9389E-05   8.691       0.000      0.1440E+05   0.000    
    1453  0.7785E-03  0.9730E-06 SHELL         31 -33.1%  0.2700E-04   5.839      0.4899E-05   8.726       0.000      0.1440E+05   0.000    
    1454  0.7794E-03  0.9730E-06 SHELL         31 -33.0%  0.2798E-04   5.875      0.1766E-05   8.762       0.000      0.1440E+05   0.000    
    1455  0.7804E-03  0.9730E-06 SHELL         31 -32.8%  0.2669E-04   5.911      0.1996E-06   8.798       0.000      0.1440E+05   0.000    
    1456  0.7814E-03  0.9730E-06 SHELL         31 -32.7%  0.2332E-04   5.947      0.1571E-06   8.834       0.000      0.1440E+05   0.000    
    1457  0.7824E-03  0.9730E-06 SHELL         31 -32.5%  0.1843E-04   5.984      0.1359E-05   8.871       0.000      0.1440E+05   0.000    
    1458  0.7833E-03  0.9730E-06 SHELL         31 -32.4%  0.1282E-04   6.021      0.3349E-05   8.908       0.000      0.1440E+05   0.000    
    1459  0.7843E-03  0.9730E-06 SHELL         31 -32.3%  0.7398E-05   6.059      0.5576E-05   8.946       0.000      0.1440E+05   0.000    
    1460  0.7853E-03  0.9730E-06 SHELL         31 -32.1%  0.3054E-05   6.097      0.7497E-05   8.984       0.000      0.1440E+05   0.000    
    1461  0.7863E-03  0.9730E-06 SHELL         31 -32.0%  0.4965E-06   6.135      0.8671E-05   9.022       0.000      0.1440E+05   0.000    
    1462  0.7872E-03  0.9730E-06 SHELL         31 -31.9%  0.1422E-06   6.174      0.8836E-05   9.061       0.000      0.1440E+05   0.000    
    1463  0.7882E-03  0.9730E-06 SHELL         31 -31.7%  0.2049E-05   6.213      0.7955E-05   9.100       0.000      0.1440E+05   0.000    
    1464  0.7892E-03  0.9729E-06 SHELL         31 -31.6%  0.5906E-05   6.253      0.6225E-05   9.140       0.000      0.1440E+05   0.000    
    1465  0.7901E-03  0.9729E-06 SHELL         31 -31.5%  0.1108E-04   6.292      0.4037E-05   9.180       0.000      0.1440E+05   0.000    
    1466  0.7911E-03  0.9729E-06 SHELL         31 -31.3%  0.1674E-04   6.333      0.1914E-05   9.220       0.000      0.1440E+05   0.000    
    1467  0.7921E-03  0.9729E-06 SHELL         31 -31.2%  0.2194E-04   6.373      0.4138E-06   9.261       0.000      0.1440E+05   0.000    
    1468  0.7931E-03  0.9729E-06 SHELL         31 -31.0%  0.2585E-04   6.415      0.3265E-07   9.302       0.000      0.1440E+05   0.000    
    1469  0.7940E-03  0.9729E-06 SHELL         31 -30.9%  0.2782E-04   6.456      0.1112E-05   9.343       0.000      0.1440E+05   0.000    
    1470  0.7950E-03  0.9729E-06 SHELL         31 -30.8%  0.2754E-04   6.498      0.3772E-05   9.385       0.000      0.1440E+05   0.000    
    1471  0.7960E-03  0.9729E-06 SHELL         31 -30.6%  0.2505E-04   6.540      0.7879E-05   9.427       0.000      0.1440E+05   0.000    
    1472  0.7970E-03  0.9729E-06 SHELL         31 -30.5%  0.2076E-04   6.583      0.1306E-04   9.470       0.000      0.1440E+05   0.000    
    1473  0.7979E-03  0.9729E-06 SHELL         31 -30.3%  0.1536E-04   6.626      0.1873E-04   9.513       0.000      0.1440E+05   0.000    
    1474  0.7989E-03  0.9729E-06 SHELL         31 -30.2%  0.9737E-05   6.670      0.2422E-04   9.557       0.000      0.1440E+05   0.000    
    1475  0.7999E-03  0.9729E-06 SHELL         31 -30.1%  0.4812E-05   6.713      0.2884E-04   9.601       0.000      0.1440E+05   0.000    
    1476  0.8009E-03  0.9729E-06 SHELL         31 -29.9%  0.1385E-05   6.758      0.3197E-04   9.645       0.000      0.1440E+05   0.000    
     ANIMATION FILE: FRICT41A009 WRITTEN
    1477  0.8018E-03  0.9728E-06 SHELL         31 -29.8%  0.1655E-07   6.802      0.3320E-04   9.690       0.000      0.1440E+05   0.000    
    1478  0.8028E-03  0.9728E-06 SHELL         31 -29.7%  0.9289E-06   6.848      0.3238E-04   9.735       0.000      0.1440E+05   0.000    
    1479  0.8038E-03  0.9728E-06 SHELL         31 -29.5%  0.3973E-05   6.893      0.2961E-04   9.780       0.000      0.1440E+05   0.000    
    1480  0.8047E-03  0.9728E-06 SHELL         31 -29.4%  0.8653E-05   6.939      0.2525E-04   9.826       0.000      0.1440E+05   0.000    
    1481  0.8057E-03  0.9728E-06 SHELL         31 -29.2%  0.1420E-04   6.985      0.1988E-04   9.873       0.000      0.1440E+05   0.000    
    1482  0.8067E-03  0.9728E-06 SHELL         31 -29.1%  0.1972E-04   7.032      0.1419E-04   9.919       0.000      0.1440E+05   0.000    
    1483  0.8077E-03  0.9728E-06 SHELL         31 -29.0%  0.2431E-04   7.079      0.8860E-05   9.966       0.000      0.1440E+05   0.000    
    1484  0.8086E-03  0.9728E-06 SHELL         31 -28.8%  0.2721E-04   7.127      0.4498E-05   10.01       0.000      0.1440E+05   0.000    
   CYCLE    TIME      TIME-STEP  ELEMENT          ERROR  I-ENERGY    K-ENERGY T  K-ENERGY R  EXT-WORK     MAS.ERR     TOTAL MASS  MASS ADDED
    1485  0.8096E-03  0.9728E-06 SHELL         31 -28.7%  0.2795E-04   7.175      0.1525E-05   10.06       0.000      0.1440E+05   0.000    
    1486  0.8106E-03  0.9728E-06 SHELL         31 -28.6%  0.2642E-04   7.223      0.1265E-06   10.11       0.000      0.1440E+05   0.000    
    1487  0.8116E-03  0.9728E-06 SHELL         31 -28.4%  0.2287E-04   7.272      0.2314E-06   10.16       0.000      0.1440E+05   0.000    
    1488  0.8125E-03  0.9728E-06 SHELL         31 -28.3%  0.1786E-04   7.321      0.1539E-05   10.21       0.000      0.1440E+05   0.000    
    1489  0.8135E-03  0.9727E-06 SHELL         31 -28.1%  0.1223E-04   7.370      0.3579E-05   10.26       0.000      0.1440E+05   0.000    
    1490  0.8145E-03  0.9727E-06 SHELL         31 -28.0%  0.6881E-05   7.420      0.5798E-05   10.31       0.000      0.1440E+05   0.000    
    1491  0.8154E-03  0.9727E-06 SHELL         31 -27.9%  0.2696E-05   7.471      0.7659E-05   10.36       0.000      0.1440E+05   0.000    
    1492  0.8164E-03  0.9727E-06 SHELL         31 -27.7%  0.3546E-06   7.522      0.8736E-05   10.41       0.000      0.1440E+05   0.000    
    1493  0.8174E-03  0.9727E-06 SHELL         31 -27.6%  0.2383E-06   7.573      0.8790E-05   10.46       0.000      0.1440E+05   0.000    
    1494  0.8184E-03  0.9727E-06 SHELL         31 -27.5%  0.2366E-05   7.625      0.7809E-05   10.51       0.000      0.1440E+05   0.000    
    1495  0.8193E-03  0.9727E-06 SHELL         31 -27.3%  0.6392E-05   7.677      0.6011E-05   10.56       0.000      0.1440E+05   0.000    
    1496  0.8203E-03  0.9727E-06 SHELL         31 -27.2%  0.1166E-04   7.729      0.3805E-05   10.62       0.000      0.1440E+05   0.000    
    1497  0.8213E-03  0.9727E-06 SHELL         31 -27.1%  0.1730E-04   7.782      0.1722E-05   10.67       0.000      0.1440E+05   0.000    
    1498  0.8223E-03  0.9727E-06 SHELL         31 -26.9%  0.2241E-04   7.835      0.3161E-06   10.72       0.000      0.1440E+05   0.000    
    1499  0.8232E-03  0.9727E-06 SHELL         31 -26.8%  0.2615E-04   7.889      0.7193E-07   10.78       0.000      0.1440E+05   0.000    
    1500  0.8242E-03  0.9727E-06 SHELL         31 -26.7%  0.2790E-04   7.943      0.1310E-05   10.83       0.000      0.1440E+05   0.000    
    1501  0.8252E-03  0.9726E-06 SHELL         31 -26.5%  0.2739E-04   7.998      0.4127E-05   10.88       0.000      0.1440E+05   0.000    
    1502  0.8261E-03  0.9726E-06 SHELL         31 -26.4%  0.2469E-04   8.053      0.8362E-05   10.94       0.000      0.1440E+05   0.000    
    1503  0.8271E-03  0.9726E-06 SHELL         31 -26.3%  0.2025E-04   8.108      0.1362E-04   11.00       0.000      0.1440E+05   0.000    
    1504  0.8281E-03  0.9726E-06 SHELL         31 -26.1%  0.1479E-04   8.164      0.1930E-04   11.05       0.000      0.1440E+05   0.000    
    1505  0.8291E-03  0.9726E-06 SHELL         31 -26.0%  0.9199E-05   8.220      0.2474E-04   11.11       0.000      0.1440E+05   0.000    
    1506  0.8300E-03  0.9726E-06 SHELL         31 -25.9%  0.4392E-05   8.277      0.2922E-04   11.16       0.000      0.1440E+05   0.000    
    1507  0.8310E-03  0.9726E-06 SHELL         31 -25.7%  0.1151E-05   8.334      0.3218E-04   11.22       0.000      0.1440E+05   0.000    
    1508  0.8320E-03  0.9726E-06 SHELL         31 -25.6%  0.5951E-08   8.391      0.3321E-04   11.28       0.000      0.1440E+05   0.000    
    1509  0.8330E-03  0.9726E-06 SHELL         31 -25.5%  0.1142E-05   8.449      0.3219E-04   11.34       0.000      0.1440E+05   0.000    
    1510  0.8339E-03  0.9726E-06 SHELL         31 -25.3%  0.4375E-05   8.508      0.2924E-04   11.39       0.000      0.1440E+05   0.000    
    1511  0.8349E-03  0.9726E-06 SHELL         31 -25.2%  0.9176E-05   8.566      0.2476E-04   11.45       0.000      0.1440E+05   0.000    
    1512  0.8359E-03  0.9726E-06 SHELL         31 -25.1%  0.1476E-04   8.625      0.1933E-04   11.51       0.000      0.1440E+05   0.000    
    1513  0.8368E-03  0.9725E-06 SHELL         31 -24.9%  0.2023E-04   8.685      0.1364E-04   11.57       0.000      0.1440E+05   0.000    
    1514  0.8378E-03  0.9725E-06 SHELL         31 -24.8%  0.2467E-04   8.745      0.8384E-05   11.63       0.000      0.1440E+05   0.000    
    1515  0.8388E-03  0.9725E-06 SHELL         31 -24.7%  0.2738E-04   8.806      0.4143E-05   11.69       0.000      0.1440E+05   0.000    
    1516  0.8398E-03  0.9725E-06 SHELL         31 -24.6%  0.2790E-04   8.867      0.1320E-05   11.75       0.000      0.1440E+05   0.000    
    1517  0.8407E-03  0.9725E-06 SHELL         31 -24.4%  0.2616E-04   8.928      0.7424E-07   11.82       0.000      0.1440E+05   0.000    
    1518  0.8417E-03  0.9725E-06 SHELL         31 -24.3%  0.2244E-04   8.990      0.3114E-06   11.88       0.000      0.1440E+05   0.000    
    1519  0.8427E-03  0.9725E-06 SHELL         31 -24.2%  0.1733E-04   9.052      0.1712E-05   11.94       0.000      0.1440E+05   0.000    
    1520  0.8436E-03  0.9725E-06 SHELL         31 -24.1%  0.1169E-04   9.115      0.3793E-05   12.00       0.000      0.1440E+05   0.000    
    1521  0.8446E-03  0.9725E-06 SHELL         31 -23.9%  0.6419E-05   9.178      0.5998E-05   12.06       0.000      0.1440E+05   0.000    
    1522  0.8456E-03  0.9725E-06 SHELL         31 -23.8%  0.2386E-05   9.241      0.7799E-05   12.13       0.000      0.1440E+05   0.000    
    1523  0.8466E-03  0.9725E-06 SHELL         31 -23.7%  0.2459E-06   9.305      0.8785E-05   12.19       0.000      0.1440E+05   0.000    
    1524  0.8475E-03  0.9725E-06 SHELL         31 -23.6%  0.3480E-06   9.369      0.8737E-05   12.26       0.000      0.1440E+05   0.000    
    1525  0.8485E-03  0.9725E-06 SHELL         31 -23.4%  0.2675E-05   9.434      0.7667E-05   12.32       0.000      0.1440E+05   0.000    
    1526  0.8495E-03  0.9724E-06 SHELL         31 -23.3%  0.6849E-05   9.499      0.5811E-05   12.39       0.000      0.1440E+05   0.000    
    1527  0.8505E-03  0.9724E-06 SHELL         31 -23.2%  0.1219E-04   9.565      0.3594E-05   12.45       0.000      0.1440E+05   0.000    
    1528  0.8514E-03  0.9724E-06 SHELL         31 -23.1%  0.1782E-04   9.631      0.1552E-05   12.52       0.000      0.1440E+05   0.000    
    1529  0.8524E-03  0.9724E-06 SHELL         31 -22.9%  0.2283E-04   9.698      0.2374E-06   12.58       0.000      0.1440E+05   0.000    
    1530  0.8534E-03  0.9724E-06 SHELL         31 -22.8%  0.2640E-04   9.765      0.1216E-06   12.65       0.000      0.1440E+05   0.000    
    1531  0.8543E-03  0.9724E-06 SHELL         31 -22.7%  0.2795E-04   9.832      0.1507E-05   12.72       0.000      0.1440E+05   0.000    
    1532  0.8553E-03  0.9724E-06 SHELL         31 -22.6%  0.2723E-04   9.900      0.4465E-05   12.79       0.000      0.1440E+05   0.000    
    1533  0.8563E-03  0.9724E-06 SHELL         31 -22.5%  0.2435E-04   9.968      0.8813E-05   12.86       0.000      0.1440E+05   0.000    
    1534  0.8573E-03  0.9724E-06 SHELL         31 -22.3%  0.1978E-04   10.04      0.1413E-04   12.92       0.000      0.1440E+05   0.000    
    1535  0.8582E-03  0.9724E-06 SHELL         31 -22.2%  0.1427E-04   10.11      0.1983E-04   12.99       0.000      0.1440E+05   0.000    
    1536  0.8592E-03  0.9724E-06 SHELL         31 -22.1%  0.8714E-05   10.18      0.2520E-04   13.06       0.000      0.1440E+05   0.000    
    1537  0.8602E-03  0.9724E-06 SHELL         31 -22.0%  0.4022E-05   10.25      0.2956E-04   13.13       0.000      0.1440E+05   0.000    
    1538  0.8612E-03  0.9723E-06 SHELL         31 -21.9%  0.9564E-06   10.32      0.3236E-04   13.20       0.000      0.1440E+05   0.000    
    1539  0.8621E-03  0.9723E-06 SHELL         31 -21.7%  0.1633E-07   10.39      0.3321E-04   13.27       0.000      0.1440E+05   0.000    
   CYCLE    TIME      TIME-STEP  ELEMENT          ERROR  I-ENERGY    K-ENERGY T  K-ENERGY R  EXT-WORK     MAS.ERR     TOTAL MASS  MASS ADDED
    1540  0.8631E-03  0.9723E-06 SHELL         31 -21.6%  0.1355E-05   10.46      0.3200E-04   13.35       0.000      0.1440E+05   0.000    
    1541  0.8641E-03  0.9723E-06 SHELL         31 -21.5%  0.4755E-05   10.53      0.2889E-04   13.42       0.000      0.1440E+05   0.000    
    1542  0.8650E-03  0.9723E-06 SHELL         31 -21.4%  0.9661E-05   10.60      0.2430E-04   13.49       0.000      0.1440E+05   0.000    
    1543  0.8660E-03  0.9723E-06 SHELL         31 -21.3%  0.1527E-04   10.68      0.1882E-04   13.56       0.000      0.1440E+05   0.000    
    1544  0.8670E-03  0.9723E-06 SHELL         31 -21.2%  0.2068E-04   10.75      0.1314E-04   13.64       0.000      0.1440E+05   0.000    
    1545  0.8680E-03  0.9723E-06 SHELL         31 -21.1%  0.2500E-04   10.82      0.7958E-05   13.71       0.000      0.1440E+05   0.000    
    1546  0.8689E-03  0.9723E-06 SHELL         31 -20.9%  0.2752E-04   10.90      0.3832E-05   13.78       0.000      0.1440E+05   0.000    
    1547  0.8699E-03  0.9723E-06 SHELL         31 -20.8%  0.2784E-04   10.97      0.1146E-05   13.86       0.000      0.1440E+05   0.000    
    1548  0.8709E-03  0.9723E-06 SHELL         31 -20.7%  0.2591E-04   11.05      0.3883E-07   13.93       0.000      0.1440E+05   0.000    
    1549  0.8718E-03  0.9723E-06 SHELL         31 -20.6%  0.2203E-04   11.12      0.3937E-06   14.01       0.000      0.1440E+05   0.000    
    1550  0.8728E-03  0.9722E-06 SHELL         31 -20.5%  0.1685E-04   11.20      0.1874E-05   14.09       0.000      0.1440E+05   0.000    
    1551  0.8738E-03  0.9722E-06 SHELL         31 -20.4%  0.1120E-04   11.27      0.3987E-05   14.16       0.000      0.1440E+05   0.000    
    1552  0.8748E-03  0.9722E-06 SHELL         31 -20.3%  0.6008E-05   11.35      0.6176E-05   14.24       0.000      0.1440E+05   0.000    
    1553  0.8757E-03  0.9722E-06 SHELL         31 -20.2%  0.2119E-05   11.43      0.7920E-05   14.32       0.000      0.1440E+05   0.000    
    1554  0.8767E-03  0.9722E-06 SHELL         31 -20.1%  0.1650E-06   11.51      0.8821E-05   14.39       0.000      0.1440E+05   0.000    
    1555  0.8777E-03  0.9722E-06 SHELL         31 -20.0%  0.4654E-06   11.58      0.8682E-05   14.47       0.000      0.1440E+05   0.000    
    1556  0.8787E-03  0.9722E-06 SHELL         31 -19.8%  0.2971E-05   11.66      0.7532E-05   14.55       0.000      0.1440E+05   0.000    
    1557  0.8796E-03  0.9722E-06 SHELL         31 -19.7%  0.7273E-05   11.74      0.5627E-05   14.63       0.000      0.1440E+05   0.000    
    1558  0.8806E-03  0.9722E-06 SHELL         31 -19.6%  0.1267E-04   11.82      0.3404E-05   14.71       0.000      0.1440E+05   0.000    
    1559  0.8816E-03  0.9722E-06 SHELL         31 -19.5%  0.1829E-04   11.90      0.1404E-05   14.79       0.000      0.1440E+05   0.000    
    1560  0.8825E-03  0.9722E-06 SHELL         31 -19.4%  0.2320E-04   11.98      0.1752E-06   14.87       0.000      0.1440E+05   0.000    
    1561  0.8835E-03  0.9722E-06 SHELL         31 -19.3%  0.2662E-04   12.06      0.1782E-06   14.95       0.000      0.1440E+05   0.000    
    1562  0.8845E-03  0.9722E-06 SHELL         31 -19.2%  0.2798E-04   12.14      0.1697E-05   15.03       0.000      0.1440E+05   0.000    
    1563  0.8855E-03  0.9721E-06 SHELL         31 -19.1%  0.2706E-04   12.23      0.4782E-05   15.11       0.000      0.1440E+05   0.000    
    1564  0.8864E-03  0.9721E-06 SHELL         31 -19.0%  0.2402E-04   12.31      0.9230E-05   15.20       0.000      0.1440E+05   0.000    
    1565  0.8874E-03  0.9721E-06 SHELL         31 -18.9%  0.1934E-04   12.39      0.1460E-04   15.28       0.000      0.1440E+05   0.000    
    1566  0.8884E-03  0.9721E-06 SHELL         31 -18.8%  0.1380E-04   12.48      0.2030E-04   15.36       0.000      0.1440E+05   0.000    
    1567  0.8893E-03  0.9721E-06 SHELL         31 -18.7%  0.8281E-05   12.56      0.2561E-04   15.45       0.000      0.1440E+05   0.000    
    1568  0.8903E-03  0.9721E-06 SHELL         31 -18.6%  0.3699E-05   12.64      0.2986E-04   15.53       0.000      0.1440E+05   0.000    
    1569  0.8913E-03  0.9721E-06 SHELL         31 -18.5%  0.7953E-06   12.73      0.3250E-04   15.61       0.000      0.1440E+05   0.000    
    1570  0.8923E-03  0.9721E-06 SHELL         31 -18.4%  0.4225E-07   12.81      0.3318E-04   15.70       0.000      0.1440E+05   0.000    
    1571  0.8932E-03  0.9721E-06 SHELL         31 -18.3%  0.1563E-05   12.90      0.3181E-04   15.79       0.000      0.1440E+05   0.000    
    1572  0.8942E-03  0.9721E-06 SHELL         31 -18.2%  0.5109E-05   12.98      0.2857E-04   15.87       0.000      0.1440E+05   0.000    
    1573  0.8952E-03  0.9721E-06 SHELL         31 -18.1%  0.1010E-04   13.07      0.2388E-04   15.96       0.000      0.1440E+05   0.000    
    1574  0.8962E-03  0.9721E-06 SHELL         31 -18.0%  0.1573E-04   13.16      0.1836E-04   16.05       0.000      0.1440E+05   0.000    
    1575  0.8971E-03  0.9720E-06 SHELL         31 -17.9%  0.2108E-04   13.25      0.1270E-04   16.13       0.000      0.1440E+05   0.000    
    1576  0.8981E-03  0.9720E-06 SHELL         31 -17.8%  0.2527E-04   13.33      0.7581E-05   16.22       0.000      0.1440E+05   0.000    
    1577  0.8991E-03  0.9720E-06 SHELL         31 -17.7%  0.2763E-04   13.42      0.3561E-05   16.31       0.000      0.1440E+05   0.000    
    1578  0.9000E-03  0.9720E-06 SHELL         31 -17.6%  0.2777E-04   13.51      0.1000E-05   16.40       0.000      0.1440E+05   0.000    
     ANIMATION FILE: FRICT41A010 WRITTEN
    1579  0.9010E-03  0.9720E-06 SHELL         31 -17.5%  0.2566E-04   13.60      0.1675E-07   16.49       0.000      0.1440E+05   0.000    
    1580  0.9020E-03  0.9720E-06 SHELL         31 -17.4%  0.2166E-04   13.69      0.4755E-06   16.58       0.000      0.1440E+05   0.000    
    1581  0.9030E-03  0.9720E-06 SHELL         31 -17.3%  0.1641E-04   13.78      0.2024E-05   16.67       0.000      0.1440E+05   0.000    
    1582  0.9039E-03  0.9720E-06 SHELL         31 -17.2%  0.1076E-04   13.87      0.4163E-05   16.76       0.000      0.1440E+05   0.000    
    1583  0.9049E-03  0.9720E-06 SHELL         31 -17.1%  0.5647E-05   13.96      0.6334E-05   16.85       0.000      0.1440E+05   0.000    
    1584  0.9059E-03  0.9720E-06 SHELL         31 -17.0%  0.1891E-05   14.05      0.8023E-05   16.94       0.000      0.1440E+05   0.000    
    1585  0.9068E-03  0.9720E-06 SHELL         31 -16.9%  0.1070E-06   14.15      0.8847E-05   17.03       0.000      0.1440E+05   0.000    
    1586  0.9078E-03  0.9720E-06 SHELL         31 -16.9%  0.5854E-06   14.24      0.8624E-05   17.13       0.000      0.1440E+05   0.000    
    1587  0.9088E-03  0.9719E-06 SHELL         31 -16.8%  0.3248E-05   14.33      0.7405E-05   17.22       0.000      0.1440E+05   0.000    
    1588  0.9098E-03  0.9719E-06 SHELL         31 -16.7%  0.7662E-05   14.43      0.5459E-05   17.31       0.000      0.1440E+05   0.000    
    1589  0.9107E-03  0.9719E-06 SHELL         31 -16.6%  0.1311E-04   14.52      0.3234E-05   17.41       0.000      0.1440E+05   0.000    
    1590  0.9117E-03  0.9719E-06 SHELL         31 -16.5%  0.1870E-04   14.62      0.1275E-05   17.50       0.000      0.1440E+05   0.000    
    1591  0.9127E-03  0.9719E-06 SHELL         31 -16.4%  0.2353E-04   14.71      0.1270E-06   17.60       0.000      0.1440E+05   0.000    
    1592  0.9136E-03  0.9719E-06 SHELL         31 -16.3%  0.2680E-04   14.81      0.2385E-06   17.69       0.000      0.1440E+05   0.000    
    1593  0.9146E-03  0.9719E-06 SHELL         31 -16.2%  0.2799E-04   14.90      0.1877E-05   17.79       0.000      0.1440E+05   0.000    
    1594  0.9156E-03  0.9719E-06 SHELL         31 -16.1%  0.2690E-04   15.00      0.5075E-05   17.89       0.000      0.1440E+05   0.000    
   CYCLE    TIME      TIME-STEP  ELEMENT          ERROR  I-ENERGY    K-ENERGY T  K-ENERGY R  EXT-WORK     MAS.ERR     TOTAL MASS  MASS ADDED
    1595  0.9166E-03  0.9719E-06 SHELL         31 -16.1%  0.2372E-04   15.10      0.9609E-05   17.98       0.000      0.1440E+05   0.000    
    1596  0.9175E-03  0.9719E-06 SHELL         31 -16.0%  0.1895E-04   15.19      0.1503E-04   18.08       0.000      0.1440E+05   0.000    
    1597  0.9185E-03  0.9719E-06 SHELL         31 -15.9%  0.1337E-04   15.29      0.2071E-04   18.18       0.000      0.1440E+05   0.000    
    1598  0.9195E-03  0.9719E-06 SHELL         31 -15.8%  0.7899E-05   15.39      0.2597E-04   18.28       0.000      0.1440E+05   0.000    
    1599  0.9205E-03  0.9718E-06 SHELL         31 -15.7%  0.3420E-05   15.49      0.3012E-04   18.38       0.000      0.1440E+05   0.000    
    1600  0.9214E-03  0.2961E-06 NODE          31 -15.4%  0.6638E-06   15.57      0.3262E-04   18.40       0.000      0.1440E+05   0.000    
    1601  0.9217E-03  0.1678E-06 NODE          31 -15.4%  0.8436E-07   15.58      0.3294E-04   18.42       0.000      0.1440E+05   0.000    
    1602  0.9219E-03  0.1270E-06 NODE          31 -15.4%  0.1699E-07   15.59      0.3297E-04   18.43       0.000      0.1440E+05   0.000    
    1603  0.9220E-03  0.1107E-06 NODE          31 -15.5%  0.1568E-06   15.59      0.3291E-04   18.45       0.000      0.1440E+05   0.000    
    1604  0.9221E-03  0.1034E-06 NODE          31 -15.5%  0.4425E-06   15.59      0.3280E-04   18.46       0.000      0.1440E+05   0.000    
    1605  0.9222E-03  0.9992E-07 NODE          31 -15.6%  0.8668E-06   15.59      0.3264E-04   18.47       0.000      0.1440E+05   0.000    
    1606  0.9223E-03  0.9825E-07 NODE          31 -15.6%  0.1439E-05   15.59      0.3243E-04   18.48       0.000      0.1440E+05   0.000    
    1607  0.9224E-03  0.9743E-07 NODE          31 -15.7%  0.2172E-05   15.59      0.3217E-04   18.49       0.000      0.1440E+05   0.000    
    1608  0.9225E-03  0.9702E-07 NODE          31 -15.7%  0.3081E-05   15.59      0.3186E-04   18.50       0.000      0.1440E+05   0.000    
    1609  0.9226E-03  0.9681E-07 NODE          31 -15.8%  0.4183E-05   15.59      0.3150E-04   18.51       0.000      0.1440E+05   0.000    
    1610  0.9227E-03  0.9671E-07 NODE          31 -15.8%  0.5494E-05   15.59      0.3109E-04   18.52       0.000      0.1440E+05   0.000    
    1611  0.9228E-03  0.9665E-07 NODE          31 -15.9%  0.7028E-05   15.58      0.3063E-04   18.53       0.000      0.1440E+05   0.000    
    1612  0.9229E-03  0.9662E-07 NODE          31 -15.9%  0.8802E-05   15.58      0.3011E-04   18.54       0.000      0.1440E+05   0.000    
    1613  0.9230E-03  0.9660E-07 NODE          31 -16.0%  0.1083E-04   15.58      0.2954E-04   18.55       0.000      0.1440E+05   0.000    
    1614  0.9231E-03  0.9658E-07 NODE          31 -16.1%  0.1313E-04   15.57      0.2891E-04   18.56       0.000      0.1440E+05   0.000    
    1615  0.9232E-03  0.9657E-07 NODE          31 -16.1%  0.1571E-04   15.57      0.2823E-04   18.57       0.000      0.1440E+05   0.000    
    1616  0.9233E-03  0.9656E-07 NODE          31 -16.2%  0.1860E-04   15.56      0.2750E-04   18.58       0.000      0.1440E+05   0.000    
    1617  0.9234E-03  0.9655E-07 NODE          31 -16.3%  0.2180E-04   15.56      0.2672E-04   18.58       0.000      0.1440E+05   0.000    
    1618  0.9235E-03  0.9654E-07 NODE          31 -16.4%  0.2533E-04   15.55      0.2588E-04   18.59       0.000      0.1440E+05   0.000    
    1619  0.9236E-03  0.9653E-07 NODE          31 -16.4%  0.2920E-04   15.55      0.2500E-04   18.60       0.000      0.1440E+05   0.000    
    1620  0.9237E-03  0.9653E-07 NODE          31 -16.5%  0.3343E-04   15.54      0.2408E-04   18.61       0.000      0.1440E+05   0.000    
    1621  0.9238E-03  0.9652E-07 NODE          31 -16.6%  0.3803E-04   15.53      0.2311E-04   18.62       0.000      0.1440E+05   0.000    
    1622  0.9239E-03  0.9651E-07 NODE          31 -16.7%  0.4301E-04   15.52      0.2209E-04   18.63       0.000      0.1440E+05   0.000    
    1623  0.9240E-03  0.9650E-07 NODE          31 -16.8%  0.4839E-04   15.51      0.2104E-04   18.64       0.000      0.1440E+05   0.000    
    1624  0.9241E-03  0.9649E-07 NODE          31 -16.9%  0.5418E-04   15.51      0.1996E-04   18.65       0.000      0.1440E+05   0.000    
    1625  0.9242E-03  0.9648E-07 NODE          31 -17.0%  0.6038E-04   15.50      0.1884E-04   18.66       0.000      0.1440E+05   0.000    
    1626  0.9243E-03  0.9648E-07 NODE          31 -17.1%  0.6702E-04   15.49      0.1770E-04   18.67       0.000      0.1440E+05   0.000    
    1627  0.9244E-03  0.9647E-07 NODE          31 -17.2%  0.7409E-04   15.48      0.1654E-04   18.68       0.000      0.1440E+05   0.000    
    1628  0.9245E-03  0.9646E-07 NODE          31 -17.3%  0.8161E-04   15.47      0.1536E-04   18.69       0.000      0.1440E+05   0.000    
    1629  0.9246E-03  0.9645E-07 NODE          31 -17.4%  0.8960E-04   15.46      0.1417E-04   18.70       0.000      0.1440E+05   0.000    
    1630  0.9246E-03  0.9644E-07 NODE          31 -17.5%  0.9804E-04   15.44      0.1298E-04   18.71       0.000      0.1440E+05   0.000    
    1631  0.9247E-03  0.9644E-07 NODE          31 -17.6%  0.1070E-03   15.43      0.1179E-04   18.72       0.000      0.1440E+05   0.000    
    1632  0.9248E-03  0.9643E-07 NODE          31 -17.7%  0.1164E-03   15.42      0.1061E-04   18.73       0.000      0.1440E+05   0.000    
    1633  0.9249E-03  0.9642E-07 NODE          31 -17.8%  0.1262E-03   15.41      0.9444E-05   18.74       0.000      0.1440E+05   0.000    
    1634  0.9250E-03  0.9641E-07 NODE          31 -17.9%  0.1366E-03   15.40      0.8303E-05   18.75       0.000      0.1440E+05   0.000    
    1635  0.9251E-03  0.9641E-07 NODE          31 -18.0%  0.1475E-03   15.38      0.7195E-05   18.76       0.000      0.1440E+05   0.000    
    1636  0.9252E-03  0.9640E-07 NODE          31 -18.1%  0.1588E-03   15.37      0.6128E-05   18.77       0.000      0.1440E+05   0.000    
    1637  0.9253E-03  0.9639E-07 NODE          31 -18.2%  0.1707E-03   15.36      0.5112E-05   18.78       0.000      0.1440E+05   0.000    
    1638  0.9254E-03  0.9638E-07 NODE          31 -18.4%  0.1830E-03   15.34      0.4157E-05   18.79       0.000      0.1440E+05   0.000    
    1639  0.9255E-03  0.9638E-07 NODE          31 -18.5%  0.1958E-03   15.33      0.3272E-05   18.80       0.000      0.1440E+05   0.000    
    1640  0.9256E-03  0.9637E-07 NODE          31 -18.6%  0.2092E-03   15.31      0.2469E-05   18.81       0.000      0.1440E+05   0.000    
    1641  0.9257E-03  0.9636E-07 NODE          31 -18.7%  0.2230E-03   15.30      0.1757E-05   18.82       0.000      0.1440E+05   0.000    
    1642  0.9258E-03  0.9636E-07 NODE          31 -18.8%  0.2373E-03   15.28      0.1150E-05   18.83       0.000      0.1440E+05   0.000    
    1643  0.9259E-03  0.9635E-07 NODE          31 -19.0%  0.2521E-03   15.27      0.6577E-06   18.84       0.000      0.1440E+05   0.000    
    1644  0.9260E-03  0.9634E-07 NODE          31 -19.1%  0.2673E-03   15.25      0.2935E-06   18.85       0.000      0.1440E+05   0.000    
    1645  0.9261E-03  0.9634E-07 NODE          31 -19.2%  0.2831E-03   15.24      0.7010E-07   18.86       0.000      0.1440E+05   0.000    
    1646  0.9262E-03  0.9633E-07 NODE          31 -19.3%  0.2993E-03   15.22      0.4352E-09   18.87       0.000      0.1440E+05   0.000    
    1647  0.9263E-03  0.9632E-07 NODE          31 -19.4%  0.3159E-03   15.20      0.9807E-07   18.88       0.000      0.1440E+05   0.000    
    1648  0.9264E-03  0.9632E-07 NODE          31 -19.6%  0.3330E-03   15.19      0.3769E-06   18.89       0.000      0.1440E+05   0.000    
    1649  0.9265E-03  0.9631E-07 NODE          31 -19.7%  0.3505E-03   15.17      0.8511E-06   18.89       0.000      0.1440E+05   0.000    
   CYCLE    TIME      TIME-STEP  ELEMENT          ERROR  I-ENERGY    K-ENERGY T  K-ENERGY R  EXT-WORK     MAS.ERR     TOTAL MASS  MASS ADDED
    1650  0.9266E-03  0.9630E-07 NODE          31 -19.8%  0.3684E-03   15.16      0.1535E-05   18.90       0.000      0.1440E+05   0.000    
    1651  0.9267E-03  0.9630E-07 NODE          31 -20.0%  0.3868E-03   15.14      0.2445E-05   18.91       0.000      0.1440E+05   0.000    
    1652  0.9268E-03  0.9629E-07 NODE          31 -20.1%  0.4055E-03   15.12      0.3594E-05   18.92       0.000      0.1440E+05   0.000    
    1653  0.9269E-03  0.9629E-07 NODE          31 -20.2%  0.4246E-03   15.11      0.4999E-05   18.93       0.000      0.1440E+05   0.000    
    1654  0.9270E-03  0.9628E-07 NODE          31 -20.3%  0.4440E-03   15.09      0.6675E-05   18.94       0.000      0.1440E+05   0.000    
    1655  0.9271E-03  0.9627E-07 NODE          31 -20.5%  0.4638E-03   15.07      0.8639E-05   18.95       0.000      0.1440E+05   0.000    
    1656  0.9272E-03  0.9627E-07 NODE          31 -20.6%  0.4839E-03   15.05      0.1091E-04   18.96       0.000      0.1440E+05   0.000    
    1657  0.9272E-03  0.9626E-07 NODE          31 -20.7%  0.5043E-03   15.04      0.1349E-04   18.97       0.000      0.1440E+05   0.000    
    1658  0.9273E-03  0.9626E-07 NODE          31 -20.9%  0.5249E-03   15.02      0.1642E-04   18.98       0.000      0.1440E+05   0.000    
    1659  0.9274E-03  0.9625E-07 NODE          31 -21.0%  0.5458E-03   15.00      0.1970E-04   18.99       0.000      0.1440E+05   0.000    
    1660  0.9275E-03  0.9625E-07 NODE          31 -21.1%  0.5670E-03   14.99      0.2335E-04   19.00       0.000      0.1440E+05   0.000    
    1661  0.9276E-03  0.9624E-07 NODE          31 -21.2%  0.5883E-03   14.97      0.2738E-04   19.01       0.000      0.1440E+05   0.000    
    1662  0.9277E-03  0.9624E-07 NODE          31 -21.4%  0.6099E-03   14.95      0.3182E-04   19.02       0.000      0.1440E+05   0.000    
    1663  0.9278E-03  0.9623E-07 NODE          31 -21.5%  0.6316E-03   14.93      0.3669E-04   19.03       0.000      0.1440E+05   0.000    
    1664  0.9279E-03  0.9623E-07 NODE          31 -21.6%  0.6534E-03   14.92      0.4199E-04   19.03       0.000      0.1440E+05   0.000    
    1665  0.9280E-03  0.9622E-07 NODE          31 -21.8%  0.6753E-03   14.90      0.4774E-04   19.04       0.000      0.1440E+05   0.000    
    1666  0.9281E-03  0.9622E-07 NODE          31 -21.9%  0.6973E-03   14.88      0.5397E-04   19.05       0.000      0.1440E+05   0.000    
    1667  0.9282E-03  0.9621E-07 NODE          31 -22.0%  0.7193E-03   14.86      0.6070E-04   19.06       0.000      0.1440E+05   0.000    
    1668  0.9283E-03  0.9621E-07 NODE          31 -22.1%  0.7414E-03   14.85      0.6792E-04   19.07       0.000      0.1440E+05   0.000    
    1669  0.9284E-03  0.9620E-07 NODE          31 -22.3%  0.7634E-03   14.83      0.7567E-04   19.08       0.000      0.1440E+05   0.000    
    1670  0.9285E-03  0.9620E-07 NODE          31 -22.4%  0.7854E-03   14.81      0.8396E-04   19.09       0.000      0.1440E+05   0.000    
    1671  0.9286E-03  0.9620E-07 NODE          31 -22.5%  0.8074E-03   14.80      0.9281E-04   19.10       0.000      0.1440E+05   0.000    
    1672  0.9287E-03  0.9619E-07 NODE          31 -22.6%  0.8292E-03   14.78      0.1022E-03   19.11       0.000      0.1440E+05   0.000    
    1673  0.9288E-03  0.9619E-07 NODE          31 -22.8%  0.8509E-03   14.76      0.1122E-03   19.12       0.000      0.1440E+05   0.000    
    1674  0.9289E-03  0.9619E-07 NODE          31 -22.9%  0.8724E-03   14.75      0.1228E-03   19.12       0.000      0.1440E+05   0.000    
    1675  0.9290E-03  0.9618E-07 NODE          31 -23.0%  0.8937E-03   14.73      0.1341E-03   19.13       0.000      0.1440E+05   0.000    
    1676  0.9291E-03  0.9618E-07 NODE          31 -23.1%  0.9148E-03   14.71      0.1459E-03   19.14       0.000      0.1440E+05   0.000    
    1677  0.9292E-03  0.9617E-07 NODE          31 -23.2%  0.9356E-03   14.70      0.1585E-03   19.15       0.000      0.1440E+05   0.000    
    1678  0.9293E-03  0.9617E-07 NODE          31 -23.4%  0.9562E-03   14.68      0.1716E-03   19.16       0.000      0.1440E+05   0.000    
    1679  0.9294E-03  0.9617E-07 NODE          31 -23.5%  0.9764E-03   14.67      0.1855E-03   19.17       0.000      0.1440E+05   0.000    
    1680  0.9295E-03  0.9617E-07 NODE          31 -23.6%  0.9962E-03   14.65      0.2000E-03   19.18       0.000      0.1440E+05   0.000    
    1681  0.9296E-03  0.9616E-07 NODE          31 -23.7%  0.1016E-02   14.64      0.2152E-03   19.19       0.000      0.1440E+05   0.000    
    1682  0.9297E-03  0.9616E-07 NODE          31 -23.8%  0.1035E-02   14.62      0.2312E-03   19.20       0.000      0.1440E+05   0.000    
    1683  0.9298E-03  0.9616E-07 NODE          31 -23.9%  0.1053E-02   14.61      0.2479E-03   19.20       0.000      0.1440E+05   0.000    
    1684  0.9298E-03  0.9615E-07 NODE          31 -24.1%  0.1071E-02   14.59      0.2653E-03   19.21       0.000      0.1440E+05   0.000    
    1685  0.9299E-03  0.9615E-07 NODE          31 -24.2%  0.1089E-02   14.58      0.2834E-03   19.22       0.000      0.1440E+05   0.000    
    1686  0.9300E-03  0.9615E-07 NODE          31 -24.3%  0.1106E-02   14.56      0.3023E-03   19.23       0.000      0.1440E+05   0.000    
    1687  0.9301E-03  0.9615E-07 NODE          31 -24.4%  0.1122E-02   14.55      0.3220E-03   19.24       0.000      0.1440E+05   0.000    
    1688  0.9302E-03  0.9615E-07 NODE          31 -24.5%  0.1138E-02   14.53      0.3424E-03   19.25       0.000      0.1440E+05   0.000    
    1689  0.9303E-03  0.9614E-07 NODE          31 -24.6%  0.1153E-02   14.52      0.3636E-03   19.26       0.000      0.1440E+05   0.000    
    1690  0.9304E-03  0.9614E-07 NODE          31 -24.7%  0.1168E-02   14.51      0.3856E-03   19.26       0.000      0.1440E+05   0.000    
    1691  0.9305E-03  0.9614E-07 NODE          31 -24.8%  0.1182E-02   14.49      0.4083E-03   19.27       0.000      0.1440E+05   0.000    
    1692  0.9306E-03  0.9614E-07 NODE          31 -24.9%  0.1195E-02   14.48      0.4319E-03   19.28       0.000      0.1440E+05   0.000    
    1693  0.9307E-03  0.9614E-07 NODE          31 -25.0%  0.1207E-02   14.47      0.4562E-03   19.29       0.000      0.1440E+05   0.000    
    1694  0.9308E-03  0.9614E-07 NODE          31 -25.1%  0.1219E-02   14.46      0.4814E-03   19.30       0.000      0.1440E+05   0.000    
    1695  0.9309E-03  0.9613E-07 NODE          31 -25.2%  0.1230E-02   14.45      0.5073E-03   19.31       0.000      0.1440E+05   0.000    
    1696  0.9310E-03  0.9613E-07 NODE          31 -25.3%  0.1240E-02   14.43      0.5340E-03   19.32       0.000      0.1440E+05   0.000    
    1697  0.9311E-03  0.9613E-07 NODE          31 -25.4%  0.1249E-02   14.42      0.5616E-03   19.32       0.000      0.1440E+05   0.000    
    1698  0.9312E-03  0.9613E-07 NODE          31 -25.4%  0.1257E-02   14.41      0.5899E-03   19.33       0.000      0.1440E+05   0.000    
    1699  0.9313E-03  0.9613E-07 NODE          31 -25.5%  0.1265E-02   14.40      0.6190E-03   19.34       0.000      0.1440E+05   0.000    
    1700  0.9314E-03  0.9613E-07 NODE          31 -25.6%  0.1271E-02   14.39      0.6489E-03   19.35       0.000      0.1440E+05   0.000    
    1701  0.9315E-03  0.9613E-07 NODE          31 -25.7%  0.1277E-02   14.38      0.6795E-03   19.36       0.000      0.1440E+05   0.000    
    1702  0.9316E-03  0.9613E-07 NODE          31 -25.8%  0.1282E-02   14.37      0.7110E-03   19.37       0.000      0.1440E+05   0.000    
    1703  0.9317E-03  0.9613E-07 NODE          31 -25.9%  0.1286E-02   14.36      0.7432E-03   19.37       0.000      0.1440E+05   0.000    
    1704  0.9318E-03  0.9613E-07 NODE          31 -25.9%  0.1288E-02   14.35      0.7761E-03   19.38       0.000      0.1440E+05   0.000    
   CYCLE    TIME      TIME-STEP  ELEMENT          ERROR  I-ENERGY    K-ENERGY T  K-ENERGY R  EXT-WORK     MAS.ERR     TOTAL MASS  MASS ADDED
    1705  0.9319E-03  0.9613E-07 NODE          34 -26.0%  0.1290E-02   14.34      0.8098E-03   19.39       0.000      0.1440E+05   0.000    
    1706  0.9320E-03  0.9613E-07 NODE          34 -26.1%  0.1291E-02   14.34      0.8443E-03   19.40       0.000      0.1440E+05   0.000    
    1707  0.9321E-03  0.9614E-07 NODE          34 -26.2%  0.1291E-02   14.33      0.8794E-03   19.41       0.000      0.1440E+05   0.000    
    1708  0.9322E-03  0.9614E-07 NODE          33 -26.2%  0.1290E-02   14.32      0.9153E-03   19.41       0.000      0.1440E+05   0.000    
    1709  0.9323E-03  0.9614E-07 NODE          33 -26.3%  0.1288E-02   14.31      0.9519E-03   19.42       0.000      0.1440E+05   0.000    
    1710  0.9323E-03  0.9614E-07 NODE          33 -26.4%  0.1285E-02   14.31      0.9891E-03   19.43       0.000      0.1440E+05   0.000    
    1711  0.9324E-03  0.9614E-07 NODE          33 -26.4%  0.1281E-02   14.30      0.1027E-02   19.44       0.000      0.1440E+05   0.000    
    1712  0.9325E-03  0.9614E-07 NODE          33 -26.5%  0.1276E-02   14.29      0.1066E-02   19.45       0.000      0.1440E+05   0.000    
    1713  0.9326E-03  0.9614E-07 NODE          33 -26.5%  0.1270E-02   14.29      0.1105E-02   19.46       0.000      0.1440E+05   0.000    
    1714  0.9327E-03  0.9614E-07 NODE          33 -26.6%  0.1263E-02   14.28      0.1145E-02   19.46       0.000      0.1440E+05   0.000    
    1715  0.9328E-03  0.9631E-07 NODE          31 -26.7%  0.1255E-02   14.28      0.1185E-02   19.47       0.000      0.1440E+05   0.000    
    1716  0.9329E-03  0.9639E-07 NODE          31 -26.7%  0.1246E-02   14.27      0.1226E-02   19.48       0.000      0.1440E+05   0.000    
    1717  0.9330E-03  0.9643E-07 NODE          31 -26.8%  0.1236E-02   14.27      0.1267E-02   19.49       0.000      0.1440E+05   0.000    
    1718  0.9331E-03  0.9645E-07 NODE          31 -26.8%  0.1225E-02   14.26      0.1310E-02   19.49       0.000      0.1440E+05   0.000    
    1719  0.9332E-03  0.9646E-07 NODE          31 -26.9%  0.1213E-02   14.26      0.1352E-02   19.50       0.000      0.1440E+05   0.000    
    1720  0.9333E-03  0.9647E-07 NODE          31 -26.9%  0.1200E-02   14.26      0.1395E-02   19.51       0.000      0.1440E+05   0.000    
    1721  0.9334E-03  0.9647E-07 NODE          33 -27.0%  0.1186E-02   14.25      0.1439E-02   19.52       0.000      0.1440E+05   0.000    
    1722  0.9335E-03  0.9647E-07 NODE          33 -27.0%  0.1172E-02   14.25      0.1483E-02   19.53       0.000      0.1440E+05   0.000    
    1723  0.9336E-03  0.9647E-07 NODE          33 -27.0%  0.1156E-02   14.25      0.1527E-02   19.53       0.000      0.1440E+05   0.000    
    1724  0.9337E-03  0.9648E-07 NODE          33 -27.1%  0.1140E-02   14.25      0.1571E-02   19.54       0.000      0.1440E+05   0.000    
    1725  0.9338E-03  0.9648E-07 NODE          33 -27.1%  0.1122E-02   14.25      0.1616E-02   19.55       0.000      0.1440E+05   0.000    
    1726  0.9339E-03  0.9648E-07 NODE          33 -27.1%  0.1104E-02   14.24      0.1662E-02   19.56       0.000      0.1440E+05   0.000    
    1727  0.9340E-03  0.9648E-07 NODE          33 -27.2%  0.1085E-02   14.24      0.1707E-02   19.56       0.000      0.1440E+05   0.000    
    1728  0.9341E-03  0.9648E-07 NODE          33 -27.2%  0.1066E-02   14.24      0.1753E-02   19.57       0.000      0.1440E+05   0.000    
    1729  0.9342E-03  0.9648E-07 NODE          33 -27.2%  0.1045E-02   14.24      0.1798E-02   19.58       0.000      0.1440E+05   0.000    
    1730  0.9343E-03  0.9648E-07 NODE          33 -27.3%  0.1024E-02   14.24      0.1844E-02   19.59       0.000      0.1440E+05   0.000    
    1731  0.9344E-03  0.9648E-07 NODE          33 -27.3%  0.1002E-02   14.24      0.1890E-02   19.60       0.000      0.1440E+05   0.000    
    1732  0.9345E-03  0.9648E-07 NODE          33 -27.3%  0.9798E-03   14.24      0.1936E-02   19.60       0.000      0.1440E+05   0.000    
    1733  0.9346E-03  0.9648E-07 NODE          33 -27.3%  0.9568E-03   14.25      0.1983E-02   19.61       0.000      0.1440E+05   0.000    
    1734  0.9347E-03  0.9648E-07 NODE          33 -27.4%  0.9331E-03   14.25      0.2029E-02   19.62       0.000      0.1440E+05   0.000    
    1735  0.9348E-03  0.9649E-07 NODE          33 -27.4%  0.9089E-03   14.25      0.2075E-02   19.63       0.000      0.1440E+05   0.000    
    1736  0.9349E-03  0.9649E-07 NODE          33 -27.4%  0.8843E-03   14.25      0.2120E-02   19.63       0.000      0.1440E+05   0.000    
    1737  0.9349E-03  0.9649E-07 NODE          33 -27.4%  0.8591E-03   14.25      0.2166E-02   19.64       0.000      0.1440E+05   0.000    
    1738  0.9350E-03  0.9649E-07 NODE          33 -27.4%  0.8336E-03   14.26      0.2212E-02   19.65       0.000      0.1440E+05   0.000    
    1739  0.9351E-03  0.9649E-07 NODE          33 -27.4%  0.8076E-03   14.26      0.2257E-02   19.66       0.000      0.1440E+05   0.000    
    1740  0.9352E-03  0.9649E-07 NODE          33 -27.5%  0.7814E-03   14.26      0.2302E-02   19.66       0.000      0.1440E+05   0.000    
    1741  0.9353E-03  0.9649E-07 NODE          33 -27.5%  0.7548E-03   14.27      0.2347E-02   19.67       0.000      0.1440E+05   0.000    
    1742  0.9354E-03  0.9650E-07 NODE          33 -27.5%  0.7280E-03   14.27      0.2391E-02   19.68       0.000      0.1440E+05   0.000    
    1743  0.9355E-03  0.9650E-07 NODE          33 -27.5%  0.7010E-03   14.27      0.2435E-02   19.69       0.000      0.1440E+05   0.000    
    1744  0.9356E-03  0.9650E-07 NODE          33 -27.5%  0.6739E-03   14.28      0.2478E-02   19.69       0.000      0.1440E+05   0.000    
    1745  0.9357E-03  0.9650E-07 NODE          33 -27.5%  0.6466E-03   14.28      0.2521E-02   19.70       0.000      0.1440E+05   0.000    
    1746  0.9358E-03  0.9650E-07 NODE          33 -27.5%  0.6193E-03   14.29      0.2564E-02   19.71       0.000      0.1440E+05   0.000    
    1747  0.9359E-03  0.9651E-07 NODE          33 -27.5%  0.5920E-03   14.29      0.2606E-02   19.71       0.000      0.1440E+05   0.000    
    1748  0.9360E-03  0.9651E-07 NODE          33 -27.5%  0.5647E-03   14.30      0.2647E-02   19.72       0.000      0.1440E+05   0.000    
    1749  0.9361E-03  0.9651E-07 NODE          33 -27.5%  0.5375E-03   14.30      0.2688E-02   19.73       0.000      0.1440E+05   0.000    
    1750  0.9362E-03  0.9651E-07 NODE          33 -27.5%  0.5105E-03   14.31      0.2727E-02   19.74       0.000      0.1440E+05   0.000    
    1751  0.9363E-03  0.9651E-07 NODE          33 -27.5%  0.4837E-03   14.32      0.2767E-02   19.74       0.000      0.1440E+05   0.000    
    1752  0.9364E-03  0.9652E-07 NODE          33 -27.5%  0.4571E-03   14.32      0.2805E-02   19.75       0.000      0.1440E+05   0.000    
    1753  0.9365E-03  0.9652E-07 NODE          33 -27.5%  0.4307E-03   14.33      0.2842E-02   19.76       0.000      0.1440E+05   0.000    
    1754  0.9366E-03  0.9652E-07 NODE          33 -27.5%  0.4048E-03   14.33      0.2879E-02   19.76       0.000      0.1440E+05   0.000    
    1755  0.9367E-03  0.9652E-07 NODE          33 -27.4%  0.3792E-03   14.34      0.2915E-02   19.77       0.000      0.1440E+05   0.000    
    1756  0.9368E-03  0.9653E-07 NODE          33 -27.4%  0.3540E-03   14.35      0.2949E-02   19.78       0.000      0.1440E+05   0.000    
    1757  0.9369E-03  0.9653E-07 NODE          33 -27.4%  0.3294E-03   14.36      0.2983E-02   19.79       0.000      0.1440E+05   0.000    
    1758  0.9370E-03  0.9653E-07 NODE          33 -27.4%  0.3053E-03   14.36      0.3016E-02   19.79       0.000      0.1440E+05   0.000    
    1759  0.9371E-03  0.9653E-07 NODE          33 -27.4%  0.2817E-03   14.37      0.3047E-02   19.80       0.000      0.1440E+05   0.000    
   CYCLE    TIME      TIME-STEP  ELEMENT          ERROR  I-ENERGY    K-ENERGY T  K-ENERGY R  EXT-WORK     MAS.ERR     TOTAL MASS  MASS ADDED
    1760  0.9372E-03  0.9654E-07 NODE          33 -27.4%  0.2588E-03   14.38      0.3078E-02   19.81       0.000      0.1440E+05   0.000    
    1761  0.9373E-03  0.9654E-07 NODE          33 -27.4%  0.2366E-03   14.39      0.3107E-02   19.81       0.000      0.1440E+05   0.000    
    1762  0.9374E-03  0.9654E-07 NODE          33 -27.4%  0.2151E-03   14.39      0.3135E-02   19.82       0.000      0.1440E+05   0.000    
    1763  0.9375E-03  0.9654E-07 NODE          33 -27.3%  0.1944E-03   14.40      0.3162E-02   19.83       0.000      0.1440E+05   0.000    
    1764  0.9376E-03  0.9655E-07 NODE          33 -27.3%  0.1745E-03   14.41      0.3187E-02   19.84       0.000      0.1440E+05   0.000    
    1765  0.9377E-03  0.9655E-07 NODE          33 -27.3%  0.1555E-03   14.42      0.3212E-02   19.84       0.000      0.1440E+05   0.000    
    1766  0.9377E-03  0.9655E-07 NODE          33 -27.3%  0.1374E-03   14.43      0.3235E-02   19.85       0.000      0.1440E+05   0.000    
    1767  0.9378E-03  0.9656E-07 NODE          33 -27.3%  0.1202E-03   14.44      0.3256E-02   19.86       0.000      0.1440E+05   0.000    
    1768  0.9379E-03  0.9656E-07 NODE          33 -27.3%  0.1041E-03   14.45      0.3277E-02   19.86       0.000      0.1440E+05   0.000    
    1769  0.9380E-03  0.9656E-07 NODE          33 -27.2%  0.8891E-04   14.46      0.3295E-02   19.87       0.000      0.1440E+05   0.000    
    1770  0.9381E-03  0.9656E-07 NODE          33 -27.2%  0.7484E-04   14.46      0.3313E-02   19.88       0.000      0.1440E+05   0.000    
    1771  0.9382E-03  0.9657E-07 NODE          33 -27.2%  0.6188E-04   14.47      0.3329E-02   19.88       0.000      0.1440E+05   0.000    
    1772  0.9383E-03  0.9657E-07 NODE          33 -27.2%  0.5005E-04   14.48      0.3343E-02   19.89       0.000      0.1440E+05   0.000    
    1773  0.9384E-03  0.9657E-07 NODE          33 -27.1%  0.3941E-04   14.49      0.3356E-02   19.90       0.000      0.1440E+05   0.000    
    1774  0.9385E-03  0.9658E-07 NODE          33 -27.1%  0.2997E-04   14.50      0.3368E-02   19.90       0.000      0.1440E+05   0.000    
    1775  0.9386E-03  0.9658E-07 NODE          33 -27.1%  0.2177E-04   14.51      0.3377E-02   19.91       0.000      0.1440E+05   0.000    
    1776  0.9387E-03  0.9658E-07 NODE          33 -27.1%  0.1484E-04   14.52      0.3386E-02   19.92       0.000      0.1440E+05   0.000    
    1777  0.9388E-03  0.9659E-07 NODE          33 -27.1%  0.9203E-05   14.53      0.3392E-02   19.92       0.000      0.1440E+05   0.000    
    1778  0.9389E-03  0.9659E-07 NODE          33 -27.0%  0.4890E-05   14.54      0.3398E-02   19.93       0.000      0.1440E+05   0.000    
    1779  0.9390E-03  0.9659E-07 NODE          33 -27.0%  0.1922E-05   14.55      0.3401E-02   19.94       0.000      0.1440E+05   0.000    
    1780  0.9391E-03  0.9660E-07 NODE          33 -27.0%  0.3214E-06   14.56      0.3403E-02   19.94       0.000      0.1440E+05   0.000    
    1781  0.9392E-03  0.9660E-07 NODE          33 -27.0%  0.1072E-06   14.57      0.3403E-02   19.95       0.000      0.1440E+05   0.000    
    1782  0.9393E-03  0.9660E-07 NODE          33 -26.9%  0.1298E-05   14.58      0.3402E-02   19.96       0.000      0.1440E+05   0.000    
    1783  0.9394E-03  0.9661E-07 NODE          33 -26.9%  0.3908E-05   14.59      0.3399E-02   19.96       0.000      0.1440E+05   0.000    
    1784  0.9395E-03  0.9661E-07 NODE          33 -26.9%  0.7953E-05   14.60      0.3394E-02   19.97       0.000      0.1440E+05   0.000    
    1785  0.9396E-03  0.9661E-07 NODE          33 -26.9%  0.1344E-04   14.61      0.3388E-02   19.98       0.000      0.1440E+05   0.000    
    1786  0.9397E-03  0.9662E-07 NODE          33 -26.8%  0.2039E-04   14.62      0.3380E-02   19.99       0.000      0.1440E+05   0.000    
    1787  0.9398E-03  0.9662E-07 NODE          33 -26.8%  0.2879E-04   14.63      0.3370E-02   19.99       0.000      0.1440E+05   0.000    
    1788  0.9399E-03  0.9663E-07 NODE          33 -26.8%  0.3867E-04   14.64      0.3359E-02   20.00       0.000      0.1440E+05   0.000    
    1789  0.9400E-03  0.9663E-07 NODE          33 -26.8%  0.5001E-04   14.64      0.3346E-02   20.01       0.000      0.1440E+05   0.000    
    1790  0.9401E-03  0.9663E-07 NODE          33 -26.8%  0.6282E-04   14.65      0.3331E-02   20.01       0.000      0.1440E+05   0.000    
    1791  0.9402E-03  0.9664E-07 NODE          33 -26.7%  0.7711E-04   14.66      0.3315E-02   20.02       0.000      0.1440E+05   0.000    
    1792  0.9403E-03  0.9664E-07 NODE          33 -26.7%  0.9285E-04   14.67      0.3298E-02   20.03       0.000      0.1440E+05   0.000    
    1793  0.9404E-03  0.9664E-07 NODE          33 -26.7%  0.1101E-03   14.68      0.3278E-02   20.03       0.000      0.1440E+05   0.000    
    1794  0.9405E-03  0.9665E-07 NODE          33 -26.7%  0.1287E-03   14.69      0.3257E-02   20.04       0.000      0.1440E+05   0.000    
    1795  0.9405E-03  0.9665E-07 NODE          33 -26.6%  0.1488E-03   14.70      0.3235E-02   20.05       0.000      0.1440E+05   0.000    
    1796  0.9406E-03  0.9666E-07 NODE          33 -26.6%  0.1703E-03   14.71      0.3211E-02   20.05       0.000      0.1440E+05   0.000    
    1797  0.9407E-03  0.9666E-07 NODE          33 -26.6%  0.1933E-03   14.72      0.3185E-02   20.06       0.000      0.1440E+05   0.000    
    1798  0.9408E-03  0.9666E-07 NODE          33 -26.6%  0.2176E-03   14.73      0.3158E-02   20.06       0.000      0.1440E+05   0.000    
    1799  0.9409E-03  0.9667E-07 NODE          33 -26.6%  0.2433E-03   14.74      0.3130E-02   20.07       0.000      0.1440E+05   0.000    
    1800  0.9410E-03  0.9667E-07 NODE          33 -26.5%  0.2703E-03   14.75      0.3100E-02   20.08       0.000      0.1440E+05   0.000    
    1801  0.9411E-03  0.9668E-07 NODE          33 -26.5%  0.2987E-03   14.76      0.3068E-02   20.08       0.000      0.1440E+05   0.000    
    1802  0.9412E-03  0.9668E-07 NODE          33 -26.5%  0.3284E-03   14.76      0.3036E-02   20.09       0.000      0.1440E+05   0.000    
    1803  0.9413E-03  0.9668E-07 NODE          33 -26.5%  0.3593E-03   14.77      0.3002E-02   20.10       0.000      0.1440E+05   0.000    
    1804  0.9414E-03  0.9669E-07 NODE          33 -26.5%  0.3915E-03   14.78      0.2966E-02   20.10       0.000      0.1440E+05   0.000    
    1805  0.9415E-03  0.9669E-07 NODE          33 -26.4%  0.4250E-03   14.79      0.2929E-02   20.11       0.000      0.1440E+05   0.000    
    1806  0.9416E-03  0.9670E-07 NODE          33 -26.4%  0.4595E-03   14.80      0.2891E-02   20.12       0.000      0.1440E+05   0.000    
    1807  0.9417E-03  0.9670E-07 NODE          33 -26.4%  0.4953E-03   14.81      0.2852E-02   20.12       0.000      0.1440E+05   0.000    
    1808  0.9418E-03  0.9670E-07 NODE          33 -26.4%  0.5321E-03   14.82      0.2812E-02   20.13       0.000      0.1440E+05   0.000    
    1809  0.9419E-03  0.9671E-07 NODE          33 -26.4%  0.5700E-03   14.82      0.2770E-02   20.14       0.000      0.1440E+05   0.000    
    1810  0.9420E-03  0.9671E-07 NODE          33 -26.4%  0.6089E-03   14.83      0.2727E-02   20.14       0.000      0.1440E+05   0.000    
    1811  0.9421E-03  0.9672E-07 NODE          33 -26.3%  0.6488E-03   14.84      0.2684E-02   20.15       0.000      0.1440E+05   0.000    
    1812  0.9422E-03  0.9672E-07 NODE          33 -26.3%  0.6896E-03   14.85      0.2639E-02   20.16       0.000      0.1440E+05   0.000    
    1813  0.9423E-03  0.9672E-07 NODE          33 -26.3%  0.7313E-03   14.86      0.2593E-02   20.16       0.000      0.1440E+05   0.000    
    1814  0.9424E-03  0.9673E-07 NODE          33 -26.3%  0.7738E-03   14.86      0.2546E-02   20.17       0.000      0.1440E+05   0.000    
   CYCLE    TIME      TIME-STEP  ELEMENT          ERROR  I-ENERGY    K-ENERGY T  K-ENERGY R  EXT-WORK     MAS.ERR     TOTAL MASS  MASS ADDED
    1815  0.9425E-03  0.9673E-07 NODE          33 -26.3%  0.8172E-03   14.87      0.2499E-02   20.18       0.000      0.1440E+05   0.000    
    1816  0.9426E-03  0.9674E-07 NODE          33 -26.3%  0.8612E-03   14.88      0.2451E-02   20.18       0.000      0.1440E+05   0.000    
    1817  0.9427E-03  0.9674E-07 NODE          33 -26.3%  0.9060E-03   14.89      0.2402E-02   20.19       0.000      0.1440E+05   0.000    
    1818  0.9428E-03  0.9674E-07 NODE          33 -26.2%  0.9513E-03   14.89      0.2352E-02   20.20       0.000      0.1440E+05   0.000    
    1819  0.9429E-03  0.9675E-07 NODE          33 -26.2%  0.9973E-03   14.90      0.2301E-02   20.20       0.000      0.1440E+05   0.000    
    1820  0.9430E-03  0.9675E-07 NODE          33 -26.2%  0.1044E-02   14.91      0.2250E-02   20.21       0.000      0.1440E+05   0.000    
    1821  0.9431E-03  0.9676E-07 NODE          33 -26.2%  0.1091E-02   14.91      0.2198E-02   20.22       0.000      0.1440E+05   0.000    
    1822  0.9432E-03  0.9676E-07 NODE          33 -26.2%  0.1138E-02   14.92      0.2146E-02   20.22       0.000      0.1440E+05   0.000    
    1823  0.9433E-03  0.9677E-07 NODE          33 -26.2%  0.1186E-02   14.93      0.2094E-02   20.23       0.000      0.1440E+05   0.000    
    1824  0.9434E-03  0.9677E-07 NODE          33 -26.2%  0.1234E-02   14.93      0.2041E-02   20.24       0.000      0.1440E+05   0.000    
    1825  0.9435E-03  0.9677E-07 NODE          33 -26.2%  0.1282E-02   14.94      0.1987E-02   20.24       0.000      0.1440E+05   0.000    
    1826  0.9435E-03  0.9678E-07 NODE          33 -26.2%  0.1330E-02   14.94      0.1933E-02   20.25       0.000      0.1440E+05   0.000    
    1827  0.9436E-03  0.9678E-07 NODE          33 -26.2%  0.1378E-02   14.95      0.1880E-02   20.26       0.000      0.1440E+05   0.000    
    1828  0.9437E-03  0.9679E-07 NODE          33 -26.2%  0.1426E-02   14.96      0.1825E-02   20.26       0.000      0.1440E+05   0.000    
    1829  0.9438E-03  0.9679E-07 NODE          33 -26.2%  0.1474E-02   14.96      0.1771E-02   20.27       0.000      0.1440E+05   0.000    
    1830  0.9439E-03  0.9679E-07 NODE          33 -26.2%  0.1521E-02   14.97      0.1717E-02   20.28       0.000      0.1440E+05   0.000    
    1831  0.9440E-03  0.9680E-07 NODE          33 -26.2%  0.1567E-02   14.98      0.1663E-02   20.28       0.000      0.1440E+05   0.000    
    1832  0.9441E-03  0.9680E-07 NODE          33 -26.1%  0.1613E-02   14.98      0.1609E-02   20.29       0.000      0.1440E+05   0.000    
    1833  0.9442E-03  0.1065E-06 SHELL         31 -26.1%  0.1657E-02   14.99      0.1555E-02   20.30       0.000      0.1440E+05   0.000    
    1834  0.9443E-03  0.1171E-06 SHELL         31 -26.1%  0.1705E-02   15.00      0.1496E-02   20.31       0.000      0.1440E+05   0.000    
    1835  0.9444E-03  0.1288E-06 SHELL         31 -26.1%  0.1757E-02   15.00      0.1431E-02   20.31       0.000      0.1440E+05   0.000    
    1836  0.9446E-03  0.1417E-06 SHELL         31 -26.1%  0.1812E-02   15.01      0.1360E-02   20.32       0.000      0.1440E+05   0.000    
    1837  0.9447E-03  0.1559E-06 SHELL         31 -26.1%  0.1871E-02   15.02      0.1284E-02   20.34       0.000      0.1440E+05   0.000    
    1838  0.9449E-03  0.1715E-06 SHELL         31 -26.1%  0.1933E-02   15.03      0.1201E-02   20.35       0.000      0.1440E+05   0.000    
    1839  0.9450E-03  0.1886E-06 SHELL         31 -26.1%  0.1997E-02   15.04      0.1111E-02   20.36       0.000      0.1440E+05   0.000    
    1840  0.9452E-03  0.2075E-06 SHELL         31 -26.1%  0.2063E-02   15.06      0.1015E-02   20.38       0.000      0.1440E+05   0.000    
    1841  0.9454E-03  0.2283E-06 SHELL         31 -26.1%  0.2130E-02   15.07      0.9128E-03   20.39       0.000      0.1440E+05   0.000    
    1842  0.9457E-03  0.2511E-06 SHELL         31 -26.1%  0.2195E-02   15.09      0.8050E-03   20.41       0.000      0.1440E+05   0.000    
    1843  0.9459E-03  0.2762E-06 SHELL         31 -26.0%  0.2256E-02   15.11      0.6927E-03   20.43       0.000      0.1440E+05   0.000    
    1844  0.9462E-03  0.3038E-06 SHELL         31 -26.0%  0.2309E-02   15.13      0.5775E-03   20.45       0.000      0.1440E+05   0.000    
    1845  0.9465E-03  0.3342E-06 SHELL         31 -26.0%  0.2351E-02   15.15      0.4618E-03   20.47       0.000      0.1440E+05   0.000    
    1846  0.9468E-03  0.3676E-06 SHELL         31 -26.0%  0.2375E-02   15.17      0.3487E-03   20.50       0.000      0.1440E+05   0.000    
    1847  0.9472E-03  0.4044E-06 SHELL         31 -26.0%  0.2375E-02   15.20      0.2424E-03   20.53       0.000      0.1440E+05   0.000    
    1848  0.9476E-03  0.4448E-06 SHELL         31 -25.9%  0.2343E-02   15.23      0.1479E-03   20.56       0.000      0.1440E+05   0.000    
    1849  0.9481E-03  0.4893E-06 SHELL         31 -25.9%  0.2269E-02   15.26      0.7157E-04   20.60       0.000      0.1440E+05   0.000    
    1850  0.9485E-03  0.5382E-06 SHELL         31 -25.9%  0.2146E-02   15.29      0.2003E-04   20.63       0.000      0.1440E+05   0.000    
    1851  0.9491E-03  0.5920E-06 SHELL         31 -25.8%  0.1965E-02   15.33      0.6042E-07   20.68       0.000      0.1440E+05   0.000    
    1852  0.9497E-03  0.6512E-06 SHELL         31 -25.8%  0.1720E-02   15.37      0.1728E-04   20.72       0.000      0.1440E+05   0.000    
    1853  0.9503E-03  0.7164E-06 SHELL         31 -25.8%  0.1415E-02   15.42      0.7434E-04   20.78       0.000      0.1440E+05   0.000    
    1854  0.9510E-03  0.7880E-06 SHELL         31 -25.7%  0.1060E-02   15.47      0.1685E-03   20.83       0.000      0.1440E+05   0.000    
    1855  0.9518E-03  0.8668E-06 SHELL         31 -25.7%  0.6846E-03   15.53      0.2887E-03   20.90       0.000      0.1440E+05   0.000    
    1856  0.9527E-03  0.9535E-06 SHELL         31 -25.6%  0.3353E-03   15.60      0.4134E-03   20.97       0.000      0.1440E+05   0.000    
    1857  0.9536E-03  0.9716E-06 SHELL         31 -25.5%  0.8066E-04   15.67      0.5102E-03   21.04       0.000      0.1440E+05   0.000    
    1858  0.9546E-03  0.9716E-06 SHELL         31 -25.4%  0.8607E-06   15.74      0.5414E-03   21.11       0.000      0.1440E+05   0.000    
    1859  0.9556E-03  0.9716E-06 SHELL         31 -25.4%  0.1153E-03   15.81      0.4968E-03   21.19       0.000      0.1440E+05   0.000    
    1860  0.9566E-03  0.9716E-06 SHELL         31 -25.3%  0.4053E-03   15.89      0.3877E-03   21.26       0.000      0.1440E+05   0.000    
    1861  0.9575E-03  0.9716E-06 SHELL         31 -25.2%  0.8236E-03   15.96      0.2427E-03   21.33       0.000      0.1440E+05   0.000    
    1862  0.9585E-03  0.9716E-06 SHELL         31 -25.1%  0.1302E-02   16.03      0.1024E-03   21.41       0.000      0.1440E+05   0.000    
    1863  0.9595E-03  0.9716E-06 SHELL         31 -25.0%  0.1763E-02   16.11      0.1257E-04   21.48       0.000      0.1440E+05   0.000    
    1864  0.9604E-03  0.9716E-06 SHELL         31 -24.9%  0.2132E-02   16.18      0.1505E-04   21.56       0.000      0.1440E+05   0.000    
    1865  0.9614E-03  0.9715E-06 SHELL         31 -24.8%  0.2348E-02   16.26      0.1404E-03   21.63       0.000      0.1440E+05   0.000    
    1866  0.9624E-03  0.9715E-06 SHELL         31 -24.7%  0.2376E-02   16.33      0.4014E-03   21.71       0.000      0.1440E+05   0.000    
    1867  0.9634E-03  0.9715E-06 SHELL         31 -24.7%  0.2212E-02   16.41      0.7897E-03   21.79       0.000      0.1440E+05   0.000    
    1868  0.9643E-03  0.9715E-06 SHELL         31 -24.6%  0.1883E-02   16.49      0.1276E-02   21.87       0.000      0.1440E+05   0.000    
    1869  0.9653E-03  0.9715E-06 SHELL         31 -24.5%  0.1441E-02   16.57      0.1812E-02   21.94       0.000      0.1440E+05   0.000    
   CYCLE    TIME      TIME-STEP  ELEMENT          ERROR  I-ENERGY    K-ENERGY T  K-ENERGY R  EXT-WORK     MAS.ERR     TOTAL MASS  MASS ADDED
    1870  0.9663E-03  0.9715E-06 SHELL         31 -24.4%  0.9593E-03   16.65      0.2340E-02   22.02       0.000      0.1440E+05   0.000    
    1871  0.9673E-03  0.9715E-06 SHELL         31 -24.3%  0.5159E-03   16.72      0.2798E-02   22.10       0.000      0.1440E+05   0.000    
    1872  0.9682E-03  0.9715E-06 SHELL         31 -24.2%  0.1828E-03   16.80      0.3130E-02   22.18       0.000      0.1440E+05   0.000    
    1873  0.9692E-03  0.9715E-06 SHELL         31 -24.1%  0.1428E-04   16.88      0.3295E-02   22.26       0.000      0.1440E+05   0.000    
    1874  0.9702E-03  0.9715E-06 SHELL         31 -24.0%  0.3776E-04   16.97      0.3272E-02   22.34       0.000      0.1440E+05   0.000    
    1875  0.9711E-03  0.9715E-06 SHELL         31 -24.0%  0.2494E-03   17.05      0.3064E-02   22.42       0.000      0.1440E+05   0.000    
    1876  0.9721E-03  0.9715E-06 SHELL         31 -23.9%  0.6147E-03   17.13      0.2697E-02   22.50       0.000      0.1440E+05   0.000    
    1877  0.9731E-03  0.9715E-06 SHELL         31 -23.8%  0.1074E-02   17.21      0.2217E-02   22.59       0.000      0.1440E+05   0.000    
    1878  0.9741E-03  0.9715E-06 SHELL         31 -23.7%  0.1554E-02   17.29      0.1682E-02   22.67       0.000      0.1440E+05   0.000    
    1879  0.9750E-03  0.9714E-06 SHELL         31 -23.6%  0.1974E-02   17.38      0.1153E-02   22.75       0.000      0.1440E+05   0.000    
    1880  0.9760E-03  0.9714E-06 SHELL         31 -23.5%  0.2268E-02   17.46      0.6863E-03   22.84       0.000      0.1440E+05   0.000    
    1881  0.9770E-03  0.9714E-06 SHELL         31 -23.4%  0.2387E-02   17.55      0.3266E-03   22.92       0.000      0.1440E+05   0.000    
    1882  0.9779E-03  0.9714E-06 SHELL         31 -23.4%  0.2312E-02   17.63      0.9819E-04   23.01       0.000      0.1440E+05   0.000    
    1883  0.9789E-03  0.9714E-06 SHELL         31 -23.3%  0.2056E-02   17.72      0.4170E-05   23.09       0.000      0.1440E+05   0.000    
    1884  0.9799E-03  0.9714E-06 SHELL         31 -23.2%  0.1659E-02   17.80      0.2709E-04   23.18       0.000      0.1440E+05   0.000    
    1885  0.9809E-03  0.9714E-06 SHELL         31 -23.1%  0.1187E-02   17.89      0.1331E-03   23.27       0.000      0.1440E+05   0.000    
    1886  0.9818E-03  0.9714E-06 SHELL         31 -23.0%  0.7154E-03   17.98      0.2785E-03   23.35       0.000      0.1440E+05   0.000    
    1887  0.9828E-03  0.9714E-06 SHELL         31 -22.9%  0.3222E-03   18.07      0.4182E-03   23.44       0.000      0.1440E+05   0.000    
    1888  0.9838E-03  0.9714E-06 SHELL         31 -22.8%  0.7088E-04   18.15      0.5139E-03   23.53       0.000      0.1440E+05   0.000    
    1889  0.9847E-03  0.9714E-06 SHELL         31 -22.8%  0.2282E-05   18.24      0.5408E-03   23.62       0.000      0.1440E+05   0.000    
    1890  0.9857E-03  0.9714E-06 SHELL         31 -22.7%  0.1276E-03   18.33      0.4920E-03   23.71       0.000      0.1440E+05   0.000    
    1891  0.9867E-03  0.9714E-06 SHELL         31 -22.6%  0.4264E-03   18.42      0.3799E-03   23.80       0.000      0.1440E+05   0.000    
    1892  0.9877E-03  0.9714E-06 SHELL         31 -22.5%  0.8501E-03   18.51      0.2340E-03   23.89       0.000      0.1440E+05   0.000    
    1893  0.9886E-03  0.9713E-06 SHELL         31 -22.4%  0.1330E-02   18.60      0.9552E-04   23.98       0.000      0.1440E+05   0.000    
    1894  0.9896E-03  0.9713E-06 SHELL         31 -22.3%  0.1787E-02   18.69      0.9884E-05   24.07       0.000      0.1440E+05   0.000    
    1895  0.9906E-03  0.9713E-06 SHELL         31 -22.2%  0.2149E-02   18.79      0.1865E-04   24.16       0.000      0.1440E+05   0.000    
    1896  0.9915E-03  0.9713E-06 SHELL         31 -22.2%  0.2355E-02   18.88      0.1515E-03   24.25       0.000      0.1440E+05   0.000    
    1897  0.9925E-03  0.9713E-06 SHELL         31 -22.1%  0.2372E-02   18.97      0.4200E-03   24.35       0.000      0.1440E+05   0.000    
    1898  0.9935E-03  0.9713E-06 SHELL         31 -22.0%  0.2198E-02   19.06      0.8146E-03   24.44       0.000      0.1440E+05   0.000    
    1899  0.9944E-03  0.9713E-06 SHELL         31 -21.9%  0.1861E-02   19.16      0.1305E-02   24.53       0.000      0.1440E+05   0.000    
    1900  0.9954E-03  0.9713E-06 SHELL         31 -21.8%  0.1415E-02   19.25      0.1842E-02   24.63       0.000      0.1440E+05   0.000    
    1901  0.9964E-03  0.9713E-06 SHELL         31 -21.7%  0.9334E-03   19.35      0.2367E-02   24.72       0.000      0.1440E+05   0.000    
    1902  0.9974E-03  0.9713E-06 SHELL         31 -21.6%  0.4943E-03   19.44      0.2820E-02   24.82       0.000      0.1440E+05   0.000    
    1903  0.9983E-03  0.9713E-06 SHELL         31 -21.6%  0.1691E-03   19.54      0.3143E-02   24.92       0.000      0.1440E+05   0.000    
    1904  0.9993E-03  0.9713E-06 SHELL         31 -21.5%  0.1060E-04   19.64      0.3298E-02   25.01       0.000      0.1440E+05   0.000    

     RESTART FILES: FRICT41_0001_[0001-0004].rst WRITTEN
     -------------

    1905  0.1000E-02  0.9713E-06 SHELL         31 -21.4%  0.4461E-04   19.73      0.3265E-02   25.11       0.000      0.1440E+05   0.000    
     ANIMATION FILE: FRICT41A011 WRITTEN
  
                           ** CPU USER TIME **
  
  
                        ** SUMMARY **
  
 #PROC  CONTSORT  CONTFOR   ELEMENT   KINCOND   INTEG     IO        T0        ASM       RESOL    
   1   .8828E-01 .1752E-01 .2719E-01 .3854E-01 .2684E-01 .2468E+00 .1591E+00 .1386E-01 .8430E+00
   2   .2239E+00 .1764E-01 .6284E-01 .4360E-01 .2578E-01 .1424E+00 .1663E+00 .1404E-01 .9055E+00
   3   .2217E+00 .3396E-01 .6903E-01 .3852E-01 .2659E-01 .1282E+00 .1069E+00 .1815E-01 .8747E+00
   4   .2211E+00 .1711E-01 .6811E-01 .4210E-01 .2571E-01 .1426E+00 .1435E+00 .1771E-01 .9017E+00
  
                 ** SPMD COM. TIME **
  
 #PROC  FORCES    RBYFOR    RBYVEL    VEL       TOT       %        
   1   .1831E-01 .0000E+00 .0000E+00 .9844E-02 .2815E-01 .3339E+01
   2   .1818E-01 .0000E+00 .0000E+00 .1001E-01 .2818E-01 .3113E+01
   3   .2539E-01 .0000E+00 .0000E+00 .1753E-01 .4291E-01 .4906E+01
   4   .2857E-01 .0000E+00 .0000E+00 .1423E-01 .4279E-01 .4746E+01
  
 
                   ** CUMULATIVE CPU TIME SUMMARY **
  
 CONTACT SORTING.............: .7550E+00    21.42 % 
 CONTACT FORCES..............: .8624E-01     2.45 % 
 ELEMENT FORCES..............: .2272E+00     6.44 % 
 KINEMATIC COND..............: .1628E+00     4.62 % 
 INTEGRATION.................: .1049E+00     2.98 % 
 ASSEMBLING..................: .6377E-01     1.81 % 
 OTHERS (including I/O)......: .2125E+01    60.29 % 
 TOTAL.......................: .3525E+01   100.00 % 
  
  
                           ** ELAPSED TIME **
  
  
                        ** SUMMARY **
  
 #PROC  CONTSORT  CONTFOR   ELEMENT   KINCOND   INTEG     IO        T0        ASM       RESOL    
   1   .5340E-01 .1055E-01 .1658E-01 .2332E-01 .1643E-01 .1612E+00 .9510E-01 .8418E-02 .5222E+00
   2   .1296E+00 .1013E-01 .3625E-01 .2526E-01 .1504E-01 .8185E-01 .9552E-01 .8036E-02 .5231E+00
   3   .1328E+00 .2003E-01 .4108E-01 .2322E-01 .1594E-01 .7626E-01 .6347E-01 .1078E-01 .5225E+00
   4   .1281E+00 .9814E-02 .3918E-01 .2441E-01 .1482E-01 .8291E-01 .8273E-01 .1015E-01 .5233E+00
  
        CONTSORT  CONTFOR   ELEMENT   KINCOND   INTEG     IO        T0        ASM       RESOL    
 MIN   .5340E-01 .9814E-02 .1658E-01 .2322E-01 .1482E-01 .7626E-01 .6347E-01 .8036E-02 .5222E+00
 MAX   .1328E+00 .2003E-01 .4108E-01 .2526E-01 .1643E-01 .1612E+00 .9552E-01 .1078E-01 .5233E+00
 AVG   .1110E+00 .1263E-01 .3327E-01 .2405E-01 .1556E-01 .1006E+00 .8421E-01 .9345E-02 .5228E+00
  
                 ** SPMD COM. TIME **
  
 #PROC  FORCES    RBYFOR    RBYVEL    VEL       TOT       %        
   1   .1112E-01 .0000E+00 .0000E+00 .6075E-02 .1719E-01 .3292E+01
   2   .1047E-01 .0000E+00 .0000E+00 .5879E-02 .1635E-01 .3126E+01
   3   .1517E-01 .0000E+00 .0000E+00 .1079E-01 .2597E-01 .4969E+01
   4   .1656E-01 .0000E+00 .0000E+00 .8445E-02 .2500E-01 .4778E+01
  
        FORCES    RBYFOR    RBYVEL    VEL       TOT       %        
 MIN   .1047E-01 .0000E+00 .0000E+00 .5879E-02 .1635E-01 .3126E+01
 MAX   .1656E-01 .0000E+00 .0000E+00 .1079E-01 .2597E-01 .4969E+01
 AVG   .1333E-01 .0000E+00 .0000E+00 .7798E-02 .2113E-01 .4041E+01
  
                   ** MEMORY USAGE STATISTICS **
  
 TOTAL MEMORY USED .........................:      228 MB
 MAXIMUM MEMORY PER PROCESSOR...............:       57 MB
 MINIMUM MEMORY PER PROCESSOR...............:       57 MB
 AVERAGE MEMORY PER PROCESSOR...............:       57 MB
  
                   ** DISK USAGE STATISTICS **
  
 TOTAL DISK SPACE USED .....................:          1 MB
 ANIMATION/H3D/TH/OUTP SIZE ................:          0 MB
 RESTART FILE SIZE .........................:          1 MB
  
                   ** COMPUTE TIME INFORMATION **
                        ** CURRENT ENGINE **
  
 EXECUTION STARTED .........................:      2022/11/23  16:21:11
 EXECUTION COMPLETED .......................:      2022/11/23  16:21:12
  
 ELAPSED TIME     =          0.61 s
                          0:00:00
 ESTIMATED SPEEDUP=          5.77



     NORMAL TERMINATION      



     TOTAL NUMBER OF CYCLES  :    1906

  
                   ** COMPUTE RUNTIME INFORMATION SUMMARY **
  
        STARTER RUNTIME =          0.64s (00:00:00)
 # 001   ENGINE RUNTIME =          0.61s (00:00:00)
 ------------------------------ 
 STARTER+ENGINE RUNTIME =          1.25s (00:00:01)
  
