 TYPE8M_0001.out
************************************************************************
**                                                                    **
**                                                                    **
**                         OpenRadioss Engine                         **
**                                                                    **
**            Non-linear Finite Element Analysis Software             **
**                                                                    **
**                                                                    **
**                                                                    **
**                Linux 64 bits, GNU compiler, OpenMPI                **
**                                                                    **
**                                                                    **
**                                                                    **
** CommitID: 440deeba848d606665f88afb8302e85b1ecf72bf                 **
************************************************************************
** OpenRadioss Software                                               **
** COPYRIGHT (C) 1986-2022 Altair Engineering, Inc.                   **
** Licensed under GNU Affero General Public License.                  **
** See License file.                                                  **
************************************************************************
 
 NUMBER OF SPMD DOMAINS           4
 NUMBER OF THREADS PER DOMAIN     2
 NUMBER OF HMPP PROCESSES         8
  
 COMPUTATION HARDWARE DESCRIPTION
  
 CPU#  HOSTNAME     CPU TYPE, FREQUENCY AND MEMORY
   1   fr-shady.europe.altair.com   Intel(R) Xeon(R) CPU           X5680  @ 3.33GHz (x86_64), 1596 MHz,  20012 MB RAM,  49126 MB swap
   2   fr-shady.europe.altair.com   Intel(R) Xeon(R) CPU           X5680  @ 3.33GHz (x86_64), 1596 MHz,  20012 MB RAM,  49126 MB swap
   3   fr-shady.europe.altair.com   Intel(R) Xeon(R) CPU           X5680  @ 3.33GHz (x86_64), 1596 MHz,  20012 MB RAM,  49126 MB swap
   4   fr-shady.europe.altair.com   Intel(R) Xeon(R) CPU           X5680  @ 3.33GHz (x86_64), 1596 MHz,  20012 MB RAM,  49126 MB swap
  
************************************************************************


 TYPE8MD01                                                                       


 FINAL TIME . . . . . . . . . . . . . . . . . . .   1.000000    

 TIME INTERVAL FOR TIME HISTORY PLOTS . . . . . .  0.1000000E-02

 TIME STEP SCALE FACTOR . . . . . . . . . . . . .  0.1000000    

 MINIMUM TIME STEP  . . . . . . . . . . . . . . .   0.000000    


 BRICK TIME STEP SCALE FACTOR . . . . . . . . . .  0.1000000    
 BRICK MINIMUM TIME STEP. . . . . . . . . . . . .   0.000000    
 MIN. TIME STEP FLAG (1:STOP RUN, 2:DELETE BRICK)     1

 QUAD TIME STEP SCALE FACTOR. . . . . . . . . . .  0.1000000    
 QUAD MINIMUM TIME STEP . . . . . . . . . . . . .   0.000000    
 MIN. TIME STEP FLAG (1:STOP RUN, 2:DELETE QUAD).     1

 SHELL TIME STEP SCALE FACTOR . . . . . . . . . .  0.1000000    
 SHELL MINIMUM TIME STEP. . . . . . . . . . . . .   0.000000    
 MIN. TIME FLAG (1:STOP, 2:DELETE, 3:SMALL STRAIN)    2

 TRUSS TIME STEP SCALE FACTOR . . . . . . . . . .  0.1000000    
 TRUSS MINIMUM TIME STEP. . . . . . . . . . . . .   0.000000    
 MIN. TIME FLAG (1:STOP, 2:DELETE). . . . . . . .     0

 BEAM TIME STEP SCALE FACTOR. . . . . . . . . . .  0.1000000    
 BEAM MINIMUM TIME STEP . . . . . . . . . . . . .   0.000000    
 MIN. TIME FLAG (1:STOP, 2:DELETE). . . . . . . .     0

 SPRING TIME STEP SCALE FACTOR. . . . . . . . . .  0.1000000    
 SPRING MINIMUM TIME STEP . . . . . . . . . . . .   0.000000    
 MIN. TIME FLAG (1:STOP, 2:DELETE). . . . . . . .     0

 AIRBAG TIME STEP SCALE FACTOR. . . . . . . . . .  0.1000000    
 AIRBAG MINIMUM TIME STEP . . . . . . . . . . . .   0.000000    
 MIN. TIME FLAG (1:STOP). . . . . . . . . . . . .     0

 CONTACT TIME STEP SCALE FACTOR . . . . . . . . .  0.1000000    
 CONTACT MINIMUM TIME STEP. . . . . . . . . . . .   0.000000    
 MIN. TIME FLAG(1:STOP, 2:REMOVE NODE FROM INTERF)    0

 PRINTOUT CYCLE FREQUENCY . . . . . . . . . . . .   -10

 RESTART CYCLE FREQUENCY. . . . . . . . . . . . .   10000000

 MAXIMUM RESTART WRITE BEFORE OVERWRITE . . . . .     0

 INVERS: INPUT DECK VERSION . . . . . . . . . . .  2019
 ITTYP : FLAG FOR TYPE OF T-FILE. . . . . . . . .     4


 TIME FOR FIRST ANIMATION-FILE PLOT . . . . . . .   0.000000    
 TIME INTERVAL FOR ANIMATION-FILE PLOTS . . . . .   1.000000    
 SENSOR FOR ANIMATION-FILE PLOTS. . . . . . . . .          0
 TIME INTERVAL FOR SENSOR ANIMATION-FILE PLOTS. .   0.000000    

 VARIABLE SAVED ON ANIMATION FILES (1: YES) :
      PLASTIC STRAIN. . . . . .     0
      DENSITY     (SOLID ONLY).     0
      SPECIFIC ENERGY . . . . .     0
      HOURGLASS ENERGY. . . . .     0
      TEMPERATURE (SOLID ONLY).     0
      THICKNESS   (SHELL ONLY).     0
      PRESSURE    (SOLID ONLY).     0
      VON MISES . . . . . . . .     0
      TURBULENT ENERGY (FLUID).     0
      TURBULENT VISCOSITY(FLUID)    0
      VORTICITY (FLUID) . . . .     0
 NODAL VALUES SAVED ON ANIMATION FILES (1: YES) :
      PRESSURE. . . . . . . . .     0
      DENSITY . . . . . . . . .     0
      TEMPERATURE . . . . . . .     0
 VECTOR SAVED ON ANIMATION FILES (1: YES) :
      VELOCITY VECTOR . . . . .     0
      DISPLACEMENT VECTOR . . .     0
      ACCELERATION VECTOR . . .     0
      CONTACT FORCES. . . . . .     0
      INTERNAL FORCES . . . . .     0
      EXTERNAL FORCES . . . . .     0
      SECTION RBY RWALL FORCES.     0
      ROTATIONAL VELOCITY VECTOR    0
      CONTACT PRESSURE (VECTORS)    0
 SHELL TENSOR SAVED ON ANIMATION FILES (1: YES) :
      MEMBRANE STRESS . . . . .     0
      BENDING STRESS(MOMENT/T^2)    0
      UPPER LAYER STRESS. . . .     0
      LOWER LAYER STRESS. . . .     0
      MEMBRANE STRAIN . . . . .     0
      CURVATURE . . . . . . . .     0
      UPPER LAYER STRAIN. . . .     0
      LOWER LAYER STRAIN. . . .     0
 NODAL MASS SAVED ON ANIMATION FILES (1: YES) :    0
 KEEP DELETED ELEMENT (1: YES) :    0


 INITIAL TIME STEP. . . . . . . . . . . . . . . .   0.000000    
 MAXIMUM TIME STEP. . . . . . . . . . . . . . . .  0.1000000E+31

 PARALLEL ARITHMETIC ON
 NUMBER OF INTERFACES TO BE ELIMINATED. . . . . .        0

 NUMBER OF SOLID  ELEMENT BLOCKS TO BE ELIMINATED        0

 NUMBER OF QUAD   ELEMENT BLOCKS TO BE ELIMINATED        0

 NUMBER OF SHELL  ELEMENT BLOCKS TO BE ELIMINATED        0

 NUMBER OF TRUSS  ELEMENT BLOCKS TO BE ELIMINATED        0

 NUMBER OF BEAM   ELEMENT BLOCKS TO BE ELIMINATED        0

 NUMBER OF SPRING ELEMENT BLOCKS TO BE ELIMINATED        0

 NUMBER OF SH_3N  ELEMENT BLOCKS TO BE ELIMINATED        0

 NUMBER OF  SPH PARTICLES BLOCKS TO BE ELIMINATED        0

 NUMBER OF RIGID LINKS. . . . . . . . . . . . . .        0

 NUMBER OF NEW BOUNDARY CONDITIONS. . . . . . . .        0

 23/11/2022
   CYCLE    TIME      TIME-STEP  ELEMENT          ERROR  I-ENERGY    K-ENERGY T  K-ENERGY R  EXT-WORK     MAS.ERR     TOTAL MASS  MASS ADDED
       0   0.000      0.7071E-03 SPRIN          1   0.0%   0.000       0.000       0.000       0.000       0.000       5.000       0.000    
     ANIMATION FILE: TYPE8MA001 WRITTEN
      10  0.7071E-02  0.7071E-03 SPRIN          1   0.0%   2.528       3.750      0.7500       7.028       0.000       5.000       0.000    
      20  0.1414E-01  0.7071E-03 SPRIN          1   0.0%   10.11       3.750      0.7500       14.61       0.000       5.000       0.000    
      30  0.2121E-01  0.7071E-03 SPRIN          1   0.0%   22.75       3.750      0.7500       27.25       0.000       5.000       0.000    
      40  0.2828E-01  0.7071E-03 SPRIN          1   0.0%   40.45       3.750      0.7500       44.95       0.000       5.000       0.000    
      50  0.3536E-01  0.7071E-03 SPRIN          1   0.0%   63.21       3.750      0.7500       67.71       0.000       5.000       0.000    
      60  0.4243E-01  0.7071E-03 SPRIN          1   0.0%   91.02       3.750      0.7500       95.52       0.000       5.000       0.000    
      70  0.4950E-01  0.7071E-03 SPRIN          1   0.0%   123.9       3.750      0.7500       128.4       0.000       5.000       0.000    
      80  0.5657E-01  0.7071E-03 SPRIN          1   0.0%   161.8       3.750      0.7500       166.3       0.000       5.000       0.000    
      90  0.6364E-01  0.7071E-03 SPRIN          1   0.0%   204.8       3.750      0.7500       209.3       0.000       5.000       0.000    
     100  0.7071E-01  0.7071E-03 SPRIN          1   0.0%   252.8       3.750      0.7500       257.3       0.000       5.000       0.000    
     110  0.7778E-01  0.7071E-03 SPRIN          1   0.0%   305.9       3.750      0.7500       310.4       0.000       5.000       0.000    
     120  0.8485E-01  0.7071E-03 SPRIN          1   0.0%   364.1       3.750      0.7500       368.6       0.000       5.000       0.000    
     130  0.9192E-01  0.7071E-03 SPRIN          1   0.0%   427.3       3.750      0.7500       431.8       0.000       5.000       0.000    
     140  0.9899E-01  0.7071E-03 SPRIN          1   0.0%   495.5       3.750      0.7500       500.0       0.000       5.000       0.000    
     150  0.1061      0.7071E-03 SPRIN          1   0.0%   568.9       3.750      0.7500       573.4       0.000       5.000       0.000    
     160  0.1131      0.7071E-03 SPRIN          1   0.0%   647.2       3.750      0.7500       651.7       0.000       5.000       0.000    
     170  0.1202      0.7071E-03 SPRIN          1   0.0%   730.7       3.750      0.7500       735.2       0.000       5.000       0.000    
     180  0.1273      0.7071E-03 SPRIN          1   0.0%   819.2       3.750      0.7500       823.7       0.000       5.000       0.000    
     190  0.1344      0.7071E-03 SPRIN          1   0.0%   912.7       3.750      0.7500       917.2       0.000       5.000       0.000    
     200  0.1414      0.7071E-03 SPRIN          1   0.0%   1011.       3.750      0.7500       1016.       0.000       5.000       0.000    
     210  0.1485      0.7071E-03 SPRIN          1   0.0%   1115.       3.750      0.7500       1119.       0.000       5.000       0.000    
     220  0.1556      0.7071E-03 SPRIN          1   0.0%   1224.       3.750      0.7500       1228.       0.000       5.000       0.000    
     230  0.1626      0.7071E-03 SPRIN          1   0.0%   1337.       3.750      0.7500       1342.       0.000       5.000       0.000    
     240  0.1697      0.7071E-03 SPRIN          1   0.0%   1456.       3.750      0.7500       1461.       0.000       5.000       0.000    
     250  0.1768      0.7071E-03 SPRIN          1   0.0%   1580.       3.750      0.7500       1585.       0.000       5.000       0.000    
     260  0.1838      0.7071E-03 SPRIN          1   0.0%   1709.       3.750      0.7500       1714.       0.000       5.000       0.000    
     270  0.1909      0.7071E-03 SPRIN          1   0.0%   1843.       3.750      0.7500       1848.       0.000       5.000       0.000    
     280  0.1980      0.7071E-03 SPRIN          1   0.0%   1982.       3.750      0.7500       1987.       0.000       5.000       0.000    
     290  0.2051      0.7071E-03 SPRIN          1   0.0%   2126.       3.750      0.7500       2131.       0.000       5.000       0.000    
     300  0.2121      0.7071E-03 SPRIN          1   0.0%   2275.       3.750      0.7500       2280.       0.000       5.000       0.000    
     310  0.2192      0.7071E-03 SPRIN          1   0.0%   2430.       3.750      0.7500       2434.       0.000       5.000       0.000    
     320  0.2263      0.7071E-03 SPRIN          1   0.0%   2589.       3.750      0.7500       2593.       0.000       5.000       0.000    
     330  0.2333      0.7071E-03 SPRIN          1   0.0%   2753.       3.750      0.7500       2758.       0.000       5.000       0.000    
     340  0.2404      0.7071E-03 SPRIN          1   0.0%   2923.       3.750      0.7500       2927.       0.000       5.000       0.000    
     350  0.2475      0.7071E-03 SPRIN          1   0.0%   3097.       3.750      0.7500       3102.       0.000       5.000       0.000    
     360  0.2546      0.7071E-03 SPRIN          1   0.0%   3277.       3.750      0.7500       3281.       0.000       5.000       0.000    
     370  0.2616      0.7071E-03 SPRIN          1   0.0%   3461.       3.750      0.7500       3466.       0.000       5.000       0.000    
     380  0.2687      0.7071E-03 SPRIN          1   0.0%   3651.       3.750      0.7500       3655.       0.000       5.000       0.000    
     390  0.2758      0.7071E-03 SPRIN          1   0.0%   3845.       3.750      0.7500       3850.       0.000       5.000       0.000    
     400  0.2828      0.7071E-03 SPRIN          1   0.0%   4045.       3.750      0.7500       4050.       0.000       5.000       0.000    
     410  0.2899      0.7071E-03 SPRIN          1   0.0%   4250.       3.750      0.7500       4254.       0.000       5.000       0.000    
     420  0.2970      0.7071E-03 SPRIN          1   0.0%   4460.       3.750      0.7500       4464.       0.000       5.000       0.000    
     430  0.3041      0.7071E-03 SPRIN          1   0.0%   4675.       3.750      0.7500       4679.       0.000       5.000       0.000    
     440  0.3111      0.7071E-03 SPRIN          1   0.0%   4895.       3.750      0.7500       4899.       0.000       5.000       0.000    
     450  0.3182      0.7071E-03 SPRIN          1   0.0%   5120.       3.750      0.7500       5124.       0.000       5.000       0.000    
     460  0.3253      0.7071E-03 SPRIN          1   0.0%   5350.       3.750      0.7500       5354.       0.000       5.000       0.000    
     470  0.3323      0.7071E-03 SPRIN          1   0.0%   5585.       3.750      0.7500       5589.       0.000       5.000       0.000    
     480  0.3394      0.7071E-03 SPRIN          1   0.0%   5825.       3.750      0.7500       5830.       0.000       5.000       0.000    
     490  0.3465      0.7071E-03 SPRIN          1   0.0%   6070.       3.750      0.7500       6075.       0.000       5.000       0.000    
     500  0.3536      0.7071E-03 SPRIN          1   0.0%   6321.       3.750      0.7500       6325.       0.000       5.000       0.000    
     510  0.3606      0.7071E-03 SPRIN          1   0.0%   6576.       3.750      0.7500       6580.       0.000       5.000       0.000    
     520  0.3677      0.7071E-03 SPRIN          1   0.0%   6836.       3.750      0.7500       6841.       0.000       5.000       0.000    
     530  0.3748      0.7071E-03 SPRIN          1   0.0%   7102.       3.750      0.7500       7106.       0.000       5.000       0.000    
     540  0.3818      0.7071E-03 SPRIN          1   0.0%   7372.       3.750      0.7500       7377.       0.000       5.000       0.000    
   CYCLE    TIME      TIME-STEP  ELEMENT          ERROR  I-ENERGY    K-ENERGY T  K-ENERGY R  EXT-WORK     MAS.ERR     TOTAL MASS  MASS ADDED
     550  0.3889      0.7071E-03 SPRIN          1   0.0%   7648.       3.750      0.7500       7652.       0.000       5.000       0.000    
     560  0.3960      0.7071E-03 SPRIN          1   0.0%   7929.       3.750      0.7500       7933.       0.000       5.000       0.000    
     570  0.4031      0.7071E-03 SPRIN          1   0.0%   8214.       3.750      0.7500       8219.       0.000       5.000       0.000    
 -- RUPTURE OF SPRING ELEMENT NUMBER          1
     580  0.4103      0.9412E-03 SPRIN          1   0.0%   8463.       3.750      0.7500       8467.       0.000       5.000       0.000    
     590  0.4253      0.2441E-02 SPRIN          1   0.0%   8463.       3.750      0.7500       8467.       0.000       5.000       0.000    
     600  0.4642      0.6332E-02 SPRIN          1   0.0%   8463.       3.750      0.7500       8467.       0.000       5.000       0.000    
     610  0.5652      0.1642E-01 SPRIN          1   0.0%   8463.       3.750      0.7500       8467.       0.000       5.000       0.000    
     620  0.8269      0.4260E-01 SPRIN          1   0.0%   8463.       3.750      0.7500       8467.       0.000       5.000       0.000    

     RESTART FILES: TYPE8M_0001_[0001-0004].rst WRITTEN
     -------------

     ANIMATION FILE: TYPE8MA002 WRITTEN
  
                           ** CPU USER TIME **
  
  
                        ** SUMMARY **
  
 #PROC  ELEMENT   KINCOND   INTEG     IO        T0        ASM       RESOL    
   1   .1274E-01 .1341E-01 .8746E-02 .4859E-01 .2525E-01 .4627E-02 .1695E+00
   2   .9608E-02 .1032E-01 .8765E-02 .4427E-01 .3523E-01 .4288E-02 .1778E+00
   3   .8800E-02 .9471E-02 .8125E-02 .4072E-01 .3541E-01 .4172E-02 .1661E+00
   4   .9064E-02 .9689E-02 .8330E-02 .4308E-01 .3808E-01 .4326E-02 .1738E+00
  
                 ** SPMD COM. TIME **
  
 #PROC  FORCES    RBYFOR    RBYVEL    VEL       TOT       %        
   1   .2701E-02 .0000E+00 .0000E+00 .3102E-02 .5803E-02 .3423E+01
   2   .2773E-02 .0000E+00 .0000E+00 .2945E-02 .5718E-02 .3216E+01
   3   .2598E-02 .0000E+00 .0000E+00 .2855E-02 .5453E-02 .3284E+01
   4   .2625E-02 .0000E+00 .0000E+00 .2926E-02 .5551E-02 .3194E+01
  
 
                   ** CUMULATIVE CPU TIME SUMMARY **
  
 CONTACT SORTING.............: .0000E+00     0.00 % 
 CONTACT FORCES..............: .3996E-02     0.58 % 
 ELEMENT FORCES..............: .4022E-01     5.85 % 
 KINEMATIC COND..............: .4289E-01     6.24 % 
 INTEGRATION.................: .3397E-01     4.94 % 
 ASSEMBLING..................: .1741E-01     2.53 % 
 OTHERS (including I/O)......: .5487E+00    79.85 % 
 TOTAL.......................: .6871E+00   100.00 % 
  
  
                           ** ELAPSED TIME **
  
  
                        ** SUMMARY **
  
 #PROC  ELEMENT   KINCOND   INTEG     IO        T0        ASM       RESOL    
   1   .7984E-02 .8313E-02 .5375E-02 .3160E-01 .1564E-01 .2863E-02 .1103E+00
   2   .5949E-02 .6311E-02 .5336E-02 .2766E-01 .2147E-01 .2653E-02 .1129E+00
   3   .5870E-02 .6389E-02 .5298E-02 .2701E-01 .2335E-01 .2766E-02 .1114E+00
   4   .5712E-02 .6055E-02 .5194E-02 .2728E-01 .2365E-01 .2668E-02 .1129E+00
  
        ELEMENT   KINCOND   INTEG     IO        T0        ASM       RESOL    
 MIN   .5712E-02 .6055E-02 .5194E-02 .2701E-01 .1564E-01 .2653E-02 .1103E+00
 MAX   .7984E-02 .8313E-02 .5375E-02 .3160E-01 .2365E-01 .2863E-02 .1129E+00
 AVG   .6379E-02 .6767E-02 .5301E-02 .2839E-01 .2103E-01 .2738E-02 .1119E+00
  
                 ** SPMD COM. TIME **
  
 #PROC  FORCES    RBYFOR    RBYVEL    VEL       TOT       %        
   1   .1653E-02 .0000E+00 .0000E+00 .1919E-02 .3572E-02 .3239E+01
   2   .1708E-02 .0000E+00 .0000E+00 .1796E-02 .3504E-02 .3103E+01
   3   .1735E-02 .0000E+00 .0000E+00 .1873E-02 .3607E-02 .3238E+01
   4   .1639E-02 .0000E+00 .0000E+00 .1820E-02 .3459E-02 .3064E+01
  
        FORCES    RBYFOR    RBYVEL    VEL       TOT       %        
 MIN   .1639E-02 .0000E+00 .0000E+00 .1796E-02 .3459E-02 .3064E+01
 MAX   .1735E-02 .0000E+00 .0000E+00 .1919E-02 .3607E-02 .3239E+01
 AVG   .1684E-02 .0000E+00 .0000E+00 .1852E-02 .3536E-02 .3161E+01
  
                   ** MEMORY USAGE STATISTICS **
  
 TOTAL MEMORY USED .........................:      228 MB
 MAXIMUM MEMORY PER PROCESSOR...............:       57 MB
 MINIMUM MEMORY PER PROCESSOR...............:       57 MB
 AVERAGE MEMORY PER PROCESSOR...............:       57 MB
  
                   ** DISK USAGE STATISTICS **
  
 TOTAL DISK SPACE USED .....................:          1 MB
 ANIMATION/H3D/TH/OUTP SIZE ................:          0 MB
 RESTART FILE SIZE .........................:          1 MB
  
                   ** COMPUTE TIME INFORMATION **
                        ** CURRENT ENGINE **
  
 EXECUTION STARTED .........................:      2022/11/23  16:22:50
 EXECUTION COMPLETED .......................:      2022/11/23  16:22:50
  
 ELAPSED TIME     =          0.20 s
                          0:00:00
 ESTIMATED SPEEDUP=          3.40



     NORMAL TERMINATION      



     TOTAL NUMBER OF CYCLES  :     625

  
                   ** COMPUTE RUNTIME INFORMATION SUMMARY **
  
        STARTER RUNTIME =          0.61s (00:00:00)
 # 001   ENGINE RUNTIME =          0.20s (00:00:00)
 ------------------------------ 
 STARTER+ENGINE RUNTIME =          0.81s (00:00:00)
  
